time zIndex S11 S22 S12 block gridPoints
f i f f f i l
 1.0000e-001 68152 -1.2754e+001  6.6024e+000 -1.0392e+001 67838 68074,68126,68100
 1.0000e-001 68550 -6.1255e+001  9.6512e+000 -1.6938e+000 67526 68276,68380,68302
 1.0000e-001 68527 -6.9902e+001  4.8056e+000 -3.6128e+000 67526 68276,68406,68380
 1.0000e-001 68504 -6.3614e+001  2.7394e+000 -9.4155e-002 67526 68328,68380,68354
 1.0000e-001 68481 -6.3292e+001  4.8985e+000 -1.6276e+000 67526 68302,68380,68328
 1.0000e-001 68458 -6.3269e+001  8.9922e+000 -1.9188e+001 67526 68276,68432,68406
 1.0000e-001 68651 -5.1077e+001 -2.2784e+001 -1.1579e+001 67328 68573,68625,68599
 1.0000e-001 68970 -9.2363e+001 -4.0878e+001 -3.4803e+000 67016 68722,68800,68774
 1.0000e-001 68947 -8.7963e+001 -3.2636e+001 -1.6463e+000 67016 68722,68826,68800
 1.0000e-001 68924 -8.7551e+001 -3.4611e+001 -1.4351e+000 67016 68696,68826,68722
 1.0000e-001 68901 -8.3466e+001 -3.2745e+001  7.6104e-001 67016 68722,68774,68748
 1.0000e-001 68878 -7.6017e+001 -3.7142e+001  1.2503e+001 67016 68696,68852,68826
 1.0000e-001 69291 -7.4797e+001  7.8273e+000 -4.1897e+000 66654 69069,69147,69095
 1.0000e-001 69268 -7.2157e+001  5.4813e+000 -3.2159e+000 66654 69069,69173,69147
 1.0000e-001 69245 -5.5393e+001 -8.3219e+000 -2.1663e+001 66654 69043,69173,69069
 1.0000e-001 69222 -7.4352e+001  1.1809e+001 -2.6840e+000 66654 69095,69147,69121
 1.0000e-001 69199 -3.7219e+001 -4.3177e+000  6.1856e+000 66654 69017,69173,69043
 1.0000e-001 69695 -8.9078e+001 -2.3709e+001 -1.4340e+000 66456 69447,69577,69551
 1.0000e-001 69672 -1.0680e+002 -2.9344e+001 -4.6341e-002 66456 69421,69577,69447
 1.0000e-001 69649 -1.0694e+002 -5.1377e+001  1.2216e+001 66456 69473,69551,69525
 1.0000e-001 69626 -9.0030e+001 -2.3818e+001  1.2848e+000 66456 69447,69551,69473
 1.0000e-001 69603 -1.1453e+002 -5.4274e+001  2.7445e+001 66456 69473,69525,69499
 1.0000e-001 70024 -6.8292e+001  6.1117e+000  6.3385e+000 66258 70047,69851,69825
 1.0000e-001 70001 -7.4480e+001 -9.5064e+000  6.0248e+000 66258 70047,69825,69903
 1.0000e-001 69978 -5.5326e+001 -2.5177e+000  1.6030e-001 66258 69799,69903,69825
 1.0000e-001 69955 -6.5817e+001  6.1931e-001 -6.3482e+000 66258 69799,69929,69903
 1.0000e-001 70073 -6.5230e+001 -2.5807e-001  2.1364e+001 66258 69877,69851,70047
 1.0000e-001 70096 -7.3249e+001 -2.0848e+001  2.1456e+001 66258 69877,70047,69903
 1.0000e-001 70602 -1.3710e+002 -5.2129e+001  1.8183e+001 66060 70305,70435,70331
 1.0000e-001 70579 -8.4446e+001 -1.4895e+001 -1.8018e+000 66060 70279,70435,70305
 1.0000e-001 70556 -1.0071e+002 -4.3493e+001  2.4165e+001 66060 70331,70435,70409
 1.0000e-001 70533 -9.6625e+001 -3.9414e+001 -7.5839e+000 66060 70279,70461,70435
 1.0000e-001 70510 -9.8167e+001 -4.8322e+001  2.2518e+001 66060 70331,70409,70357
 1.0000e-001 70487 -7.5051e+001 -5.0906e+001  4.8069e+001 66060 70357,70409,70383
 1.0000e-001 70703 -3.3996e+001  2.0761e+001  6.5737e+000 65862 70625,70677,70651
 1.0000e-001 71083 -2.0250e+001  9.7228e+000 -2.8690e-001 65664 70887,70965,70939
 1.0000e-001 71060 -4.7953e+001 -1.6041e-001  8.3242e+000 65664 70861,70965,70887
 1.0000e-001 71037 -4.6922e+001  2.6854e+001  2.0202e+000 65664 70809,70965,70861
 1.0000e-001 71014 -5.3681e+001  4.9942e+001  2.3158e+001 65664 70809,70861,70835
 1.0000e-001 70991 -2.1889e+001 -2.4531e-001 -6.1692e+000 65664 70887,70939,70913
 1.0000e-001 71611 -6.6965e+001 -6.6656e+000  2.1141e+000 65260 71288,71444,71314
 1.0000e-001 71588 -7.0729e+001 -7.3183e+000  2.2045e+000 65260 71288,71470,71444
 1.0000e-001 71565 -1.1164e+002 -3.9713e+001 -1.4625e+001 65260 71314,71418,71392
 1.0000e-001 71542 -6.7872e+001 -9.5184e+000  1.6779e+000 65260 71314,71444,71418
 1.0000e-001 71519 -9.4568e+001 -4.0443e+001 -2.5283e+001 65260 71314,71392,71340
 1.0000e-001 71496 -7.3777e+001  7.2287e+000 -2.1704e+001 65260 71340,71392,71366
 1.0000e-001 72060 -6.8062e+001 -3.2068e+001  2.1906e+000 64870 71737,71893,71789
 1.0000e-001 72037 -8.9141e+001 -4.0619e+001  3.9988e+000 64870 71737,71919,71893
 1.0000e-001 72014 -6.3700e+001 -3.5777e+001 -6.7271e+000 64870 71789,71841,71815
 1.0000e-001 71991 -7.2670e+001 -3.1049e+001 -1.4275e+000 64870 71789,71893,71841
 1.0000e-001 71968 -6.9454e+001 -1.6313e+001  1.1872e+001 64870 71737,71789,71763
 1.0000e-001 71945 -8.2984e+001 -2.9565e+001  0.0000e+000 64870 71841,71893,71867
 1.0000e-001 72517 -7.6820e+001 -3.4832e+001  6.4812e+000 64466 72321,72399,72347
 1.0000e-001 72494 -8.1539e+001 -4.5168e+001  3.3511e+000 64466 72269,72399,72321
 1.0000e-001 72471 -7.1828e+001 -1.8224e+001 -2.2811e+000 64466 72347,72399,72373
 1.0000e-001 72448 -7.3937e+001 -3.5296e+001  1.7481e+001 64466 72243,72399,72269
 1.0000e-001 72425 -5.5206e+001  1.1632e+001 -3.5217e+000 64466 72269,72321,72295
 1.0000e-001 72944 -8.0705e+001 -3.5418e+001 -2.4232e+000 64062 73111,73039,72699
 1.0000e-001 72921 -8.0360e+001 -3.2032e+001  9.8388e-001 64062 73183,72967,72647
 1.0000e-001 72898 -8.2088e+001 -3.3412e+001 -2.3255e+000 64062 72967,72803,72751
 1.0000e-001 72875 -7.9863e+001 -3.5068e+001 -2.0094e+000 64062 73111,72699,72673
 1.0000e-001 72852 -8.2951e+001 -2.7786e+001 -9.2427e-001 64062 73183,72647,72621
 1.0000e-001 72829 -8.2743e+001 -4.0451e+001  4.6552e+000 64062 72751,72803,72777
 1.0000e-001 72993 -8.2231e+001 -3.5423e+001 -8.1583e-001 64062 73039,72647,72967
 1.0000e-001 73016 -7.8467e+001 -3.0290e+001 -6.5372e-001 64062 72725,72967,72751
 1.0000e-001 73065 -8.6123e+001 -2.7502e+001 -1.4650e+001 64062 72725,72699,73039
 1.0000e-001 73088 -8.0104e+001 -3.0143e+001 -6.3184e-001 64062 72725,73039,72967
 1.0000e-001 73137 -7.9528e+001 -3.4430e+001 -1.9966e+000 64062 72647,73039,73111
 1.0000e-001 73160 -7.9084e+001 -3.4362e+001 -1.7121e+000 64062 72647,73111,72673
 1.0000e-001 73209 -8.0442e+001 -2.7766e+001 -2.2024e+000 64062 72803,72967,73183
 1.0000e-001 73232 -7.9968e+001 -1.8439e+001 -3.6964e+000 64062 72803,73183,72621
 1.0000e-001 73333 -4.2666e+001  2.1078e+001 -9.6519e+000 63814 73356,73281,73255
 1.0000e-001 73382 -4.7110e+001 -2.1781e+001 -6.0876e+000 63814 73486,73356,73307
 1.0000e-001 73512 -3.4096e+001 -1.6161e+001  5.8691e+000 63814 73281,73356,73486
 1.0000e-001 73839 -8.8369e+001 -1.1778e+001 -5.1044e+000 63616 73862,73692,73666
 1.0000e-001 73816 -7.4776e+001 -1.3461e+001 -5.3511e+000 63616 73934,73862,73666
 1.0000e-001 73793 -6.5915e+001 -7.3055e+000  6.8296e-001 63616 73934,73666,73640
 1.0000e-001 73770 -7.7540e+001 -1.1718e+001 -5.9271e+000 63616 73614,73744,73640
 1.0000e-001 73888 -1.0173e+002 -1.5261e+001 -7.8232e-001 63616 73718,73692,73862
 1.0000e-001 73911 -8.8094e+001 -1.5862e+001 -9.4264e+000 63616 73718,73862,73744
 1.0000e-001 73960 -8.5432e+001 -1.0995e+001 -1.0793e+001 63616 73744,73862,73934
 1.0000e-001 73983 -8.0784e+001 -1.1700e+001 -6.4674e+000 63616 73744,73934,73640
 1.0000e-001 74363 -7.9950e+001 -3.5259e+001  6.3751e-001 63390 74386,74115,74089
 1.0000e-001 74340 -7.4941e+001 -3.7329e+001  5.0742e-001 63390 74458,74386,74089
 1.0000e-001 74317 -7.8344e+001 -3.4923e+001 -7.5479e+000 63390 74458,74089,74245
 1.0000e-001 74294 -7.3623e+001 -3.6053e+001  2.4430e+000 63390 74530,74167,74141
 1.0000e-001 74271 -7.5322e+001 -3.8009e+001  9.6252e+000 63390 74167,74219,74193
 1.0000e-001 74412 -7.8188e+001 -3.2201e+001  2.8759e+000 63390 74141,74115,74386
 1.0000e-001 74435 -7.7574e+001 -3.7023e+001 -1.5474e-001 63390 74530,74141,74386
 1.0000e-001 74484 -8.1482e+001 -4.8893e+001 -3.5702e+000 63390 74219,74386,74458
 1.0000e-001 74507 -8.8070e+001 -4.9588e+001 -1.2430e+001 63390 74219,74458,74245
 1.0000e-001 74556 -6.8227e+001 -3.6895e+001  4.5836e+000 63390 74219,74167,74530
 1.0000e-001 74579 -7.1658e+001 -3.8063e+001  1.6883e+000 63390 74219,74530,74386
 1.0000e-001 74680 -6.8360e+001 -9.7833e+000 -2.6773e+000 63100 75089,74833,74703
 1.0000e-001 74729 -3.9109e+001  4.2056e+001 -2.8834e+000 63100 74961,74703,74654
 1.0000e-001 74859 -6.8296e+001 -1.8686e+001 -6.3406e+000 63100 74602,74703,74833
 1.0000e-001 74987 -6.3193e+001 -1.2445e+001  1.2698e+000 63100 75089,74703,74961
 1.0000e-001 75115 -7.8843e+001 -1.2085e+001 -2.6621e+000 63100 74628,74833,75089
 1.0000e-001 75138 -7.3663e+001 -1.4739e+001  1.2872e+000 63100 74628,75089,74961
 1.0000e-001 75723 -5.7964e+001 -1.8351e+001  6.9349e+000 62532 75746,75504,75426
 1.0000e-001 75700 -6.4975e+001 -2.8990e+001  9.9632e+000 62532 75746,75426,75556
 1.0000e-001 75677 -5.7951e+001 -9.0776e+000 -1.3540e-001 62532 75426,75504,75452
 1.0000e-001 75654 -8.9997e+001 -4.8405e+001  2.2009e+001 62532 75400,75556,75426
 1.0000e-001 75631 -8.2655e+001 -4.5099e+001  5.2157e+000 62532 75400,75582,75556
 1.0000e-001 75608 -3.9555e+001  1.4946e+000 -5.5235e+000 62532 75452,75504,75478
 1.0000e-001 75772 -6.8697e+001 -1.2765e+000  1.0622e+001 62532 75530,75504,75746
 1.0000e-001 75795 -7.9720e+001 -1.6535e+001  1.5444e+001 62532 75530,75746,75556
 1.0000e-001 76301 -6.1872e+001 -2.3975e+001  4.9808e+000 62192 76324,76082,76030
 1.0000e-001 76278 -7.1318e+001 -2.4289e+001  4.5593e+000 62192 76324,76030,76004
 1.0000e-001 76255 -5.3335e+001 -2.0309e+001  4.6227e+000 62192 76030,76082,76056
 1.0000e-001 76232 -4.7338e+001 -8.5762e+000  4.9221e+000 62192 76082,76134,76108
 1.0000e-001 76209 -8.0257e+001 -3.2638e+001  3.6937e+000 62192 76004,76160,76134
 1.0000e-001 76186 -7.0545e+001 -3.2760e+001  7.3583e+000 62192 75978,76160,76004
 1.0000e-001 76350 -5.4734e+001 -2.6907e+001  4.0232e+000 62192 76134,76082,76324
 1.0000e-001 76373 -6.1637e+001 -2.5144e+001  2.1866e+000 62192 76134,76324,76004
 1.0000e-001 76879 -3.2684e+001 -9.3068e+000 -1.0073e+000 61788 76902,76660,76582
 1.0000e-001 76856 -2.6708e+001 -6.7269e+000 -5.8165e-002 61788 76902,76582,76556
 1.0000e-001 76833 -6.6482e+001 -1.9128e+001 -6.4274e+000 61788 76582,76660,76634
 1.0000e-001 76810 -4.7443e+001 -2.4705e+001 -6.8966e+000 61788 76582,76634,76608
 1.0000e-001 76787 -2.8583e+001  8.9870e-002 -7.1746e+000 61788 76556,76738,76686
 1.0000e-001 76764 -5.2580e+001 -2.0005e+001  1.5533e+000 61788 76686,76738,76712
 1.0000e-001 76928 -3.8081e+001 -6.2554e+000 -7.5558e-001 61788 76686,76660,76902
 1.0000e-001 76951 -3.2884e+001 -4.0224e+000  3.7665e-001 61788 76686,76902,76556
 1.0000e-001 77408 -7.0076e+001 -1.9715e+001  1.1502e+001 61498 77212,77264,77238
 1.0000e-001 77385 -8.0829e+001 -3.4437e+001  3.6825e-001 61498 77160,77264,77212
 1.0000e-001 77362 -6.9747e+001 -2.8311e+001  2.8512e+000 61498 77160,77290,77264
 1.0000e-001 77339 -7.9536e+001 -2.2344e+001 -3.1746e+000 61498 77160,77212,77186
 1.0000e-001 77316 -4.7560e+001  1.9064e+001  9.6967e+000 61498 77134,77290,77160
 1.0000e-001 77678 -1.3684e+002  1.9968e+001  3.1638e+000 61129 77479,77557,77505
 1.0000e-001 77655 -1.3900e+002 -1.6845e+001  2.4035e+000 61129 77479,77583,77557
 1.0000e-001 77632 -1.2573e+002 -4.8224e+001  1.1423e+001 61129 77453,77583,77479
 1.0000e-001 77609 -1.1911e+002  5.1850e+001  3.2324e+001 61129 77505,77557,77531
 1.0000e-001 77828 -2.0447e+000 -1.3666e+000  1.7842e+000 60931 77851,77727,77701
 1.0000e-001 77805 -9.2761e+000 -8.1294e+000  4.8517e+000 60931 77851,77701,77779
 1.0000e-001 77877 -9.1653e+000  7.2308e+000 -9.7768e-001 60931 77923,77851,77753
 1.0000e-001 77900 -1.9497e+001  2.0658e+000  3.4166e+000 60931 77753,77851,77779
 1.0000e-001 77949 -1.1947e+001  2.0577e+000  3.7121e-001 60931 77727,77851,77923
 1.0000e-001 78133 -9.5399e+001 -5.9493e+001  2.9687e+000 60377 78055,78107,78081
 1.0000e-001 78535 -4.5822e+001 -1.5186e+001  5.2437e-001 60015 78287,78391,78313
 1.0000e-001 78512 -7.0502e+001 -1.8470e+001  4.8391e+000 60015 78287,78417,78391
 1.0000e-001 78489 -6.0727e+001 -1.0064e+001  1.0622e+001 60015 78261,78417,78287
 1.0000e-001 78466 -8.1128e+001 -3.1721e+001 -2.8755e-001 60015 78339,78391,78365
 1.0000e-001 78443 -8.4308e+001 -3.2784e+001 -3.7993e+000 60015 78313,78391,78339
 1.0000e-001 78913 -6.7358e+001 -3.5651e+001  5.1617e+000 59725 78936,78743,78691
 1.0000e-001 78890 -5.9262e+001 -1.7809e+001  9.5344e+000 59725 79008,78936,78691
 1.0000e-001 78867 -5.4575e+001 -1.0372e+001  1.4406e+001 59725 79008,78691,78665
 1.0000e-001 78844 -7.0352e+001 -3.4613e+001  1.4133e+000 59725 78691,78743,78717
 1.0000e-001 78821 -7.3522e+001 -4.5203e+001  1.7719e+001 59725 78639,78795,78769
 1.0000e-001 78962 -6.5348e+001 -2.1226e+001  5.6192e+000 59725 78769,78743,78936
 1.0000e-001 78985 -6.9161e+001 -2.2695e+001  4.7599e+000 59725 78769,78936,78639
 1.0000e-001 79034 -6.7534e+001 -1.9810e+001  3.1525e+000 59725 78639,78936,79008
 1.0000e-001 79057 -6.1197e+001 -1.7123e+001  7.3318e+000 59725 78639,79008,78665
 1.0000e-001 79386 -7.1440e+001 -2.4400e+001 -5.0329e-001 59221 79187,79239,79213
 1.0000e-001 79363 -7.6647e+001 -3.1519e+001  2.4028e+000 59221 79187,79265,79239
 1.0000e-001 79340 -6.3378e+001 -2.7252e+001  8.9848e-001 59221 79187,79291,79265
 1.0000e-001 79317 -6.9461e+001 -4.0397e+001  6.2674e+000 59221 79161,79291,79187
 1.0000e-001 79813 -8.3888e+001 -1.4940e+001  7.5491e+000 58831 79836,79542,79516
 1.0000e-001 79790 -7.7185e+001 -9.1986e+000  3.7973e+000 58831 79980,79836,79516
 1.0000e-001 79767 -5.3645e+001 -1.9276e+001 -1.8845e+000 58831 79908,79646,79568
 1.0000e-001 79744 -9.7603e+001 -1.0638e+001  6.6063e+000 58831 79980,79516,79490
 1.0000e-001 79721 -4.0527e+001 -1.9682e+001 -3.9659e+000 58831 79568,79646,79594
 1.0000e-001 79698 -3.8568e+001 -1.1495e+001 -3.3233e+000 58831 79594,79646,79620
 1.0000e-001 79862 -6.6414e+001 -2.1605e+001  4.0168e+000 58831 79568,79542,79836
 1.0000e-001 79885 -5.4250e+001 -1.8359e+001 -2.7691e+000 58831 79908,79568,79836
 1.0000e-001 79934 -5.3416e+001 -1.8802e+001 -2.5647e+000 58831 79672,79646,79908
 1.0000e-001 79957 -5.3013e+001 -1.7530e+001 -3.6103e+000 58831 79672,79908,79836
 1.0000e-001 80006 -6.7134e+001 -7.7108e+000 -4.6957e+000 58831 79672,79836,79980
 1.0000e-001 80029 -7.7367e+001 -6.7245e+000  1.3721e+000 58831 79672,79980,79490
 1.0000e-001 80358 -7.2334e+001 -2.4483e+001  4.0037e+000 58377 80381,80185,80159
 1.0000e-001 80335 -7.9976e+001 -2.4456e+001  4.1012e+000 58377 80381,80159,80133
 1.0000e-001 80312 -8.0771e+001 -2.7629e+001 -1.3673e+000 58377 80133,80263,80237
 1.0000e-001 80289 -5.8099e+001 -2.0801e+001  2.5243e+000 58377 80185,80237,80211
 1.0000e-001 80407 -6.0055e+001 -2.5141e+001  1.8385e+000 58377 80237,80185,80381
 1.0000e-001 80430 -7.3087e+001 -2.8829e+001  1.5221e+000 58377 80237,80381,80133
 1.0000e-001 80759 -7.0540e+001 -3.1855e+001 -5.4406e+000 57873 80782,80586,80560
 1.0000e-001 80736 -6.7926e+001 -2.4748e+001 -2.7835e+000 57873 80782,80560,80534
 1.0000e-001 80713 -6.6216e+001 -1.9715e+001 -3.2211e+000 57873 80586,80638,80612
 1.0000e-001 80690 -8.3137e+001 -2.5842e+001 -4.5757e+000 57873 80534,80664,80638
 1.0000e-001 80808 -6.7553e+001 -2.5308e+001 -4.1828e+000 57873 80638,80586,80782
 1.0000e-001 80831 -6.8673e+001 -2.3088e+001 -2.1699e+000 57873 80638,80782,80534
 1.0000e-001 81337 -4.9620e+000 -1.7091e+000  2.8851e+000 57262 81360,81144,81092
 1.0000e-001 81314 -3.8718e+000 -1.7270e-001  1.0323e+000 57262 81360,81092,81066
 1.0000e-001 81291 -7.4058e-001 -1.8216e+000  3.4563e-001 57262 81014,81196,81066
 1.0000e-001 81268  7.6941e+000  7.2086e+000  8.6145e+000 57262 81092,81144,81118
 1.0000e-001 81245 -4.8777e+000 -1.0064e+001  5.0051e+000 57262 81144,81196,81170
 1.0000e-001 81222 -6.5632e-002 -3.6514e-001  1.3320e+000 57262 81014,81066,81040
 1.0000e-001 81386 -2.5598e+000 -2.6091e+000  1.7633e+000 57262 81196,81144,81360
 1.0000e-001 81409 -2.1231e+000 -1.2856e+000 -1.3794e-001 57262 81196,81360,81066
 1.0000e-001 81608 -1.4012e+002 -4.5522e+001 -1.7175e+001 57007 81458,81536,81510
 1.0000e-001 81585 -1.3358e+002 -3.3801e+001 -1.4611e+001 57007 81432,81536,81458
 1.0000e-001 81562 -1.0445e+002 -5.7434e+001 -3.7478e+001 57007 81458,81510,81484
 1.0000e-001 82086 -5.3329e+001 -3.6496e+001  4.9838e-001 56339 81792,81922,81818
 1.0000e-001 82063 -4.5898e+001 -5.4738e+001 -1.2113e+001 56339 81714,81922,81792
 1.0000e-001 82040 -6.6638e+001 -5.2935e+001  5.3710e+000 56339 82109,81844,81818
 1.0000e-001 82017 -6.0390e+001 -5.2113e+001  7.0439e+000 56339 82109,81818,81922
 1.0000e-001 81994 -6.4129e+001 -3.2377e+001 -2.5286e+000 56339 81844,81896,81870
 1.0000e-001 81971 -3.2395e+001 -2.2101e+001 -1.4847e+001 56339 81714,81792,81766
 1.0000e-001 81948 -7.2092e+001 -2.8425e+001 -2.9914e+001 56339 81714,81766,81740
 1.0000e-001 82135 -7.6465e+001 -5.1014e+001  3.8740e+000 56339 81896,81844,82109
 1.0000e-001 82158 -6.7021e+001 -4.6824e+001  6.9239e+000 56339 81896,82109,81922
 1.0000e-001 82536 -7.1370e+001 -3.6925e+001  1.3608e+000 55699 82288,82392,82314
 1.0000e-001 82513 -8.1883e+001 -4.2122e+001 -1.7748e+000 55699 82288,82418,82392
 1.0000e-001 82490 -6.6676e+001 -3.5104e+001  3.3736e+000 55699 82314,82392,82340
 1.0000e-001 82467 -6.6071e+001 -3.3512e+001  3.0664e+000 55699 82340,82392,82366
 1.0000e-001 82444 -7.4185e+001 -2.2448e+000  9.5041e+000 55699 82262,82418,82288
 1.0000e-001 83091 -2.5018e+001 -1.1345e+001  7.8553e-001 55409 82745,82901,82875
 1.0000e-001 83068 -2.7772e+001 -2.4355e+001 -1.2818e+000 55409 82719,82901,82745
 1.0000e-001 83045 -2.4982e+001 -1.1185e+000  2.5528e+000 55409 82771,82849,82823
 1.0000e-001 83022 -1.8686e+001  4.5163e+000  1.0054e+001 55409 82745,82849,82771
 1.0000e-001 82999 -1.0061e+001 -5.5074e+000  1.0591e+001 55409 82745,82875,82849
 1.0000e-001 82976 -1.6391e+001 -8.0300e+000  2.5706e+000 55409 82771,82823,82797
 1.0000e-001 82953 -2.8350e+001 -1.7297e+001 -3.7968e+000 55409 82719,82927,82901
 1.0000e-001 83388 -6.4597e+001 -2.5383e+001  3.5029e-002 54905 83411,83218,83166
 1.0000e-001 83365 -6.5700e+001 -2.2224e+001  1.9719e+000 54905 83411,83166,83114
 1.0000e-001 83342 -5.1115e+001 -1.6053e+001  9.1742e+000 54905 83483,83270,83244
 1.0000e-001 83319 -5.6159e+001 -2.0891e+001 -1.7024e+000 54905 83166,83218,83192
 1.0000e-001 83296 -6.5367e+001 -2.3080e+001  3.6024e+000 54905 83114,83166,83140
 1.0000e-001 83437 -6.5556e+001 -2.0895e+001  2.1744e+000 54905 83244,83218,83411
 1.0000e-001 83460 -6.0314e+001 -1.6419e+001  5.5230e+000 54905 83483,83244,83411
 1.0000e-001 83509 -6.3583e+001 -2.4729e+001  5.0573e+000 54905 83114,83270,83483
 1.0000e-001 83532 -6.6230e+001 -2.1313e+001  2.0499e+000 54905 83114,83483,83411
 1.0000e-001 83961 -4.7471e+001  1.0600e+000 -6.6660e+000 54593 83638,83768,83690
 1.0000e-001 83938 -5.2309e+000  1.1284e+001 -4.2174e+000 54593 83638,83794,83768
 1.0000e-001 83915 -2.1452e+001  1.7562e+001  4.2211e-001 54593 83690,83768,83742
 1.0000e-001 83892 -2.7967e+001  1.4857e+001 -1.9039e+001 54593 83638,83820,83794
 1.0000e-001 83869 -8.0889e+000  1.1300e+002 -1.0792e+001 54593 83638,83690,83664
 1.0000e-001 83846 -1.1804e+000  3.1521e+000  2.1455e+001 54593 83690,83742,83716
 1.0000e-001 84209 -4.9060e+001 -1.9493e+001 -1.5986e+000 54132 84232,84062,83984
 1.0000e-001 84186 -5.4503e+001 -2.5967e+001  8.3250e-001 54132 84232,83984,84114
 1.0000e-001 84163 -4.7869e+001 -1.6351e+001 -2.9334e+000 54132 83984,84062,84036
 1.0000e-001 84140 -4.7374e+001 -3.2637e+001 -1.2889e+000 54132 83984,84036,84010
 1.0000e-001 84258 -5.7636e+001 -1.0002e+001 -3.6456e-001 54132 84088,84062,84232
 1.0000e-001 84281 -6.6116e+001 -1.8561e+001  3.3082e+000 54132 84088,84232,84114
 1.0000e-001 84382 -1.0432e+002  4.9158e+000  1.6322e+000 53521 84304,84356,84330
 1.0000e-001 84632 -5.9528e+001 -2.3580e+001  2.6382e+000 53067 84655,84485,84459
 1.0000e-001 84609 -5.7827e+001 -2.9008e+001  2.3483e+000 53067 84655,84459,84407
 1.0000e-001 84586 -5.9731e+001 -2.0421e+001  9.4793e+000 53067 84485,84537,84511
 1.0000e-001 84563 -5.5973e+001 -3.2078e+001 -1.1964e+001 53067 84407,84459,84433
 1.0000e-001 84681 -5.8386e+001 -2.8653e+001  3.9066e+000 53067 84537,84485,84655
 1.0000e-001 84704 -5.8678e+001 -3.5762e+001  4.8422e+000 53067 84537,84655,84407
 1.0000e-001 85214 -4.9301e+001  1.5429e+001  7.8733e+000 52513 85021,85073,85047
 1.0000e-001 85191 -3.8301e+001  4.0152e+000  7.9193e+000 52513 84943,85073,85021
 1.0000e-001 85168 -8.2283e+001 -1.6949e+001 -1.7750e+000 52513 84943,85021,84995
 1.0000e-001 85145 -4.6903e+001 -1.2016e+001  2.9880e+000 52513 84917,85073,84943
 1.0000e-001 85122 -6.0686e+001  4.0170e+000 -1.0407e+001 52513 84943,84995,84969
 1.0000e-001 85099 -1.4956e+001 -1.9224e+001 -2.5834e-001 52513 84891,85073,84917
 1.0000e-001 85582 -6.1812e+001 -2.0506e+001 -3.0618e+000 52037 85605,85311,85285
 1.0000e-001 85559 -6.2012e+001 -2.3165e+001 -3.7340e+000 52037 85749,85605,85285
 1.0000e-001 85536 -6.0763e+001 -2.1763e+001 -9.6040e-001 52037 85893,85677,85389
 1.0000e-001 85513 -5.9770e+001 -2.5593e+001 -2.4129e+000 52037 85749,85285,85259
 1.0000e-001 85490 -6.1111e+001 -2.2033e+001 -1.8610e+000 52037 85893,85389,85363
 1.0000e-001 85467 -5.3550e+001 -1.4338e+001 -2.0292e+000 52037 85259,85441,85415
 1.0000e-001 85631 -6.0009e+001 -1.7309e+001  4.0751e-002 52037 85337,85311,85605
 1.0000e-001 85654 -6.2377e+001 -2.1938e+001 -7.8445e-001 52037 85677,85337,85605
 1.0000e-001 85703 -5.9639e+001 -2.1758e+001 -9.3289e-001 52037 85415,85389,85677
 1.0000e-001 85726 -6.0570e+001 -2.0321e+001 -1.4690e+000 52037 85821,85677,85605
 1.0000e-001 85775 -5.9948e+001 -2.0602e+001 -2.8242e+000 52037 85821,85605,85749
 1.0000e-001 85798 -5.7359e+001 -2.3074e+001 -1.3351e+000 52037 85415,85749,85259
 1.0000e-001 85847 -6.1262e+001 -2.2052e+001 -1.1962e+000 52037 85415,85677,85821
 1.0000e-001 85870 -6.0894e+001 -2.2476e+001 -2.4409e+000 52037 85415,85821,85749
 1.0000e-001 85919 -6.1474e+001 -2.3216e+001 -1.3458e+000 52037 85337,85677,85893
 1.0000e-001 85942 -6.1701e+001 -2.3558e+001 -2.1818e+000 52037 85337,85893,85363
 1.0000e-001 86224 -3.6437e+001  2.6505e+001  1.2890e+001 51368 86375,86100,86074
 1.0000e-001 86201 -1.7091e+001  2.3475e+001 -1.3332e+000 51368 86375,86074,86247
 1.0000e-001 86178 -3.0184e+001 -9.2215e+000 -6.8334e-001 51368 86048,86152,86126
 1.0000e-001 86273 -5.0789e+001 -8.5261e+000  5.5910e+000 51368 86048,86126,86247
 1.0000e-001 86401 -4.4367e+001  1.4581e+001  1.6452e+001 51368 86126,86100,86375
 1.0000e-001 86424 -3.4642e+001 -1.9765e+000  6.3129e+000 51368 86126,86375,86247
 1.0000e-001 86802 -6.1786e+001 -2.9993e+001  3.9995e+000 51028 86528,86632,86580
 1.0000e-001 86779 -4.9729e+001 -1.5479e+001 -1.3318e+000 51028 86528,86684,86632
 1.0000e-001 86756 -5.7319e+001 -1.8261e+001 -6.7692e-001 51028 86528,86580,86554
 1.0000e-001 86733 -5.7206e+001 -2.7728e+001 -4.8821e+000 51028 86632,86684,86658
 1.0000e-001 86710 -6.7967e+001 -2.0640e+001  1.5329e+001 51028 86580,86632,86606
 1.0000e-001 87131 -6.1372e+001 -2.3566e+001  5.7587e+000 50624 86958,87036,87010
 1.0000e-001 87108 -6.3857e+001 -1.9816e+001  5.4015e+000 50624 86932,87036,86958
 1.0000e-001 87085 -5.3794e+001 -2.1158e+001  1.0521e+001 50624 86958,87010,86984
 1.0000e-001 87062 -5.3497e+001 -2.0290e+001 -2.3842e+000 50624 86906,87036,86932
 1.0000e-001 87330 -5.0059e+001 -3.1728e+000 -1.1873e+000 50234 87353,87180,87154
 1.0000e-001 87307 -5.4676e+001  3.4345e+000 -4.7411e+000 50234 87353,87154,87258
 1.0000e-001 87284 -6.1093e+001 -1.8877e+001  4.5028e-001 50234 87206,87258,87232
 1.0000e-001 87379 -5.2258e+001 -1.3548e+001 -1.4749e+000 50234 87206,87180,87353
 1.0000e-001 87402 -5.4050e+001 -3.3533e+000 -5.3811e+000 50234 87206,87353,87258
 1.0000e-001 87650 -5.8139e+001 -1.3379e+001  3.8935e+000 49730 87673,87503,87451
 1.0000e-001 87627 -5.9477e+001 -1.4244e+001  1.1518e+000 49730 87673,87451,87425
 1.0000e-001 87604 -6.0126e+001 -2.1997e+001  2.6026e+000 49730 87503,87555,87529
 1.0000e-001 87581 -5.3147e+001 -1.6153e+001  3.3421e+000 49730 87451,87503,87477
 1.0000e-001 87699 -5.8202e+001 -1.5720e+001  2.8382e+000 49730 87555,87503,87673
 1.0000e-001 87722 -5.8314e+001 -1.8101e+001  1.4470e+000 49730 87555,87673,87425
 1.0000e-001 88232 -5.5950e+001 -1.8099e+001  2.9729e+000 49176 88255,87935,87909
 1.0000e-001 88209 -4.8655e+001 -1.0336e+001 -4.0787e+000 49176 88255,87909,88065
 1.0000e-001 88186 -5.8382e+001 -2.3424e+001 -8.4757e-001 49176 87935,88039,87961
 1.0000e-001 88163 -6.3379e+001 -1.7492e+001 -9.6633e-001 49176 87909,88091,88065
 1.0000e-001 88140 -7.1320e+001 -2.8199e+001  4.7538e+000 49176 87961,88039,88013
 1.0000e-001 88117 -6.7913e+001 -2.1317e+001  3.6430e+000 49176 87961,88013,87987
 1.0000e-001 88281 -4.8546e+001 -1.5325e+001 -4.3549e+000 49176 88039,87935,88255
 1.0000e-001 88304 -4.1597e+001 -8.3256e+000 -1.1298e+001 49176 88039,88255,88065
 1.0000e-001 88503 -6.3783e+001 -3.1493e+001 -2.1505e+000 48772 88526,88379,88353
 1.0000e-001 88480 -5.9766e+001 -3.4224e+001 -2.2439e+000 48772 88526,88353,88327
 1.0000e-001 88457 -5.7993e+001 -1.7342e+001  1.8351e+000 48772 88379,88431,88405
 1.0000e-001 88552 -6.5970e+001 -3.3261e+001 -1.2426e+000 48772 88431,88379,88526
 1.0000e-001 88575 -6.2625e+001 -3.5951e+001 -1.5063e+000 48772 88431,88526,88327
 1.0000e-001 89083  8.0084e+000  1.0816e+000 -3.5073e+000 48368 88786,88916,88864
 1.0000e-001 89060  1.5178e-002 -4.2587e+000 -1.0755e+000 48368 88786,88942,88916
 1.0000e-001 89037 -6.2030e-001  7.5572e-001  5.5062e+000 48368 88786,88864,88812
 1.0000e-001 89014 -3.1019e+000  1.7548e+000 -5.0260e+000 48368 88864,88916,88890
 1.0000e-001 88991 -7.4547e+000  7.4566e+000 -7.2483e-001 48368 88812,88864,88838
 1.0000e-001 88968 -3.0702e+000 -3.2507e+000  1.9959e+000 48368 88760,88942,88786
 1.0000e-001 89331 -6.7852e+001 -3.5655e+001 -1.1693e+001 47928 89158,89236,89210
 1.0000e-001 89308 -6.1092e+001 -1.2553e+001 -8.9719e+000 47928 89132,89236,89158
 1.0000e-001 89285 -4.5172e+001 -2.5423e+001 -2.9611e+000 47928 89158,89210,89184
 1.0000e-001 89262 -4.4837e+001 -5.6316e+000 -4.5067e+000 47928 89106,89236,89132
 1.0000e-001 89662 -3.8813e+001 -5.2960e+000 -6.3475e-001 47588 89463,89541,89515
 1.0000e-001 89639 -4.6041e+001 -1.9099e+001  2.0168e+000 47588 89463,89567,89541
 1.0000e-001 89616 -4.1565e+001  1.7010e+000 -6.5382e+000 47588 89463,89515,89489
 1.0000e-001 89593 -4.1887e+001 -1.8352e+001  2.3358e+000 47588 89437,89567,89463
 1.0000e-001 89763 -1.1712e+002 -1.4944e+001 -5.4904e+000 47390 89685,89737,89711
 1.0000e-001 89913 -7.0803e+001 -1.8824e+001 -9.4576e+000 47078 89786,89838,89812
 1.0000e-001 89890 -2.2374e+001 -2.2020e+001 -1.2681e+001 47078 89786,89864,89838
 1.0000e-001 90163 -4.9793e+001 -1.2935e+001  3.7047e-001 46474 89964,90042,89990
 1.0000e-001 90140 -5.9136e+001 -1.6586e+001 -1.1407e+000 46474 89938,90042,89964
 1.0000e-001 90117 -4.7739e+001 -1.3622e+001  5.1541e-001 46474 89990,90042,90016
 1.0000e-001 90094 -5.8881e+001 -1.5696e+001 -1.3663e+000 46474 89938,90068,90042
 1.0000e-001 90364 -4.2615e+001 -9.7776e+000  9.4615e+000 46184 90240,90292,90266
 1.0000e-001 90341 -3.8988e+001  6.0116e+000  1.7605e+001 46184 90188,90292,90240
 1.0000e-001 90318 -3.5048e+001 -3.1661e+001  1.8165e+001 46184 90188,90240,90214
 1.0000e-001 90565 -7.6607e+001 -1.6257e+001 -4.3170e+000 45780 90588,90415,90389
 1.0000e-001 90542 -6.6433e+001 -1.6222e+001 -3.2038e+000 45780 90588,90389,90493
 1.0000e-001 90519 -5.7644e+001 -1.3620e+001  4.7906e+000 45780 90415,90467,90441
 1.0000e-001 90614 -6.8795e+001 -1.9490e+001  2.2851e+000 45780 90467,90415,90588
 1.0000e-001 90637 -5.5592e+001 -1.5540e+001  4.8890e+000 45780 90467,90588,90493
 1.0000e-001 91196 -4.7337e+001 -1.3528e+001  5.5237e+000 45226 91219,90876,90850
 1.0000e-001 91173 -5.4545e+001 -1.3548e+001 -1.5806e+000 45226 91219,90850,91032
 1.0000e-001 91150 -5.8163e+001 -6.3938e+000  5.5006e+000 45226 90824,91032,90850
 1.0000e-001 91127 -6.3969e+001 -2.4535e+001  1.6997e+000 45226 90876,90980,90902
 1.0000e-001 91104 -4.9737e+001 -2.0687e+001  2.9041e+000 45226 90876,91006,90980
 1.0000e-001 91081 -6.4358e+001 -2.1211e+001  5.6196e+000 45226 90902,90980,90954
 1.0000e-001 91058 -1.0982e+002 -1.8103e+001 -9.4089e+000 45226 90902,90954,90928
 1.0000e-001 91245 -5.2751e+001 -2.1550e+001  3.0153e+000 45226 91006,90876,91219
 1.0000e-001 91268 -5.8525e+001 -1.9135e+001 -3.4369e+000 45226 91006,91219,91032
 1.0000e-001 91516 -2.0168e+000  7.7420e+000 -2.9483e+000 44836 91539,91421,91395
 1.0000e-001 91493 -2.5198e+001  1.1712e+001 -7.5313e+000 44836 91317,91421,91343
 1.0000e-001 91470 -6.9497e+000 -8.8989e+000  5.7916e+000 44836 91539,91395,91369
 1.0000e-001 91447 -8.3914e+000 -3.4205e+000 -1.8454e+001 44836 91291,91421,91317
 1.0000e-001 91565 -2.2683e+000  1.5209e+001 -6.4921e+000 44836 91343,91421,91539
 1.0000e-001 91588  7.7517e-001  1.0608e+001  1.8049e+000 44836 91343,91539,91369
 1.0000e-001 91787 -3.8512e+001  6.1153e+000  6.8637e+000 44432 91810,91637,91611
 1.0000e-001 91764 -2.7324e+001  8.7133e+000  4.2793e+000 44432 91810,91611,91715
 1.0000e-001 91741 -4.0127e+001 -1.0808e+000 -4.9524e+000 44432 91637,91689,91663
 1.0000e-001 91836 -2.8453e+001  4.3994e+000  8.5298e+000 44432 91689,91637,91810
 1.0000e-001 91859 -2.2022e+001  3.4770e+000  8.1564e+000 44432 91689,91810,91715
 1.0000e-001 92207 -4.9466e+001 -9.8449e+000 -8.5435e+000 43864 92230,91936,91910
 1.0000e-001 92184 -3.9413e+001 -2.3243e+001 -8.2693e+000 43864 92230,91910,92040
 1.0000e-001 92161 -3.5792e+001 -2.1131e+001 -4.8933e+000 43864 91884,92040,91910
 1.0000e-001 92138 -6.7577e+001 -6.3804e+000  1.5712e+001 43864 91936,92014,91988
 1.0000e-001 92115 -3.7626e+001  1.9040e+001  3.0169e+000 43864 91936,91988,91962
 1.0000e-001 92092 -4.1617e+001 -3.5698e+001 -8.9565e-001 43864 91884,92066,92040
 1.0000e-001 92256 -4.2611e+001  7.7117e+000 -3.6466e+000 43864 92014,91936,92230
 1.0000e-001 92279 -4.0166e+001 -1.4010e+001 -5.7867e+000 43864 92014,92230,92040
 1.0000e-001 92529 -5.5455e+001 -1.0691e+001  2.9271e+000 43410 92552,92330,92304
 1.0000e-001 92506 -5.5713e+001 -1.1269e+001  2.0396e-001 43410 92552,92304,92408
 1.0000e-001 92483 -5.7384e+001 -1.7111e+001  1.0583e+000 43410 92304,92434,92408
 1.0000e-001 92460 -4.7962e+001 -1.6893e+001  6.0052e+000 43410 92330,92382,92356
 1.0000e-001 92578 -5.3295e+001 -9.8236e+000  3.5265e+000 43410 92382,92330,92552
 1.0000e-001 92601 -5.2304e+001 -1.0382e+001  5.5533e-001 43410 92382,92552,92408
 1.0000e-001 92802 -2.8069e+001 -1.2944e+001  1.7206e+001 43162 92825,92704,92652
 1.0000e-001 92779 -3.0239e+001 -9.7198e+000  8.2028e+000 43162 92825,92652,92626
 1.0000e-001 92756 -3.2665e+001  1.2816e+000  2.1261e+001 43162 92652,92704,92678
 1.0000e-001 92851 -2.5528e+001 -1.0635e+001  1.4020e+001 43162 92730,92704,92825
 1.0000e-001 92874 -4.5789e+000  1.1669e+001 -9.7449e-001 43162 92730,92825,92626
 1.0000e-001 93463 -6.7547e+001 -3.2051e+001  7.2796e+000 42758 93140,93270,93166
 1.0000e-001 93440 -5.3184e+001 -1.6518e+001 -1.7683e+000 42758 93140,93296,93270
 1.0000e-001 93417 -5.5886e+001 -2.0850e+001  1.2996e+000 42758 93166,93270,93218
 1.0000e-001 93394 -7.1897e+001 -1.8952e+001  6.4931e+000 42758 93218,93270,93244
 1.0000e-001 93371 -6.0899e+001 -1.7507e+001 -6.1199e-001 42758 93140,93322,93296
 1.0000e-001 93348 -4.6378e+001 -7.8939e-001 -5.1327e+000 42758 93166,93218,93192
 1.0000e-001 93920 -4.4986e+001 -1.8226e+001 -9.6253e-001 42304 93943,93672,93646
 1.0000e-001 93897 -4.9527e+001 -2.7537e+001  4.4735e-001 42304 93943,93646,93802
 1.0000e-001 93874 -5.3110e+001 -1.9420e+001 -1.1678e-001 42304 93724,93802,93776
 1.0000e-001 93851 -4.7019e+001 -1.3214e+001  1.5499e+000 42304 93672,93724,93698
 1.0000e-001 93828 -3.0842e+001 -9.0254e+000  7.8477e+000 42304 93724,93776,93750
 1.0000e-001 93969 -4.9810e+001 -1.5038e+001  2.3767e+000 42304 93724,93672,93943
 1.0000e-001 93992 -5.1379e+001 -1.8666e+001  2.8629e+000 42304 93724,93943,93802
 1.0000e-001 94321 -3.8644e+001 -1.9206e+001 -1.1158e+000 41478 94096,94148,94122
 1.0000e-001 94298 -3.6262e+001 -1.8481e+001 -2.8664e+000 41478 94096,94226,94148
 1.0000e-001 94275 -3.4859e+001 -1.1211e+001 -1.3869e+000 41478 94148,94226,94174
 1.0000e-001 94252 -3.1814e+001 -1.0137e+001 -4.4686e+000 41478 94174,94226,94200
 1.0000e-001 94618 -4.5089e+001 -2.2996e+001  7.6677e+000 40910 94344,94422,94396
 1.0000e-001 94595 -5.1458e+001 -1.3422e+001  7.3018e+000 40910 94344,94448,94422
 1.0000e-001 94572 -4.9950e+001 -1.0009e+001  6.8329e+000 40910 94344,94474,94448
 1.0000e-001 94549 -3.7223e+001 -3.0125e+001  1.3016e+000 40910 94344,94396,94370
 1.0000e-001 94526 -5.5271e+001 -1.3060e+000  6.9424e+000 40910 94344,94500,94474
 1.0000e-001 94866 -5.0490e+001 -1.0559e+001  4.2069e+000 40306 94667,94719,94693
 1.0000e-001 94843 -4.6920e+001 -1.0046e+001  3.7845e+000 40306 94641,94719,94667
 1.0000e-001 94820 -4.3778e+001 -8.7817e+000  1.0774e+000 40306 94641,94745,94719
 1.0000e-001 94797 -4.6129e+001 -1.4850e+001  3.6209e+000 40306 94641,94771,94745
 1.0000e-001 95089 -6.1566e+001 -1.9898e+001 -6.6767e-001 39702 94913,94991,94939
 1.0000e-001 95066 -5.9548e+001 -1.9837e+001 -4.2110e-001 39702 94913,95017,94991
 1.0000e-001 95043 -5.9110e+001 -1.8775e+001 -5.5747e-002 39702 94939,94991,94965
 1.0000e-001 95339 -4.9822e+001 -1.0813e+001  4.4032e+000 39248 95140,95218,95166
 1.0000e-001 95316 -4.5016e+001 -8.1788e+000  3.3194e+000 39248 95140,95244,95218
 1.0000e-001 95293 -4.3250e+001 -4.4264e+000  5.3736e+000 39248 95114,95244,95140
 1.0000e-001 95270 -5.4192e+001 -7.2961e+000  8.5199e+000 39248 95166,95218,95192
 1.0000e-001 95770 -1.4251e+001  2.0191e+001  1.8541e+000 38694 95551,95629,95577
 1.0000e-001 95747 -2.6560e+001  1.5102e+001 -1.9535e+000 38694 95447,95629,95551
 1.0000e-001 95724 -3.6629e+001 -2.2855e+000  1.0264e+001 38694 95447,95551,95473
 1.0000e-001 95701 -1.5106e+001  5.2616e+000  4.2579e+000 38694 95473,95551,95499
 1.0000e-001 95678 -2.0264e+001  6.3751e+000 -2.4061e+000 38694 95499,95551,95525
 1.0000e-001 95655 -6.6148e+000  3.0680e+001  1.0635e+001 38694 95577,95629,95603
 1.0000e-001 96325 -4.5429e+001 -8.1593e+000  2.3018e+000 38240 95953,96031,96005
 1.0000e-001 96302 -4.7125e+001 -1.1575e+001  2.8501e+000 38240 95953,96161,96031
 1.0000e-001 96279 -5.0478e+001 -2.8844e+001 -2.4503e+000 38240 96031,96161,96135
 1.0000e-001 96256 -5.5214e+001 -2.1351e+001 -7.4456e-001 38240 96348,96109,96057
 1.0000e-001 96233 -5.5872e+001 -2.9171e+001 -7.0830e+000 38240 96348,96057,96031
 1.0000e-001 96210 -5.4584e+001 -1.0719e+001 -2.2201e+000 38240 96057,96109,96083
 1.0000e-001 96187 -3.9773e+001  1.8238e+001  3.7049e+000 38240 95953,96005,95979
 1.0000e-001 96374 -5.0758e+001 -1.3171e+001  2.6514e+000 38240 96135,96109,96348
 1.0000e-001 96397 -5.1164e+001 -2.2352e+001 -3.3901e+000 38240 96135,96348,96031
 1.0000e-001 96618 -1.2924e+001  4.8224e+000  4.8958e-001 37821 96494,96546,96520
 1.0000e-001 96595 -2.1974e+001 -4.6806e+000 -3.8152e+000 37821 96468,96546,96494
 1.0000e-001 96572 -2.9933e+001 -8.0911e+000 -3.2136e+000 37821 96442,96546,96468
 1.0000e-001 97126 -4.8327e+001 -1.3882e+001  1.3414e+000 37367 97149,96855,96829
 1.0000e-001 97103 -4.1794e+001 -1.1022e+001  9.3593e-001 37367 97149,96829,96985
 1.0000e-001 97080 -5.1281e+001 -8.0186e+000  2.6412e+000 37367 96803,96985,96829
 1.0000e-001 97057 -5.2297e+001 -1.2220e+001  9.5855e+000 37367 96855,96907,96881
 1.0000e-001 97034 -3.2657e+001 -9.9340e+000  2.1193e+000 37367 96907,96985,96959
 1.0000e-001 97011 -3.0359e+001  9.0830e+000 -5.2691e-002 37367 96907,96959,96933
 1.0000e-001 97175 -4.1687e+001 -1.6014e+001  4.7548e+000 37367 96907,96855,97149
 1.0000e-001 97198 -3.7103e+001 -1.4020e+001  4.4569e+000 37367 96907,97149,96985
 1.0000e-001 97704 -3.6899e+001 -6.1541e+000  2.8098e-001 36863 97727,97511,97485
 1.0000e-001 97681 -3.5866e+001 -5.8913e+000 -1.5019e+000 36863 97727,97485,97433
 1.0000e-001 97658 -2.4559e+001  1.0151e+001  1.2500e+000 36863 97381,97563,97433
 1.0000e-001 97635 -2.6756e+001 -3.7115e+000 -7.8135e-001 36863 97511,97563,97537
 1.0000e-001 97612 -4.8837e+001 -1.7974e+001  4.3171e+000 36863 97433,97485,97459
 1.0000e-001 97589 -1.8654e+001  3.1859e+001  1.7584e+000 36863 97381,97433,97407
 1.0000e-001 97753 -3.4822e+001 -6.7464e+000 -3.1359e-001 36863 97563,97511,97727
 1.0000e-001 97776 -3.3235e+001 -6.2338e+000 -2.0128e+000 36863 97563,97727,97433
 1.0000e-001 98331 -3.2020e+001  2.3451e+000  1.0470e-001 36287 98354,98089,98063
 1.0000e-001 98308 -3.2395e+001 -4.2616e+000  3.4074e+000 36287 98354,98063,98011
 1.0000e-001 98285 -3.2894e+001 -1.2605e+001 -2.0940e-001 36287 98426,97985,98115
 1.0000e-001 98262 -3.0536e+001 -5.0094e+000  2.5092e+000 36287 98011,98063,98037
 1.0000e-001 98239 -4.8197e+001 -2.0543e+001  2.7046e+000 36287 97985,98141,98115
 1.0000e-001 98216 -6.4563e+001 -2.3640e+001  3.0988e+000 36287 97959,98141,97985
 1.0000e-001 98193 -6.8017e+001  4.0431e+001 -1.8237e+001 36287 97959,98167,98141
 1.0000e-001 98380 -3.7857e+001 -5.5808e+000  4.6367e+000 36287 98115,98089,98354
 1.0000e-001 98403 -3.3606e+001 -1.1678e+001  3.4739e+000 36287 98426,98115,98354
 1.0000e-001 98452 -3.1777e+001 -6.6011e+000  4.0327e-001 36287 98011,97985,98426
 1.0000e-001 98475 -3.2017e+001 -4.5445e+000  3.8912e+000 36287 98011,98426,98354
 1.0000e-001 99030 -2.5415e+001 -3.4752e+000  3.2786e+000 35726 99053,98736,98710
 1.0000e-001 99007 -2.2272e+001  7.7917e-001  5.2495e+000 35726 99053,98710,98684
 1.0000e-001 98984 -2.3409e+001  2.2651e+000  4.4551e+000 35726 99125,98814,98736
 1.0000e-001 98961 -2.8551e+001 -7.9324e+000  2.1581e-001 35726 98736,98814,98788
 1.0000e-001 98938 -4.4171e+001 -5.9852e+000  7.2441e-001 35726 98684,98866,98840
 1.0000e-001 98915 -3.1009e+001 -7.9152e+000 -3.1201e+000 35726 98736,98788,98762
 1.0000e-001 98892 -2.8080e+001  1.7749e+001  1.2621e+001 35726 98658,98866,98684
 1.0000e-001 99079 -2.3873e+001  1.3476e+000  4.2754e+000 35726 99125,98736,99053
 1.0000e-001 99102 -2.4261e+001  8.0219e-001  5.6777e+000 35726 98840,99053,98684
 1.0000e-001 99151 -2.2648e+001  2.8578e+000  6.0078e+000 35726 98840,98814,99125
 1.0000e-001 99174 -2.3550e+001  8.9830e-001  5.7782e+000 35726 98840,99125,99053
 1.0000e-001 99454 -4.5782e+001 -1.2030e+001  5.7796e+000 35222 99278,99330,99304
 1.0000e-001 99431 -4.2853e+001 -7.6226e+000  4.1689e+000 35222 99278,99382,99330
 1.0000e-001 99408 -4.1380e+001 -4.4983e+000  4.9738e+000 35222 99330,99382,99356
 1.0000e-001 99653 -1.5559e+001 -6.5784e-001 -2.3441e+000 34867 99477,99529,99503
 1.0000e-001 99630 -1.1683e+001 -3.2297e+000 -2.1131e+000 34867 99477,99581,99529
 1.0000e-001 99607 -9.7179e+000  1.1417e+000 -2.5692e+000 34867 99529,99581,99555
 1.0000e-001 100104 -5.8847e+001 -1.9777e+001  8.1581e-001 34363 99781,99885,99807
 1.0000e-001 100081 -4.8394e+001 -1.3839e+001 -3.5895e+000 34363 99781,99963,99885
 1.0000e-001 100058 -6.0204e+001 -2.3614e+001  6.1395e-001 34363 99885,99963,99911
 1.0000e-001 100035 -5.4552e+001 -2.3911e+001  8.5765e-001 34363 99807,99885,99859
 1.0000e-001 100012 -6.3777e+001 -2.5401e+001  2.1231e+000 34363 99911,99963,99937
 1.0000e-001 99989 -6.6870e+001 -2.9042e+001  9.7919e-001 34363 99807,99859,99833
 1.0000e-001 100303 -4.6381e+001 -1.0835e+001  3.6260e+000 33909 100127,100205,100179
 1.0000e-001 100280 -4.6234e+001 -9.5560e+000  2.7252e+000 33909 100127,100231,100205
 1.0000e-001 100257 -4.2437e+001 -6.4307e+000 -3.9437e+000 33909 100127,100179,100153
 1.0000e-001 100890 -3.6543e+001 -1.0318e+001  3.5817e+000 33412 100645,100749,100697
 1.0000e-001 100867 -3.4142e+001 -3.7738e+000  4.0528e+000 33412 100567,100749,100645
 1.0000e-001 100844 -3.4221e+001 -5.8125e+000  3.4582e+000 33412 100567,100645,100619
 1.0000e-001 100821 -4.6887e+001 -8.2472e+000  6.2222e+000 33412 100645,100697,100671
 1.0000e-001 100798 -3.5149e+001  1.1153e+001 -4.6834e+000 33412 100567,100619,100593
 1.0000e-001 100775 -3.2187e+001 -8.6882e+000  2.0872e+000 33412 100697,100749,100723
 1.0000e-001 101268 -3.9294e+001  1.6526e+000 -1.2584e+000 32908 101435,101291,101098
 1.0000e-001 101245 -3.8551e+001 -7.4077e+000  2.4472e+000 32908 101291,101072,101020
 1.0000e-001 101222 -4.6551e+001 -9.4341e+000  1.3555e+000 32908 101363,101150,101124
 1.0000e-001 101199 -3.7961e+001 -9.5704e+000 -2.4775e+000 32908 101020,101072,101046
 1.0000e-001 101176 -5.5335e+001 -1.0834e+001  5.8539e+000 32908 100994,101150,101020
 1.0000e-001 101317 -4.4024e+001 -4.4463e+000  1.6015e+000 32908 101124,101098,101291
 1.0000e-001 101340 -4.1980e+001 -6.7251e+000  8.0600e-003 32908 101363,101124,101291
 1.0000e-001 101389 -4.4264e+001 -1.1068e+001  4.6094e+000 32908 101020,101150,101363
 1.0000e-001 101412 -4.2957e+001 -1.0258e+001  3.7422e+000 32908 101020,101363,101291
 1.0000e-001 101461 -4.4209e+001 -8.9607e+000  1.3382e+000 32908 101072,101291,101435
 1.0000e-001 101918 -4.6846e+001 -1.4746e+001  8.3574e-001 32618 101941,101670,101644
 1.0000e-001 101895 -4.7637e+001 -1.3322e+001  9.5852e-002 32618 101941,101644,101774
 1.0000e-001 101872 -5.5880e+001 -1.8022e+001  2.3829e+000 32618 102013,101696,101670
 1.0000e-001 101849 -4.9323e+001 -2.2634e+001  3.6887e+000 32618 101696,101748,101722
 1.0000e-001 101826 -4.8331e+001  3.9612e+000  4.6254e+000 32618 101644,101800,101774
 1.0000e-001 101967 -5.3682e+001 -1.4315e+001  1.2783e+000 32618 102013,101670,101941
 1.0000e-001 101990 -4.2397e+001 -3.3546e+000 -6.3629e+000 32618 101748,101941,101774
 1.0000e-001 102039 -5.1844e+001 -2.1853e+001 -7.2892e-001 32618 101748,101696,102013
 1.0000e-001 102062 -4.7892e+001 -1.7231e+001 -2.4111e+000 32618 101748,102013,101941
 1.0000e-001 102440 -2.9364e+001 -2.1347e+000 -1.0899e+000 32306 102463,102270,102244
 1.0000e-001 102417 -2.9535e+001 -2.2829e+000 -1.8149e+000 32306 102463,102244,102192
 1.0000e-001 102394 -3.2622e+001 -1.2804e+000 -6.0090e-001 32306 102192,102244,102218
 1.0000e-001 102371 -3.2296e+001 -1.1759e+001  1.8217e+000 32306 102270,102322,102296
 1.0000e-001 102348 -1.9799e+001 -3.6945e+000 -2.9872e+000 32306 102166,102322,102192
 1.0000e-001 102489 -2.8714e+001 -2.0619e+000 -6.9639e-001 32306 102322,102270,102463
 1.0000e-001 102512 -2.8931e+001 -2.4310e+000 -1.4635e+000 32306 102322,102463,102192
 1.0000e-001 102662 -4.0662e+001 -8.9940e+000  2.4274e+000 31852 102943,102587,102561
 1.0000e-001 102639 -5.4270e+001 -1.3546e+001 -2.5577e-001 31852 102815,102685,102561
 1.0000e-001 102711 -4.3503e+001 -2.8695e+000  5.2911e+000 31852 102943,102561,102685
 1.0000e-001 102841 -4.6173e+001 -1.8999e+001 -3.5656e+000 31852 102535,102685,102815
 1.0000e-001 102969 -3.7779e+001 -2.9591e+000  1.3089e+000 31852 102613,102587,102943
 1.0000e-001 102992 -4.1344e+001  1.6658e+000  4.4240e+000 31852 102613,102943,102685
 1.0000e-001 103370 -4.2196e+001 -5.8304e+000  3.6984e-001 31134 103096,103200,103122
 1.0000e-001 103347 -4.0369e+001 -4.5708e-001 -2.8854e+000 31134 103096,103226,103200
 1.0000e-001 103324 -5.2481e+001 -1.7595e+001  7.1161e+000 31134 103122,103200,103174
 1.0000e-001 103301 -6.0221e+001 -8.6602e+000  3.6570e+000 31134 103096,103252,103226
 1.0000e-001 103278 -4.1707e+001  3.1672e-001  2.4039e+000 31134 103122,103174,103148
 1.0000e-001 103520 -5.6453e+001 -3.6085e+000  1.7660e+000 30822 103393,103445,103419
 1.0000e-001 103497 -4.8893e+001 -8.0458e-001 -3.1781e+000 30822 103393,103471,103445
 1.0000e-001 103719 -7.2484e+000  1.6243e+000 -2.7005e-001 30182 103742,103621,103569
 1.0000e-001 103696 -1.1705e+001  2.8674e+000 -1.0377e+000 30182 103742,103569,103543
 1.0000e-001 103673 -4.7458e+000  3.7450e+000  3.7173e+000 30182 103569,103621,103595
 1.0000e-001 103768 -5.0123e+000  2.1502e+000 -4.2849e-001 30182 103647,103621,103742
 1.0000e-001 103791 -7.0499e+000  5.0856e+000 -2.0146e+000 30182 103647,103742,103543
 1.0000e-001 104252 -2.0337e+001 -8.4481e-003 -7.8346e-003 29728 104030,104108,104056
 1.0000e-001 104229 -2.6997e+001 -1.1830e+001 -3.1185e+000 29728 104004,104108,104030
 1.0000e-001 104206 -2.5878e+001 -9.3723e+000 -2.2043e+000 29728 104004,104134,104108
 1.0000e-001 104183 -2.0825e+001  1.3947e+000 -8.0798e-001 29728 103978,104134,104004
 1.0000e-001 104160 -2.7226e+001  4.3763e+000  2.7890e+000 29728 104056,104108,104082
 1.0000e-001 104630 -4.5439e+001 -2.1584e+001  1.0108e+001 29217 104653,104382,104356
 1.0000e-001 104607 -4.6082e+001 -2.1666e+001  5.5636e+000 29217 104653,104356,104512
 1.0000e-001 104584 -3.7401e+001 -1.6747e+001  7.2983e+000 29217 104434,104512,104486
 1.0000e-001 104561 -3.9346e+001 -1.4762e+001  7.6320e+000 29217 104382,104434,104408
 1.0000e-001 104538 -3.6814e+001 -2.0765e+001  4.5781e+000 29217 104434,104486,104460
 1.0000e-001 104679 -4.2470e+001 -2.0335e+001  9.5567e+000 29217 104434,104382,104653
 1.0000e-001 104702 -4.1550e+001 -2.0277e+001  5.4832e+000 29217 104434,104653,104512
 1.0000e-001 105178 -3.2883e+001 -6.0162e+000  1.3635e+000 28649 105201,104962,104936
 1.0000e-001 105155 -3.1807e+001 -1.0232e+001  3.7209e-001 28649 105201,104936,104884
 1.0000e-001 105132 -3.0526e+001 -6.1404e+000  2.3183e+000 28649 105273,104858,105014
 1.0000e-001 105109 -3.4062e+001 -9.5694e+000  4.9539e+000 28649 104962,105014,104988
 1.0000e-001 105086 -3.3019e+001 -1.1006e+001  8.6422e-001 28649 104884,104936,104910
 1.0000e-001 105063 -2.7515e+001 -1.1901e+001 -1.4325e+000 28649 104806,105014,104858
 1.0000e-001 105040 -2.1794e+001 -8.8343e+000  1.2658e+000 28649 104806,104858,104832
 1.0000e-001 105227 -3.2067e+001 -4.5974e+000  2.5390e+000 28649 105014,104962,105201
 1.0000e-001 105250 -3.2207e+001 -6.4061e+000  1.2625e+000 28649 105273,105014,105201
 1.0000e-001 105299 -2.8462e+001 -6.0807e+000  3.0761e+000 28649 104884,104858,105273
 1.0000e-001 105322 -2.9411e+001 -6.1475e+000  1.8520e+000 28649 104884,105273,105201
 1.0000e-001 105673 -5.0105e+001 -2.0578e+001  1.8375e-001 28351 105474,105578,105552
 1.0000e-001 105650 -5.6728e+001 -2.8754e+001 -3.6365e+000 28351 105448,105578,105474
 1.0000e-001 105627 -5.0871e+001 -1.3811e+001  4.7876e-002 28351 105500,105552,105526
 1.0000e-001 105604 -5.4019e+001 -2.1881e+001 -3.5874e-001 28351 105474,105552,105500
 1.0000e-001 106130 -4.3527e+001 -2.1753e+001  2.7952e+000 28004 106153,105882,105856
 1.0000e-001 106107 -4.5285e+001 -2.1027e+001  1.2776e+000 28004 106153,105856,105986
 1.0000e-001 106084 -3.6614e+001 -1.7724e+001  2.8566e+000 28004 105934,105986,105960
 1.0000e-001 106061 -3.4942e+001 -1.8828e+001 -3.0071e+000 28004 105856,106012,105986
 1.0000e-001 106038 -2.6894e+001  8.3245e+000  1.6690e+000 28004 105882,105934,105908
 1.0000e-001 106179 -3.9513e+001 -2.0825e+001  2.9366e+000 28004 105934,105882,106153
 1.0000e-001 106202 -4.2941e+001 -2.0752e+001  1.9684e+000 28004 105934,106153,105986
 1.0000e-001 106885 -3.8133e+001 -1.3580e+001  3.2229e+000 27564 106908,106620,106516
 1.0000e-001 106862 -4.5068e+001 -1.6521e+001  2.1022e+000 27564 106908,106516,106490
 1.0000e-001 106839 -5.2684e+001 -2.0884e+001  6.2558e+000 27564 106516,106620,106542
 1.0000e-001 106816 -3.8591e+001 -2.2372e+001  7.5053e+000 27564 106620,106672,106646
 1.0000e-001 106793 -6.2565e+001 -1.4791e+001  1.0352e+001 27564 106542,106620,106594
 1.0000e-001 106770 -4.2545e+001 -2.2617e+001 -3.4827e+000 27564 106490,106698,106672
 1.0000e-001 106747 -3.8677e+001 -1.4257e+001 -2.2639e+000 27564 106464,106698,106490
 1.0000e-001 106724 -5.6528e+001 -8.3287e+000  5.7219e+000 27564 106542,106594,106568
 1.0000e-001 106934 -3.3994e+001 -1.6364e+001  3.8584e+000 27564 106672,106620,106908
 1.0000e-001 106957 -3.7516e+001 -1.7084e+001  2.8160e+000 27564 106672,106908,106490
 1.0000e-001 107463 -2.3435e+001 -8.5286e+000 -3.4982e+000 27053 107218,107322,107296
 1.0000e-001 107440 -2.0552e+001 -1.0178e+000  7.8430e-001 27053 107166,107322,107218
 1.0000e-001 107417 -2.0974e+001 -4.8237e+000 -2.4077e+000 27053 107218,107296,107244
 1.0000e-001 107394 -2.7200e+001 -4.0007e+000 -9.1125e-001 27053 107140,107322,107166
 1.0000e-001 107371 -1.0534e+001 -1.7351e+000  3.8930e-001 27053 107166,107218,107192
 1.0000e-001 107348 -2.0978e+001  6.8665e+000  2.3520e+000 27053 107244,107296,107270
 1.0000e-001 108097 -3.8821e+001 -2.0573e+001  1.5050e+000 26549 108192,108120,107803
 1.0000e-001 108074 -4.1238e+001 -1.1578e+001 -1.7159e+000 26549 108120,107725,107933
 1.0000e-001 108051 -4.3042e+001 -2.5281e+001  5.5851e+000 26549 107751,107803,107777
 1.0000e-001 108028 -4.0929e+001 -2.0184e+001  3.1706e+000 26549 108192,107803,107751
 1.0000e-001 108005 -4.5534e+001 -2.5330e+001 -9.7972e-001 26549 108264,107855,107803
 1.0000e-001 107982 -4.8214e+001 -2.7560e+001  1.8935e+000 26549 107881,107933,107907
 1.0000e-001 107959 -5.8281e+001 -2.2285e+001 -1.1954e+001 26549 107803,107855,107829
 1.0000e-001 108146 -4.0470e+001 -2.3078e+001  1.4321e-001 26549 108264,107803,108120
 1.0000e-001 108169 -4.4573e+001 -2.0098e+001 -2.2483e-001 26549 107881,108120,107933
 1.0000e-001 108218 -4.3071e+001 -2.1221e+001  1.8239e+000 26549 107725,108120,108192
 1.0000e-001 108241 -4.4684e+001 -2.0353e+001  3.3670e+000 26549 107725,108192,107751
 1.0000e-001 108290 -4.9384e+001 -2.1439e+001  3.2419e-001 26549 107881,107855,108264
 1.0000e-001 108313 -4.5901e+001 -2.0175e+001  1.5152e+000 26549 107881,108264,108120
 1.0000e-001 108512 -8.4234e+000  2.1379e+000  5.0443e-001 26137 108388,108440,108414
 1.0000e-001 108489 -7.5212e+000  2.5199e+000  1.7502e+000 26137 108362,108440,108388
 1.0000e-001 108466 -1.1463e+001 -1.1638e+000  2.1263e-001 26137 108336,108440,108362
 1.0000e-001 108662 -3.6380e+001 -1.0370e+001  1.5195e+000 25733 108817,108685,108535
 1.0000e-001 108639 -3.7443e+001 -7.4441e+000 -1.9344e-001 25733 109017,108817,108535
 1.0000e-001 108711 -3.3962e+001 -7.2879e+000  1.6653e-001 25733 108561,108535,108685
 1.0000e-001 108843 -3.7124e+001 -6.3062e+000  9.4324e-001 25733 108587,108685,108817
 1.0000e-001 108866 -3.8590e+001 -1.1375e+001 -1.0802e+000 25733 108889,108817,108613
 1.0000e-001 108915 -3.9148e+001 -1.3042e+001  1.7097e+000 25733 108587,108817,108889
 1.0000e-001 109043 -3.8538e+001 -1.4128e+001 -1.3669e+000 25733 108613,108817,109017
 1.0000e-001 109500 -1.7851e+001  7.7436e-001 -4.1163e+000 25229 109523,109356,109330
 1.0000e-001 109477 -2.3859e+001 -3.7699e+000 -6.6687e-002 25229 109595,109523,109330
 1.0000e-001 109454 -2.5013e+001 -7.0525e+000  2.5308e+000 25229 109595,109330,109278
 1.0000e-001 109431 -2.3473e+001 -7.4971e+000  2.1792e-001 25229 109667,109226,109382
 1.0000e-001 109408 -3.0512e+001 -2.8811e+000  6.3312e+000 25229 109278,109330,109304
 1.0000e-001 109549 -2.3759e+001 -3.2006e+000 -2.5322e-001 25229 109382,109356,109523
 1.0000e-001 109572 -2.3922e+001 -6.5222e+000  4.4058e-001 25229 109667,109382,109523
 1.0000e-001 109621 -2.4715e+001 -1.5804e+000 -3.7240e-002 25229 109252,109523,109595
 1.0000e-001 109644 -2.5599e+001 -2.3781e+000  1.5305e+000 25229 109739,109595,109278
 1.0000e-001 109693 -2.6878e+001 -4.7286e+000 -2.6288e-001 25229 109252,109226,109667
 1.0000e-001 109716 -2.4947e+001 -2.1199e+000  1.1520e+000 25229 109252,109667,109523
 1.0000e-001 109765 -2.3465e+001 -2.8369e+000 -6.0805e-001 25229 109252,109595,109739
 1.0000e-001 110478 -3.1392e+001 -4.0988e+000 -5.9868e+000 24917 110158,110236,110184
 1.0000e-001 110455 -1.7511e+001  2.7049e+000 -2.9159e+000 24917 110158,110288,110236
 1.0000e-001 110432 -2.1905e+001  1.2069e+001 -4.7619e+000 24917 110236,110288,110262
 1.0000e-001 110409 -2.0420e+001  2.6170e+000 -1.7248e+000 24917 110184,110236,110210
 1.0000e-001 110386 -1.5785e+001 -3.3417e-001 -6.9204e-001 24917 110132,110288,110158
 1.0000e-001 110363 -7.2771e+000  3.8148e+000  9.1753e-001 24917 110132,110314,110288
 1.0000e-001 110340 -8.8579e+000 -3.0108e-001  1.9726e+000 24917 110106,110314,110132
 1.0000e-001 110829 -1.1903e+001  1.1389e+001  2.9448e+000 24307 110604,110682,110630
 1.0000e-001 110806 -9.7641e+000  9.0967e+000  1.2950e+000 24307 110604,110708,110682
 1.0000e-001 110783 -6.1292e+000  1.1631e+001 -1.7475e+000 24307 110604,110734,110708
 1.0000e-001 110760 -2.1757e+001  7.1655e+000  3.3168e+000 24307 110630,110682,110656
 1.0000e-001 111335 -3.0155e+001 -9.7931e+000  4.1077e+000 23767 111012,111168,111038
 1.0000e-001 111312 -2.3217e+001 -7.4261e-001  7.4448e-001 23767 111012,111194,111168
 1.0000e-001 111289 -1.9789e+001 -2.0921e+000 -3.6666e+000 23767 111358,111064,111038
 1.0000e-001 111266 -2.4558e+001 -3.6668e+000  9.1678e-001 23767 111358,111038,111168
 1.0000e-001 111243 -2.8263e+001 -8.3471e+000  3.1669e-001 23767 111430,111142,111090
 1.0000e-001 111220 -3.3740e+001 -1.0805e+001 -1.4789e+000 23767 111090,111142,111116
 1.0000e-001 111384 -2.3493e+001 -4.4383e+000 -2.6634e-001 23767 111090,111064,111358
 1.0000e-001 111407 -2.3267e+001 -6.8387e+000  1.2362e+000 23767 111430,111090,111358
 1.0000e-001 111456 -3.3216e+001 -5.0748e+000  1.4484e+000 23767 111168,111142,111430
 1.0000e-001 111479 -3.0454e+001 -5.3260e+000  1.8326e+000 23767 111168,111430,111358
 1.0000e-001 111985 -4.0359e+001 -2.6848e+001 -3.2284e-001 23477 111688,111844,111818
 1.0000e-001 111962 -4.1403e+001 -2.8162e+001  2.1545e+000 23477 111662,111844,111688
 1.0000e-001 111939 -3.1115e+001 -1.8170e+001  2.7085e+000 23477 111766,111818,111792
 1.0000e-001 111916 -4.3540e+001 -2.1063e+001  3.6455e+000 23477 111740,111818,111766
 1.0000e-001 111893 -4.5422e+001 -2.6852e+001 -1.3315e+000 23477 111688,111818,111740
 1.0000e-001 111870 -6.9317e+001 -1.7414e+001 -8.9142e+000 23477 111688,111740,111714
 1.0000e-001 112314 -3.5692e+001 -1.3998e+001  1.6317e+000 23023 112141,112219,112193
 1.0000e-001 112291 -3.4636e+001 -1.6501e+001  8.0674e-001 23023 112115,112219,112141
 1.0000e-001 112268 -2.8657e+001  4.2799e+000  2.7598e+000 23023 112141,112193,112167
 1.0000e-001 112245 -3.0220e+001 -1.3359e+001  2.8144e+000 23023 112089,112219,112115
 1.0000e-001 112692 -3.2775e+001 -8.1202e+000  1.1554e+000 22768 112444,112574,112548
 1.0000e-001 112669 -3.3786e+001 -2.7543e+000  1.0017e+000 22768 112418,112574,112444
 1.0000e-001 112646 -2.5539e+001 -4.0914e+000 -9.0955e-001 22768 112444,112522,112470
 1.0000e-001 112623 -3.1254e+001 -7.4805e+000  1.1713e+000 22768 112444,112548,112522
 1.0000e-001 112600 -2.6707e+001 -4.6753e+000 -1.7650e-001 22768 112470,112522,112496
 1.0000e-001 113011 -5.8358e+001 -6.0986e+000  2.2575e+000 22314 112763,112867,112789
 1.0000e-001 112988 -4.8955e+001 -2.6359e+000 -4.0308e-001 22314 112763,112893,112867
 1.0000e-001 112965 -4.7812e+001 -2.0424e+000  0.0000e+000 22314 112815,112867,112841
 1.0000e-001 112942 -4.5113e+001 -5.1949e-001  1.9562e+000 22314 112789,112867,112815
 1.0000e-001 112919 -4.5356e+001 -5.9509e+000 -7.3862e+000 22314 112737,112893,112763
 1.0000e-001 113519 -3.8139e+001 -9.9666e+000 -1.1670e-001 21924 113614,113542,113248
 1.0000e-001 113496 -3.4149e+001 -5.7152e+000  1.5661e+000 21924 113542,113196,113378
 1.0000e-001 113473 -3.6075e+001 -1.3014e+001  1.0959e+000 21924 113614,113248,113222
 1.0000e-001 113450 -3.4924e+001  5.4624e+000 -8.9774e-001 21924 113686,113274,113248
 1.0000e-001 113427 -3.2753e+001  1.2566e+001  3.7956e+000 21924 113274,113352,113326
 1.0000e-001 113404 -4.0641e+001  1.5063e+001 -2.3208e+000 21924 113274,113326,113300
 1.0000e-001 113568 -3.5723e+001 -1.1217e+000  3.6857e-001 21924 113686,113248,113542
 1.0000e-001 113591 -3.6349e+001 -9.8522e+000  2.8762e+000 21924 113352,113542,113378
 1.0000e-001 113640 -3.6210e+001 -6.2561e+000  7.4774e-001 21924 113196,113542,113614
 1.0000e-001 113663 -3.4428e+001 -9.3442e+000  1.4965e+000 21924 113196,113614,113222
 1.0000e-001 113712 -3.4848e+001 -1.3692e+000  1.9450e+000 21924 113352,113274,113686
 1.0000e-001 113735 -3.5839e+001 -6.7042e+000  3.9665e+000 21924 113352,113686,113542
 1.0000e-001 113885 -1.6461e+001  8.5448e-001 -5.7108e+000 21520 113980,113908,113784
 1.0000e-001 113862 -2.8765e+001 -1.3660e+001  7.8777e+000 21520 114238,113908,113758
 1.0000e-001 113934 -3.4616e+001 -1.6116e+001 -7.2280e-001 21520 114110,113908,113810
 1.0000e-001 113957 -3.7454e+001 -6.7876e+000  8.0803e+000 21520 113810,113908,113836
 1.0000e-001 114006 -3.0231e+001 -1.4719e+001  8.3455e-001 21520 113758,113908,113980
 1.0000e-001 114136 -2.7566e+001  3.2709e+000  2.4105e+000 21520 113784,113908,114110
 1.0000e-001 114264 -2.1419e+001  1.1308e-001  1.2605e+001 21520 113836,113908,114238
 1.0000e-001 114662 -3.6542e+001 -4.6737e+000  8.2411e-001 21030 114414,114518,114492
 1.0000e-001 114639 -4.1440e+001 -9.5036e+000  2.8872e+000 21030 114414,114544,114518
 1.0000e-001 114616 -1.1403e+001  4.2368e+000  1.2368e+000 21030 114440,114492,114466
 1.0000e-001 114593 -3.7578e+001 -6.8998e+000  1.4123e+000 21030 114414,114492,114440
 1.0000e-001 114570 -4.1774e+001 -4.1520e+000  1.9985e+001 21030 114388,114544,114414
 1.0000e-001 114959 -3.7424e+001 -1.7216e+000 -1.6993e+000 20512 114982,114711,114685
 1.0000e-001 114936 -3.7701e+001 -9.8965e-001 -6.0324e-002 20512 115054,114982,114685
 1.0000e-001 114913 -4.2430e+001  1.8943e+000  1.8834e+000 20512 115054,114685,114841
 1.0000e-001 114890 -3.0649e+001 -9.1420e-001  1.1210e+000 20512 114711,114763,114737
 1.0000e-001 114867 -4.0347e+001 -1.4529e+000  1.5269e+000 20512 114763,114815,114789
 1.0000e-001 115008 -3.8635e+001 -1.4687e+000 -3.1040e-001 20512 114763,114711,114982
 1.0000e-001 115031 -3.9858e+001 -4.9704e+000 -5.2251e-001 20512 114763,114982,114815
 1.0000e-001 115080 -4.2108e+001 -3.5716e+000 -1.9863e+000 20512 114815,114982,115054
 1.0000e-001 115103 -4.3791e+001 -5.9743e-001 -1.6903e+000 20512 114815,115054,114841
 1.0000e-001 115507 -3.6143e+001 -1.2341e+001 -2.4532e+000 20143 115285,115389,115363
 1.0000e-001 115484 -4.0642e+001 -6.7083e+000  1.3975e+000 20143 115259,115389,115285
 1.0000e-001 115461 -3.8253e+001  6.3223e-001  1.2642e+000 20143 115233,115389,115259
 1.0000e-001 115438 -3.6793e+001 -5.7310e+000  1.0369e+000 20143 115285,115337,115311
 1.0000e-001 115415 -2.7111e+001  2.0017e+000  4.5047e+000 20143 115285,115363,115337
 1.0000e-001 115875 -2.3727e+001 -1.9649e+000  7.5156e-001 19632 115656,115734,115682
 1.0000e-001 115852 -2.5697e+001 -5.9331e+000 -3.3212e-002 19632 115552,115734,115656
 1.0000e-001 115829 -2.6619e+001 -7.7283e+000 -1.9023e+000 19632 115552,115656,115578
 1.0000e-001 115806 -2.6893e+001  9.9655e-001 -2.0281e+000 19632 115578,115656,115630
 1.0000e-001 115783 -1.9822e+001 -3.1786e+000 -3.3480e+000 19632 115682,115734,115708
 1.0000e-001 115760 -2.0889e+001 -1.3419e+000  6.1999e+000 19632 115578,115630,115604
 1.0000e-001 116025 -3.3044e+001  4.4150e-001  4.6871e+000 19178 115898,115950,115924
 1.0000e-001 116002 -3.1493e+001  2.9316e-001  2.8176e+000 19178 115898,115976,115950
 1.0000e-001 116633 -4.3219e+000  4.1922e+000  1.4113e-001 18738 116800,116656,116342
 1.0000e-001 116610 -1.4621e+000  6.3534e+000 -3.6994e+000 18738 116656,116238,116446
 1.0000e-001 116587 -5.4548e+000  1.2636e-001  1.9834e-001 18738 116728,116368,116342
 1.0000e-001 116564 -2.6373e+000  1.1742e+000  2.1717e+000 18738 116800,116342,116264
 1.0000e-001 116541  7.2350e+000  5.1214e+001 -9.8764e+000 18738 116212,116446,116238
 1.0000e-001 116518  2.8048e+000  5.8963e+000 -2.5349e+000 18738 116394,116446,116420
 1.0000e-001 116495 -1.2495e+001 -2.6742e+000  2.8847e+000 18738 116264,116342,116316
 1.0000e-001 116472 -5.6334e+000 -3.2881e-001  2.8931e+000 18738 116264,116316,116290
 1.0000e-001 116682 -4.3866e+000  2.6649e+000  5.0124e-002 18738 116728,116342,116656
 1.0000e-001 116705 -3.1235e+000  3.7149e+000 -2.9899e+000 18738 116394,116656,116446
 1.0000e-001 116754 -5.4870e+000  5.9447e-001 -3.2583e+000 18738 116394,116368,116728
 1.0000e-001 116777 -4.1655e+000  3.6630e+000 -3.4423e+000 18738 116394,116728,116656
 1.0000e-001 116826 -2.6678e+000  9.2124e+000  2.8041e-001 18738 116238,116656,116800
 1.0000e-001 116849 -1.0995e+000  6.1430e+000  2.5867e+000 18738 116238,116800,116264
 1.0000e-001 116999 -3.9699e+001 -2.3912e+000 -1.3444e-001 18184 116872,116924,116898
 1.0000e-001 116976 -5.7031e+001 -1.4832e+001  6.1765e+000 18184 116872,116950,116924
 1.0000e-001 117330 -3.3901e+001  1.9453e+000 -2.6348e+000 17694 117157,117235,117183
 1.0000e-001 117307 -3.1858e+001  6.9547e+000 -3.8915e-001 17694 117131,117235,117157
 1.0000e-001 117284 -3.7096e+001  8.7646e+000  8.5999e-001 17694 117105,117235,117131
 1.0000e-001 117261 -4.6725e+001 -1.2376e+001  2.7697e+000 17694 117183,117235,117209
 1.0000e-001 117480 -2.6172e+001 -4.8047e+000  6.8100e+000 17290 117353,117405,117379
 1.0000e-001 117457 -1.9410e+001  7.1577e+000  2.8375e+000 17290 117353,117431,117405
 1.0000e-001 117679 -2.0108e+001 -5.8515e+000  5.9199e-001 16718 117555,117607,117581
 1.0000e-001 117656 -2.6279e+001 -3.2227e+000 -1.6029e+000 16718 117529,117607,117555
 1.0000e-001 117633 -4.0472e+001 -2.4648e+000 -1.4753e-001 16718 117503,117607,117529
 1.0000e-001 117782 -2.6178e+000  1.1583e+001 -1.8159e+000 16520 117704,117756,117730
 1.0000e-001 117983 -4.6811e+001 -3.1360e+001  1.5110e+000 16208 117859,117911,117885
 1.0000e-001 117960 -3.7561e+001 -2.2236e+001 -4.5156e+000 16208 117833,117911,117859
 1.0000e-001 117937 -3.4745e+001 -1.1415e+001  4.2186e-001 16208 117807,117911,117833
 1.0000e-001 118135  2.4327e+000  1.7740e+001 -3.4031e+000 15674 118034,118086,118060
 1.0000e-001 118112 -3.2356e-001  1.9298e+001 -3.0233e-001 15674 118008,118086,118034
 1.0000e-001 118238 -4.7639e+001 -4.3048e+000 -1.3999e+000 15355 118160,118212,118186
 1.0000e-001 118341  9.5023e-028 -2.3903e-027  7.3608e-028 421 118263,118315,118289
 2.0000e-001 68152 -2.5354e+001  8.1228e+000 -1.9302e+001 67838 68074,68126,68100
 2.0000e-001 68550 -8.6079e+001  1.6830e+000 -4.3042e+000 67526 68276,68380,68302
 2.0000e-001 68527 -1.0143e+002  8.1342e+000  2.7544e+000 67526 68276,68406,68380
 2.0000e-001 68504 -7.3240e+001  8.2766e+000 -1.5375e+000 67526 68328,68380,68354
 2.0000e-001 68481 -8.2616e+001  9.7620e+000 -4.4153e+000 67526 68302,68380,68328
 2.0000e-001 68458 -1.0125e+002 -9.3478e-001 -1.0738e+001 67526 68276,68432,68406
 2.0000e-001 68651 -8.1019e+001 -3.2238e+001 -1.9682e+001 67328 68573,68625,68599
 2.0000e-001 68970 -1.4160e+002 -6.1196e+001 -5.6753e+000 67016 68722,68800,68774
 2.0000e-001 68947 -1.3425e+002 -4.4348e+001 -4.3861e+000 67016 68722,68826,68800
 2.0000e-001 68924 -1.3822e+002 -5.3216e+001 -2.0207e+000 67016 68696,68826,68722
 2.0000e-001 68901 -1.3489e+002 -4.9283e+001  1.6886e+000 67016 68722,68774,68748
 2.0000e-001 68878 -1.2068e+002 -5.8583e+001  1.9732e+001 67016 68696,68852,68826
 2.0000e-001 69291 -1.4894e+002 -4.8971e+000 -2.7159e+001 66654 69069,69147,69095
 2.0000e-001 69268 -1.0660e+002  6.6737e+000 -1.0041e+001 66654 69069,69173,69147
 2.0000e-001 69245 -8.5347e+001 -1.6044e+001 -3.4866e+001 66654 69043,69173,69069
 2.0000e-001 69222 -1.3358e+002  6.1267e+001 -1.3383e+001 66654 69095,69147,69121
 2.0000e-001 69199 -5.9884e+001 -1.4122e+001  6.5273e+000 66654 69017,69173,69043
 2.0000e-001 69695 -1.5323e+002 -4.2607e+001 -9.2517e-001 66456 69447,69577,69551
 2.0000e-001 69672 -1.6946e+002 -4.8165e+001  5.8578e-001 66456 69421,69577,69447
 2.0000e-001 69649 -1.8029e+002 -8.4751e+001  1.7742e+001 66456 69473,69551,69525
 2.0000e-001 69626 -1.5469e+002 -4.4124e+001  1.5834e+000 66456 69447,69551,69473
 2.0000e-001 69603 -1.9092e+002 -8.5451e+001  4.2361e+001 66456 69473,69525,69499
 2.0000e-001 70024 -7.0963e+001 -8.7839e+000 -2.0233e+000 66258 70047,69851,69825
 2.0000e-001 70001 -8.8126e+001 -1.8817e+001  2.4427e+001 66258 70047,69825,69903
 2.0000e-001 69978 -8.0682e+001  9.5505e+000  1.8222e+001 66258 69799,69903,69825
 2.0000e-001 69955 -1.0534e+002 -2.7977e+001  7.5576e+000 66258 69799,69929,69903
 2.0000e-001 70073 -9.4656e+001 -2.4831e+001  1.1235e+001 66258 69877,69851,70047
 2.0000e-001 70096 -1.1972e+002 -4.1581e+001  3.8983e+001 66258 69877,70047,69903
 2.0000e-001 70602 -2.3965e+002 -9.2973e+001  3.3247e+001 66060 70305,70435,70331
 2.0000e-001 70579 -1.3887e+002 -2.6148e+001 -4.6143e+000 66060 70279,70435,70305
 2.0000e-001 70556 -1.6433e+002 -7.0871e+001  4.0201e+001 66060 70331,70435,70409
 2.0000e-001 70533 -1.5582e+002 -5.9807e+001 -1.3218e+001 66060 70279,70461,70435
 2.0000e-001 70510 -1.7862e+002 -8.6061e+001  4.6792e+001 66060 70331,70409,70357
 2.0000e-001 70487 -1.5277e+002 -9.0826e+001  7.9078e+001 66060 70357,70409,70383
 2.0000e-001 70703 -6.4144e+001  2.8899e+001  7.6501e+000 65862 70625,70677,70651
 2.0000e-001 71083 -4.7014e+001  7.8015e+000  6.4674e+000 65664 70887,70965,70939
 2.0000e-001 71060 -6.5853e+001  1.9084e+001  9.7286e+000 65664 70861,70965,70887
 2.0000e-001 71037 -6.6534e+001  4.3705e+001  2.5491e+000 65664 70809,70965,70861
 2.0000e-001 71014 -6.7977e+001  9.8992e+001  3.3040e+001 65664 70809,70861,70835
 2.0000e-001 70991 -4.5072e+001 -2.1763e+000 -7.8165e+000 65664 70887,70939,70913
 2.0000e-001 71611 -7.8243e+001 -2.1363e+001 -4.2793e-001 65260 71288,71444,71314
 2.0000e-001 71588 -8.7435e+001 -1.4313e+001  5.3428e+000 65260 71288,71470,71444
 2.0000e-001 71565 -1.5821e+002 -4.4787e+001 -3.0836e+001 65260 71314,71418,71392
 2.0000e-001 71542 -7.4629e+001 -1.5510e+001 -2.7962e+000 65260 71314,71444,71418
 2.0000e-001 71519 -1.4482e+002 -4.3887e+001 -3.6957e+001 65260 71314,71392,71340
 2.0000e-001 71496 -1.1454e+002  1.4628e+001  6.8251e+000 65260 71340,71392,71366
 2.0000e-001 72060 -1.1384e+002 -4.9809e+001  4.4070e+000 64870 71737,71893,71789
 2.0000e-001 72037 -1.4273e+002 -6.1987e+001  4.7519e+000 64870 71737,71919,71893
 2.0000e-001 72014 -1.0829e+002 -5.8410e+001 -1.1646e+001 64870 71789,71841,71815
 2.0000e-001 71991 -1.2269e+002 -4.9574e+001 -2.2178e+000 64870 71789,71893,71841
 2.0000e-001 71968 -1.1284e+002 -2.2199e+001  1.6806e+001 64870 71737,71789,71763
 2.0000e-001 71945 -1.4102e+002 -4.5574e+001  0.0000e+000 64870 71841,71893,71867
 2.0000e-001 72517 -1.3260e+002 -6.2686e+001  8.3384e+000 64466 72321,72399,72347
 2.0000e-001 72494 -1.4411e+002 -7.8371e+001  2.8057e+000 64466 72269,72399,72321
 2.0000e-001 72471 -1.2280e+002 -3.1670e+001 -5.7806e+000 64466 72347,72399,72373
 2.0000e-001 72448 -1.2897e+002 -6.0633e+001  2.6990e+001 64466 72243,72399,72269
 2.0000e-001 72425 -1.0041e+002  1.8006e+001 -6.7762e+000 64466 72269,72321,72295
 2.0000e-001 72944 -1.2849e+002 -5.6432e+001 -1.6835e+000 64062 73111,73039,72699
 2.0000e-001 72921 -1.3426e+002 -5.0881e+001  8.1631e-001 64062 73183,72967,72647
 2.0000e-001 72898 -1.3524e+002 -5.4432e+001 -1.9429e+000 64062 72967,72803,72751
 2.0000e-001 72875 -1.3534e+002 -5.9331e+001 -2.9286e+000 64062 73111,72699,72673
 2.0000e-001 72852 -1.3979e+002 -4.3877e+001 -3.0455e+000 64062 73183,72647,72621
 2.0000e-001 72829 -1.3251e+002 -6.6048e+001  1.0870e+001 64062 72751,72803,72777
 2.0000e-001 72993 -1.3724e+002 -5.7314e+001 -2.6632e+000 64062 73039,72647,72967
 2.0000e-001 73016 -1.2104e+002 -4.7108e+001  6.9932e-001 64062 72725,72967,72751
 2.0000e-001 73065 -1.5320e+002 -4.6568e+001 -2.4765e+001 64062 72725,72699,73039
 2.0000e-001 73088 -1.3572e+002 -4.9416e+001  2.2620e+000 64062 72725,73039,72967
 2.0000e-001 73137 -1.4398e+002 -6.0329e+001 -3.7045e+000 64062 72647,73039,73111
 2.0000e-001 73160 -1.4536e+002 -6.0331e+001 -5.1140e+000 64062 72647,73111,72673
 2.0000e-001 73209 -1.3073e+002 -4.4526e+001 -3.2104e+000 64062 72803,72967,73183
 2.0000e-001 73232 -1.3263e+002 -3.1519e+001 -7.2031e+000 64062 72803,73183,72621
 2.0000e-001 73333 -7.8755e+001  4.1833e+001 -1.7059e+001 63814 73356,73281,73255
 2.0000e-001 73382 -1.2006e+002 -4.1802e+001 -8.2074e+000 63814 73486,73356,73307
 2.0000e-001 73512 -7.2743e+001 -2.1435e+001  9.4153e+000 63814 73281,73356,73486
 2.0000e-001 73839 -1.3629e+002  2.1735e+001  1.4951e+001 63616 73862,73692,73666
 2.0000e-001 73816 -1.1595e+002 -2.0512e+001 -6.7111e-001 63616 73934,73862,73666
 2.0000e-001 73793 -1.0361e+002 -7.9850e+000  6.7782e+000 63616 73934,73666,73640
 2.0000e-001 73770 -1.1193e+002 -2.0647e+001 -5.8699e+000 63616 73614,73744,73640
 2.0000e-001 73888 -1.4109e+002 -2.3783e+001  2.1813e+001 63616 73718,73692,73862
 2.0000e-001 73911 -1.3829e+002 -5.5374e+001 -2.4753e+001 63616 73718,73862,73744
 2.0000e-001 73960 -1.2894e+002 -1.3789e+001 -1.0937e+001 63616 73744,73862,73934
 2.0000e-001 73983 -1.2332e+002 -1.3092e+001 -6.0728e+000 63616 73744,73934,73640
 2.0000e-001 74363 -1.3614e+002 -5.6037e+001 -2.8893e+000 63390 74386,74115,74089
 2.0000e-001 74340 -1.2998e+002 -6.2129e+001 -2.1041e+000 63390 74458,74386,74089
 2.0000e-001 74317 -1.3596e+002 -5.8451e+001 -1.5060e+001 63390 74458,74089,74245
 2.0000e-001 74294 -1.2801e+002 -6.0996e+001  3.7631e+000 63390 74530,74167,74141
 2.0000e-001 74271 -1.3065e+002 -6.3963e+001  1.5769e+001 63390 74167,74219,74193
 2.0000e-001 74412 -1.3617e+002 -4.9781e+001  2.6991e+000 63390 74141,74115,74386
 2.0000e-001 74435 -1.3640e+002 -6.0774e+001 -2.1431e+000 63390 74530,74141,74386
 2.0000e-001 74484 -1.4091e+002 -8.0537e+001 -9.7766e+000 63390 74219,74386,74458
 2.0000e-001 74507 -1.5273e+002 -8.2173e+001 -2.4011e+001 63390 74219,74458,74245
 2.0000e-001 74556 -1.1747e+002 -6.1053e+001  6.5706e+000 63390 74219,74167,74530
 2.0000e-001 74579 -1.2426e+002 -6.0636e+001  2.7319e-004 63390 74219,74530,74386
 2.0000e-001 74680 -7.1520e+001 -1.4745e+001  3.1491e+000 63100 75089,74833,74703
 2.0000e-001 74729 -4.3420e+001  1.0207e+001 -2.8108e+001 63100 74961,74703,74654
 2.0000e-001 74859 -7.4646e+001 -4.0957e+001 -7.6856e+000 63100 74602,74703,74833
 2.0000e-001 74987 -6.1528e+001 -8.3475e+000  8.9563e+000 63100 75089,74703,74961
 2.0000e-001 75115 -9.4284e+001 -3.4242e+000 -7.4660e+000 63100 74628,74833,75089
 2.0000e-001 75138 -8.4222e+001  3.0152e+000 -1.6481e+000 63100 74628,75089,74961
 2.0000e-001 75723 -7.0666e+001 -2.9340e+001  2.5991e+001 62532 75746,75504,75426
 2.0000e-001 75700 -1.0692e+002 -3.1734e+001  4.5276e+001 62532 75746,75426,75556
 2.0000e-001 75677 -8.2528e+001 -2.2121e+001 -1.6613e+000 62532 75426,75504,75452
 2.0000e-001 75654 -1.8020e+002 -6.3376e+001  5.1870e+001 62532 75400,75556,75426
 2.0000e-001 75631 -1.9120e+002 -1.2446e+002  8.7361e+000 62532 75400,75582,75556
 2.0000e-001 75608 -6.4602e+001 -9.7180e+000 -7.4617e+000 62532 75452,75504,75478
 2.0000e-001 75772 -1.1636e+002  2.7912e+000  3.0165e+001 62532 75530,75504,75746
 2.0000e-001 75795 -1.7110e+002 -1.6405e+001  5.2540e+001 62532 75530,75746,75556
 2.0000e-001 76301 -1.1490e+002 -2.6550e+001  1.1872e+001 62192 76324,76082,76030
 2.0000e-001 76278 -1.2990e+002 -2.8098e+001  1.0813e+001 62192 76324,76030,76004
 2.0000e-001 76255 -9.5495e+001 -1.9670e+001  1.4626e+001 62192 76030,76082,76056
 2.0000e-001 76232 -8.7194e+001 -2.3610e-001  3.3443e+000 62192 76082,76134,76108
 2.0000e-001 76209 -1.6217e+002 -5.3918e+001 -4.0119e+000 62192 76004,76160,76134
 2.0000e-001 76186 -1.5422e+002 -7.0593e+001 -1.8134e+000 62192 75978,76160,76004
 2.0000e-001 76350 -1.0267e+002 -3.2053e+001  1.0291e+001 62192 76134,76082,76324
 2.0000e-001 76373 -1.1404e+002 -3.0881e+001  7.0943e+000 62192 76134,76324,76004
 2.0000e-001 76879 -4.6911e+001  1.0570e+001 -1.5636e+001 61788 76902,76660,76582
 2.0000e-001 76856 -2.8198e+001 -1.4774e+000 -2.3904e+001 61788 76902,76582,76556
 2.0000e-001 76833 -7.6507e+001 -1.2967e+001  3.6216e+000 61788 76582,76660,76634
 2.0000e-001 76810 -5.9245e+001 -2.5125e+001  5.3549e+000 61788 76582,76634,76608
 2.0000e-001 76787 -2.3832e+001 -1.6131e+001 -5.8257e+000 61788 76556,76738,76686
 2.0000e-001 76764 -4.8429e+001 -2.5213e+001  5.1065e-001 61788 76686,76738,76712
 2.0000e-001 76928 -5.1020e+001  6.0417e-001 -1.2670e+001 61788 76686,76660,76902
 2.0000e-001 76951 -3.8201e+001 -1.8296e+001 -1.8347e+001 61788 76686,76902,76556
 2.0000e-001 77408 -1.2915e+002 -2.9615e+001  1.8201e+001 61498 77212,77264,77238
 2.0000e-001 77385 -1.4893e+002 -5.5627e+001 -3.2299e+000 61498 77160,77264,77212
 2.0000e-001 77362 -1.3076e+002 -5.3452e+001 -3.6900e+000 61498 77160,77290,77264
 2.0000e-001 77339 -1.5279e+002 -2.4881e+001 -1.1313e+001 61498 77160,77212,77186
 2.0000e-001 77316 -9.2732e+001  1.5003e+001  2.2127e+001 61498 77134,77290,77160
 2.0000e-001 77678 -2.0733e+002  2.6132e+001  3.2865e+000 61129 77479,77557,77505
 2.0000e-001 77655 -2.0823e+002 -2.7344e+001  1.0710e+000 61129 77479,77583,77557
 2.0000e-001 77632 -1.9484e+002 -7.6528e+001  1.1324e+001 61129 77453,77583,77479
 2.0000e-001 77609 -1.7959e+002  6.9816e+001  4.1804e+001 61129 77505,77557,77531
 2.0000e-001 77828 -1.1424e+001  2.6934e+000  4.4896e+000 60931 77851,77727,77701
 2.0000e-001 77805 -1.8702e+001 -1.2320e+001  1.1757e+001 60931 77851,77701,77779
 2.0000e-001 77877 -1.3707e+001  3.0768e+001 -8.7296e+000 60931 77923,77851,77753
 2.0000e-001 77900 -4.9111e+001  1.3172e+001  6.6465e+000 60931 77753,77851,77779
 2.0000e-001 77949 -2.8004e+001  9.7583e+000  2.3264e+000 60931 77727,77851,77923
 2.0000e-001 78133 -1.6325e+002 -1.0333e+002  6.4347e+000 60377 78055,78107,78081
 2.0000e-001 78535 -8.3299e+001 -2.9125e+001  4.2799e+000 60015 78287,78391,78313
 2.0000e-001 78512 -1.2252e+002 -3.0472e+001  1.0123e+001 60015 78287,78417,78391
 2.0000e-001 78489 -1.0446e+002 -1.5374e+001  2.0309e+001 60015 78261,78417,78287
 2.0000e-001 78466 -1.3539e+002 -5.0446e+001  1.2027e+000 60015 78339,78391,78365
 2.0000e-001 78443 -1.4220e+002 -5.6865e+001 -4.4063e+000 60015 78313,78391,78339
 2.0000e-001 78913 -1.1803e+002 -5.4801e+001  1.1596e+001 59725 78936,78743,78691
 2.0000e-001 78890 -1.0441e+002 -2.0776e+001  1.9401e+001 59725 79008,78936,78691
 2.0000e-001 78867 -9.3951e+001 -1.6774e+000  2.7035e+001 59725 79008,78691,78665
 2.0000e-001 78844 -1.2510e+002 -5.4664e+001  6.6781e+000 59725 78691,78743,78717
 2.0000e-001 78821 -1.2617e+002 -7.2419e+001  2.4832e+001 59725 78639,78795,78769
 2.0000e-001 78962 -1.1010e+002 -2.6861e+001  1.0028e+001 59725 78769,78743,78936
 2.0000e-001 78985 -1.2332e+002 -3.8700e+001  5.0596e+000 59725 78769,78936,78639
 2.0000e-001 79034 -1.1607e+002 -2.2097e+001  4.1469e+000 59725 78639,78936,79008
 2.0000e-001 79057 -1.0541e+002 -1.5661e+001  1.0787e+001 59725 78639,79008,78665
 2.0000e-001 79386 -1.3385e+002 -4.2113e+001 -6.1296e-001 59221 79187,79239,79213
 2.0000e-001 79363 -1.3606e+002 -5.0369e+001  2.5806e+000 59221 79187,79265,79239
 2.0000e-001 79340 -1.2063e+002 -4.7309e+001 -2.2441e+000 59221 79187,79291,79265
 2.0000e-001 79317 -1.3550e+002 -8.1153e+001  1.8424e+000 59221 79161,79291,79187
 2.0000e-001 79813 -1.3288e+002 -1.0796e+001  4.7770e+000 58831 79836,79542,79516
 2.0000e-001 79790 -1.1922e+002 -4.6003e+000  3.2204e+000 58831 79980,79836,79516
 2.0000e-001 79767 -6.6511e+001 -1.9209e+001 -7.1021e+000 58831 79908,79646,79568
 2.0000e-001 79744 -1.6937e+002 -8.2329e+000  9.8403e+000 58831 79980,79516,79490
 2.0000e-001 79721 -4.7629e+001 -1.1149e+001 -4.4597e+000 58831 79568,79646,79594
 2.0000e-001 79698 -5.1896e+001 -1.5858e+001 -6.2916e+000 58831 79594,79646,79620
 2.0000e-001 79862 -9.7340e+001 -1.6131e+001  1.5376e+000 58831 79568,79542,79836
 2.0000e-001 79885 -7.2612e+001 -1.9206e+001 -1.3112e+001 58831 79908,79568,79836
 2.0000e-001 79934 -6.2411e+001 -1.7818e+001 -6.6678e+000 58831 79672,79646,79908
 2.0000e-001 79957 -6.1916e+001 -1.4769e+001 -1.3100e+001 58831 79672,79908,79836
 2.0000e-001 80006 -9.4534e+001 -1.8584e+000 -1.7639e+001 58831 79672,79836,79980
 2.0000e-001 80029 -1.1914e+002  9.7037e-001 -2.8547e+000 58831 79672,79980,79490
 2.0000e-001 80358 -1.3036e+002 -3.5704e+001  7.5257e+000 58377 80381,80185,80159
 2.0000e-001 80335 -1.3647e+002 -3.7800e+001  6.6490e+000 58377 80381,80159,80133
 2.0000e-001 80312 -1.4756e+002 -4.5034e+001  1.2022e+000 58377 80133,80263,80237
 2.0000e-001 80289 -1.1866e+002 -3.2658e+001 -3.5908e+000 58377 80185,80237,80211
 2.0000e-001 80407 -1.1951e+002 -3.8751e+001  6.1305e+000 58377 80237,80185,80381
 2.0000e-001 80430 -1.3037e+002 -4.3849e+001  4.4225e+000 58377 80237,80381,80133
 2.0000e-001 80759 -1.3036e+002 -5.8343e+001 -1.3851e+001 57873 80782,80586,80560
 2.0000e-001 80736 -1.1939e+002 -4.2522e+001 -7.6027e+000 57873 80782,80560,80534
 2.0000e-001 80713 -1.0967e+002 -3.1609e+001 -3.0403e+000 57873 80586,80638,80612
 2.0000e-001 80690 -1.4532e+002 -4.2605e+001 -9.1783e+000 57873 80534,80664,80638
 2.0000e-001 80808 -1.2329e+002 -4.3693e+001 -8.4624e+000 57873 80638,80586,80782
 2.0000e-001 80831 -1.2355e+002 -3.9153e+001 -4.8036e+000 57873 80638,80782,80534
 2.0000e-001 81337 -1.3701e+001 -6.4826e+000  1.3878e+000 57262 81360,81144,81092
 2.0000e-001 81314 -1.2261e+001 -4.4073e+000 -9.3512e-001 57262 81360,81092,81066
 2.0000e-001 81291 -5.8662e+000 -1.2023e+001 -7.9427e-001 57262 81014,81196,81066
 2.0000e-001 81268 -7.4009e+000  5.2171e+000  4.0735e+000 57262 81092,81144,81118
 2.0000e-001 81245 -1.1809e+001 -3.1446e+001  1.1349e+001 57262 81144,81196,81170
 2.0000e-001 81222 -8.5633e-001 -4.4306e-001  4.4064e-001 57262 81014,81066,81040
 2.0000e-001 81386 -1.0269e+001 -6.7477e+000  5.4525e-001 57262 81196,81144,81360
 2.0000e-001 81409 -9.6468e+000 -4.9394e+000 -1.8342e+000 57262 81196,81360,81066
 2.0000e-001 81608 -2.1742e+002 -8.2003e+001 -2.2536e+001 57007 81458,81536,81510
 2.0000e-001 81585 -2.0717e+002 -5.5090e+001 -2.0340e+001 57007 81432,81536,81458
 2.0000e-001 81562 -1.1113e+002 -1.0723e+002 -7.4589e+001 57007 81458,81510,81484
 2.0000e-001 82086 -9.5971e+001 -5.8111e+001  7.1478e+000 56339 81792,81922,81818
 2.0000e-001 82063 -7.0802e+001 -6.5333e+001 -8.0911e-001 56339 81714,81922,81792
 2.0000e-001 82040 -1.2031e+002 -8.3355e+001  1.8120e+001 56339 82109,81844,81818
 2.0000e-001 82017 -1.0783e+002 -8.4019e+001  2.1092e+001 56339 82109,81818,81922
 2.0000e-001 81994 -1.2148e+002 -5.4124e+001  8.0682e+000 56339 81844,81896,81870
 2.0000e-001 81971 -6.4061e+001 -4.3532e+001 -1.8049e+001 56339 81714,81792,81766
 2.0000e-001 81948 -1.2082e+002 -5.4054e+001 -3.9746e+001 56339 81714,81766,81740
 2.0000e-001 82135 -1.3846e+002 -8.1505e+001  1.6245e+001 56339 81896,81844,82109
 2.0000e-001 82158 -1.2054e+002 -7.6734e+001  2.1556e+001 56339 81896,82109,81922
 2.0000e-001 82536 -1.3628e+002 -6.1118e+001  4.0709e+000 55699 82288,82392,82314
 2.0000e-001 82513 -1.7390e+002 -8.0290e+001 -9.6472e+000 55699 82288,82418,82392
 2.0000e-001 82490 -1.2793e+002 -6.4116e+001  7.5941e+000 55699 82314,82392,82340
 2.0000e-001 82467 -1.2774e+002 -6.4889e+001  7.5538e+000 55699 82340,82392,82366
 2.0000e-001 82444 -1.4916e+002 -4.0385e+000  1.3440e+001 55699 82262,82418,82288
 2.0000e-001 83091 -4.1018e+001 -2.8554e+001  7.2030e+000 55409 82745,82901,82875
 2.0000e-001 83068 -4.2586e+001 -3.5767e+001  6.0506e+000 55409 82719,82901,82745
 2.0000e-001 83045 -5.2766e+001 -1.8287e+001  1.4269e+000 55409 82771,82849,82823
 2.0000e-001 83022 -4.3477e+001 -8.6953e+000  1.5683e+001 55409 82745,82849,82771
 2.0000e-001 82999 -2.4077e+001 -2.1722e+001  1.4868e+001 55409 82745,82875,82849
 2.0000e-001 82976 -5.9457e+001 -2.4333e+001  3.9561e+000 55409 82771,82823,82797
 2.0000e-001 82953 -2.7434e+001 -2.8601e+001  2.5934e+000 55409 82719,82927,82901
 2.0000e-001 83388 -1.2058e+002 -4.3492e+001 -2.7197e+000 54905 83411,83218,83166
 2.0000e-001 83365 -1.1835e+002 -3.7478e+001  5.4734e-001 54905 83411,83166,83114
 2.0000e-001 83342 -9.9232e+001 -2.7517e+001  1.3630e+001 54905 83483,83270,83244
 2.0000e-001 83319 -1.0219e+002 -3.1811e+001 -7.7354e+000 54905 83166,83218,83192
 2.0000e-001 83296 -1.1788e+002 -4.1685e+001  5.7706e+000 54905 83114,83166,83140
 2.0000e-001 83437 -1.2284e+002 -3.4772e+001  1.7914e+000 54905 83244,83218,83411
 2.0000e-001 83460 -1.1341e+002 -2.7303e+001  7.0389e+000 54905 83483,83244,83411
 2.0000e-001 83509 -1.1800e+002 -4.2559e+001  6.9691e+000 54905 83114,83270,83483
 2.0000e-001 83532 -1.2281e+002 -3.6874e+001  1.8808e+000 54905 83114,83483,83411
 2.0000e-001 83961 -7.2453e+001  3.6621e+000 -1.0469e+001 54593 83638,83768,83690
 2.0000e-001 83938 -1.1002e+001  1.1964e+001 -8.9204e-001 54593 83638,83794,83768
 2.0000e-001 83915 -4.4211e+001  2.7127e+001  9.0361e-001 54593 83690,83768,83742
 2.0000e-001 83892 -4.7304e+001  2.2742e+001 -3.1116e+001 54593 83638,83820,83794
 2.0000e-001 83869 -2.4437e+001  1.6976e+002 -3.1307e+001 54593 83638,83690,83664
 2.0000e-001 83846 -6.1869e+000 -4.2146e-001  4.1097e+001 54593 83690,83742,83716
 2.0000e-001 84209 -1.0102e+002 -3.2500e+001 -2.7832e+000 54132 84232,84062,83984
 2.0000e-001 84186 -1.0830e+002 -4.4045e+001  1.1565e+000 54132 84232,83984,84114
 2.0000e-001 84163 -1.0076e+002 -3.0776e+001 -6.9229e+000 54132 83984,84062,84036
 2.0000e-001 84140 -9.6662e+001 -6.4170e+001 -1.8824e+000 54132 83984,84036,84010
 2.0000e-001 84258 -1.1367e+002 -1.7037e+001 -5.6706e-001 54132 84088,84062,84232
 2.0000e-001 84281 -1.2510e+002 -3.1351e+001  5.5197e+000 54132 84088,84232,84114
 2.0000e-001 84382 -1.5064e+002  8.5389e+000  6.0666e+000 53521 84304,84356,84330
 2.0000e-001 84632 -1.1421e+002 -3.4111e+001  1.1613e+001 53067 84655,84485,84459
 2.0000e-001 84609 -1.0337e+002 -4.2806e+001  1.3290e+001 53067 84655,84459,84407
 2.0000e-001 84586 -1.1895e+002 -3.0645e+001  2.1163e+001 53067 84485,84537,84511
 2.0000e-001 84563 -9.8625e+001 -4.1922e+001 -6.8335e+000 53067 84407,84459,84433
 2.0000e-001 84681 -1.1670e+002 -4.0420e+001  1.3680e+001 53067 84537,84485,84655
 2.0000e-001 84704 -1.1339e+002 -5.4857e+001  1.8210e+001 53067 84537,84655,84407
 2.0000e-001 85214 -5.6375e+001 -1.5208e-001 -9.5925e-001 52513 85021,85073,85047
 2.0000e-001 85191 -7.3172e+001  6.0278e+000  1.1852e+000 52513 84943,85073,85021
 2.0000e-001 85168 -1.3709e+002 -2.6109e+001 -1.9943e+001 52513 84943,85021,84995
 2.0000e-001 85145 -8.6132e+001 -3.0122e+001  5.9777e+000 52513 84917,85073,84943
 2.0000e-001 85122 -1.0713e+002 -2.8474e+001 -2.2235e+001 52513 84943,84995,84969
 2.0000e-001 85099 -3.4792e+001 -4.1048e+001  9.3571e-001 52513 84891,85073,84917
 2.0000e-001 85582 -1.0733e+002 -3.2562e+001 -7.8654e+000 52037 85605,85311,85285
 2.0000e-001 85559 -1.1069e+002 -3.8086e+001 -6.3518e+000 52037 85749,85605,85285
 2.0000e-001 85536 -1.1051e+002 -3.3189e+001 -4.7292e+000 52037 85893,85677,85389
 2.0000e-001 85513 -1.1010e+002 -4.4500e+001 -3.1080e+000 52037 85749,85285,85259
 2.0000e-001 85490 -1.0831e+002 -3.2624e+001 -7.4597e+000 52037 85893,85389,85363
 2.0000e-001 85467 -1.0693e+002 -2.3739e+001  1.3760e+000 52037 85259,85441,85415
 2.0000e-001 85631 -1.0809e+002 -2.7018e+001 -7.6794e-001 52037 85337,85311,85605
 2.0000e-001 85654 -1.1235e+002 -3.5882e+001 -2.0827e+000 52037 85677,85337,85605
 2.0000e-001 85703 -1.1718e+002 -3.4617e+001 -4.2336e+000 52037 85415,85389,85677
 2.0000e-001 85726 -1.1206e+002 -3.1378e+001 -3.6641e+000 52037 85821,85677,85605
 2.0000e-001 85775 -1.1165e+002 -3.1962e+001 -5.5653e+000 52037 85821,85605,85749
 2.0000e-001 85798 -1.0909e+002 -3.6979e+001 -2.8368e+000 52037 85415,85749,85259
 2.0000e-001 85847 -1.1312e+002 -3.3884e+001 -3.5757e+000 52037 85415,85677,85821
 2.0000e-001 85870 -1.1283e+002 -3.4566e+001 -5.3112e+000 52037 85415,85821,85749
 2.0000e-001 85919 -1.1178e+002 -3.7371e+001 -2.7356e+000 52037 85337,85677,85893
 2.0000e-001 85942 -1.1089e+002 -3.7745e+001 -5.2609e+000 52037 85337,85893,85363
 2.0000e-001 86224 -5.6242e+001 -1.0945e+001  3.7777e+000 51368 86375,86100,86074
 2.0000e-001 86201 -2.7907e+001 -2.1559e+000  1.2419e+000 51368 86375,86074,86247
 2.0000e-001 86178 -4.3945e+001 -2.1828e+001 -4.3012e+000 51368 86048,86152,86126
 2.0000e-001 86273 -8.1452e+001 -1.1210e+001  6.1112e+000 51368 86048,86126,86247
 2.0000e-001 86401 -7.1040e+001 -1.9224e+000  1.6329e+001 51368 86126,86100,86375
 2.0000e-001 86424 -5.6831e+001 -3.3687e+000  1.4317e+001 51368 86126,86375,86247
 2.0000e-001 86802 -1.1757e+002 -4.5518e+001  1.0223e+001 51028 86528,86632,86580
 2.0000e-001 86779 -9.0635e+001 -1.6160e+001 -1.0485e+000 51028 86528,86684,86632
 2.0000e-001 86756 -1.0986e+002 -2.5753e+001  4.0377e+000 51028 86528,86580,86554
 2.0000e-001 86733 -1.0364e+002 -3.3775e+001 -8.6710e+000 51028 86632,86684,86658
 2.0000e-001 86710 -1.2347e+002 -2.5226e+001  3.2353e+001 51028 86580,86632,86606
 2.0000e-001 87131 -1.0993e+002 -4.8587e+001  1.1406e+001 50624 86958,87036,87010
 2.0000e-001 87108 -1.0563e+002 -3.8195e+001  1.3798e+001 50624 86932,87036,86958
 2.0000e-001 87085 -9.3278e+001 -4.1989e+001  1.4248e+001 50624 86958,87010,86984
 2.0000e-001 87062 -7.7155e+001 -2.9292e+001  9.8078e+000 50624 86906,87036,86932
 2.0000e-001 87330 -8.3535e+001 -4.5302e+000  6.6130e+000 50234 87353,87180,87154
 2.0000e-001 87307 -9.7227e+001  6.3127e+000  5.1491e-001 50234 87353,87154,87258
 2.0000e-001 87284 -1.1657e+002 -2.8798e+001  7.5749e+000 50234 87206,87258,87232
 2.0000e-001 87379 -9.2836e+001 -1.8159e+001  2.5430e+000 50234 87206,87180,87353
 2.0000e-001 87402 -1.0494e+002 -3.2297e+000 -2.8320e+000 50234 87206,87353,87258
 2.0000e-001 87650 -1.1326e+002 -1.7984e+001  1.2137e+001 49730 87673,87503,87451
 2.0000e-001 87627 -1.2008e+002 -2.1175e+001  9.4569e+000 49730 87673,87451,87425
 2.0000e-001 87604 -1.1551e+002 -3.0614e+001  9.2733e+000 49730 87503,87555,87529
 2.0000e-001 87581 -1.0621e+002 -2.4594e+001  1.1844e+001 49730 87451,87503,87477
 2.0000e-001 87699 -1.1281e+002 -2.1910e+001  9.6284e+000 49730 87555,87503,87673
 2.0000e-001 87722 -1.1401e+002 -2.4213e+001  8.3916e+000 49730 87555,87673,87425
 2.0000e-001 88232 -1.1234e+002 -3.5321e+001  4.6682e+000 49176 88255,87935,87909
 2.0000e-001 88209 -9.7149e+001 -2.2501e+001 -1.2193e+001 49176 88255,87909,88065
 2.0000e-001 88186 -1.1712e+002 -4.3662e+001 -1.7822e+000 49176 87935,88039,87961
 2.0000e-001 88163 -1.2553e+002 -3.4337e+001 -7.0574e+000 49176 87909,88091,88065
 2.0000e-001 88140 -1.4211e+002 -5.2740e+001  1.0369e+001 49176 87961,88039,88013
 2.0000e-001 88117 -1.4001e+002 -4.5074e+001  1.1065e+001 49176 87961,88013,87987
 2.0000e-001 88281 -9.5472e+001 -2.8771e+001 -8.3164e+000 49176 88039,87935,88255
 2.0000e-001 88304 -8.0969e+001 -1.7373e+001 -2.4940e+001 49176 88039,88255,88065
 2.0000e-001 88503 -1.2212e+002 -5.7021e+001 -2.1139e+000 48772 88526,88379,88353
 2.0000e-001 88480 -1.1953e+002 -5.6716e+001 -1.6509e+000 48772 88526,88353,88327
 2.0000e-001 88457 -1.1027e+002 -2.5464e+001 -5.1909e-001 48772 88379,88431,88405
 2.0000e-001 88552 -1.2336e+002 -5.6508e+001 -1.6588e+000 48772 88431,88379,88526
 2.0000e-001 88575 -1.2187e+002 -5.7020e+001 -1.5933e+000 48772 88431,88526,88327
 2.0000e-001 89083  6.0245e+000 -3.3844e+000  5.9025e-001 48368 88786,88916,88864
 2.0000e-001 89060 -6.6569e-001 -4.3630e+000 -7.1835e-002 48368 88786,88942,88916
 2.0000e-001 89037  2.1518e+000 -7.1149e-001  5.6452e+000 48368 88786,88864,88812
 2.0000e-001 89014 -1.0428e+001 -3.2212e+000 -1.8736e+000 48368 88864,88916,88890
 2.0000e-001 88991 -7.2704e-001  4.6686e+000  1.1049e+000 48368 88812,88864,88838
 2.0000e-001 88968  2.1875e+000 -2.8693e+000  5.0495e-001 48368 88760,88942,88786
 2.0000e-001 89331 -9.7832e+001 -3.2888e+001 -1.6540e+001 47928 89158,89236,89210
 2.0000e-001 89308 -9.5102e+001 -2.3472e+001 -1.5402e+001 47928 89132,89236,89158
 2.0000e-001 89285 -6.2333e+001 -1.6893e+001 -2.8740e+000 47928 89158,89210,89184
 2.0000e-001 89262 -8.9556e+001 -2.0539e+001 -1.3733e+001 47928 89106,89236,89132
 2.0000e-001 89662 -7.4615e+001 -3.7389e+000  1.6349e+000 47588 89463,89541,89515
 2.0000e-001 89639 -8.9484e+001 -3.1085e+001  7.3281e+000 47588 89463,89567,89541
 2.0000e-001 89616 -7.7162e+001  9.5163e+000 -6.5033e+000 47588 89463,89515,89489
 2.0000e-001 89593 -8.9486e+001 -3.5539e+001  1.0808e+001 47588 89437,89567,89463
 2.0000e-001 89763 -2.4223e+002 -2.8485e+001 -1.0336e+001 47390 89685,89737,89711
 2.0000e-001 89913 -1.4323e+002 -2.7796e+001 -1.7665e+001 47078 89786,89838,89812
 2.0000e-001 89890 -4.6303e+001 -3.0878e+001 -2.4963e+001 47078 89786,89864,89838
 2.0000e-001 90163 -1.0024e+002 -1.9087e+001  4.0266e+000 46474 89964,90042,89990
 2.0000e-001 90140 -1.1917e+002 -2.6737e+001  2.2057e+000 46474 89938,90042,89964
 2.0000e-001 90117 -1.0053e+002 -2.0232e+001  3.6971e+000 46474 89990,90042,90016
 2.0000e-001 90094 -1.1179e+002 -2.0183e+001 -5.9030e-001 46474 89938,90068,90042
 2.0000e-001 90364 -7.5615e+001 -1.8702e+001  1.1239e+001 46184 90240,90292,90266
 2.0000e-001 90341 -5.7619e+001  1.1174e+001  2.5933e+001 46184 90188,90292,90240
 2.0000e-001 90318 -7.0800e+001 -2.8784e+001  1.9592e+001 46184 90188,90240,90214
 2.0000e-001 90565 -1.4409e+002 -2.5165e+001 -7.2655e+000 45780 90588,90415,90389
 2.0000e-001 90542 -1.2607e+002 -2.9231e+001 -2.8161e+000 45780 90588,90389,90493
 2.0000e-001 90519 -1.0804e+002 -1.5334e+001  9.6778e+000 45780 90415,90467,90441
 2.0000e-001 90614 -1.3004e+002 -2.8417e+001  4.0429e+000 45780 90467,90415,90588
 2.0000e-001 90637 -1.0511e+002 -2.2416e+001  1.1692e+001 45780 90467,90588,90493
 2.0000e-001 91196 -7.9188e+001 -1.8996e+001  1.3325e+001 45226 91219,90876,90850
 2.0000e-001 91173 -9.7636e+001 -2.0351e+001 -1.6202e+000 45226 91219,90850,91032
 2.0000e-001 91150 -1.0502e+002 -6.8865e+000  1.1898e+001 45226 90824,91032,90850
 2.0000e-001 91127 -1.1872e+002 -4.1073e+001  5.2578e+000 45226 90876,90980,90902
 2.0000e-001 91104 -8.8721e+001 -3.2553e+001  7.3425e+000 45226 90876,91006,90980
 2.0000e-001 91081 -1.2646e+002 -3.5285e+001  1.4915e+001 45226 90902,90980,90954
 2.0000e-001 91058 -2.0664e+002 -4.4576e+001  1.4081e+000 45226 90902,90954,90928
 2.0000e-001 91245 -9.4435e+001 -3.4673e+001  7.0921e+000 45226 91006,90876,91219
 2.0000e-001 91268 -1.1004e+002 -3.0995e+001 -6.3087e+000 45226 91006,91219,91032
 2.0000e-001 91516 -2.4522e+001  1.6689e+001 -6.0917e+000 44836 91539,91421,91395
 2.0000e-001 91493 -5.4112e+001  2.4194e+001 -9.8902e+000 44836 91317,91421,91343
 2.0000e-001 91470 -2.2833e+001 -2.0688e+001  1.4609e+001 44836 91539,91395,91369
 2.0000e-001 91447 -9.0460e+000 -6.8993e+000 -3.3621e+001 44836 91291,91421,91317
 2.0000e-001 91565 -1.8746e+001  3.3469e+001 -6.4429e+000 44836 91343,91421,91539
 2.0000e-001 91588 -3.5764e+000  2.4223e+001  1.5312e+001 44836 91343,91539,91369
 2.0000e-001 91787 -7.2009e+001  1.7669e+001  8.6896e+000 44432 91810,91637,91611
 2.0000e-001 91764 -5.1276e+001  2.2727e+001  3.8450e+000 44432 91810,91611,91715
 2.0000e-001 91741 -6.7738e+001  7.1546e+000 -2.6459e+001 44432 91637,91689,91663
 2.0000e-001 91836 -5.3519e+001  1.4362e+001  1.1709e+001 44432 91689,91637,91810
 2.0000e-001 91859 -4.1606e+001  1.2845e+001  1.0949e+001 44432 91689,91810,91715
 2.0000e-001 92207 -9.3326e+001 -6.2092e+000 -1.9917e+001 43864 92230,91936,91910
 2.0000e-001 92184 -6.7257e+001 -3.9375e+001 -1.9695e+001 43864 92230,91910,92040
 2.0000e-001 92161 -5.4270e+001 -3.1379e+001 -4.6695e+000 43864 91884,92040,91910
 2.0000e-001 92138 -1.4534e+002  4.6229e+000  4.0078e+000 43864 91936,92014,91988
 2.0000e-001 92115 -5.5360e+001  1.3608e+001  1.2709e+001 43864 91936,91988,91962
 2.0000e-001 92092 -5.0679e+001 -9.6574e+000 -9.5384e+000 43864 91884,92066,92040
 2.0000e-001 92256 -7.5270e+001  3.6625e+001 -7.6057e+000 43864 92014,91936,92230
 2.0000e-001 92279 -6.8272e+001 -1.7079e+001 -1.3547e+001 43864 92014,92230,92040
 2.0000e-001 92529 -1.0946e+002 -1.5803e+001  8.1324e+000 43410 92552,92330,92304
 2.0000e-001 92506 -1.0968e+002 -1.6221e+001  1.7378e+000 43410 92552,92304,92408
 2.0000e-001 92483 -1.1990e+002 -2.4458e+001  6.0075e+000 43410 92304,92434,92408
 2.0000e-001 92460 -8.7339e+001 -2.4268e+001  1.1445e+001 43410 92330,92382,92356
 2.0000e-001 92578 -1.0478e+002 -1.3808e+001  8.2007e+000 43410 92382,92330,92552
 2.0000e-001 92601 -1.0151e+002 -1.2838e+001  1.1663e+000 43410 92382,92552,92408
 2.0000e-001 92802 -3.0996e+001 -9.6043e+000  2.2649e+001 43162 92825,92704,92652
 2.0000e-001 92779 -3.2063e+001 -5.7872e+000  1.5748e+001 43162 92825,92652,92626
 2.0000e-001 92756 -2.1901e+001  2.3220e+001  3.3799e+001 43162 92652,92704,92678
 2.0000e-001 92851 -3.0695e+001 -7.8453e+000  1.8458e+001 43162 92730,92704,92825
 2.0000e-001 92874 -1.1904e+001  1.6327e+001  6.7667e+000 43162 92730,92825,92626
 2.0000e-001 93463 -1.3179e+002 -6.5177e+001  2.0334e+001 42758 93140,93270,93166
 2.0000e-001 93440 -1.0805e+002 -5.1525e+001  1.5307e+000 42758 93140,93296,93270
 2.0000e-001 93417 -1.0959e+002 -4.0637e+001  6.6269e+000 42758 93166,93270,93218
 2.0000e-001 93394 -1.4420e+002 -3.6345e+001  1.8021e+001 42758 93218,93270,93244
 2.0000e-001 93371 -1.0485e+002 -4.7803e+001  7.2632e-002 42758 93140,93322,93296
 2.0000e-001 93348 -9.3524e+001 -5.8769e+000 -1.8759e+000 42758 93166,93218,93192
 2.0000e-001 93920 -9.2415e+001 -3.0667e+001  3.4419e+000 42304 93943,93672,93646
 2.0000e-001 93897 -9.8737e+001 -5.1791e+001  1.5444e+000 42304 93943,93646,93802
 2.0000e-001 93874 -9.8824e+001 -3.1888e+001  6.3307e-001 42304 93724,93802,93776
 2.0000e-001 93851 -1.0034e+002 -2.1969e+001  7.7781e+000 42304 93672,93724,93698
 2.0000e-001 93828 -5.9968e+001 -9.7577e+000  1.4911e+001 42304 93724,93776,93750
 2.0000e-001 93969 -9.7222e+001 -2.3553e+001  9.7450e+000 42304 93724,93672,93943
 2.0000e-001 93992 -9.6087e+001 -3.3100e+001  7.3744e+000 42304 93724,93943,93802
 2.0000e-001 94321 -5.9775e+001 -8.2892e+000 -9.7678e+000 41478 94096,94148,94122
 2.0000e-001 94298 -6.4525e+001 -2.2244e+001 -9.1561e+000 41478 94096,94226,94148
 2.0000e-001 94275 -6.4303e+001  9.8846e+000 -4.0682e+000 41478 94148,94226,94174
 2.0000e-001 94252 -3.7485e+001  2.4275e+001 -2.9001e+001 41478 94174,94226,94200
 2.0000e-001 94618 -9.1562e+001 -3.7872e+001  1.2644e+001 40910 94344,94422,94396
 2.0000e-001 94595 -1.0444e+002 -2.8931e+001  1.0491e+001 40910 94344,94448,94422
 2.0000e-001 94572 -9.8350e+001 -1.4733e+001  1.0338e+001 40910 94344,94474,94448
 2.0000e-001 94549 -7.4655e+001 -5.0879e+001  5.0137e-001 40910 94344,94396,94370
 2.0000e-001 94526 -1.1283e+002 -1.9182e+000  1.2248e+001 40910 94344,94500,94474
 2.0000e-001 94866 -9.9696e+001 -1.7949e+001  6.0120e+000 40306 94667,94719,94693
 2.0000e-001 94843 -9.6825e+001 -2.0520e+001  6.6980e+000 40306 94641,94719,94667
 2.0000e-001 94820 -8.8820e+001 -1.3299e+001  1.1062e+000 40306 94641,94745,94719
 2.0000e-001 94797 -8.8265e+001 -2.1191e+001  4.3395e+000 40306 94641,94771,94745
 2.0000e-001 95089 -1.0666e+002 -5.5875e+001 -6.7786e-001 39702 94913,94991,94939
 2.0000e-001 95066 -1.2682e+002 -5.6891e+001 -2.8924e+000 39702 94913,95017,94991
 2.0000e-001 95043 -1.3753e+002 -6.9786e+001 -6.5947e+000 39702 94939,94991,94965
 2.0000e-001 95339 -1.0506e+002 -2.2627e+001  5.1418e+000 39248 95140,95218,95166
 2.0000e-001 95316 -9.3680e+001 -1.6727e+001  2.9908e+000 39248 95140,95244,95218
 2.0000e-001 95293 -8.5373e+001 -8.5816e+000  6.9701e+000 39248 95114,95244,95140
 2.0000e-001 95270 -1.1150e+002 -1.6680e+001  1.1888e+001 39248 95166,95218,95192
 2.0000e-001 95770 -4.4455e+000  1.1000e+000 -9.1156e-001 38694 95551,95629,95577
 2.0000e-001 95747 -3.5816e+001  7.2397e-001 -8.6533e+000 38694 95447,95629,95551
 2.0000e-001 95724 -4.1422e+001 -1.8089e+000  1.1665e+001 38694 95447,95551,95473
 2.0000e-001 95701 -1.7041e+001  3.9148e+000  5.3943e+000 38694 95473,95551,95499
 2.0000e-001 95678 -2.3700e+001  4.9738e+000 -2.4472e+000 38694 95499,95551,95525
 2.0000e-001 95655 -3.0855e+000  2.2654e+000  1.4456e+000 38694 95577,95629,95603
 2.0000e-001 96325 -8.3637e+001 -2.3644e+001  1.4469e+000 38240 95953,96031,96005
 2.0000e-001 96302 -9.0125e+001 -2.7734e+001  6.6604e+000 38240 95953,96161,96031
 2.0000e-001 96279 -9.5572e+001 -5.7961e+001 -3.3343e+000 38240 96031,96161,96135
 2.0000e-001 96256 -1.1330e+002 -4.0156e+001 -3.6452e+000 38240 96348,96109,96057
 2.0000e-001 96233 -1.1479e+002 -5.7684e+001 -1.7863e+001 38240 96348,96057,96031
 2.0000e-001 96210 -1.0989e+002 -1.5570e+001 -5.6352e+000 38240 96057,96109,96083
 2.0000e-001 96187 -5.4482e+001 -2.2289e+001  1.6457e+001 38240 95953,96005,95979
 2.0000e-001 96374 -1.0344e+002 -2.1862e+001  3.9542e+000 38240 96135,96109,96348
 2.0000e-001 96397 -1.0433e+002 -4.2406e+001 -9.5848e+000 38240 96135,96348,96031
 2.0000e-001 96618 -4.6426e+001  1.4783e+001  8.2950e-001 37821 96494,96546,96520
 2.0000e-001 96595 -6.6296e+001 -7.2933e+000 -9.1979e+000 37821 96468,96546,96494
 2.0000e-001 96572 -8.0496e+001 -1.3376e+001 -8.1292e+000 37821 96442,96546,96468
 2.0000e-001 97126 -9.7087e+001 -2.3815e+001  6.7253e+000 37367 97149,96855,96829
 2.0000e-001 97103 -8.6359e+001 -1.9085e+001  5.9279e+000 37367 97149,96829,96985
 2.0000e-001 97080 -1.0020e+002 -1.5306e+001  8.1588e+000 37367 96803,96985,96829
 2.0000e-001 97057 -1.1442e+002 -1.5474e+001  2.6408e+001 37367 96855,96907,96881
 2.0000e-001 97034 -6.6819e+001 -2.6779e+001  3.2311e+000 37367 96907,96985,96959
 2.0000e-001 97011 -4.7243e+001 -1.3592e+001  1.5408e+001 37367 96907,96959,96933
 2.0000e-001 97175 -8.6369e+001 -2.7348e+001  1.2201e+001 37367 96907,96855,97149
 2.0000e-001 97198 -7.8781e+001 -2.3981e+001  1.1583e+001 37367 96907,97149,96985
 2.0000e-001 97704 -7.0826e+001 -1.2338e+001 -2.6425e+000 36863 97727,97511,97485
 2.0000e-001 97681 -6.9928e+001 -1.8326e+001 -9.0209e+000 36863 97727,97485,97433
 2.0000e-001 97658 -4.3148e+001  1.2479e+001  2.8481e+000 36863 97381,97563,97433
 2.0000e-001 97635 -4.7534e+001 -2.4841e+000 -1.0866e+000 36863 97511,97563,97537
 2.0000e-001 97612 -1.0813e+002 -3.3080e+001 -4.3179e+000 36863 97433,97485,97459
 2.0000e-001 97589 -1.6668e+001  6.1288e+000 -2.1235e+001 36863 97381,97433,97407
 2.0000e-001 97753 -6.5970e+001 -8.4811e+000 -8.5377e-001 36863 97563,97511,97727
 2.0000e-001 97776 -6.2859e+001 -1.3238e+001 -6.7364e+000 36863 97563,97727,97433
 2.0000e-001 98331 -5.8511e+001  2.3692e+001 -2.7362e+000 36287 98354,98089,98063
 2.0000e-001 98308 -5.9448e+001  5.2741e+000  6.5833e+000 36287 98354,98063,98011
 2.0000e-001 98285 -6.1624e+001 -1.1597e+001  1.2054e+000 36287 98426,97985,98115
 2.0000e-001 98262 -5.7197e+001  4.5632e+000  5.4949e+000 36287 98011,98063,98037
 2.0000e-001 98239 -9.4604e+001 -3.0759e+001  9.0226e+000 36287 97985,98141,98115
 2.0000e-001 98216 -1.3283e+002 -2.8572e+001  1.6225e+001 36287 97959,98141,97985
 2.0000e-001 98193 -1.6648e+002 -1.0914e+000  9.4469e+000 36287 97959,98167,98141
 2.0000e-001 98380 -7.3737e+001  3.3773e+000  8.8290e+000 36287 98115,98089,98354
 2.0000e-001 98403 -6.1164e+001 -9.5584e+000  6.8009e+000 36287 98426,98115,98354
 2.0000e-001 98452 -6.1901e+001 -1.4054e+000  4.1494e+000 36287 98011,97985,98426
 2.0000e-001 98475 -6.0902e+001  2.2479e+000  9.4727e+000 36287 98011,98426,98354
 2.0000e-001 99030 -5.7621e+001 -6.2376e+000  1.8745e+000 35726 99053,98736,98710
 2.0000e-001 99007 -6.0552e+001 -1.1012e+000  4.5258e+000 35726 99053,98710,98684
 2.0000e-001 98984 -4.9846e+001  1.8784e+000  3.3271e+000 35726 99125,98814,98736
 2.0000e-001 98961 -5.9950e+001 -2.0283e+001 -5.8812e+000 35726 98736,98814,98788
 2.0000e-001 98938 -9.1515e+001 -1.5288e+001 -5.1805e+000 35726 98684,98866,98840
 2.0000e-001 98915 -6.7332e+001 -1.8995e+001 -1.9575e+001 35726 98736,98788,98762
 2.0000e-001 98892 -5.2261e+001  3.8686e+000  2.2521e+000 35726 98658,98866,98684
 2.0000e-001 99079 -5.4846e+001 -7.2858e-001  6.8440e-001 35726 99125,98736,99053
 2.0000e-001 99102 -5.6558e+001 -3.5646e+000  4.1066e+000 35726 98840,99053,98684
 2.0000e-001 99151 -4.4698e+001  5.0469e+000  9.0301e+000 35726 98840,98814,99125
 2.0000e-001 99174 -4.9268e+001 -4.1283e-001  5.8068e+000 35726 98840,99125,99053
 2.0000e-001 99454 -7.9744e+001 -1.2403e+001  6.2208e+000 35222 99278,99330,99304
 2.0000e-001 99431 -7.5470e+001 -3.1684e+000  5.1025e+000 35222 99278,99382,99330
 2.0000e-001 99408 -7.9176e+001 -2.4191e+000  4.1721e+000 35222 99330,99382,99356
 2.0000e-001 99653 -5.8338e+001 -8.3763e+000 -5.0886e+000 34867 99477,99529,99503
 2.0000e-001 99630 -4.2645e+001 -1.6935e+001 -4.6430e+000 34867 99477,99581,99529
 2.0000e-001 99607 -3.4446e+001 -1.5882e+000 -8.1422e+000 34867 99529,99581,99555
 2.0000e-001 100104 -1.0420e+002 -2.9594e+001  1.3413e+000 34363 99781,99885,99807
 2.0000e-001 100081 -8.0780e+001 -1.7584e+001 -4.9560e+000 34363 99781,99963,99885
 2.0000e-001 100058 -1.0768e+002 -3.5459e+001  3.3343e+000 34363 99885,99963,99911
 2.0000e-001 100035 -1.0147e+002 -3.6563e+001  5.0569e-001 34363 99807,99885,99859
 2.0000e-001 100012 -9.3401e+001 -3.1131e+001  1.3254e+001 34363 99911,99963,99937
 2.0000e-001 99989 -1.2632e+002 -4.6903e+001  7.9266e-001 34363 99807,99859,99833
 2.0000e-001 100303 -9.3238e+001 -1.5739e+001  2.8142e+000 33909 100127,100205,100179
 2.0000e-001 100280 -9.4793e+001 -1.8446e+001  4.4834e+000 33909 100127,100231,100205
 2.0000e-001 100257 -8.6297e+001 -1.0398e+001 -1.4405e+001 33909 100127,100179,100153
 2.0000e-001 100890 -7.5676e+001 -1.5206e+001  2.3082e+000 33412 100645,100749,100697
 2.0000e-001 100867 -7.5584e+001 -1.2285e+001  1.7657e+000 33412 100567,100749,100645
 2.0000e-001 100844 -7.2030e+001  1.2722e+000  2.7297e+000 33412 100567,100645,100619
 2.0000e-001 100821 -1.0470e+002 -1.3218e+001  7.3337e+000 33412 100645,100697,100671
 2.0000e-001 100798 -7.6972e+001  2.1026e+001 -1.1147e+001 33412 100567,100619,100593
 2.0000e-001 100775 -6.8972e+001 -1.5696e+001  3.1025e-001 33412 100697,100749,100723
 2.0000e-001 101268 -8.3792e+001  3.7088e+000 -4.0132e+000 32908 101435,101291,101098
 2.0000e-001 101245 -7.4936e+001 -8.9773e+000 -1.7401e+000 32908 101291,101072,101020
 2.0000e-001 101222 -8.9780e+001 -1.4794e+001  9.6354e-001 32908 101363,101150,101124
 2.0000e-001 101199 -6.8242e+001 -8.7434e+000 -2.3599e+001 32908 101020,101072,101046
 2.0000e-001 101176 -1.0671e+002 -1.6861e+001  9.7633e+000 32908 100994,101150,101020
 2.0000e-001 101317 -8.7632e+001 -4.1098e+000 -2.4604e-001 32908 101124,101098,101291
 2.0000e-001 101340 -8.2921e+001 -8.8328e+000 -3.6186e+000 32908 101363,101124,101291
 2.0000e-001 101389 -8.7147e+001 -1.9922e+001  5.9877e+000 32908 101020,101150,101363
 2.0000e-001 101412 -8.6121e+001 -1.8360e+001  2.2758e+000 32908 101020,101363,101291
 2.0000e-001 101461 -8.8501e+001 -6.8765e+000 -2.6925e+000 32908 101072,101291,101435
 2.0000e-001 101918 -9.1736e+001 -1.3804e+001  1.9027e+000 32618 101941,101670,101644
 2.0000e-001 101895 -9.6208e+001 -1.6372e+001 -6.9072e-001 32618 101941,101644,101774
 2.0000e-001 101872 -1.1684e+002 -2.6832e+001  9.5759e+000 32618 102013,101696,101670
 2.0000e-001 101849 -9.6547e+001 -3.7594e+001  1.2836e+001 32618 101696,101748,101722
 2.0000e-001 101826 -9.7257e+001  1.2740e+001  6.8488e+000 32618 101644,101800,101774
 2.0000e-001 101967 -1.1071e+002 -1.8956e+001  5.2018e+000 32618 102013,101670,101941
 2.0000e-001 101990 -7.9784e+001  6.3988e+000 -1.4549e+001 32618 101748,101941,101774
 2.0000e-001 102039 -1.0535e+002 -3.6514e+001  1.4928e+000 32618 101748,101696,102013
 2.0000e-001 102062 -9.1859e+001 -2.4688e+001 -3.8036e+000 32618 101748,102013,101941
 2.0000e-001 102440 -3.0101e+001  3.1626e+000 -4.2399e+000 32306 102463,102270,102244
 2.0000e-001 102417 -3.1803e+001  1.4602e-001 -6.9938e+000 32306 102463,102244,102192
 2.0000e-001 102394 -4.0700e+001 -2.1893e+000 -3.3542e+000 32306 102192,102244,102218
 2.0000e-001 102371 -1.2358e+001  1.0854e+000 -3.3404e+000 32306 102270,102322,102296
 2.0000e-001 102348 -3.0806e+001 -1.7044e+000 -3.1417e+000 32306 102166,102322,102192
 2.0000e-001 102489 -2.6115e+001  3.0114e+000 -6.1127e-001 32306 102322,102270,102463
 2.0000e-001 102512 -2.8548e+001 -2.1268e+000 -3.6126e+000 32306 102322,102463,102192
 2.0000e-001 102662 -7.6505e+001 -1.6878e+000  7.4600e+000 31852 102943,102587,102561
 2.0000e-001 102639 -1.0165e+002 -1.5709e+001  4.1421e+000 31852 102815,102685,102561
 2.0000e-001 102711 -8.0998e+001  1.1811e+001  1.3748e+001 31852 102943,102561,102685
 2.0000e-001 102841 -7.4262e+001 -1.7618e+001  1.5431e+000 31852 102535,102685,102815
 2.0000e-001 102969 -7.0582e+001  1.1689e+001  6.4415e+000 31852 102613,102587,102943
 2.0000e-001 102992 -7.6539e+001  2.2057e+001  1.3219e+001 31852 102613,102943,102685
 2.0000e-001 103370 -9.5525e+001 -1.4685e+001 -2.0507e+000 31134 103096,103200,103122
 2.0000e-001 103347 -8.7692e+001  6.9497e+000 -1.1538e+001 31134 103096,103226,103200
 2.0000e-001 103324 -9.9318e+001 -2.9459e+001  8.1640e+000 31134 103122,103200,103174
 2.0000e-001 103301 -1.3867e+002 -1.3378e+001  5.2222e+000 31134 103096,103252,103226
 2.0000e-001 103278 -8.4426e+001  2.5540e+000  3.8387e+000 31134 103122,103174,103148
 2.0000e-001 103520 -1.0826e+002  8.7326e+000  4.0943e+000 30822 103393,103445,103419
 2.0000e-001 103497 -9.3536e+001  5.1765e+000 -7.1827e+000 30822 103393,103471,103445
 2.0000e-001 103719 -3.7602e+001  2.7291e+000 -1.1801e+000 30182 103742,103621,103569
 2.0000e-001 103696 -5.2536e+001  8.2330e+000 -3.5099e+000 30182 103742,103569,103543
 2.0000e-001 103673 -2.7000e+001  1.1464e+001  1.4754e+001 30182 103569,103621,103595
 2.0000e-001 103768 -3.1193e+001  5.5518e+000 -2.2993e+000 30182 103647,103621,103742
 2.0000e-001 103791 -3.7474e+001  1.7402e+001 -7.5222e+000 30182 103647,103742,103543
 2.0000e-001 104252 -3.5625e+001  1.1327e+001  3.3399e+000 29728 104030,104108,104056
 2.0000e-001 104229 -5.5193e+001 -2.3368e+001 -5.8065e+000 29728 104004,104108,104030
 2.0000e-001 104206 -3.9894e+001 -1.2710e+000  2.8152e+000 29728 104004,104134,104108
 2.0000e-001 104183 -4.3673e+001 -1.2390e+001  4.1530e+000 29728 103978,104134,104004
 2.0000e-001 104160 -5.4813e+001  2.8810e+001  1.1123e+001 29728 104056,104108,104082
 2.0000e-001 104630 -9.2911e+001 -3.9625e+001  2.2457e+001 29217 104653,104382,104356
 2.0000e-001 104607 -9.4616e+001 -3.9943e+001  1.0825e+001 29217 104653,104356,104512
 2.0000e-001 104584 -7.3024e+001 -2.5587e+001  1.5062e+001 29217 104434,104512,104486
 2.0000e-001 104561 -8.0137e+001 -2.3515e+001  1.6921e+001 29217 104382,104434,104408
 2.0000e-001 104538 -7.1423e+001 -3.2242e+001  1.0461e+001 29217 104434,104486,104460
 2.0000e-001 104679 -8.5372e+001 -3.6450e+001  2.1110e+001 29217 104434,104382,104653
 2.0000e-001 104702 -8.3045e+001 -3.6330e+001  1.0683e+001 29217 104434,104653,104512
 2.0000e-001 105178 -6.8794e+001 -3.5859e+000 -2.5439e+000 28649 105201,104962,104936
 2.0000e-001 105155 -7.0422e+001 -1.4982e+001 -2.6495e+000 28649 105201,104936,104884
 2.0000e-001 105132 -6.7512e+001 -3.1913e+000  2.8126e+000 28649 105273,104858,105014
 2.0000e-001 105109 -6.9946e+001 -6.6441e+000  5.7709e-001 28649 104962,105014,104988
 2.0000e-001 105086 -6.8659e+001 -1.5214e+001 -1.1139e+000 28649 104884,104936,104910
 2.0000e-001 105063 -6.8287e+001 -2.2666e+001 -8.7554e+000 28649 104806,105014,104858
 2.0000e-001 105040 -4.9599e+001 -6.4191e+000 -2.1276e-001 28649 104806,104858,104832
 2.0000e-001 105227 -7.3199e+001 -3.6598e+000 -1.0804e+000 28649 105014,104962,105201
 2.0000e-001 105250 -7.3481e+001 -4.1698e+000 -9.2181e-001 28649 105273,105014,105201
 2.0000e-001 105299 -6.0219e+001 -3.2851e+000  5.8181e+000 28649 104884,104858,105273
 2.0000e-001 105322 -6.3626e+001 -3.6207e+000  1.4841e+000 28649 104884,105273,105201
 2.0000e-001 105673 -1.0823e+002 -3.1787e+001  6.4051e-001 28351 105474,105578,105552
 2.0000e-001 105650 -1.2198e+002 -5.3789e+001 -5.6931e+000 28351 105448,105578,105474
 2.0000e-001 105627 -1.0917e+002 -5.7674e+000 -5.0201e+000 28351 105500,105552,105526
 2.0000e-001 105604 -1.1556e+002 -3.3529e+001 -1.7445e+000 28351 105474,105552,105500
 2.0000e-001 106130 -9.7608e+001 -4.7369e+001 -1.3568e+000 28004 106153,105882,105856
 2.0000e-001 106107 -1.0191e+002 -4.6677e+001 -4.8193e+000 28004 106153,105856,105986
 2.0000e-001 106084 -9.1469e+001 -4.9329e+001 -8.4997e+000 28004 105934,105986,105960
 2.0000e-001 106061 -7.9630e+001 -3.6656e+001 -1.4176e+001 28004 105856,106012,105986
 2.0000e-001 106038 -6.5608e+001  6.8561e+000 -3.3546e+000 28004 105882,105934,105908
 2.0000e-001 106179 -8.8557e+001 -4.5980e+001 -5.0394e-001 28004 105934,105882,106153
 2.0000e-001 106202 -9.6355e+001 -4.6387e+001 -2.7642e+000 28004 105934,106153,105986
 2.0000e-001 106885 -8.4553e+001 -2.3466e+001  4.5791e+000 27564 106908,106620,106516
 2.0000e-001 106862 -9.3866e+001 -2.9367e+001  2.0524e+000 27564 106908,106516,106490
 2.0000e-001 106839 -1.1675e+002 -3.9357e+001  1.0671e+001 27564 106516,106620,106542
 2.0000e-001 106816 -8.1459e+001 -2.0615e+001  1.7195e+001 27564 106620,106672,106646
 2.0000e-001 106793 -1.4541e+002 -2.7465e+001  1.9388e+001 27564 106542,106620,106594
 2.0000e-001 106770 -9.2190e+001 -4.0312e+001 -3.4495e+000 27564 106490,106698,106672
 2.0000e-001 106747 -8.8376e+001 -3.6202e+001 -1.3694e+000 27564 106464,106698,106490
 2.0000e-001 106724 -1.1954e+002 -5.4941e+000  5.5617e+000 27564 106542,106594,106568
 2.0000e-001 106934 -7.7884e+001 -2.9031e+001  5.9588e+000 27564 106672,106620,106908
 2.0000e-001 106957 -8.2840e+001 -3.2328e+001  4.1850e+000 27564 106672,106908,106490
 2.0000e-001 107463 -3.2171e+001 -5.8457e+000  7.6928e-001 27053 107218,107322,107296
 2.0000e-001 107440 -3.0345e+001 -1.4233e+000  1.6461e+000 27053 107166,107322,107218
 2.0000e-001 107417 -3.6536e+001 -5.1013e+000 -8.6802e-001 27053 107218,107296,107244
 2.0000e-001 107394 -3.3411e+001 -3.9934e+000  5.4487e-001 27053 107140,107322,107166
 2.0000e-001 107371 -1.5164e+001 -3.4144e+000  1.3666e+000 27053 107166,107218,107192
 2.0000e-001 107348 -3.2133e+001  2.9588e+001  8.2385e+000 27053 107244,107296,107270
 2.0000e-001 108097 -7.2690e+001 -3.2764e+001  4.3773e+000 26549 108192,108120,107803
 2.0000e-001 108074 -8.3330e+001 -1.4815e+001 -1.4850e+000 26549 108120,107725,107933
 2.0000e-001 108051 -8.4990e+001 -4.1156e+001  1.1873e+001 26549 107751,107803,107777
 2.0000e-001 108028 -7.6993e+001 -3.2116e+001  7.7520e+000 26549 108192,107803,107751
 2.0000e-001 108005 -9.2363e+001 -4.3490e+001 -5.0912e+000 26549 108264,107855,107803
 2.0000e-001 107982 -9.9283e+001 -4.9349e+001  3.7288e+000 26549 107881,107933,107907
 2.0000e-001 107959 -9.3843e+001 -2.7612e+001 -2.8003e+001 26549 107803,107855,107829
 2.0000e-001 108146 -7.7822e+001 -3.7930e+001 -2.1802e+000 26549 108264,107803,108120
 2.0000e-001 108169 -9.0015e+001 -3.0479e+001 -1.6367e+000 26549 107881,108120,107933
 2.0000e-001 108218 -8.1217e+001 -3.3887e+001  5.1488e+000 26549 107725,108120,108192
 2.0000e-001 108241 -8.4505e+001 -3.2233e+001  8.2699e+000 26549 107725,108192,107751
 2.0000e-001 108290 -1.0309e+002 -3.3335e+001 -1.4317e+000 26549 107881,107855,108264
 2.0000e-001 108313 -9.3207e+001 -3.0870e+001  1.8290e+000 26549 107881,108264,108120
 2.0000e-001 108512 -4.2702e+001  5.9752e-001  4.7132e+000 26137 108388,108440,108414
 2.0000e-001 108489 -4.4120e+001 -4.0346e+000  5.2952e+000 26137 108362,108440,108388
 2.0000e-001 108466 -6.0272e+001 -1.3187e+001  9.1439e-001 26137 108336,108440,108362
 2.0000e-001 108662 -8.1744e+001 -2.2276e+001  2.3731e-001 25733 108817,108685,108535
 2.0000e-001 108639 -8.3821e+001 -1.6283e+001 -3.2515e+000 25733 109017,108817,108535
 2.0000e-001 108711 -7.6278e+001 -1.0948e+001 -1.4706e+000 25733 108561,108535,108685
 2.0000e-001 108843 -8.7300e+001 -1.9684e+001 -2.6965e+000 25733 108587,108685,108817
 2.0000e-001 108866 -9.0570e+001 -2.2231e+001 -1.9602e+000 25733 108889,108817,108613
 2.0000e-001 108915 -9.3928e+001 -2.4770e+001  3.2784e-001 25733 108587,108817,108889
 2.0000e-001 109043 -8.9257e+001 -3.0039e+001 -2.4364e+000 25733 108613,108817,109017
 2.0000e-001 109500 -3.5545e+001  9.6267e+000 -1.0317e+001 25229 109523,109356,109330
 2.0000e-001 109477 -5.2481e+001 -8.2101e+000 -2.3138e-001 25229 109595,109523,109330
 2.0000e-001 109454 -5.0225e+001 -1.2305e+001  4.0054e+000 25229 109595,109330,109278
 2.0000e-001 109431 -5.0191e+001 -1.0590e+001  2.0994e+000 25229 109667,109226,109382
 2.0000e-001 109408 -6.3230e+001 -3.2802e+000  1.2430e+001 25229 109278,109330,109304
 2.0000e-001 109549 -5.5918e+001 -2.2510e+000 -1.6343e+000 25229 109382,109356,109523
 2.0000e-001 109572 -5.2088e+001 -7.2382e+000  2.8291e+000 25229 109667,109382,109523
 2.0000e-001 109621 -4.9067e+001  3.0444e+000  2.1277e+000 25229 109252,109523,109595
 2.0000e-001 109644 -5.3358e+001 -7.7967e+000  1.4081e+000 25229 109739,109595,109278
 2.0000e-001 109693 -5.2109e+001 -3.3005e+000  1.0640e-001 25229 109252,109226,109667
 2.0000e-001 109716 -5.1948e+001  1.4624e+000  3.1598e+000 25229 109252,109667,109523
 2.0000e-001 109765 -4.6929e+001 -5.4636e+000  1.0878e+000 25229 109252,109595,109739
 2.0000e-001 110478 -5.5228e+001 -5.4931e+000 -1.0879e+001 24917 110158,110236,110184
 2.0000e-001 110455 -2.9034e+001  7.6796e+000 -4.0484e+000 24917 110158,110288,110236
 2.0000e-001 110432 -4.2257e+001  1.7270e+001 -4.7116e+000 24917 110236,110288,110262
 2.0000e-001 110409 -4.1088e+001  3.3749e+000 -5.3763e+000 24917 110184,110236,110210
 2.0000e-001 110386 -2.9428e+001 -4.7563e-001 -2.3286e+000 24917 110132,110288,110158
 2.0000e-001 110363 -1.3880e+001  6.8524e+000 -4.1924e-002 24917 110132,110314,110288
 2.0000e-001 110340 -1.6909e+001 -9.5139e-001  1.5172e+000 24917 110106,110314,110132
 2.0000e-001 110829 -6.5628e+001 -8.3361e+000  1.0304e+001 24307 110604,110682,110630
 2.0000e-001 110806 -5.9423e+001 -1.2329e+001  5.8570e+000 24307 110604,110708,110682
 2.0000e-001 110783 -4.5925e+001 -3.8450e+000 -2.0879e+000 24307 110604,110734,110708
 2.0000e-001 110760 -1.0410e+002 -2.4829e+001  1.1775e+001 24307 110630,110682,110656
 2.0000e-001 111335 -6.9738e+001 -1.9615e+001  9.3242e+000 23767 111012,111168,111038
 2.0000e-001 111312 -5.0939e+001 -4.4133e-001 -7.9129e-001 23767 111012,111194,111168
 2.0000e-001 111289 -4.2508e+001 -9.6633e-001 -8.2094e+000 23767 111358,111064,111038
 2.0000e-001 111266 -5.3533e+001 -5.1440e+000  2.2110e+000 23767 111358,111038,111168
 2.0000e-001 111243 -6.2966e+001 -1.6308e+001  1.0017e+000 23767 111430,111142,111090
 2.0000e-001 111220 -7.2316e+001 -2.0613e+001 -3.8552e+000 23767 111090,111142,111116
 2.0000e-001 111384 -4.9147e+001 -5.8530e+000  8.5289e-001 23767 111090,111064,111358
 2.0000e-001 111407 -4.9845e+001 -1.2650e+001  3.3189e+000 23767 111430,111090,111358
 2.0000e-001 111456 -7.5889e+001 -8.2228e+000  4.0051e+000 23767 111168,111142,111430
 2.0000e-001 111479 -6.8535e+001 -9.0888e+000  4.9758e+000 23767 111168,111430,111358
 2.0000e-001 111985 -8.8553e+001 -5.4908e+001 -4.7144e+000 23477 111688,111844,111818
 2.0000e-001 111962 -8.1955e+001 -3.5684e+001  3.5327e+000 23477 111662,111844,111688
 2.0000e-001 111939 -6.7669e+001 -3.6053e+001  1.0309e+000 23477 111766,111818,111792
 2.0000e-001 111916 -9.2521e+001 -4.1599e+001  2.8066e+000 23477 111740,111818,111766
 2.0000e-001 111893 -9.3698e+001 -4.6186e+001 -3.9685e+000 23477 111688,111818,111740
 2.0000e-001 111870 -1.3923e+002 -2.6665e+001 -1.9128e+001 23477 111688,111740,111714
 2.0000e-001 112314 -7.9913e+001 -2.0324e+001 -1.0607e+000 23023 112141,112219,112193
 2.0000e-001 112291 -8.1666e+001 -3.2463e+001 -1.1563e+000 23023 112115,112219,112141
 2.0000e-001 112268 -6.9651e+001  6.6556e+000  4.9541e-001 23023 112141,112193,112167
 2.0000e-001 112245 -6.4884e+001 -1.5537e+001  6.3405e+000 23023 112089,112219,112115
 2.0000e-001 112692 -7.9115e+001 -1.4503e+001  1.7797e+000 22768 112444,112574,112548
 2.0000e-001 112669 -8.1946e+001  4.6838e-001  1.3506e+000 22768 112418,112574,112444
 2.0000e-001 112646 -5.7745e+001 -7.2621e+000 -2.9351e+000 22768 112444,112522,112470
 2.0000e-001 112623 -7.0157e+001 -1.0963e+001  1.1981e+000 22768 112444,112548,112522
 2.0000e-001 112600 -6.2145e+001 -9.5722e+000  7.9838e-001 22768 112470,112522,112496
 2.0000e-001 113011 -1.3054e+002 -2.6485e+001 -8.3227e+000 22314 112763,112867,112789
 2.0000e-001 112988 -1.2898e+002 -4.4344e+001 -5.3418e+000 22314 112763,112893,112867
 2.0000e-001 112965 -1.3152e+002  1.0306e+000  0.0000e+000 22314 112815,112867,112841
 2.0000e-001 112942 -1.4846e+002 -3.5175e+001 -5.1291e+000 22314 112789,112867,112815
 2.0000e-001 112919 -1.2077e+002 -5.2399e+001 -2.1973e+001 22314 112737,112893,112763
 2.0000e-001 113519 -7.5237e+001 -2.1318e+001  1.2362e+000 21924 113614,113542,113248
 2.0000e-001 113496 -6.9898e+001 -1.9993e+001  3.8286e+000 21924 113542,113196,113378
 2.0000e-001 113473 -6.3297e+001 -2.1541e+001  1.0987e+000 21924 113614,113248,113222
 2.0000e-001 113450 -6.9129e+001 -5.5850e+000 -1.0678e+000 21924 113686,113274,113248
 2.0000e-001 113427 -6.0017e+001 -3.9723e+000 -1.8453e+000 21924 113274,113352,113326
 2.0000e-001 113404 -2.6443e+001  1.8561e-001  2.1450e+001 21924 113274,113326,113300
 2.0000e-001 113568 -7.1054e+001 -1.3699e+001 -4.0216e-001 21924 113686,113248,113542
 2.0000e-001 113591 -7.4978e+001 -3.7504e+001 -2.1691e+000 21924 113352,113542,113378
 2.0000e-001 113640 -6.3527e+001 -1.8222e+001  6.0719e+000 21924 113196,113542,113614
 2.0000e-001 113663 -5.8458e+001 -2.2745e+001  6.9012e+000 21924 113196,113614,113222
 2.0000e-001 113712 -6.8029e+001 -1.4057e+001  2.4414e+000 21924 113352,113274,113686
 2.0000e-001 113735 -6.9597e+001 -2.0226e+001  4.0240e+000 21924 113352,113686,113542
 2.0000e-001 113885 -3.1192e+001  6.4760e+000 -1.7456e+001 21520 113980,113908,113784
 2.0000e-001 113862 -8.1775e+001 -4.2927e+001 -1.1003e-001 21520 114238,113908,113758
 2.0000e-001 113934 -7.7539e+001 -3.3908e+001  5.2437e-001 21520 114110,113908,113810
 2.0000e-001 113957 -7.7618e+001 -1.4423e+001  1.0868e+001 21520 113810,113908,113836
 2.0000e-001 114006 -7.5209e+001 -2.6485e+001 -3.0811e+000 21520 113758,113908,113980
 2.0000e-001 114136 -6.6182e+001  1.2050e+001  5.6624e+000 21520 113784,113908,114110
 2.0000e-001 114264 -5.8703e+001 -6.3102e+000  1.2945e+001 21520 113836,113908,114238
 2.0000e-001 114662 -8.2477e+001 -1.2614e+001 -6.2702e-001 21030 114414,114518,114492
 2.0000e-001 114639 -9.2048e+001 -2.0459e+001  3.3357e+000 21030 114414,114544,114518
 2.0000e-001 114616 -2.1834e+001  1.1944e+001  6.1280e-001 21030 114440,114492,114466
 2.0000e-001 114593 -8.3328e+001 -1.4150e+001  7.0216e-001 21030 114414,114492,114440
 2.0000e-001 114570 -1.0057e+002 -1.3245e+001  3.6712e+001 21030 114388,114544,114414
 2.0000e-001 114959 -9.1697e+001 -2.2398e+001 -4.9299e+000 20512 114982,114711,114685
 2.0000e-001 114936 -9.0773e+001 -1.6703e+001 -8.1936e-001 20512 115054,114982,114685
 2.0000e-001 114913 -9.8768e+001 -3.1607e+000  2.3933e+000 20512 115054,114685,114841
 2.0000e-001 114890 -6.0139e+001  3.0160e-001 -1.5485e+001 20512 114711,114763,114737
 2.0000e-001 114867 -6.7384e+001 -7.3608e+000  4.9567e+000 20512 114763,114815,114789
 2.0000e-001 115008 -9.4644e+001 -2.3288e+001 -4.3779e+000 20512 114763,114711,114982
 2.0000e-001 115031 -9.6576e+001 -2.6677e+001 -3.4146e+000 20512 114763,114982,114815
 2.0000e-001 115080 -1.0032e+002 -2.5510e+001 -4.9854e+000 20512 114815,114982,115054
 2.0000e-001 115103 -1.0507e+002 -1.6545e+001 -4.1804e+000 20512 114815,115054,114841
 2.0000e-001 115507 -8.7779e+001 -4.2408e+001 -8.4545e+000 20143 115285,115389,115363
 2.0000e-001 115484 -9.5757e+001 -2.1591e+001 -1.1116e-002 20143 115259,115389,115285
 2.0000e-001 115461 -9.1103e+001 -8.2969e+000  9.5533e-002 20143 115233,115389,115259
 2.0000e-001 115438 -8.4127e+001  2.5000e+000  2.2991e+001 20143 115285,115337,115311
 2.0000e-001 115415 -7.1277e+001 -2.1912e+001  9.3913e+000 20143 115285,115363,115337
 2.0000e-001 115875 -5.1033e+001 -4.1348e+000  7.7864e-001 19632 115656,115734,115682
 2.0000e-001 115852 -5.3111e+001 -1.4389e+001  3.6293e-001 19632 115552,115734,115656
 2.0000e-001 115829 -5.3920e+001 -1.5724e+001 -2.5125e+000 19632 115552,115656,115578
 2.0000e-001 115806 -5.0462e+001 -1.0318e+000 -4.2895e+000 19632 115578,115656,115630
 2.0000e-001 115783 -4.3113e+001 -5.3399e+000 -7.1408e+000 19632 115682,115734,115708
 2.0000e-001 115760 -3.8920e+001 -1.6372e+000  9.8047e+000 19632 115578,115630,115604
 2.0000e-001 116025 -7.3559e+001  4.7118e+000  7.2760e+000 19178 115898,115950,115924
 2.0000e-001 116002 -7.1477e+001  4.6914e-001  3.0736e+000 19178 115898,115976,115950
 2.0000e-001 116633 -2.0936e+001  1.2299e+001 -1.2932e-001 18738 116800,116656,116342
 2.0000e-001 116610 -1.3378e+001  1.7330e+001 -1.3012e+001 18738 116656,116238,116446
 2.0000e-001 116587 -1.9973e+001  3.3923e+000  3.1784e+000 18738 116728,116368,116342
 2.0000e-001 116564 -2.1872e+001  7.3320e+000  2.7805e+000 18738 116800,116342,116264
 2.0000e-001 116541  3.3133e+000  1.3687e+002 -3.6135e+001 18738 116212,116446,116238
 2.0000e-001 116518 -1.3548e+001  2.7290e+000 -1.0344e+001 18738 116394,116446,116420
 2.0000e-001 116495 -5.9605e+001 -8.0661e+000  3.4510e+000 18738 116264,116342,116316
 2.0000e-001 116472 -2.6030e+001 -8.7896e-001  1.2505e+001 18738 116264,116316,116290
 2.0000e-001 116682 -1.8936e+001  7.1818e+000 -1.6871e+000 18738 116728,116342,116656
 2.0000e-001 116705 -1.9057e+001  1.0972e+000 -1.1579e+001 18738 116394,116656,116446
 2.0000e-001 116754 -1.3448e+001  7.0644e+000 -3.1142e+000 18738 116394,116368,116728
 2.0000e-001 116777 -1.1130e+001  1.2153e+001 -8.1342e+000 18738 116394,116728,116656
 2.0000e-001 116826 -2.1891e+001  2.2188e+001 -3.4000e+000 18738 116238,116656,116800
 2.0000e-001 116849 -2.4846e+001  1.6084e+001  2.5198e-001 18738 116238,116800,116264
 2.0000e-001 116999 -4.2292e+001  6.7749e+000  7.9453e+000 18184 116872,116924,116898
 2.0000e-001 116976 -2.0507e+001 -5.3656e+001  1.0797e+001 18184 116872,116950,116924
 2.0000e-001 117330 -7.1021e+001 -8.0422e+000  3.2554e+000 17694 117157,117235,117183
 2.0000e-001 117307 -6.8985e+001 -1.2263e+001  1.3243e+000 17694 117131,117235,117157
 2.0000e-001 117284 -7.3404e+001 -2.0524e+001 -2.7252e+000 17694 117105,117235,117131
 2.0000e-001 117261 -9.8302e+001 -4.4434e+001  1.5256e+001 17694 117183,117235,117209
 2.0000e-001 117480 -5.6079e+001 -7.4987e+000  1.2990e+001 17290 117353,117405,117379
 2.0000e-001 117457 -4.5904e+001  1.6131e+001  5.6458e+000 17290 117353,117431,117405
 2.0000e-001 117679 -5.3081e+001 -1.2822e+001  2.0783e+000 16718 117555,117607,117581
 2.0000e-001 117656 -5.9119e+001 -4.1366e+000 -3.6826e+000 16718 117529,117607,117555
 2.0000e-001 117633 -8.5422e+001 -2.5452e+000 -8.8761e-001 16718 117503,117607,117529
 2.0000e-001 117782 -2.3858e+001  2.0122e+001 -1.7917e+000 16520 117704,117756,117730
 2.0000e-001 117983 -1.0880e+002 -6.8051e+001  4.2271e+000 16208 117859,117911,117885
 2.0000e-001 117960 -8.3102e+001 -4.5141e+001 -1.0082e+001 16208 117833,117911,117859
 2.0000e-001 117937 -7.2895e+001 -1.9058e+001  1.7665e+000 16208 117807,117911,117833
 2.0000e-001 118135  6.8804e+000  3.6831e+001  9.2352e+000 15674 118034,118086,118060
 2.0000e-001 118112 -1.8579e+001  1.9207e+001 -1.6407e+000 15674 118008,118086,118034
 2.0000e-001 118238 -7.1572e+001 -8.8316e-001 -1.3556e+000 15355 118160,118212,118186
 2.0000e-001 118341  2.0367e+000 -3.2981e+000 -1.8881e+000 421 118263,118315,118289
 3.0000e-001 68152 -2.8024e+001  2.0064e+001 -2.2422e+001 67838 68074,68126,68100
 3.0000e-001 68550 -9.1275e+001  6.7422e+000 -5.7670e+000 67526 68276,68380,68302
 3.0000e-001 68527 -1.3894e+002  4.4978e-001 -2.1651e+000 67526 68276,68406,68380
 3.0000e-001 68504 -9.1396e+001 -1.5945e+000 -5.3275e-001 67526 68328,68380,68354
 3.0000e-001 68481 -9.1863e+001  5.3667e+000 -5.7479e+000 67526 68302,68380,68328
 3.0000e-001 68458 -1.3460e+002  2.1165e+000 -1.5391e+001 67526 68276,68432,68406
 3.0000e-001 68651 -1.0060e+002 -2.7664e+001 -3.1864e+001 67328 68573,68625,68599
 3.0000e-001 68970 -1.9878e+002 -7.9374e+001 -9.9125e+000 67016 68722,68800,68774
 3.0000e-001 68947 -1.8512e+002 -5.0834e+001 -5.9083e+000 67016 68722,68826,68800
 3.0000e-001 68924 -1.8363e+002 -6.1038e+001 -4.6676e+000 67016 68696,68826,68722
 3.0000e-001 68901 -1.9119e+002 -6.0668e+001  2.1904e+000 67016 68722,68774,68748
 3.0000e-001 68878 -1.5549e+002 -6.5231e+001  2.8353e+001 67016 68696,68852,68826
 3.0000e-001 69291 -1.9572e+002 -8.6601e+000 -4.2624e+001 66654 69069,69147,69095
 3.0000e-001 69268 -1.2175e+002  1.5077e+001 -1.2583e+001 66654 69069,69173,69147
 3.0000e-001 69245 -9.9963e+001 -1.5717e+001 -4.0068e+001 66654 69043,69173,69069
 3.0000e-001 69222 -1.7768e+002  8.5357e+001 -1.7747e+001 66654 69095,69147,69121
 3.0000e-001 69199 -6.8026e+001 -1.2441e+001  1.1201e+001 66654 69017,69173,69043
 3.0000e-001 69695 -1.9598e+002 -3.8022e+001 -2.8079e+000 66456 69447,69577,69551
 3.0000e-001 69672 -2.2352e+002 -4.9155e+001  7.9415e-001 66456 69421,69577,69447
 3.0000e-001 69649 -2.6099e+002 -1.0147e+002  2.4390e+001 66456 69473,69551,69525
 3.0000e-001 69626 -2.0144e+002 -4.7628e+001  1.5488e+000 66456 69447,69551,69473
 3.0000e-001 69603 -2.8052e+002 -8.9536e+001  8.3755e+001 66456 69473,69525,69499
 3.0000e-001 70024 -8.0041e+001 -6.0401e+000 -1.1307e+001 66258 70047,69851,69825
 3.0000e-001 70001 -1.1117e+002 -2.4191e+001  3.6021e+001 66258 70047,69825,69903
 3.0000e-001 69978 -9.8353e+001  1.7622e+001  2.6388e+001 66258 69799,69903,69825
 3.0000e-001 69955 -1.2537e+002 -3.4091e+001  1.5832e+001 66258 69799,69929,69903
 3.0000e-001 70073 -1.2163e+002 -3.4447e+001  1.2973e+001 66258 69877,69851,70047
 3.0000e-001 70096 -1.6729e+002 -6.5121e+001  6.2679e+001 66258 69877,70047,69903
 3.0000e-001 70602 -3.8851e+002 -7.8539e+001  3.2761e+001 66060 70305,70435,70331
 3.0000e-001 70579 -1.7024e+002 -6.5065e+001 -3.8343e+001 66060 70279,70435,70305
 3.0000e-001 70556 -1.8706e+002 -3.2149e+001  6.4440e+001 66060 70331,70435,70409
 3.0000e-001 70533 -1.5446e+002 -2.8932e+001 -3.6245e+001 66060 70279,70461,70435
 3.0000e-001 70510 -2.3855e+002 -1.0535e+002  8.7038e+001 66060 70331,70409,70357
 3.0000e-001 70487 -2.3088e+002 -1.2431e+002  1.3151e+002 66060 70357,70409,70383
 3.0000e-001 70703 -7.4787e+001  2.1672e+001 -2.0490e+001 65862 70625,70677,70651
 3.0000e-001 71083 -6.7504e+001  1.0027e+001  7.5826e+000 65664 70887,70965,70939
 3.0000e-001 71060 -9.2023e+001  2.2112e+001  1.2170e+001 65664 70861,70965,70887
 3.0000e-001 71037 -9.5797e+001  3.3558e+001  5.7983e+000 65664 70809,70965,70861
 3.0000e-001 71014 -8.7306e+001  1.2251e+002  4.0099e+001 65664 70809,70861,70835
 3.0000e-001 70991 -6.3521e+001 -2.4650e-001 -1.1640e+001 65664 70887,70939,70913
 3.0000e-001 71611 -1.0345e+002 -2.2192e+001 -3.6783e+000 65260 71288,71444,71314
 3.0000e-001 71588 -1.0264e+002 -1.0515e+001  3.7153e+000 65260 71288,71470,71444
 3.0000e-001 71565 -2.2110e+002 -5.3463e+001 -4.5923e+001 65260 71314,71418,71392
 3.0000e-001 71542 -9.8648e+001 -1.1866e+001 -4.9294e+000 65260 71314,71444,71418
 3.0000e-001 71519 -1.8655e+002 -5.1108e+001 -6.1597e+001 65260 71314,71392,71340
 3.0000e-001 71496 -1.7517e+002 -3.3013e+001 -3.0764e+001 65260 71340,71392,71366
 3.0000e-001 72060 -1.5180e+002 -5.6388e+001  5.5627e+000 64870 71737,71893,71789
 3.0000e-001 72037 -1.9774e+002 -7.5844e+001  5.6957e+000 64870 71737,71919,71893
 3.0000e-001 72014 -1.4244e+002 -7.4080e+001 -1.4625e+001 64870 71789,71841,71815
 3.0000e-001 71991 -1.6200e+002 -6.1140e+001 -1.0928e+000 64870 71789,71893,71841
 3.0000e-001 71968 -1.5159e+002 -1.7159e+001  2.4826e+001 64870 71737,71789,71763
 3.0000e-001 71945 -1.7644e+002 -5.5139e+001  0.0000e+000 64870 71841,71893,71867
 3.0000e-001 72517 -1.9051e+002 -8.9736e+001  1.2379e+001 64466 72321,72399,72347
 3.0000e-001 72494 -1.9125e+002 -1.0800e+002  8.1379e+000 64466 72269,72399,72321
 3.0000e-001 72471 -1.7696e+002 -4.1318e+001 -1.6460e+001 64466 72347,72399,72373
 3.0000e-001 72448 -1.9910e+002 -9.5807e+001  4.0840e+001 64466 72243,72399,72269
 3.0000e-001 72425 -1.4693e+002 -1.2120e+001 -3.2728e+000 64466 72269,72321,72295
 3.0000e-001 72944 -1.7567e+002 -6.4645e+001 -8.4527e+000 64062 73111,73039,72699
 3.0000e-001 72921 -1.7607e+002 -6.1033e+001 -3.6921e+000 64062 73183,72967,72647
 3.0000e-001 72898 -1.8315e+002 -6.7488e+001 -7.1971e+000 64062 72967,72803,72751
 3.0000e-001 72875 -1.8034e+002 -6.6577e+001 -1.0551e+001 64062 73111,72699,72673
 3.0000e-001 72852 -1.7406e+002 -6.0931e+001 -2.5449e+000 64062 73183,72647,72621
 3.0000e-001 72829 -1.8291e+002 -8.9967e+001  1.5821e+001 64062 72751,72803,72777
 3.0000e-001 72993 -1.8533e+002 -6.9548e+001 -7.7604e+000 64062 73039,72647,72967
 3.0000e-001 73016 -1.6777e+002 -5.7881e+001 -2.9986e+000 64062 72725,72967,72751
 3.0000e-001 73065 -2.2164e+002 -6.0260e+001 -3.4117e+001 64062 72725,72699,73039
 3.0000e-001 73088 -1.8076e+002 -5.4891e+001 -3.4747e+000 64062 72725,73039,72967
 3.0000e-001 73137 -1.8617e+002 -7.0330e+001 -1.1018e+001 64062 72647,73039,73111
 3.0000e-001 73160 -1.8742e+002 -7.0169e+001 -1.2673e+001 64062 72647,73111,72673
 3.0000e-001 73209 -1.8255e+002 -6.0127e+001 -5.6058e+000 64062 72803,72967,73183
 3.0000e-001 73232 -1.7811e+002 -5.6118e+001 -3.0844e+000 64062 72803,73183,72621
 3.0000e-001 73333 -5.4339e+001  3.4375e+001  2.1495e+001 63814 73356,73281,73255
 3.0000e-001 73382 -1.8514e+002 -2.1676e+001 -1.5157e+001 63814 73486,73356,73307
 3.0000e-001 73512 -8.7928e+001  1.9902e+001  2.7960e+001 63814 73281,73356,73486
 3.0000e-001 73839 -1.8320e+002  4.0828e+001  2.4761e+001 63616 73862,73692,73666
 3.0000e-001 73816 -1.5323e+002 -2.4743e+001  1.0151e+000 63616 73934,73862,73666
 3.0000e-001 73793 -1.3722e+002 -4.1367e+000  9.5674e+000 63616 73934,73666,73640
 3.0000e-001 73770 -1.3299e+002 -2.1300e+001 -7.6022e+000 63616 73614,73744,73640
 3.0000e-001 73888 -1.9486e+002 -2.9640e+001  3.6938e+001 63616 73718,73692,73862
 3.0000e-001 73911 -1.8312e+002 -7.5599e+001 -3.3148e+001 63616 73718,73862,73744
 3.0000e-001 73960 -1.6788e+002 -1.2791e+001 -1.4918e+001 63616 73744,73862,73934
 3.0000e-001 73983 -1.6136e+002 -9.6832e+000 -9.8729e+000 63616 73744,73934,73640
 3.0000e-001 74363 -1.8919e+002 -7.2349e+001 -4.6335e+000 63390 74386,74115,74089
 3.0000e-001 74340 -1.7968e+002 -7.7455e+001 -4.5835e+000 63390 74458,74386,74089
 3.0000e-001 74317 -1.8773e+002 -7.3351e+001 -2.0120e+001 63390 74458,74089,74245
 3.0000e-001 74294 -1.7675e+002 -8.9470e+001  5.3475e+000 63390 74530,74167,74141
 3.0000e-001 74271 -1.7062e+002 -3.9224e+001  1.8054e+001 63390 74167,74219,74193
 3.0000e-001 74412 -1.8519e+002 -6.1224e+001  4.2032e+000 63390 74141,74115,74386
 3.0000e-001 74435 -1.8753e+002 -8.3404e+001 -3.2007e+000 63390 74530,74141,74386
 3.0000e-001 74484 -1.9327e+002 -9.8698e+001 -1.5585e+001 63390 74219,74386,74458
 3.0000e-001 74507 -2.0948e+002 -1.0150e+002 -3.2596e+001 63390 74219,74458,74245
 3.0000e-001 74556 -1.6431e+002 -8.4628e+001  4.4145e+000 63390 74219,74167,74530
 3.0000e-001 74579 -1.7183e+002 -7.6804e+001 -5.0906e+000 63390 74219,74530,74386
 3.0000e-001 74680 -8.4943e+001 -5.6732e+000  7.5743e+000 63100 75089,74833,74703
 3.0000e-001 74729 -4.9214e+001  1.2483e+001 -3.1842e+001 63100 74961,74703,74654
 3.0000e-001 74859 -8.7093e+001 -4.6314e+001 -9.1140e+000 63100 74602,74703,74833
 3.0000e-001 74987 -6.7820e+001  1.8761e+000  1.8109e+001 63100 75089,74703,74961
 3.0000e-001 75115 -1.2305e+002  8.6691e+000 -7.2754e+000 63100 74628,74833,75089
 3.0000e-001 75138 -1.0573e+002  1.6352e+001  3.2870e+000 63100 74628,75089,74961
 3.0000e-001 75723 -8.1714e+001 -3.4703e+001  3.8280e+001 62532 75746,75504,75426
 3.0000e-001 75700 -1.4225e+002 -2.9787e+001  7.1542e+001 62532 75746,75426,75556
 3.0000e-001 75677 -9.8699e+001 -1.6811e+001 -6.4366e+000 62532 75426,75504,75452
 3.0000e-001 75654 -2.4399e+002 -5.6250e+001  6.1985e+001 62532 75400,75556,75426
 3.0000e-001 75631 -2.7579e+002 -1.5573e+002  3.0246e+001 62532 75400,75582,75556
 3.0000e-001 75608 -8.9143e+001 -1.3757e+001 -8.6251e+000 62532 75452,75504,75478
 3.0000e-001 75772 -1.5678e+002  1.0166e+001  4.3061e+001 62532 75530,75504,75746
 3.0000e-001 75795 -2.4868e+002 -1.2433e+001  8.0553e+001 62532 75530,75746,75556
 3.0000e-001 76301 -1.5982e+002 -2.5327e+001  1.3985e+001 62192 76324,76082,76030
 3.0000e-001 76278 -1.7448e+002 -2.1770e+001  1.4992e+001 62192 76324,76030,76004
 3.0000e-001 76255 -1.3569e+002 -1.7492e+001  1.9098e+001 62192 76030,76082,76056
 3.0000e-001 76232 -1.3568e+002  5.6695e+000  1.6425e+000 62192 76082,76134,76108
 3.0000e-001 76209 -2.5472e+002 -6.0680e+001 -1.2114e+001 62192 76004,76160,76134
 3.0000e-001 76186 -2.2514e+002 -1.3759e+002 -5.2335e+000 62192 75978,76160,76004
 3.0000e-001 76350 -1.5163e+002 -2.4801e+001  1.2122e+001 62192 76134,76082,76324
 3.0000e-001 76373 -1.6075e+002 -1.5616e+001  1.0532e+001 62192 76134,76324,76004
 3.0000e-001 76879 -5.7320e+001  2.4414e+001 -2.1529e+001 61788 76902,76660,76582
 3.0000e-001 76856 -2.8338e+001  6.9997e+000 -3.3593e+001 61788 76902,76582,76556
 3.0000e-001 76833 -9.2428e+001 -2.1812e+000 -7.0886e-001 61788 76582,76660,76634
 3.0000e-001 76810 -6.9473e+001 -3.1594e+001  5.6498e+000 61788 76582,76634,76608
 3.0000e-001 76787 -3.2570e+001 -1.7971e+001 -5.5456e+000 61788 76556,76738,76686
 3.0000e-001 76764 -6.1003e+001 -1.9774e+001 -2.1250e-001 61788 76686,76738,76712
 3.0000e-001 76928 -6.5549e+001  1.0268e+001 -1.6892e+001 61788 76686,76660,76902
 3.0000e-001 76951 -4.5475e+001 -1.7405e+001 -2.5073e+001 61788 76686,76902,76556
 3.0000e-001 77408 -1.7009e+002 -2.4419e+001  3.2400e+001 61498 77212,77264,77238
 3.0000e-001 77385 -1.9898e+002 -6.3090e+001  2.1246e+000 61498 77160,77264,77212
 3.0000e-001 77362 -1.3132e+002 -4.0797e+001  8.5083e+000 61498 77160,77290,77264
 3.0000e-001 77339 -1.9756e+002 -2.0001e+001 -9.9854e+000 61498 77160,77212,77186
 3.0000e-001 77316 -1.1306e+002  7.5410e+000  3.7783e+000 61498 77134,77290,77160
 3.0000e-001 77678 -2.8522e+002  3.7655e+001  5.4894e+000 61129 77479,77557,77505
 3.0000e-001 77655 -2.8461e+002 -3.9850e+001  1.3445e+000 61129 77479,77583,77557
 3.0000e-001 77632 -2.6758e+002 -1.1321e+002  1.5114e+001 61129 77453,77583,77479
 3.0000e-001 77609 -2.5368e+002  1.0197e+002  6.5681e+001 61129 77505,77557,77531
 3.0000e-001 77828 -2.2193e+001  7.6188e+000  4.4232e-001 60931 77851,77727,77701
 3.0000e-001 77805 -2.8448e+001 -1.5674e+001  1.2074e+001 60931 77851,77701,77779
 3.0000e-001 77877 -2.1741e+001  4.6415e+001 -1.6833e+001 60931 77923,77851,77753
 3.0000e-001 77900 -5.8312e+001  2.6898e+001  9.0015e+000 60931 77753,77851,77779
 3.0000e-001 77949 -4.2317e+001  1.4160e+001 -2.6504e+000 60931 77727,77851,77923
 3.0000e-001 78133 -2.0580e+002 -1.0534e+002  3.2175e+000 60377 78055,78107,78081
 3.0000e-001 78535 -1.2337e+002 -3.9223e+001 -3.6366e+000 60015 78287,78391,78313
 3.0000e-001 78512 -1.6380e+002 -5.2492e+001  5.5064e+000 60015 78287,78417,78391
 3.0000e-001 78489 -1.3126e+002 -1.6737e+001  3.3852e+001 60015 78261,78417,78287
 3.0000e-001 78466 -1.9582e+002 -5.8797e+001  4.2609e-001 60015 78339,78391,78365
 3.0000e-001 78443 -2.1092e+002 -7.7832e+001 -9.8057e+000 60015 78313,78391,78339
 3.0000e-001 78913 -1.4910e+002 -5.2059e+001  1.5391e+001 59725 78936,78743,78691
 3.0000e-001 78890 -1.2399e+002 -3.6822e+000  2.8210e+001 59725 79008,78936,78691
 3.0000e-001 78867 -1.0666e+002  2.6093e+001  4.3069e+001 59725 79008,78691,78665
 3.0000e-001 78844 -1.4941e+002 -5.2209e+001  1.5433e+001 59725 78691,78743,78717
 3.0000e-001 78821 -1.6550e+002 -8.4148e+001  2.4959e+001 59725 78639,78795,78769
 3.0000e-001 78962 -1.3553e+002 -1.2968e+001  1.1700e+001 59725 78769,78743,78936
 3.0000e-001 78985 -1.6138e+002 -4.1815e+001  2.8821e-001 59725 78769,78936,78639
 3.0000e-001 79034 -1.4785e+002 -7.8486e+000  3.6660e+000 59725 78639,78936,79008
 3.0000e-001 79057 -1.2768e+002  2.4929e+000  1.6493e+001 59725 78639,79008,78665
 3.0000e-001 79386 -1.7666e+002 -4.6847e+001  3.6125e-001 59221 79187,79239,79213
 3.0000e-001 79363 -1.8225e+002 -5.7449e+001  4.5883e+000 59221 79187,79265,79239
 3.0000e-001 79340 -1.5729e+002 -5.1917e+001 -2.2943e+000 59221 79187,79291,79265
 3.0000e-001 79317 -1.7716e+002 -9.6662e+001  5.9947e+000 59221 79161,79291,79187
 3.0000e-001 79813 -1.7015e+002 -6.4085e+000  1.9206e+000 58831 79836,79542,79516
 3.0000e-001 79790 -1.5371e+002 -1.7604e+000  3.2228e+000 58831 79980,79836,79516
 3.0000e-001 79767 -7.7217e+001 -2.0751e+001 -1.1359e+001 58831 79908,79646,79568
 3.0000e-001 79744 -2.3130e+002 -6.2302e+000  1.3994e+001 58831 79980,79516,79490
 3.0000e-001 79721 -5.6404e+001 -8.6661e+000 -6.3628e+000 58831 79568,79646,79594
 3.0000e-001 79698 -9.5144e+001 -2.3235e+001 -2.5343e+001 58831 79594,79646,79620
 3.0000e-001 79862 -1.2106e+002 -8.0226e+000  2.3271e-001 58831 79568,79542,79836
 3.0000e-001 79885 -8.6418e+001 -1.9777e+001 -2.0837e+001 58831 79908,79568,79836
 3.0000e-001 79934 -7.0522e+001 -1.7740e+001 -1.1978e+001 58831 79672,79646,79908
 3.0000e-001 79957 -6.9356e+001 -1.2193e+001 -2.2200e+001 58831 79672,79908,79836
 3.0000e-001 80006 -1.1458e+002  5.2218e+000 -2.8796e+001 58831 79672,79836,79980
 3.0000e-001 80029 -1.5364e+002  9.8648e+000 -5.6847e+000 58831 79672,79980,79490
 3.0000e-001 80358 -1.7570e+002 -3.1630e+001  7.6315e+000 58377 80381,80185,80159
 3.0000e-001 80335 -1.8300e+002 -3.7329e+001  5.1376e+000 58377 80381,80159,80133
 3.0000e-001 80312 -1.9590e+002 -4.9575e+001 -2.0423e+000 58377 80133,80263,80237
 3.0000e-001 80289 -1.6262e+002 -4.0013e+001 -1.1416e+000 58377 80185,80237,80211
 3.0000e-001 80407 -1.6077e+002 -3.8892e+001  6.3545e+000 58377 80237,80185,80381
 3.0000e-001 80430 -1.7448e+002 -4.8270e+001  2.0970e+000 58377 80237,80381,80133
 3.0000e-001 80759 -1.7351e+002 -7.0126e+001 -1.9571e+001 57873 80782,80586,80560
 3.0000e-001 80736 -1.5157e+002 -4.9206e+001 -1.0811e+001 57873 80782,80560,80534
 3.0000e-001 80713 -1.4117e+002 -2.6065e+001  6.1998e-001 57873 80586,80638,80612
 3.0000e-001 80690 -1.8171e+002 -4.5055e+001 -1.3085e+001 57873 80534,80664,80638
 3.0000e-001 80808 -1.6358e+002 -5.0703e+001 -8.7637e+000 57873 80638,80586,80782
 3.0000e-001 80831 -1.6060e+002 -4.5222e+001 -5.0807e+000 57873 80638,80782,80534
 3.0000e-001 81337 -2.9283e+001 -4.2747e+000 -2.3959e+000 57262 81360,81144,81092
 3.0000e-001 81314 -2.9450e+001 -1.0180e+001 -1.1751e+001 57262 81360,81092,81066
 3.0000e-001 81291 -1.6697e+001 -5.1453e+000 -6.1226e+000 57262 81014,81196,81066
 3.0000e-001 81268 -9.0257e+000  1.9066e+001  6.5900e+000 57262 81092,81144,81118
 3.0000e-001 81245 -6.6067e+000 -2.6462e+001  1.4694e+001 57262 81144,81196,81170
 3.0000e-001 81222 -1.6525e+001 -5.4438e+000 -7.1212e-001 57262 81014,81066,81040
 3.0000e-001 81386 -1.9516e+001  3.4817e+000  1.4327e+000 57262 81196,81144,81360
 3.0000e-001 81409 -2.3420e+001 -4.3230e+000 -8.5951e+000 57262 81196,81360,81066
 3.0000e-001 81608 -2.9995e+002 -1.0636e+002 -3.2048e+001 57007 81458,81536,81510
 3.0000e-001 81585 -2.8961e+002 -7.6149e+001 -3.0513e+001 57007 81432,81536,81458
 3.0000e-001 81562 -1.5713e+002 -1.4593e+002 -1.0740e+002 57007 81458,81510,81484
 3.0000e-001 82086 -1.3055e+002 -6.8350e+001  1.0347e+001 56339 81792,81922,81818
 3.0000e-001 82063 -8.8425e+001 -7.1650e+001  2.6300e+000 56339 81714,81922,81792
 3.0000e-001 82040 -1.6231e+002 -1.0786e+002  2.6158e+001 56339 82109,81844,81818
 3.0000e-001 82017 -1.4689e+002 -1.0394e+002  3.0560e+001 56339 82109,81818,81922
 3.0000e-001 81994 -1.6285e+002 -6.5688e+001  7.6606e+000 56339 81844,81896,81870
 3.0000e-001 81971 -8.7053e+001 -5.4686e+001 -3.7694e+001 56339 81714,81792,81766
 3.0000e-001 81948 -1.6173e+002 -5.0260e+001 -6.5686e+001 56339 81714,81766,81740
 3.0000e-001 82135 -1.8818e+002 -1.0173e+002  2.1740e+001 56339 81896,81844,82109
 3.0000e-001 82158 -1.6397e+002 -8.8440e+001  2.9889e+001 56339 81896,82109,81922
 3.0000e-001 82536 -1.6216e+002 -5.8385e+001  1.0349e+001 55699 82288,82392,82314
 3.0000e-001 82513 -2.3149e+002 -9.5210e+001 -2.1827e+001 55699 82288,82418,82392
 3.0000e-001 82490 -1.6529e+002 -7.4896e+001  8.8756e+000 55699 82314,82392,82340
 3.0000e-001 82467 -1.6400e+002 -7.7111e+001  8.4963e+000 55699 82340,82392,82366
 3.0000e-001 82444 -1.8483e+002  6.1526e+000  1.1045e+001 55699 82262,82418,82288
 3.0000e-001 83091 -4.1335e+001 -3.7882e+001  6.8831e+000 55409 82745,82901,82875
 3.0000e-001 83068 -5.3331e+001 -3.8039e+001  3.0185e+000 55409 82719,82901,82745
 3.0000e-001 83045 -6.0214e+001 -1.8022e+001 -2.6708e+000 55409 82771,82849,82823
 3.0000e-001 83022 -5.2686e+001 -5.3768e+000  2.1049e+001 55409 82745,82849,82771
 3.0000e-001 82999 -2.0182e+001 -2.9525e+001  2.0212e+001 55409 82745,82875,82849
 3.0000e-001 82976 -7.1383e+001 -2.4511e+001  7.5658e-001 55409 82771,82823,82797
 3.0000e-001 82953 -3.4263e+001 -3.6806e+001  1.5130e+000 55409 82719,82927,82901
 3.0000e-001 83388 -1.6580e+002 -5.4390e+001 -7.0909e+000 54905 83411,83218,83166
 3.0000e-001 83365 -1.5323e+002 -4.2752e+001 -1.5654e+000 54905 83411,83166,83114
 3.0000e-001 83342 -1.3275e+002 -2.6646e+001  2.1355e+001 54905 83483,83270,83244
 3.0000e-001 83319 -1.4112e+002 -3.3587e+001 -1.7157e+001 54905 83166,83218,83192
 3.0000e-001 83296 -1.4821e+002 -4.8157e+001  1.5422e+001 54905 83114,83166,83140
 3.0000e-001 83437 -1.7192e+002 -3.7704e+001  3.1731e+000 54905 83244,83218,83411
 3.0000e-001 83460 -1.5359e+002 -2.5361e+001  1.0486e+001 54905 83483,83244,83411
 3.0000e-001 83509 -1.6031e+002 -5.1011e+001  1.1047e+001 54905 83114,83270,83483
 3.0000e-001 83532 -1.6799e+002 -4.2005e+001  2.9754e+000 54905 83114,83483,83411
 3.0000e-001 83961 -1.0392e+002  5.9304e+000 -1.5487e+001 54593 83638,83768,83690
 3.0000e-001 83938 -1.5944e+001  1.8070e+001 -1.8826e+000 54593 83638,83794,83768
 3.0000e-001 83915 -6.0549e+001  4.4615e+001  3.7336e+000 54593 83690,83768,83742
 3.0000e-001 83892 -7.4162e+001  3.1342e+001 -4.5422e+001 54593 83638,83820,83794
 3.0000e-001 83869 -4.0291e+001  2.2164e+002 -4.0864e+001 54593 83638,83690,83664
 3.0000e-001 83846 -4.6128e+000  7.9897e+000  5.9299e+001 54593 83690,83742,83716
 3.0000e-001 84209 -1.3713e+002 -4.3980e+001 -2.6363e+000 54132 84232,84062,83984
 3.0000e-001 84186 -1.4959e+002 -5.3782e+001  1.7270e+000 54132 84232,83984,84114
 3.0000e-001 84163 -1.3714e+002 -4.4045e+001 -2.3754e+000 54132 83984,84062,84036
 3.0000e-001 84140 -1.2379e+002 -7.6767e+001  7.7288e+000 54132 83984,84036,84010
 3.0000e-001 84258 -1.5507e+002 -2.7286e+001 -8.6348e-001 54132 84088,84062,84232
 3.0000e-001 84281 -1.7437e+002 -4.1900e+001  5.5019e+000 54132 84088,84232,84114
 3.0000e-001 84382 -2.0757e+002  1.6138e+001 -2.2629e-001 53521 84304,84356,84330
 3.0000e-001 84632 -1.5588e+002 -4.4097e+001  1.0752e+001 53067 84655,84485,84459
 3.0000e-001 84609 -1.2983e+002 -5.5536e+001  1.6045e+001 53067 84655,84459,84407
 3.0000e-001 84586 -1.7181e+002 -7.3759e+001  9.6459e+000 53067 84485,84537,84511
 3.0000e-001 84563 -1.2576e+002 -5.6314e+001 -4.6989e+000 53067 84407,84459,84433
 3.0000e-001 84681 -1.6609e+002 -4.9819e+001  1.3639e+001 53067 84537,84485,84655
 3.0000e-001 84704 -1.5626e+002 -7.3262e+001  2.3961e+001 53067 84537,84655,84407
 3.0000e-001 85214 -7.9361e+001  3.8302e+000 -6.1051e+000 52513 85021,85073,85047
 3.0000e-001 85191 -1.0170e+002  1.0238e+001 -2.9295e+000 52513 84943,85073,85021
 3.0000e-001 85168 -2.0000e+002 -3.8183e+001 -3.1024e+001 52513 84943,85021,84995
 3.0000e-001 85145 -1.2472e+002 -3.3278e+001 -1.5561e+001 52513 84917,85073,84943
 3.0000e-001 85122 -1.5298e+002 -3.9386e+001 -3.5345e+001 52513 84943,84995,84969
 3.0000e-001 85099 -7.0275e+001 -5.1222e+001 -2.3422e+001 52513 84891,85073,84917
 3.0000e-001 85582 -1.4485e+002 -3.1883e+001 -1.4907e+001 52037 85605,85311,85285
 3.0000e-001 85559 -1.5420e+002 -4.2396e+001 -9.1066e+000 52037 85749,85605,85285
 3.0000e-001 85536 -1.5756e+002 -3.0917e+001 -8.6737e+000 52037 85893,85677,85389
 3.0000e-001 85513 -1.5755e+002 -5.5318e+001 -2.7864e+000 52037 85749,85285,85259
 3.0000e-001 85490 -1.5386e+002 -2.9978e+001 -1.3292e+001 52037 85893,85389,85363
 3.0000e-001 85467 -1.5391e+002 -1.6491e+001  1.4857e+000 52037 85259,85441,85415
 3.0000e-001 85631 -1.5328e+002 -2.5544e+001 -3.4429e+000 52037 85337,85311,85605
 3.0000e-001 85654 -1.5771e+002 -3.6194e+001 -4.3474e+000 52037 85677,85337,85605
 3.0000e-001 85703 -1.7243e+002 -3.4069e+001 -7.5890e+000 52037 85415,85389,85677
 3.0000e-001 85726 -1.6114e+002 -2.9933e+001 -6.2867e+000 52037 85821,85677,85605
 3.0000e-001 85775 -1.6069e+002 -3.0705e+001 -8.7014e+000 52037 85821,85605,85749
 3.0000e-001 85798 -1.5899e+002 -3.9548e+001 -3.9202e+000 52037 85415,85749,85259
 3.0000e-001 85847 -1.6258e+002 -3.3298e+001 -6.2938e+000 52037 85415,85677,85821
 3.0000e-001 85870 -1.6219e+002 -3.4151e+001 -8.4836e+000 52037 85415,85821,85749
 3.0000e-001 85919 -1.5967e+002 -3.7998e+001 -5.1353e+000 52037 85337,85677,85893
 3.0000e-001 85942 -1.5827e+002 -3.8680e+001 -9.4093e+000 52037 85337,85893,85363
 3.0000e-001 86224 -8.1208e+001 -1.6393e+001  3.2206e+000 51368 86375,86100,86074
 3.0000e-001 86201 -4.5545e+001 -3.2221e+000  2.9332e+000 51368 86375,86074,86247
 3.0000e-001 86178 -5.1308e+001 -2.0066e+001 -1.3645e+001 51368 86048,86152,86126
 3.0000e-001 86273 -1.2375e+002 -1.2567e+001  7.6923e+000 51368 86048,86126,86247
 3.0000e-001 86401 -1.0053e+002 -7.2068e-001  2.0275e+001 51368 86126,86100,86375
 3.0000e-001 86424 -8.2737e+001  1.0034e+000  1.9749e+001 51368 86126,86375,86247
 3.0000e-001 86802 -1.6359e+002 -5.6042e+001  1.1312e+001 51028 86528,86632,86580
 3.0000e-001 86779 -1.2219e+002 -3.2901e+001 -1.5183e+000 51028 86528,86684,86632
 3.0000e-001 86756 -1.4346e+002 -8.5467e+000  1.0186e+001 51028 86528,86580,86554
 3.0000e-001 86733 -1.3627e+002 -3.3068e+001 -1.7200e+001 51028 86632,86684,86658
 3.0000e-001 86710 -1.6388e+002 -2.3541e+001  4.3924e+001 51028 86580,86632,86606
 3.0000e-001 87131 -1.5264e+002 -5.3876e+001  1.5705e+001 50624 86958,87036,87010
 3.0000e-001 87108 -1.4724e+002 -4.9899e+001  1.7760e+001 50624 86932,87036,86958
 3.0000e-001 87085 -1.2556e+002 -4.1807e+001  1.2503e+001 50624 86958,87010,86984
 3.0000e-001 87062 -1.0827e+002 -3.9234e+001  9.7440e+000 50624 86906,87036,86932
 3.0000e-001 87330 -1.0494e+002 -2.0772e+001  1.9136e+001 50234 87353,87180,87154
 3.0000e-001 87307 -1.3536e+002  1.0963e+001  1.7160e+000 50234 87353,87154,87258
 3.0000e-001 87284 -1.4911e+002 -2.7944e+001  5.0432e+000 50234 87206,87258,87232
 3.0000e-001 87379 -1.2362e+002 -6.5744e+001  1.2642e+001 50234 87206,87180,87353
 3.0000e-001 87402 -1.4478e+002 -1.9210e+001 -4.6495e+000 50234 87206,87353,87258
 3.0000e-001 87650 -1.5940e+002 -3.7999e+001  6.2384e-001 49730 87673,87503,87451
 3.0000e-001 87627 -1.4322e+002 -2.9709e+001  1.3399e+001 49730 87673,87451,87425
 3.0000e-001 87604 -1.5331e+002 -4.0694e+001  1.6840e+001 49730 87503,87555,87529
 3.0000e-001 87581 -1.9997e+002 -1.9994e+001  6.0731e+000 49730 87451,87503,87477
 3.0000e-001 87699 -1.6040e+002 -2.4117e+001  8.7233e+000 49730 87555,87503,87673
 3.0000e-001 87722 -1.5878e+002 -1.3512e+001  1.4827e+001 49730 87555,87673,87425
 3.0000e-001 88232 -1.5558e+002 -4.0606e+001  6.7211e+000 49176 88255,87935,87909
 3.0000e-001 88209 -1.2831e+002 -1.3748e+001 -2.1016e+001 49176 88255,87909,88065
 3.0000e-001 88186 -1.6272e+002 -5.1683e+001 -9.1707e+000 49176 87935,88039,87961
 3.0000e-001 88163 -1.7752e+002 -2.7935e+001 -1.4908e+001 49176 87909,88091,88065
 3.0000e-001 88140 -1.9185e+002 -6.1585e+001  1.0814e+001 49176 87961,88039,88013
 3.0000e-001 88117 -1.8213e+002 -4.2501e+001  7.4101e+000 49176 87961,88013,87987
 3.0000e-001 88281 -1.2718e+002 -2.9704e+001 -1.8914e+001 49176 88039,87935,88255
 3.0000e-001 88304 -1.0141e+002 -5.7891e+000 -4.6197e+001 49176 88039,88255,88065
 3.0000e-001 88503 -1.6121e+002 -7.9080e+001 -7.9763e+000 48772 88526,88379,88353
 3.0000e-001 88480 -1.5788e+002 -6.8789e+001 -4.8697e+000 48772 88526,88353,88327
 3.0000e-001 88457 -1.4040e+002 -1.6859e+001 -8.3299e+000 48772 88379,88431,88405
 3.0000e-001 88552 -1.6176e+002 -7.0091e+001 -8.1198e+000 48772 88431,88379,88526
 3.0000e-001 88575 -1.6306e+002 -6.5015e+001 -6.9347e+000 48772 88431,88526,88327
 3.0000e-001 89083  2.5650e+000 -6.6641e+000 -1.0174e+000 48368 88786,88916,88864
 3.0000e-001 89060 -9.4134e-001 -1.0113e+001  9.0679e-001 48368 88786,88942,88916
 3.0000e-001 89037 -5.5209e+000  7.3066e-001  1.0111e+001 48368 88786,88864,88812
 3.0000e-001 89014 -1.9668e+001 -4.3536e-001 -2.9261e+000 48368 88864,88916,88890
 3.0000e-001 88991 -1.9091e+001  6.3310e+000  3.3316e+000 48368 88812,88864,88838
 3.0000e-001 88968 -8.8767e+000 -1.0288e+001  4.8376e+000 48368 88760,88942,88786
 3.0000e-001 89331 -1.4470e+002 -4.4881e+001 -2.0139e+001 47928 89158,89236,89210
 3.0000e-001 89308 -1.3681e+002 -3.4240e+001 -2.5471e+001 47928 89132,89236,89158
 3.0000e-001 89285 -1.0054e+002 -3.0918e+001 -3.4816e+000 47928 89158,89210,89184
 3.0000e-001 89262 -1.4208e+002 -1.9109e+001 -2.3119e+001 47928 89106,89236,89132
 3.0000e-001 89662 -1.0699e+002 -2.2080e+000  3.8530e+000 47588 89463,89541,89515
 3.0000e-001 89639 -1.1987e+002 -3.5654e+001  6.5245e+000 47588 89463,89567,89541
 3.0000e-001 89616 -1.0789e+002  1.6469e+001 -4.5182e+000 47588 89463,89515,89489
 3.0000e-001 89593 -1.2056e+002 -5.0864e+001  1.8235e+001 47588 89437,89567,89463
 3.0000e-001 89763 -3.5718e+002 -3.1403e+001 -1.1116e+001 47390 89685,89737,89711
 3.0000e-001 89913 -2.1293e+002 -4.6842e+001 -2.5255e+001 47078 89786,89838,89812
 3.0000e-001 89890 -7.5340e+001 -6.4377e+001 -3.0963e+001 47078 89786,89864,89838
 3.0000e-001 90163 -1.3626e+002 -1.6418e+001  1.1757e+001 46474 89964,90042,89990
 3.0000e-001 90140 -1.5559e+002 -2.2753e+001  3.0548e+000 46474 89938,90042,89964
 3.0000e-001 90117 -1.3587e+002 -3.0766e+001  8.2225e+000 46474 89990,90042,90016
 3.0000e-001 90094 -1.5196e+002 -1.8590e+001  1.4972e+000 46474 89938,90068,90042
 3.0000e-001 90364 -8.8293e+001 -2.1242e+001  1.5820e+001 46184 90240,90292,90266
 3.0000e-001 90341 -8.4738e+001  2.0581e+001  3.7802e+001 46184 90188,90292,90240
 3.0000e-001 90318 -9.5313e+001 -5.0545e+001  3.1678e+001 46184 90188,90240,90214
 3.0000e-001 90565 -1.8095e+002  4.4374e-001 -1.4693e+001 45780 90588,90415,90389
 3.0000e-001 90542 -1.4810e+002 -1.9980e+000 -9.5431e+000 45780 90588,90389,90493
 3.0000e-001 90519 -1.2228e+002 -1.7762e+001  1.7146e+000 45780 90415,90467,90441
 3.0000e-001 90614 -1.5520e+002 -8.7709e+000  6.6716e+000 45780 90467,90415,90588
 3.0000e-001 90637 -1.1180e+002  3.2378e+000  1.6946e+001 45780 90467,90588,90493
 3.0000e-001 91196 -1.0248e+002 -1.5261e+001  1.0366e+001 45226 91219,90876,90850
 3.0000e-001 91173 -1.2251e+002 -1.5313e+001 -9.1148e+000 45226 91219,90850,91032
 3.0000e-001 91150 -1.3421e+002  2.9028e+000  9.6827e+000 45226 90824,91032,90850
 3.0000e-001 91127 -1.5172e+002 -3.9763e+001 -4.8418e-001 45226 90876,90980,90902
 3.0000e-001 91104 -1.1463e+002 -3.3066e+001  6.2207e+000 45226 90876,91006,90980
 3.0000e-001 91081 -1.8109e+002 -2.8760e+001  2.3784e+001 45226 90902,90980,90954
 3.0000e-001 91058 -3.6521e+002 -6.4662e+001  5.7360e+000 45226 90902,90954,90928
 3.0000e-001 91245 -1.1788e+002 -3.7125e+001  3.3396e+000 45226 91006,90876,91219
 3.0000e-001 91268 -1.3404e+002 -3.0512e+001 -1.4339e+001 45226 91006,91219,91032
 3.0000e-001 91516 -3.8170e+001  2.5093e+001 -6.3326e+000 44836 91539,91421,91395
 3.0000e-001 91493 -8.9679e+001  3.0020e+001 -1.5274e+001 44836 91317,91421,91343
 3.0000e-001 91470 -3.6865e+001 -2.9492e+001  2.3863e+001 44836 91539,91395,91369
 3.0000e-001 91447 -2.4420e+001 -8.3535e+000 -4.5670e+001 44836 91291,91421,91317
 3.0000e-001 91565 -3.0284e+001  4.9675e+001 -7.5389e+000 44836 91343,91421,91539
 3.0000e-001 91588 -8.8351e+000  3.6171e+001  2.3965e+001 44836 91343,91539,91369
 3.0000e-001 91787 -9.7708e+001  2.1951e+001  8.8586e+000 44432 91810,91637,91611
 3.0000e-001 91764 -7.5358e+001  1.9811e+001  5.3140e+000 44432 91810,91611,91715
 3.0000e-001 91741 -9.3188e+001  1.4888e+001 -3.0984e+001 44432 91637,91689,91663
 3.0000e-001 91836 -7.8977e+001  2.2234e+001  1.2647e+001 44432 91689,91637,91810
 3.0000e-001 91859 -6.3651e+001  1.6117e+001  1.2950e+001 44432 91689,91810,91715
 3.0000e-001 92207 -1.3773e+002 -6.4678e+000 -2.8654e+001 43864 92230,91936,91910
 3.0000e-001 92184 -9.9316e+001 -5.7827e+001 -2.8104e+001 43864 92230,91910,92040
 3.0000e-001 92161 -7.6078e+001 -4.4413e+001 -6.1720e+000 43864 91884,92040,91910
 3.0000e-001 92138 -2.1681e+002  1.1223e+001  7.3235e+000 43864 91936,92014,91988
 3.0000e-001 92115 -7.7334e+001  2.7834e+001  1.8801e+001 43864 91936,91988,91962
 3.0000e-001 92092 -7.8558e+001 -2.9516e+001 -8.4600e+000 43864 91884,92066,92040
 3.0000e-001 92256 -1.1158e+002  5.9335e+001 -9.9361e+000 43864 92014,91936,92230
 3.0000e-001 92279 -1.0203e+002 -2.3159e+001 -1.8632e+001 43864 92014,92230,92040
 3.0000e-001 92529 -1.7265e+002 -4.3347e+001  2.5503e+001 43410 92552,92330,92304
 3.0000e-001 92506 -1.6841e+002 -3.3173e+001  1.4470e+001 43410 92552,92304,92408
 3.0000e-001 92483 -1.6073e+002 -2.1153e+001  1.1058e+001 43410 92304,92434,92408
 3.0000e-001 92460 -1.3401e+002 -3.8381e+001  1.0713e+001 43410 92330,92382,92356
 3.0000e-001 92578 -1.6828e+002 -4.0156e+001  1.2921e+001 43410 92382,92330,92552
 3.0000e-001 92601 -1.5273e+002 -1.4785e+001  1.8534e-001 43410 92382,92552,92408
 3.0000e-001 92802 -5.3703e+001 -1.3450e+001  3.6409e+001 43162 92825,92704,92652
 3.0000e-001 92779 -5.5798e+001 -7.5496e+000  2.4263e+001 43162 92825,92652,92626
 3.0000e-001 92756 -4.0841e+001  3.3668e+001  5.2259e+001 43162 92652,92704,92678
 3.0000e-001 92851 -5.2036e+001 -1.0195e+001  2.9690e+001 43162 92730,92704,92825
 3.0000e-001 92874 -1.9983e+001  2.9140e+001  9.1508e+000 43162 92730,92825,92626
 3.0000e-001 93463 -1.9489e+002 -8.6646e+001  3.2753e+001 42758 93140,93270,93166
 3.0000e-001 93440 -1.5769e+002 -6.8810e+001  2.1895e+000 42758 93140,93296,93270
 3.0000e-001 93417 -1.6105e+002 -4.7266e+001  1.0452e+001 42758 93166,93270,93218
 3.0000e-001 93394 -2.2116e+002 -3.7894e+001  3.1786e+001 42758 93218,93270,93244
 3.0000e-001 93371 -1.5051e+002 -6.7768e+001  1.0895e+000 42758 93140,93322,93296
 3.0000e-001 93348 -1.3013e+002  1.8323e+001 -9.9572e+000 42758 93166,93218,93192
 3.0000e-001 93920 -1.1779e+002 -2.9700e+001  5.3955e+000 42304 93943,93672,93646
 3.0000e-001 93897 -1.2476e+002 -5.2202e+001  3.6452e+000 42304 93943,93646,93802
 3.0000e-001 93874 -1.2798e+002 -3.1374e+001 -2.3890e+000 42304 93724,93802,93776
 3.0000e-001 93851 -1.2832e+002 -1.4531e+001  5.2490e+000 42304 93672,93724,93698
 3.0000e-001 93828 -7.1433e+001 -1.3763e+000  1.8135e+001 42304 93724,93776,93750
 3.0000e-001 93969 -1.2326e+002 -2.2005e+001  1.2307e+001 42304 93724,93672,93943
 3.0000e-001 93992 -1.2227e+002 -3.1973e+001  9.9435e+000 42304 93724,93943,93802
 3.0000e-001 94321 -7.9878e+001 -1.3117e+001 -1.3235e+001 41478 94096,94148,94122
 3.0000e-001 94298 -8.6304e+001 -2.7027e+001 -1.1264e+001 41478 94096,94226,94148
 3.0000e-001 94275 -7.2485e+001  3.6152e-001 -3.5625e+000 41478 94148,94226,94174
 3.0000e-001 94252 -5.7974e+001  9.2558e-003 -2.0604e+001 41478 94174,94226,94200
 3.0000e-001 94618 -1.3614e+002 -2.2335e+001  1.4508e+001 40910 94344,94422,94396
 3.0000e-001 94595 -1.3663e+002 -3.3837e+001  1.2779e+001 40910 94344,94448,94422
 3.0000e-001 94572 -1.2450e+002 -2.2335e+000  2.7096e+001 40910 94344,94474,94448
 3.0000e-001 94549 -9.9147e+001 -5.5142e+001 -1.5180e+001 40910 94344,94396,94370
 3.0000e-001 94526 -1.3749e+002 -2.9477e+001  3.4344e+001 40910 94344,94500,94474
 3.0000e-001 94866 -1.4751e+002  1.3074e+000  6.5002e+000 40306 94667,94719,94693
 3.0000e-001 94843 -1.2929e+002 -8.6690e+000  8.5707e+000 40306 94641,94719,94667
 3.0000e-001 94820 -1.2206e+002 -1.4690e+000  3.7130e+000 40306 94641,94745,94719
 3.0000e-001 94797 -1.0905e+002 -1.5782e+001  9.2826e+000 40306 94641,94771,94745
 3.0000e-001 95089 -1.5557e+002 -7.4490e+001 -3.8920e+000 39702 94913,94991,94939
 3.0000e-001 95066 -1.9085e+002 -8.0598e+001 -4.9466e+000 39702 94913,95017,94991
 3.0000e-001 95043 -2.0995e+002 -9.8613e+001 -1.1125e+001 39702 94939,94991,94965
 3.0000e-001 95339 -1.3865e+002 -1.9392e+001 -5.6049e+000 39248 95140,95218,95166
 3.0000e-001 95316 -1.3993e+002 -2.9818e+001  6.3290e+000 39248 95140,95244,95218
 3.0000e-001 95293 -1.2495e+002  6.9971e+000  2.6935e+001 39248 95114,95244,95140
 3.0000e-001 95270 -1.7787e+002 -3.2418e+000  1.8704e+001 39248 95166,95218,95192
 3.0000e-001 95770 -1.4917e+001  9.9167e-001 -3.9832e-001 38694 95551,95629,95577
 3.0000e-001 95747 -6.1939e+001  2.7374e-001 -1.2091e+001 38694 95447,95629,95551
 3.0000e-001 95724 -7.1185e+001 -5.2580e+000  1.8365e+001 38694 95447,95551,95473
 3.0000e-001 95701 -2.9774e+001  4.0863e+000  7.8210e+000 38694 95473,95551,95499
 3.0000e-001 95678 -4.2708e+001  7.6877e-001  3.7348e+000 38694 95499,95551,95525
 3.0000e-001 95655 -1.4584e+001 -3.0667e-001  1.9660e+000 38694 95577,95629,95603
 3.0000e-001 96325 -1.1737e+002 -1.7768e+001  1.1976e+000 38240 95953,96031,96005
 3.0000e-001 96302 -1.2687e+002 -2.9382e+001  6.8830e+000 38240 95953,96161,96031
 3.0000e-001 96279 -1.3558e+002 -7.8791e+001 -9.6637e+000 38240 96031,96161,96135
 3.0000e-001 96256 -1.7371e+002 -4.9455e+001 -4.5971e+000 38240 96348,96109,96057
 3.0000e-001 96233 -1.7448e+002 -7.9760e+001 -3.3320e+001 38240 96348,96057,96031
 3.0000e-001 96210 -1.6592e+002 -2.2386e+001 -3.8956e+000 38240 96057,96109,96083
 3.0000e-001 96187 -5.9317e+001 -2.3482e+001  3.1461e+001 38240 95953,96005,95979
 3.0000e-001 96374 -1.5191e+002 -2.0065e+001  7.7558e+000 38240 96135,96109,96348
 3.0000e-001 96397 -1.5016e+002 -5.3742e+001 -2.0101e+001 38240 96135,96348,96031
 3.0000e-001 96618 -8.3460e+001  2.0271e+001  4.8280e+000 37821 96494,96546,96520
 3.0000e-001 96595 -1.1135e+002 -1.9514e+001 -1.3482e+001 37821 96468,96546,96494
 3.0000e-001 96572 -1.3333e+002 -2.8927e+001 -1.1834e+001 37821 96442,96546,96468
 3.0000e-001 97126 -1.3676e+002 -1.1219e+000  2.0775e+001 37367 97149,96855,96829
 3.0000e-001 97103 -1.1728e+002  1.0655e+001  6.5900e+000 37367 97149,96829,96985
 3.0000e-001 97080 -1.2769e+002  9.9585e+000  6.5918e+000 37367 96803,96985,96829
 3.0000e-001 97057 -1.3507e+002 -2.3966e+001  3.5416e+001 37367 96855,96907,96881
 3.0000e-001 97034 -7.3345e+001 -2.4004e+000  3.7946e-001 37367 96907,96985,96959
 3.0000e-001 97011 -3.8756e+001 -3.3908e+000  2.6560e+001 37367 96907,96959,96933
 3.0000e-001 97175 -1.1715e+002 -2.4541e+001  3.1457e+001 37367 96907,96855,97149
 3.0000e-001 97198 -1.0320e+002 -1.2012e+001  1.8899e+001 37367 96907,97149,96985
 3.0000e-001 97704 -9.0397e+001 -1.9833e+001 -3.5540e+000 36863 97727,97511,97485
 3.0000e-001 97681 -8.8013e+001 -2.2456e+001 -1.0249e+001 36863 97727,97485,97433
 3.0000e-001 97658 -5.3875e+001  2.7099e+001 -1.0195e+000 36863 97381,97563,97433
 3.0000e-001 97635 -5.2815e+001  1.5717e+001 -2.6465e+001 36863 97511,97563,97537
 3.0000e-001 97612 -1.2530e+002 -2.6372e+001 -1.1841e+001 36863 97433,97485,97459
 3.0000e-001 97589 -1.2821e+001  2.4740e+001 -3.6517e+001 36863 97381,97433,97407
 3.0000e-001 97753 -8.3287e+001 -1.9108e+001 -3.9383e+000 36863 97563,97511,97727
 3.0000e-001 97776 -7.8712e+001 -2.0624e+001 -1.0218e+001 36863 97563,97727,97433
 3.0000e-001 98331 -8.2674e+001 -2.3264e+001  1.1503e+000 36287 98354,98089,98063
 3.0000e-001 98308 -7.5545e+001 -1.1633e+001  5.0910e+000 36287 98354,98063,98011
 3.0000e-001 98285 -8.9401e+001  1.2113e+001  1.1684e+001 36287 98426,97985,98115
 3.0000e-001 98262 -6.6983e+001 -2.8818e+001  4.6859e-001 36287 98011,98063,98037
 3.0000e-001 98239 -1.2915e+002 -2.5308e+001  3.1705e+001 36287 97985,98141,98115
 3.0000e-001 98216 -2.1503e+002 -3.6342e+001  3.7370e+001 36287 97959,98141,97985
 3.0000e-001 98193 -2.3121e+002  1.2048e+001  2.2266e+001 36287 97959,98167,98141
 3.0000e-001 98380 -9.4916e+001 -9.8056e+000 -9.9508e+000 36287 98115,98089,98354
 3.0000e-001 98403 -8.1907e+001  1.0751e+001 -2.5177e+000 36287 98426,98115,98354
 3.0000e-001 98452 -9.8852e+001 -8.4593e+000  1.4440e+001 36287 98011,97985,98426
 3.0000e-001 98475 -9.3630e+001 -1.4457e+001  1.0452e+000 36287 98011,98426,98354
 3.0000e-001 99030 -6.4049e+001  1.3659e+001  1.5765e+001 35726 99053,98736,98710
 3.0000e-001 99007 -9.2034e+001 -4.2503e+000  8.0502e+000 35726 99053,98710,98684
 3.0000e-001 98984 -7.1266e+001 -1.9734e+001  1.1776e+001 35726 99125,98814,98736
 3.0000e-001 98961 -7.0200e+001 -1.6757e+001  1.3002e+001 35726 98736,98814,98788
 3.0000e-001 98938 -1.3177e+002 -1.4115e+001 -1.5957e+001 35726 98684,98866,98840
 3.0000e-001 98915 -7.4585e+001 -8.1815e+000 -1.9812e+001 35726 98736,98788,98762
 3.0000e-001 98892 -7.5971e+001  8.9461e+000 -7.7579e+000 35726 98658,98866,98684
 3.0000e-001 99079 -7.2524e+001 -1.2748e+001  1.0367e+001 35726 99125,98736,99053
 3.0000e-001 99102 -7.3573e+001  4.4367e+000  2.4450e+000 35726 98840,99053,98684
 3.0000e-001 99151 -7.2466e+001 -2.2065e+001  1.1373e+000 35726 98840,98814,99125
 3.0000e-001 99174 -6.8118e+001 -6.7161e+000 -4.6547e-001 35726 98840,99125,99053
 3.0000e-001 99454 -1.2170e+002 -1.8662e+001  1.5962e+001 35222 99278,99330,99304
 3.0000e-001 99431 -1.2023e+002 -2.6284e+001  1.0802e+001 35222 99278,99382,99330
 3.0000e-001 99408 -1.1272e+002  2.3764e+001  1.9238e+001 35222 99330,99382,99356
 3.0000e-001 99653 -1.0232e+002 -1.9033e+001 -9.0651e+000 34867 99477,99529,99503
 3.0000e-001 99630 -7.9102e+001 -2.9231e+001 -9.0735e+000 34867 99477,99581,99529
 3.0000e-001 99607 -6.6058e+001 -4.5304e+000 -1.4443e+001 34867 99529,99581,99555
 3.0000e-001 100104 -1.4782e+002 -3.0596e+001  2.7444e+000 34363 99781,99885,99807
 3.0000e-001 100081 -1.1167e+002 -1.1990e+001 -7.1749e+000 34363 99781,99963,99885
 3.0000e-001 100058 -1.5847e+002 -3.8922e+001  6.0302e+000 34363 99885,99963,99911
 3.0000e-001 100035 -1.4834e+002 -4.7477e+001 -7.1124e-001 34363 99807,99885,99859
 3.0000e-001 100012 -1.2884e+002 -2.9503e+001  2.4184e+001 34363 99911,99963,99937
 3.0000e-001 99989 -1.8896e+002 -6.4678e+001 -1.2440e+000 34363 99807,99859,99833
 3.0000e-001 100303 -1.3025e+002 -3.2399e+001 -2.0226e-001 33909 100127,100205,100179
 3.0000e-001 100280 -1.2477e+002 -8.8868e+000 -1.5910e+001 33909 100127,100231,100205
 3.0000e-001 100257 -1.1271e+002 -4.4469e+000 -2.2321e+001 33909 100127,100179,100153
 3.0000e-001 100890 -1.2129e+002 -4.5591e+001 -4.0008e+000 33412 100645,100749,100697
 3.0000e-001 100867 -1.1897e+002 -4.5574e+001 -2.2353e+000 33412 100567,100749,100645
 3.0000e-001 100844 -1.0183e+002 -2.4428e+000 -4.9448e+000 33412 100567,100645,100619
 3.0000e-001 100821 -1.4667e+002 -2.8434e+001  1.0253e+001 33412 100645,100697,100671
 3.0000e-001 100798 -1.2278e+002 -3.1535e+001 -1.7068e+001 33412 100567,100619,100593
 3.0000e-001 100775 -9.4459e+001 -3.5101e+001 -1.3310e+001 33412 100697,100749,100723
 3.0000e-001 101268 -1.2662e+002  1.8048e+001 -1.7767e+000 32908 101435,101291,101098
 3.0000e-001 101245 -1.1638e+002 -3.2931e+001  1.4965e+000 32908 101291,101072,101020
 3.0000e-001 101222 -1.4253e+002 -6.0518e+001 -1.3931e+001 32908 101363,101150,101124
 3.0000e-001 101199 -1.0243e+002 -2.3319e+001 -3.1764e+001 32908 101020,101072,101046
 3.0000e-001 101176 -1.3773e+002 -2.4440e+001  1.1189e+001 32908 100994,101150,101020
 3.0000e-001 101317 -1.3604e+002 -2.5803e+001  1.9991e+001 32908 101124,101098,101291
 3.0000e-001 101340 -1.2846e+002 -6.3147e+001 -3.3124e+000 32908 101363,101124,101291
 3.0000e-001 101389 -1.2963e+002 -4.8880e+001 -4.0861e+000 32908 101020,101150,101363
 3.0000e-001 101412 -1.2071e+002 -4.8614e+001  7.0991e+000 32908 101020,101363,101291
 3.0000e-001 101461 -1.4324e+002 -1.9502e+001  2.3538e+000 32908 101072,101291,101435
 3.0000e-001 101918 -1.3770e+002 -7.5930e+000  3.9282e+000 32618 101941,101670,101644
 3.0000e-001 101895 -1.4815e+002 -2.0575e+001 -1.0906e+000 32618 101941,101644,101774
 3.0000e-001 101872 -1.7361e+002 -4.2279e+001  1.5640e+001 32618 102013,101696,101670
 3.0000e-001 101849 -1.5022e+002 -5.9831e+001  5.5129e+000 32618 101696,101748,101722
 3.0000e-001 101826 -1.4799e+002  2.2397e+001  8.6605e+000 32618 101644,101800,101774
 3.0000e-001 101967 -1.6342e+002 -2.3547e+001  1.1322e+001 32618 102013,101670,101941
 3.0000e-001 101990 -1.1882e+002  1.3563e+001 -2.0925e+001 32618 101748,101941,101774
 3.0000e-001 102039 -1.5598e+002 -6.0369e+001  1.1149e+000 32618 101748,101696,102013
 3.0000e-001 102062 -1.3935e+002 -3.8372e+001 -6.2498e+000 32618 101748,102013,101941
 3.0000e-001 102440 -4.3039e+001  1.2797e+001 -1.7426e+001 32306 102463,102270,102244
 3.0000e-001 102417 -4.7098e+001  3.2391e+000 -1.7324e+001 32306 102463,102244,102192
 3.0000e-001 102394 -6.6960e+001 -6.8958e+000 -9.0719e+000 32306 102192,102244,102218
 3.0000e-001 102371 -3.0599e+001  7.0927e+000 -8.9678e+000 32306 102270,102322,102296
 3.0000e-001 102348 -5.8818e+001  1.6308e+000 -2.1413e+000 32306 102166,102322,102192
 3.0000e-001 102489 -3.9244e+001  9.5115e+000 -7.4765e+000 32306 102322,102270,102463
 3.0000e-001 102512 -4.5885e+001 -5.9738e+000 -7.6360e+000 32306 102322,102463,102192
 3.0000e-001 102662 -1.2156e+002 -5.8067e+001  7.2291e+000 31852 102943,102587,102561
 3.0000e-001 102639 -1.4966e+002  1.7972e+001  2.0025e+001 31852 102815,102685,102561
 3.0000e-001 102711 -1.2835e+002  5.4311e+000  3.6285e+001 31852 102943,102561,102685
 3.0000e-001 102841 -8.5273e+001 -2.7422e+001 -6.7964e+000 31852 102535,102685,102815
 3.0000e-001 102969 -9.7493e+001  5.3540e+000  1.4997e+001 31852 102613,102587,102943
 3.0000e-001 102992 -1.1037e+002  5.5264e+001  4.5800e+001 31852 102613,102943,102685
 3.0000e-001 103370 -1.4267e+002 -5.9787e+001  4.2973e+000 31134 103096,103200,103122
 3.0000e-001 103347 -1.4130e+002 -4.9895e+001 -1.3482e+001 31134 103096,103226,103200
 3.0000e-001 103324 -1.5237e+002 -7.2697e+001  1.1895e+001 31134 103122,103200,103174
 3.0000e-001 103301 -1.8564e+002 -4.6742e+001 -1.2982e+000 31134 103096,103252,103226
 3.0000e-001 103278 -1.0871e+002  1.7380e+001 -1.8578e+000 31134 103122,103174,103148
 3.0000e-001 103520 -1.6389e+002  1.8075e+001  5.9112e+000 30822 103393,103445,103419
 3.0000e-001 103497 -1.4129e+002  1.1104e+001 -1.1671e+001 30822 103393,103471,103445
 3.0000e-001 103719 -6.5267e+001  7.9582e+000 -1.3586e+000 30182 103742,103621,103569
 3.0000e-001 103696 -9.1526e+001  1.5507e+001 -5.8312e+000 30182 103742,103569,103543
 3.0000e-001 103673 -4.9532e+001  2.1814e+001  2.5587e+001 30182 103569,103621,103595
 3.0000e-001 103768 -5.2807e+001  1.0603e+001 -2.1021e+000 30182 103647,103621,103742
 3.0000e-001 103791 -6.4662e+001  2.8245e+001 -1.1421e+001 30182 103647,103742,103543
 3.0000e-001 104252 -6.5947e+001 -1.8690e+001  3.0062e+000 29728 104030,104108,104056
 3.0000e-001 104229 -8.9021e+001 -5.4190e+001 -1.0775e+001 29728 104004,104108,104030
 3.0000e-001 104206 -7.4628e+001 -3.3092e+001 -2.5616e+000 29728 104004,104134,104108
 3.0000e-001 104183 -7.4801e+001 -4.3775e+001  5.3879e+000 29728 103978,104134,104004
 3.0000e-001 104160 -6.4796e+001 -1.6191e+001  2.4885e+000 29728 104056,104108,104082
 3.0000e-001 104630 -1.3822e+002 -5.4088e+001  3.7955e+001 29217 104653,104382,104356
 3.0000e-001 104607 -1.3948e+002 -4.9890e+001  1.5777e+001 29217 104653,104356,104512
 3.0000e-001 104584 -9.7930e+001 -2.7651e+001  2.1908e+001 29217 104434,104512,104486
 3.0000e-001 104561 -1.2647e+002 -3.0320e+001  2.8985e+001 29217 104382,104434,104408
 3.0000e-001 104538 -9.4775e+001 -3.8745e+001  1.4129e+001 29217 104434,104486,104460
 3.0000e-001 104679 -1.2296e+002 -4.7725e+001  3.3158e+001 29217 104434,104382,104653
 3.0000e-001 104702 -1.1773e+002 -4.5429e+001  1.3261e+001 29217 104434,104653,104512
 3.0000e-001 105178 -1.1678e+002 -1.8070e+001 -1.8391e+000 28649 105201,104962,104936
 3.0000e-001 105155 -1.1073e+002 -2.5004e+001 -5.9352e+000 28649 105201,104936,104884
 3.0000e-001 105132 -1.0703e+002 -2.2140e+001  2.0432e-001 28649 105273,104858,105014
 3.0000e-001 105109 -1.0110e+002 -1.5737e+001  3.2441e+000 28649 104962,105014,104988
 3.0000e-001 105086 -1.1064e+002 -2.4865e+001 -6.1207e+000 28649 104884,104936,104910
 3.0000e-001 105063 -8.1819e+001 -3.6778e+001 -1.1351e+001 28649 104806,105014,104858
 3.0000e-001 105040 -7.4236e+001 -5.3982e+001 -7.0483e+000 28649 104806,104858,104832
 3.0000e-001 105227 -1.0999e+002 -1.2717e+001  1.3181e+000 28649 105014,104962,105201
 3.0000e-001 105250 -1.1147e+002 -2.1038e+001 -2.8195e+000 28649 105273,105014,105201
 3.0000e-001 105299 -1.0233e+002 -2.0630e+001  3.6996e-001 28649 104884,104858,105273
 3.0000e-001 105322 -1.0419e+002 -1.8291e+001 -3.2186e+000 28649 104884,105273,105201
 3.0000e-001 105673 -1.6139e+002 -3.8465e+001  1.8824e+000 28351 105474,105578,105552
 3.0000e-001 105650 -1.8439e+002 -7.5220e+001 -8.7365e+000 28351 105448,105578,105474
 3.0000e-001 105627 -1.6473e+002  1.2088e+001 -9.1076e+000 28351 105500,105552,105526
 3.0000e-001 105604 -1.7738e+002 -4.2559e+001 -2.7348e+000 28351 105474,105552,105500
 3.0000e-001 106130 -1.2203e+002 -2.5942e+001 -1.8597e+001 28004 106153,105882,105856
 3.0000e-001 106107 -1.2459e+002 -4.9663e+001 -1.5681e+001 28004 106153,105856,105986
 3.0000e-001 106084 -1.1181e+002 -5.8980e+001 -1.2957e+001 28004 105934,105986,105960
 3.0000e-001 106061 -1.0340e+002 -4.9800e+001 -2.4536e+001 28004 105856,106012,105986
 3.0000e-001 106038 -8.3986e+001  6.3340e+001 -3.0393e+000 28004 105882,105934,105908
 3.0000e-001 106179 -1.2906e+002 -4.3443e+001 -6.6121e+000 28004 105934,105882,106153
 3.0000e-001 106202 -1.2080e+002 -5.6580e+001 -5.9345e+000 28004 105934,106153,105986
 3.0000e-001 106885 -1.2285e+002 -2.2170e+001  8.6669e+000 27564 106908,106620,106516
 3.0000e-001 106862 -1.5200e+002 -3.3288e+001  4.6558e+000 27564 106908,106516,106490
 3.0000e-001 106839 -1.9041e+002 -5.5147e+001  2.0511e+001 27564 106516,106620,106542
 3.0000e-001 106816 -1.1806e+002 -2.4129e+001  3.6297e+001 27564 106620,106672,106646
 3.0000e-001 106793 -2.4423e+002 -4.0939e+001  3.2586e+001 27564 106542,106620,106594
 3.0000e-001 106770 -1.4295e+002 -4.8564e+001 -3.0056e+000 27564 106490,106698,106672
 3.0000e-001 106747 -1.1759e+002 -3.5017e+001  1.3632e+001 27564 106464,106698,106490
 3.0000e-001 106724 -2.0015e+002 -1.4192e+001  2.0280e+001 27564 106542,106594,106568
 3.0000e-001 106934 -1.0615e+002 -3.2754e+001  1.0917e+001 27564 106672,106620,106908
 3.0000e-001 106957 -1.2078e+002 -3.4285e+001  6.8212e+000 27564 106672,106908,106490
 3.0000e-001 107463 -4.1758e+001 -6.6766e+000  1.1838e+001 27053 107218,107322,107296
 3.0000e-001 107440 -4.0425e+001 -4.9091e+000  4.2473e+000 27053 107166,107322,107218
 3.0000e-001 107417 -5.6648e+001  5.4496e-001  6.4471e+000 27053 107218,107296,107244
 3.0000e-001 107394 -4.4530e+001 -8.4027e+000  2.7585e+000 27053 107140,107322,107166
 3.0000e-001 107371 -2.3975e+001 -4.0819e+000  2.8980e+000 27053 107166,107218,107192
 3.0000e-001 107348 -5.6223e+001  4.5692e+001  2.4415e+001 27053 107244,107296,107270
 3.0000e-001 108097 -1.0666e+002 -3.7484e+001  4.3670e+000 26549 108192,108120,107803
 3.0000e-001 108074 -1.2659e+002 -1.9628e+001 -5.9798e+000 26549 108120,107725,107933
 3.0000e-001 108051 -1.2716e+002 -4.9283e+001  2.1360e+001 26549 107751,107803,107777
 3.0000e-001 108028 -1.1668e+002 -3.1616e+001  1.3132e+001 26549 108192,107803,107751
 3.0000e-001 108005 -1.4163e+002 -5.6165e+001 -1.1364e+001 26549 108264,107855,107803
 3.0000e-001 107982 -1.4799e+002 -6.9080e+001  4.3995e+000 26549 107881,107933,107907
 3.0000e-001 107959 -1.3777e+002 -2.5633e+001 -5.1803e+001 26549 107803,107855,107829
 3.0000e-001 108146 -1.1655e+002 -4.8763e+001 -7.1021e+000 26549 108264,107803,108120
 3.0000e-001 108169 -1.3364e+002 -3.6951e+001 -4.3999e+000 26549 107881,108120,107933
 3.0000e-001 108218 -1.2669e+002 -4.4647e+001  2.8873e+000 26549 107725,108120,108192
 3.0000e-001 108241 -1.3476e+002 -3.7481e+001  1.1321e+001 26549 107725,108192,107751
 3.0000e-001 108290 -1.5943e+002 -4.0983e+001 -5.2309e+000 26549 107881,107855,108264
 3.0000e-001 108313 -1.4268e+002 -3.9557e+001 -1.2814e-003 26549 107881,108264,108120
 3.0000e-001 108512 -6.9675e+001 -1.1398e+000  1.2102e+001 26137 108388,108440,108414
 3.0000e-001 108489 -7.7591e+001 -1.4204e+001  6.6402e+000 26137 108362,108440,108388
 3.0000e-001 108466 -1.0784e+002 -2.5745e+001  2.4567e-001 26137 108336,108440,108362
 3.0000e-001 108662 -1.1835e+002 -2.0675e+001 -2.2732e+000 25733 108817,108685,108535
 3.0000e-001 108639 -1.2571e+002 -1.6024e+001 -5.4248e+000 25733 109017,108817,108535
 3.0000e-001 108711 -1.1266e+002 -1.3619e+001 -5.5320e+000 25733 108561,108535,108685
 3.0000e-001 108843 -1.3006e+002 -2.6859e+001 -7.8803e+000 25733 108587,108685,108817
 3.0000e-001 108866 -1.2411e+002 -1.7810e+001 -3.6185e+000 25733 108889,108817,108613
 3.0000e-001 108915 -1.3931e+002 -2.4062e+001 -3.3327e+000 25733 108587,108817,108889
 3.0000e-001 109043 -1.2910e+002 -2.8569e+001 -6.2925e+000 25733 108613,108817,109017
 3.0000e-001 109500 -4.2514e+001  1.9416e+001 -1.5329e+001 25229 109523,109356,109330
 3.0000e-001 109477 -6.2945e+001 -5.9760e+000 -4.1839e+000 25229 109595,109523,109330
 3.0000e-001 109454 -5.3915e+001 -1.1055e+001  2.7414e+000 25229 109595,109330,109278
 3.0000e-001 109431 -5.8957e+001 -1.3872e+000 -2.2002e+000 25229 109667,109226,109382
 3.0000e-001 109408 -7.7367e+001 -1.4076e+000  1.3357e+001 25229 109278,109330,109304
 3.0000e-001 109549 -5.6097e+001  8.5285e+000 -2.1991e+000 25229 109382,109356,109523
 3.0000e-001 109572 -5.8936e+001 -1.2376e+000 -2.1557e+000 25229 109667,109382,109523
 3.0000e-001 109621 -5.3638e+001  1.6959e+001  1.2950e+000 25229 109252,109523,109595
 3.0000e-001 109644 -5.6923e+001 -4.6250e+000 -2.1629e-002 25229 109739,109595,109278
 3.0000e-001 109693 -7.8347e+001  3.1170e+000 -1.4897e+000 25229 109252,109226,109667
 3.0000e-001 109716 -6.6374e+001  1.1347e+001  2.1778e+000 25229 109252,109667,109523
 3.0000e-001 109765 -5.2664e+001 -2.5375e+000  6.6062e-001 25229 109252,109595,109739
 3.0000e-001 110478 -8.0044e+001 -7.2429e+000 -1.7439e+001 24917 110158,110236,110184
 3.0000e-001 110455 -4.5117e+001  1.1338e+001 -5.2087e+000 24917 110158,110288,110236
 3.0000e-001 110432 -7.0749e+001  2.4477e+001 -5.0574e+000 24917 110236,110288,110262
 3.0000e-001 110409 -7.0283e+001  1.6575e+000 -1.3446e+001 24917 110184,110236,110210
 3.0000e-001 110386 -4.4527e+001  8.8688e-001 -2.0763e+000 24917 110132,110288,110158
 3.0000e-001 110363 -2.1143e+001  1.2031e+001  1.5954e+000 24917 110132,110314,110288
 3.0000e-001 110340 -2.6491e+001 -1.5331e-001  1.2043e+000 24917 110106,110314,110132
 3.0000e-001 110829 -1.2410e+002 -2.8491e+001  1.7664e+001 24307 110604,110682,110630
 3.0000e-001 110806 -1.0451e+002 -1.6198e+001  6.8539e+000 24307 110604,110708,110682
 3.0000e-001 110783 -8.1930e+001 -2.0562e+000 -6.0556e+000 24307 110604,110734,110708
 3.0000e-001 110760 -1.9548e+002 -5.9101e+001  2.0430e+001 24307 110630,110682,110656
 3.0000e-001 111335 -1.0749e+002 -2.9507e+001  1.6928e+001 23767 111012,111168,111038
 3.0000e-001 111312 -7.3492e+001  1.2500e+001 -1.8695e-002 23767 111012,111194,111168
 3.0000e-001 111289 -6.2155e+001 -7.2722e+000 -7.4668e+000 23767 111358,111064,111038
 3.0000e-001 111266 -7.4634e+001 -6.3421e+000  6.4985e+000 23767 111358,111038,111168
 3.0000e-001 111243 -9.0047e+001 -2.3026e+001  1.1154e+000 23767 111430,111142,111090
 3.0000e-001 111220 -9.9980e+001 -2.7825e+001 -7.6855e+000 23767 111090,111142,111116
 3.0000e-001 111384 -6.7578e+001 -1.1718e+001  1.8913e+000 23767 111090,111064,111358
 3.0000e-001 111407 -6.8369e+001 -1.8776e+001  4.3599e+000 23767 111430,111090,111358
 3.0000e-001 111456 -1.1110e+002 -1.2019e+001  6.2460e+000 23767 111168,111142,111430
 3.0000e-001 111479 -9.8590e+001 -1.4887e+001  7.5511e+000 23767 111168,111430,111358
 3.0000e-001 111985 -1.2300e+002 -7.1132e+001 -8.3994e+000 23477 111688,111844,111818
 3.0000e-001 111962 -1.2270e+002 -5.8191e+001  2.0536e+001 23477 111662,111844,111688
 3.0000e-001 111939 -9.4950e+001 -3.8985e+001 -2.8049e+000 23477 111766,111818,111792
 3.0000e-001 111916 -1.2947e+002 -5.1470e+001  2.0500e+000 23477 111740,111818,111766
 3.0000e-001 111893 -1.3103e+002 -5.7450e+001 -7.1698e+000 23477 111688,111818,111740
 3.0000e-001 111870 -2.0012e+002 -2.7244e+001 -3.0097e+001 23477 111688,111740,111714
 3.0000e-001 112314 -1.1622e+002 -1.1752e+001 -4.2723e+000 23023 112141,112219,112193
 3.0000e-001 112291 -1.1935e+002 -3.7460e+001 -4.8224e+000 23023 112115,112219,112141
 3.0000e-001 112268 -1.0720e+002  1.0265e+001 -2.4004e+000 23023 112141,112193,112167
 3.0000e-001 112245 -9.6471e+001 -1.4487e+001  5.3953e+000 23023 112089,112219,112115
 3.0000e-001 112692 -1.3032e+002 -2.4739e+001 -1.1562e+000 22768 112444,112574,112548
 3.0000e-001 112669 -1.2792e+002  8.1660e+000  1.1825e+000 22768 112418,112574,112444
 3.0000e-001 112646 -8.9208e+001 -1.1909e+001 -3.4903e+000 22768 112444,112522,112470
 3.0000e-001 112623 -1.0344e+002 -1.2828e+001  9.0430e-001 22768 112444,112548,112522
 3.0000e-001 112600 -8.6595e+001 -1.1707e+001  4.4291e+000 22768 112470,112522,112496
 3.0000e-001 113011 -2.1429e+002 -3.7097e+001 -1.5535e+001 22314 112763,112867,112789
 3.0000e-001 112988 -2.1193e+002 -7.0648e+001 -9.8104e+000 22314 112763,112893,112867
 3.0000e-001 112965 -2.1584e+002  1.7339e+001  0.0000e+000 22314 112815,112867,112841
 3.0000e-001 112942 -2.4891e+002 -5.3667e+001 -9.9208e+000 22314 112789,112867,112815
 3.0000e-001 112919 -1.9440e+002 -8.3842e+001 -3.9457e+001 22314 112737,112893,112763
 3.0000e-001 113519 -1.0893e+002 -2.3646e+001  6.1261e+000 21924 113614,113542,113248
 3.0000e-001 113496 -1.0364e+002 -2.4234e+001  1.1225e+001 21924 113542,113196,113378
 3.0000e-001 113473 -8.1913e+001 -2.3052e+001  5.3534e+000 21924 113614,113248,113222
 3.0000e-001 113450 -9.9408e+001 -5.5453e+000 -1.5284e+000 21924 113686,113274,113248
 3.0000e-001 113427 -8.3601e+001 -3.7733e+000 -7.7897e+000 21924 113274,113352,113326
 3.0000e-001 113404 -4.5613e+001 -9.1930e+000  2.0404e+001 21924 113274,113326,113300
 3.0000e-001 113568 -1.0050e+002 -1.5491e+001  4.8893e-001 21924 113686,113248,113542
 3.0000e-001 113591 -1.1051e+002 -5.5138e+001 -5.2999e+000 21924 113352,113542,113378
 3.0000e-001 113640 -8.2322e+001 -1.7706e+001  1.7058e+001 21924 113196,113542,113614
 3.0000e-001 113663 -7.1213e+001 -2.7104e+001  1.8692e+001 21924 113196,113614,113222
 3.0000e-001 113712 -9.9421e+001 -1.5794e+001  2.7360e+000 21924 113352,113274,113686
 3.0000e-001 113735 -1.0089e+002 -2.3931e+001  5.8937e+000 21924 113352,113686,113542
 3.0000e-001 113885 -4.5363e+001 -5.4543e+000 -4.9845e+000 21520 113980,113908,113784
 3.0000e-001 113862 -9.4140e+001 -5.7889e+001 -4.9112e+000 21520 114238,113908,113758
 3.0000e-001 113934 -8.7349e+001 -4.2730e+000 -2.3535e+000 21520 114110,113908,113810
 3.0000e-001 113957 -9.7347e+001 -7.8238e+000  9.8018e+000 21520 113810,113908,113836
 3.0000e-001 114006 -8.2781e+001 -3.6277e+001  8.3060e+000 21520 113758,113908,113980
 3.0000e-001 114136 -3.9282e+001  1.4750e+001  1.8134e+001 21520 113784,113908,114110
 3.0000e-001 114264 -7.5626e+001  1.4707e+000  1.3955e+001 21520 113836,113908,114238
 3.0000e-001 114662 -1.2957e+002 -2.1128e+001  1.1111e+000 21030 114414,114518,114492
 3.0000e-001 114639 -1.5384e+002 -3.7587e+001  1.1013e+001 21030 114414,114544,114518
 3.0000e-001 114616 -3.9692e+001  1.3935e+001  3.7469e+000 21030 114440,114492,114466
 3.0000e-001 114593 -1.3145e+002 -2.4838e+001  3.1193e+000 21030 114414,114492,114440
 3.0000e-001 114570 -1.5466e+002 -2.3512e+001  5.5561e+001 21030 114388,114544,114414
 3.0000e-001 114959 -1.3952e+002 -2.7182e+001 -7.3045e+000 20512 114982,114711,114685
 3.0000e-001 114936 -1.4002e+002 -2.2198e+001  1.2647e-001 20512 115054,114982,114685
 3.0000e-001 114913 -1.5777e+002 -8.3840e+000  7.5241e+000 20512 115054,114685,114841
 3.0000e-001 114890 -7.1826e+001 -7.3362e+000 -2.6489e+000 20512 114711,114763,114737
 3.0000e-001 114867 -9.9218e+001 -8.4864e+000  8.7620e+000 20512 114763,114815,114789
 3.0000e-001 115008 -1.4521e+002 -2.7451e+001 -3.4656e+000 20512 114763,114711,114982
 3.0000e-001 115031 -1.4926e+002 -3.7212e+001 -3.0695e+000 20512 114763,114982,114815
 3.0000e-001 115080 -1.5742e+002 -3.3349e+001 -7.4383e+000 20512 114815,114982,115054
 3.0000e-001 115103 -1.6432e+002 -2.0685e+001 -6.2040e+000 20512 114815,115054,114841
 3.0000e-001 115507 -1.0427e+002 -4.2731e+001 -4.6098e+001 20143 115285,115389,115363
 3.0000e-001 115484 -1.7852e+002 -2.5688e+001  5.3601e+000 20143 115259,115389,115285
 3.0000e-001 115461 -1.6733e+002 -1.3259e+001  1.2677e+001 20143 115233,115389,115259
 3.0000e-001 115438 -1.0771e+002 -3.7747e+001  2.2100e+001 20143 115285,115337,115311
 3.0000e-001 115415 -7.2821e+001 -3.7824e+001  1.9931e+001 20143 115285,115363,115337
 3.0000e-001 115875 -6.8350e+001 -1.2144e+001 -1.3554e-001 19632 115656,115734,115682
 3.0000e-001 115852 -7.3021e+001 -2.7260e+001 -1.6095e+000 19632 115552,115734,115656
 3.0000e-001 115829 -7.1645e+001 -2.3293e+001 -5.4851e+000 19632 115552,115656,115578
 3.0000e-001 115806 -6.9235e+001 -4.7375e+000 -6.9443e+000 19632 115578,115656,115630
 3.0000e-001 115783 -5.8379e+001 -1.4528e+001 -1.0373e+001 19632 115682,115734,115708
 3.0000e-001 115760 -5.1581e+001 -2.4773e+000  1.3183e+001 19632 115578,115630,115604
 3.0000e-001 116025 -1.1591e+002  4.0574e+000  1.1440e+001 19178 115898,115950,115924
 3.0000e-001 116002 -1.1318e+002 -7.8330e+000  3.2729e+000 19178 115898,115976,115950
 3.0000e-001 116633 -4.4434e+001  9.0212e+000 -8.6258e-001 18738 116800,116656,116342
 3.0000e-001 116610 -3.4319e+001  2.0460e+001 -2.1501e+001 18738 116656,116238,116446
 3.0000e-001 116587 -3.8828e+001 -1.9796e+000  4.8673e+000 18738 116728,116368,116342
 3.0000e-001 116564 -4.5358e+001 -1.4976e-001  4.5924e+000 18738 116800,116342,116264
 3.0000e-001 116541 -8.5774e+000  2.2173e+002 -6.3068e+001 18738 116212,116446,116238
 3.0000e-001 116518 -2.5399e+001  1.1729e+000 -2.5279e+001 18738 116394,116446,116420
 3.0000e-001 116495 -1.1967e+002 -2.9743e+001  7.5264e+000 18738 116264,116342,116316
 3.0000e-001 116472 -3.3663e+001 -3.3117e+000  1.8667e+001 18738 116264,116316,116290
 3.0000e-001 116682 -3.7837e+001  3.2000e+000 -5.0799e+000 18738 116728,116342,116656
 3.0000e-001 116705 -4.0665e+001 -6.9611e+000 -2.1191e+001 18738 116394,116656,116446
 3.0000e-001 116754 -2.5554e+001  4.8205e+000 -3.0143e+000 18738 116394,116368,116728
 3.0000e-001 116777 -2.2273e+001  1.1906e+001 -1.3237e+001 18738 116394,116728,116656
 3.0000e-001 116826 -4.6915e+001  2.7415e+001 -7.5098e+000 18738 116238,116656,116800
 3.0000e-001 116849 -5.1819e+001  1.6042e+001 -6.1820e-001 18738 116238,116800,116264
 3.0000e-001 116999 -6.3553e+001  2.2559e+001  1.4067e+001 18184 116872,116924,116898
 3.0000e-001 116976 -4.1860e+001 -6.1076e+001  2.0356e+001 18184 116872,116950,116924
 3.0000e-001 117330 -9.9059e+001 -3.1602e+000  5.4638e+000 17694 117157,117235,117183
 3.0000e-001 117307 -9.3577e+001 -1.0194e+001  2.2194e+000 17694 117131,117235,117157
 3.0000e-001 117284 -9.8807e+001 -2.0455e+001 -2.8269e+000 17694 117105,117235,117131
 3.0000e-001 117261 -1.3275e+002 -5.0145e+001  2.0461e+001 17694 117183,117235,117209
 3.0000e-001 117480 -7.8207e+001 -2.0700e+001  1.5664e+001 17290 117353,117405,117379
 3.0000e-001 117457 -5.7161e+001  9.8051e+000  4.9195e+000 17290 117353,117431,117405
 3.0000e-001 117679 -8.1757e+001 -3.8680e+001  7.1037e+000 16718 117555,117607,117581
 3.0000e-001 117656 -9.3442e+001 -2.1377e+001 -4.3536e+000 16718 117529,117607,117555
 3.0000e-001 117633 -1.2196e+002 -1.8146e+001 -5.0627e-001 16718 117503,117607,117529
 3.0000e-001 117782 -5.0696e+001  1.4213e+001 -2.7754e+000 16520 117704,117756,117730
 3.0000e-001 117983 -1.7191e+002 -1.1384e+002  6.5838e+000 16208 117859,117911,117885
 3.0000e-001 117960 -1.2804e+002 -7.8898e+001 -1.3685e+001 16208 117833,117911,117859
 3.0000e-001 117937 -9.0219e+001 -4.8321e+001 -2.4530e-001 16208 117807,117911,117833
 3.0000e-001 118135 -4.9951e+000  3.9101e+001  9.7032e+000 15674 118034,118086,118060
 3.0000e-001 118112 -4.3244e+001  1.5720e+001 -2.5922e+000 15674 118008,118086,118034
 3.0000e-001 118238 -1.0153e+002 -1.9971e-001 -1.4672e+000 15355 118160,118212,118186
 3.0000e-001 118341  2.9511e+000 -8.7454e+000 -2.7759e+000 421 118263,118315,118289
 4.0000e-001 68152 -5.4754e+000 -1.4753e+001  5.2882e+000 67838 68074,68126,68100
 4.0000e-001 68550 -1.3338e+002  9.9756e+000 -2.5225e+000 67526 68276,68380,68302
 4.0000e-001 68527 -1.5489e+002  7.9444e+000 -3.0551e-001 67526 68276,68406,68380
 4.0000e-001 68504 -1.3904e+002 -4.5151e+000 -8.9312e-002 67526 68328,68380,68354
 4.0000e-001 68481 -1.3818e+002 -1.2424e+000 -2.3662e+000 67526 68302,68380,68328
 4.0000e-001 68458 -1.5299e+002 -5.1022e-001 -1.9525e+001 67526 68276,68432,68406
 4.0000e-001 68651 -1.1584e+002 -1.7359e+001 -4.1640e+001 67328 68573,68625,68599
 4.0000e-001 68970 -2.3976e+002 -9.2235e+001 -1.5280e+001 67016 68722,68800,68774
 4.0000e-001 68947 -2.1828e+002 -4.2334e+001 -1.1855e+001 67016 68722,68826,68800
 4.0000e-001 68924 -2.2792e+002 -5.9891e+001 -6.7425e+000 67016 68696,68826,68722
 4.0000e-001 68901 -2.1149e+002 -4.0149e+001  1.7065e+001 67016 68722,68774,68748
 4.0000e-001 68878 -1.9111e+002 -6.6990e+001  3.6936e+001 67016 68696,68852,68826
 4.0000e-001 69291 -2.3407e+002 -2.8516e+001 -4.6551e+001 66654 69069,69147,69095
 4.0000e-001 69268 -8.2654e+001 -1.7191e+001  1.4945e+001 66654 69069,69173,69147
 4.0000e-001 69245 -4.4151e+001 -5.8941e+000 -1.5624e+001 66654 69043,69173,69069
 4.0000e-001 69222 -2.7167e+002  7.5841e+000  2.3472e+001 66654 69095,69147,69121
 4.0000e-001 69199 -3.0882e+001 -1.2062e+001  1.1482e+001 66654 69017,69173,69043
 4.0000e-001 69695 -2.3850e+002 -6.1383e+001 -5.2259e+000 66456 69447,69577,69551
 4.0000e-001 69672 -2.5094e+002 -3.7496e+001 -2.1149e+001 66456 69421,69577,69447
 4.0000e-001 69649 -3.0414e+002 -1.1733e+002  2.4897e+001 66456 69473,69551,69525
 4.0000e-001 69626 -2.3710e+002 -5.5030e+001 -1.4257e+000 66456 69447,69551,69473
 4.0000e-001 69603 -3.2882e+002 -1.0990e+002  9.2585e+001 66456 69473,69525,69499
 4.0000e-001 70024 -1.5817e+001  4.0335e+001 -6.0150e+001 66258 70047,69851,69825
 4.0000e-001 70001 -7.1292e+001  1.1164e+001  2.6021e+001 66258 70047,69825,69903
 4.0000e-001 69978 -7.7158e+001  2.1724e+001  2.5841e+001 66258 69799,69903,69825
 4.0000e-001 69955 -1.0242e+002 -2.1105e+001  1.5397e+001 66258 69799,69929,69903
 4.0000e-001 70073 -9.3071e+001 -1.0030e+001 -1.9196e+001 66258 69877,69851,70047
 4.0000e-001 70096 -1.7554e+002 -6.1811e+001  7.1461e+001 66258 69877,70047,69903
 4.0000e-001 70602 -4.8639e+002 -1.1302e+002  4.8358e+001 66060 70305,70435,70331
 4.0000e-001 70579 -1.8524e+002 -9.0485e+001 -5.1296e+001 66060 70279,70435,70305
 4.0000e-001 70556 -2.0843e+002 -2.1987e+001  5.8220e+001 66060 70331,70435,70409
 4.0000e-001 70533 -1.5971e+002 -3.3994e+001 -4.5590e+001 66060 70279,70461,70435
 4.0000e-001 70510 -3.2145e+002 -8.8999e+001  1.1583e+002 66060 70331,70409,70357
 4.0000e-001 70487 -2.9044e+002 -1.0964e+002  1.7826e+002 66060 70357,70409,70383
 4.0000e-001 70703 -7.0060e+001  1.6738e+001 -3.1066e+001 65862 70625,70677,70651
 4.0000e-001 71083 -8.4729e+001  1.8024e+001  8.7761e+000 65664 70887,70965,70939
 4.0000e-001 71060 -1.1934e+002  2.0753e+001  1.7348e+001 65664 70861,70965,70887
 4.0000e-001 71037 -1.2041e+002  5.3024e+001  7.7787e+000 65664 70809,70965,70861
 4.0000e-001 71014 -1.1350e+002  1.5806e+002  5.2716e+001 65664 70809,70861,70835
 4.0000e-001 70991 -8.3575e+001 -3.0790e-001 -1.1682e+001 65664 70887,70939,70913
 4.0000e-001 71611 -1.1010e+002 -2.1945e+001  1.2093e+001 65260 71288,71444,71314
 4.0000e-001 71588 -1.1954e+002 -2.5159e+001  1.1315e+001 65260 71288,71470,71444
 4.0000e-001 71565 -2.8367e+002 -3.9097e+001 -3.5621e+001 65260 71314,71418,71392
 4.0000e-001 71542 -1.2153e+002 -5.0339e+001  1.2256e+001 65260 71314,71444,71418
 4.0000e-001 71519 -2.0061e+002 -3.2188e+001 -7.0326e+001 65260 71314,71392,71340
 4.0000e-001 71496 -1.9409e+002 -1.9754e+001 -5.8615e+001 65260 71340,71392,71366
 4.0000e-001 72060 -1.7946e+002 -5.0679e+001  5.5460e+000 64870 71737,71893,71789
 4.0000e-001 72037 -2.3709e+002 -7.4691e+001  7.5342e+000 64870 71737,71919,71893
 4.0000e-001 72014 -1.6036e+002 -7.1361e+001 -2.3429e+001 64870 71789,71841,71815
 4.0000e-001 71991 -1.9088e+002 -5.1773e+001 -2.7300e+000 64870 71789,71893,71841
 4.0000e-001 71968 -1.7610e+002  3.5752e+000  2.8151e+001 64870 71737,71789,71763
 4.0000e-001 71945 -2.1223e+002 -4.7761e+001  0.0000e+000 64870 71841,71893,71867
 4.0000e-001 72517 -2.3081e+002 -1.0867e+002  4.1805e+000 64466 72321,72399,72347
 4.0000e-001 72494 -2.2193e+002 -1.2425e+002  2.2028e+000 64466 72269,72399,72321
 4.0000e-001 72471 -2.0209e+002 -2.2646e+001 -2.7311e+001 64466 72347,72399,72373
 4.0000e-001 72448 -2.1902e+002 -1.0248e+002  4.6185e+001 64466 72243,72399,72269
 4.0000e-001 72425 -1.7625e+002 -1.7500e+001 -2.3998e+000 64466 72269,72321,72295
 4.0000e-001 72944 -2.0976e+002 -6.7039e+001 -1.2445e+001 64062 73111,73039,72699
 4.0000e-001 72921 -2.0944e+002 -5.8861e+001 -8.5683e+000 64062 73183,72967,72647
 4.0000e-001 72898 -2.1009e+002 -6.8859e+001 -1.1955e+001 64062 72967,72803,72751
 4.0000e-001 72875 -2.0861e+002 -6.6634e+001 -9.8197e+000 64062 73111,72699,72673
 4.0000e-001 72852 -2.0936e+002 -5.8673e+001 -8.5400e+000 64062 73183,72647,72621
 4.0000e-001 72829 -2.0996e+002 -9.6709e+001  1.6472e+001 64062 72751,72803,72777
 4.0000e-001 72993 -2.1417e+002 -6.2927e+001 -1.0483e+001 64062 73039,72647,72967
 4.0000e-001 73016 -1.9262e+002 -5.7231e+001 -6.6079e+000 64062 72725,72967,72751
 4.0000e-001 73065 -2.4878e+002 -5.3246e+001 -4.6261e+001 64062 72725,72699,73039
 4.0000e-001 73088 -2.1077e+002 -5.2279e+001 -7.5440e+000 64062 72725,73039,72967
 4.0000e-001 73137 -2.0986e+002 -6.1033e+001 -1.0065e+001 64062 72647,73039,73111
 4.0000e-001 73160 -2.0829e+002 -6.0990e+001 -8.6061e+000 64062 72647,73111,72673
 4.0000e-001 73209 -2.1001e+002 -5.8452e+001 -8.9793e+000 64062 72803,72967,73183
 4.0000e-001 73232 -2.0952e+002 -5.7554e+001 -8.7867e+000 64062 72803,73183,72621
 4.0000e-001 73333 -7.2075e+001  7.9249e+000  1.7797e+000 63814 73356,73281,73255
 4.0000e-001 73382 -2.4215e+002 -2.9492e+001  5.5072e+000 63814 73486,73356,73307
 4.0000e-001 73512 -9.4776e+001  3.3747e+001 -8.6794e+000 63814 73281,73356,73486
 4.0000e-001 73839 -1.7697e+002 -1.1835e+001  1.8384e+001 63616 73862,73692,73666
 4.0000e-001 73816 -1.6990e+002 -2.1197e+001  1.5198e+001 63616 73934,73862,73666
 4.0000e-001 73793 -1.6089e+002  2.7358e+001  9.4383e+000 63616 73934,73666,73640
 4.0000e-001 73770 -1.3235e+002  4.3150e+001 -2.0677e+001 63616 73614,73744,73640
 4.0000e-001 73888 -1.7359e+002 -1.4597e+001  1.7807e+001 63616 73718,73692,73862
 4.0000e-001 73911 -1.8335e+002 -4.5929e+001 -2.0328e+001 63616 73718,73862,73744
 4.0000e-001 73960 -1.5904e+002  1.7225e+001 -1.8824e+001 63616 73744,73862,73934
 4.0000e-001 73983 -1.6381e+002  3.4231e+001 -2.8338e+001 63616 73744,73934,73640
 4.0000e-001 74363 -2.3766e+002 -8.3779e+001 -8.3692e+000 63390 74386,74115,74089
 4.0000e-001 74340 -2.1965e+002 -8.7180e+001 -9.9397e+000 63390 74458,74386,74089
 4.0000e-001 74317 -2.3186e+002 -8.0517e+001 -3.4358e+001 63390 74458,74089,74245
 4.0000e-001 74294 -2.1285e+002 -1.1167e+002  5.7866e+000 63390 74530,74167,74141
 4.0000e-001 74271 -1.9942e+002 -7.5353e+001  1.4545e+001 63390 74167,74219,74193
 4.0000e-001 74412 -2.2761e+002 -6.8348e+001  2.6423e+000 63390 74141,74115,74386
 4.0000e-001 74435 -2.3085e+002 -1.0114e+002 -8.5677e+000 63390 74530,74141,74386
 4.0000e-001 74484 -2.4081e+002 -1.2085e+002 -2.6537e+001 63390 74219,74386,74458
 4.0000e-001 74507 -2.6549e+002 -1.2492e+002 -5.3322e+001 63390 74219,74458,74245
 4.0000e-001 74556 -1.9244e+002 -1.0328e+002  3.8654e+000 63390 74219,74167,74530
 4.0000e-001 74579 -2.0489e+002 -8.9689e+001 -1.2079e+001 63390 74219,74530,74386
 4.0000e-001 74680 -1.0355e+002 -1.7838e+001  1.0111e+001 63100 75089,74833,74703
 4.0000e-001 74729 -5.6741e+001  2.3057e+001 -5.5987e+001 63100 74961,74703,74654
 4.0000e-001 74859 -1.0887e+002 -6.0637e+001 -7.5132e+000 63100 74602,74703,74833
 4.0000e-001 74987 -8.6583e+001  3.2776e+000  1.8349e+001 63100 75089,74703,74961
 4.0000e-001 75115 -1.4402e+002  1.4636e+001 -1.6874e+001 63100 74628,74833,75089
 4.0000e-001 75138 -1.2690e+002  3.5781e+001 -8.5872e+000 63100 74628,75089,74961
 4.0000e-001 75723 -1.0078e+002 -7.4764e+001  2.7487e+001 62532 75746,75504,75426
 4.0000e-001 75700 -1.9200e+002 -1.5553e+001  8.2787e+001 62532 75746,75426,75556
 4.0000e-001 75677 -1.0683e+002 -2.3536e+001 -2.0665e+001 62532 75426,75504,75452
 4.0000e-001 75654 -3.0379e+002 -4.8844e+001  7.7675e+001 62532 75400,75556,75426
 4.0000e-001 75631 -3.5862e+002 -1.9012e+002  6.1466e+001 62532 75400,75582,75556
 4.0000e-001 75608 -1.0323e+002 -4.3505e+001 -1.6166e+001 62532 75452,75504,75478
 4.0000e-001 75772 -2.0235e+002 -6.3485e+001  1.9848e+001 62532 75530,75504,75746
 4.0000e-001 75795 -3.3851e+002 -3.8072e+001  7.5318e+001 62532 75530,75746,75556
 4.0000e-001 76301 -1.8293e+002 -4.4883e+001 -2.9037e+000 62192 76324,76082,76030
 4.0000e-001 76278 -1.8296e+002 -2.7721e+001  3.9332e+000 62192 76324,76030,76004
 4.0000e-001 76255 -1.6641e+002 -4.3160e+001  9.4680e+000 62192 76030,76082,76056
 4.0000e-001 76232 -1.8158e+002 -7.2379e-002 -2.1308e+001 62192 76082,76134,76108
 4.0000e-001 76209 -3.2220e+002 -5.9913e+001 -3.1036e+001 62192 76004,76160,76134
 4.0000e-001 76186 -2.5255e+002 -1.7786e+002 -1.2677e+001 62192 75978,76160,76004
 4.0000e-001 76350 -1.9675e+002 -2.3817e+001 -3.7735e+000 62192 76134,76082,76324
 4.0000e-001 76373 -1.8994e+002  3.4266e+000  1.3953e+000 62192 76134,76324,76004
 4.0000e-001 76879 -3.3573e+001  2.6112e+000 -4.6563e+000 61788 76902,76660,76582
 4.0000e-001 76856 -4.6003e+001 -7.3422e+000 -9.1838e+000 61788 76902,76582,76556
 4.0000e-001 76833 -5.3296e+001  6.3837e+000 -2.2625e+001 61788 76582,76660,76634
 4.0000e-001 76810 -2.2365e+001 -2.0006e+001 -1.8505e+001 61788 76582,76634,76608
 4.0000e-001 76787 -1.7369e+001 -1.8115e+001  6.1987e+000 61788 76556,76738,76686
 4.0000e-001 76764 -3.5783e+001 -1.7534e+001  9.2648e+000 61788 76686,76738,76712
 4.0000e-001 76928 -1.9514e+001 -8.6161e+000 -4.6407e+000 61788 76686,76660,76902
 4.0000e-001 76951 -3.1088e+001 -1.9162e+001 -9.0904e+000 61788 76686,76902,76556
 4.0000e-001 77408 -1.8637e+002  3.1192e+001  2.6998e+001 61498 77212,77264,77238
 4.0000e-001 77385 -2.3217e+002 -4.6947e+001 -4.5269e+000 61498 77160,77264,77212
 4.0000e-001 77362 -1.3842e+002 -1.1394e+001  6.9034e+000 61498 77160,77290,77264
 4.0000e-001 77339 -1.9548e+002  2.9800e+000 -2.2995e+001 61498 77160,77212,77186
 4.0000e-001 77316 -1.2882e+002  2.3429e+001 -5.6486e+000 61498 77134,77290,77160
 4.0000e-001 77678 -3.6411e+002  4.7978e+001  6.9279e+000 61129 77479,77557,77505
 4.0000e-001 77655 -3.6299e+002 -4.5128e+001  1.7834e+000 61129 77479,77583,77557
 4.0000e-001 77632 -3.3462e+002 -1.3022e+002  2.2317e+001 61129 77453,77583,77479
 4.0000e-001 77609 -3.2273e+002  1.2246e+002  7.4651e+001 61129 77505,77557,77531
 4.0000e-001 77828 -1.8561e+001  1.6599e+000  2.9291e+000 60931 77851,77727,77701
 4.0000e-001 77805 -2.1353e+001  1.2916e+001 -2.7976e+000 60931 77851,77701,77779
 4.0000e-001 77877 -1.1530e+001  1.4543e+001 -9.0469e+000 60931 77923,77851,77753
 4.0000e-001 77900 -6.0590e+001 -5.0489e+000 -1.5710e+001 60931 77753,77851,77779
 4.0000e-001 77949 -2.2547e+001  1.2237e+000  2.0441e+000 60931 77727,77851,77923
 4.0000e-001 78133 -2.5540e+002 -1.1881e+002  1.1908e+001 60377 78055,78107,78081
 4.0000e-001 78535 -1.4665e+002 -2.9075e+001 -1.0672e+001 60015 78287,78391,78313
 4.0000e-001 78512 -2.0400e+002 -5.7853e+001  4.9184e+000 60015 78287,78417,78391
 4.0000e-001 78489 -1.5560e+002 -3.8439e+001  7.2868e+000 60015 78261,78417,78287
 4.0000e-001 78466 -2.4830e+002 -5.4222e+001  2.1739e+000 60015 78339,78391,78365
 4.0000e-001 78443 -2.7318e+002 -8.3355e+001 -1.5696e+001 60015 78313,78391,78339
 4.0000e-001 78913 -1.7646e+002 -4.2607e+001  1.6439e+001 59725 78936,78743,78691
 4.0000e-001 78890 -1.2138e+002  4.7421e+000  3.7931e+001 59725 79008,78936,78691
 4.0000e-001 78867 -1.0265e+002  1.7188e+001  7.7576e+001 59725 79008,78691,78665
 4.0000e-001 78844 -1.7330e+002 -5.0434e+001  3.1606e+001 59725 78691,78743,78717
 4.0000e-001 78821 -2.1476e+002 -1.0500e+002  3.5125e+001 59725 78639,78795,78769
 4.0000e-001 78962 -1.6822e+002 -1.2141e+001  1.5022e+001 59725 78769,78743,78936
 4.0000e-001 78985 -2.0378e+002 -4.5667e+001  1.1516e+000 59725 78769,78936,78639
 4.0000e-001 79034 -1.9892e+002 -2.3512e+001  1.9919e+001 59725 78639,78936,79008
 4.0000e-001 79057 -1.5101e+002 -1.5673e+001  5.3152e+001 59725 78639,79008,78665
 4.0000e-001 79386 -2.0756e+002 -4.2329e+001 -3.1573e+000 59221 79187,79239,79213
 4.0000e-001 79363 -2.1925e+002 -5.6903e+001  2.8438e+000 59221 79187,79265,79239
 4.0000e-001 79340 -1.7959e+002 -4.5348e+001 -3.5889e+000 59221 79187,79291,79265
 4.0000e-001 79317 -2.1043e+002 -1.1445e+002  1.1329e+001 59221 79161,79291,79187
 4.0000e-001 79813 -1.8901e+002  1.8171e+001  2.6789e+001 58831 79836,79542,79516
 4.0000e-001 79790 -1.6760e+002  3.6832e+001  1.4126e+001 58831 79980,79836,79516
 4.0000e-001 79767 -9.3044e+001  1.3455e+001 -1.9498e+001 58831 79908,79646,79568
 4.0000e-001 79744 -2.4263e+002 -1.3265e+001 -8.2827e+000 58831 79980,79516,79490
 4.0000e-001 79721 -2.6403e+001  3.1271e+001 -1.6628e+001 58831 79568,79646,79594
 4.0000e-001 79698  1.0767e-001  3.4271e+000 -9.3101e-001 58831 79594,79646,79620
 4.0000e-001 79862 -1.4738e+002 -1.6042e-001  1.7813e+001 58831 79568,79542,79836
 4.0000e-001 79885 -9.2008e+001 -5.0698e-001 -1.3663e+001 58831 79908,79568,79836
 4.0000e-001 79934 -9.5197e+001  6.4342e+000 -7.7452e+000 58831 79672,79646,79908
 4.0000e-001 79957 -1.0101e+002 -8.8778e+000 -1.2047e-001 58831 79672,79908,79836
 4.0000e-001 80006 -1.5296e+002 -2.9633e+001 -1.5366e+001 58831 79672,79836,79980
 4.0000e-001 80029 -1.6510e+002 -3.8154e+001 -2.0346e+001 58831 79672,79980,79490
 4.0000e-001 80358 -2.0914e+002 -2.4471e+001  1.1121e+001 58377 80381,80185,80159
 4.0000e-001 80335 -2.2025e+002 -3.3385e+001  7.2149e+000 58377 80381,80159,80133
 4.0000e-001 80312 -2.2942e+002 -5.3122e+001 -4.4390e-001 58377 80133,80263,80237
 4.0000e-001 80289 -1.8269e+002 -2.2988e+001 -5.2835e-001 58377 80185,80237,80211
 4.0000e-001 80407 -1.8630e+002 -3.5700e+001  9.1726e+000 58377 80237,80185,80381
 4.0000e-001 80430 -2.0720e+002 -5.0197e+001  2.5359e+000 58377 80237,80381,80133
 4.0000e-001 80759 -2.0753e+002 -7.2197e+001 -3.1768e+001 57873 80782,80586,80560
 4.0000e-001 80736 -1.7430e+002 -4.1998e+001 -1.9020e+001 57873 80782,80560,80534
 4.0000e-001 80713 -1.6333e+002 -4.9837e+000 -2.1991e+000 57873 80586,80638,80612
 4.0000e-001 80690 -2.0851e+002 -3.1715e+001 -2.2797e+001 57873 80534,80664,80638
 4.0000e-001 80808 -1.9308e+002 -4.4107e+001 -1.5277e+001 57873 80638,80586,80782
 4.0000e-001 80831 -1.8825e+002 -3.6400e+001 -1.0245e+001 57873 80638,80782,80534
 4.0000e-001 81337 -2.6911e+001  1.0168e+001 -8.8917e+000 57262 81360,81144,81092
 4.0000e-001 81314 -3.3645e+001 -9.2130e+000 -1.5485e+001 57262 81360,81092,81066
 4.0000e-001 81291 -1.4891e+001 -7.5084e+000  3.0725e+000 57262 81014,81196,81066
 4.0000e-001 81268 -3.5718e+001  1.6200e+000 -1.2789e+001 57262 81092,81144,81118
 4.0000e-001 81245 -3.2149e+001 -4.0573e+001  3.4547e+001 57262 81144,81196,81170
 4.0000e-001 81222 -1.2797e+001 -1.8986e+000  5.2127e-001 57262 81014,81066,81040
 4.0000e-001 81386 -2.4120e+001  2.8836e+001  4.4937e+000 57262 81196,81144,81360
 4.0000e-001 81409 -3.3934e+001  7.2545e+000 -3.0254e+000 57262 81196,81360,81066
 4.0000e-001 81608 -3.8597e+002 -1.4683e+002 -4.2261e+001 57007 81458,81536,81510
 4.0000e-001 81585 -3.6786e+002 -1.0484e+002 -3.7218e+001 57007 81432,81536,81458
 4.0000e-001 81562 -2.1116e+002 -1.9605e+002 -1.3558e+002 57007 81458,81510,81484
 4.0000e-001 82086 -1.4440e+002 -5.3797e+001  1.0262e+001 56339 81792,81922,81818
 4.0000e-001 82063 -8.7503e+001 -5.4359e+001  2.2564e+000 56339 81714,81922,81792
 4.0000e-001 82040 -1.8037e+002 -8.9321e+001  2.9004e+001 56339 82109,81844,81818
 4.0000e-001 82017 -1.5921e+002 -8.5438e+001  3.4790e+001 56339 82109,81818,81922
 4.0000e-001 81994 -1.9760e+002 -7.5324e+001  7.5228e+000 56339 81844,81896,81870
 4.0000e-001 81971 -7.8719e+001 -2.1210e+001 -3.3407e+001 56339 81714,81792,81766
 4.0000e-001 81948 -1.0138e+002 -3.3369e+001 -4.2350e+001 56339 81714,81766,81740
 4.0000e-001 82135 -2.1433e+002 -8.1889e+001  2.3572e+001 56339 81896,81844,82109
 4.0000e-001 82158 -1.8179e+002 -6.6000e+001  3.4208e+001 56339 81896,82109,81922
 4.0000e-001 82536 -2.2478e+002 -8.2459e+001 -8.2413e+000 55699 82288,82392,82314
 4.0000e-001 82513 -3.2606e+002 -1.2811e+002 -1.9854e+001 55699 82288,82418,82392
 4.0000e-001 82490 -1.9472e+002 -9.1991e+001  4.5231e+000 55699 82314,82392,82340
 4.0000e-001 82467 -2.1507e+002 -9.9701e+001  1.2405e+001 55699 82340,82392,82366
 4.0000e-001 82444 -2.1071e+002 -4.1328e+001  1.9280e+001 55699 82262,82418,82288
 4.0000e-001 83091 -2.6291e+001 -3.1361e+001  2.4454e+000 55409 82745,82901,82875
 4.0000e-001 83068 -8.6782e+000 -2.5230e+001  8.6951e+000 55409 82719,82901,82745
 4.0000e-001 83045 -3.1642e+001 -4.9024e+000 -2.0673e+001 55409 82771,82849,82823
 4.0000e-001 83022 -4.6116e+001  3.1089e+000  1.3279e+001 55409 82745,82849,82771
 4.0000e-001 82999 -2.6545e+001 -3.2105e+001  1.7421e+001 55409 82745,82875,82849
 4.0000e-001 82976 -7.9064e+001 -2.5928e+001 -7.5833e+000 55409 82771,82823,82797
 4.0000e-001 82953  3.9014e+000  8.7728e+000 -4.4537e+000 55409 82719,82927,82901
 4.0000e-001 83388 -1.8504e+002 -4.5786e+001 -4.1934e+000 54905 83411,83218,83166
 4.0000e-001 83365 -1.9161e+002 -3.7271e+001  1.3778e+000 54905 83411,83166,83114
 4.0000e-001 83342 -1.6295e+002 -2.5397e+001  1.7836e+001 54905 83483,83270,83244
 4.0000e-001 83319 -2.1934e+002 -2.6105e+001 -2.1598e+001 54905 83166,83218,83192
 4.0000e-001 83296 -1.9178e+002 -4.8578e+001  1.1956e+001 54905 83114,83166,83140
 4.0000e-001 83437 -1.7970e+002 -3.1415e+001 -4.9494e+000 54905 83244,83218,83411
 4.0000e-001 83460 -1.7852e+002 -2.2115e+001  6.8176e+000 54905 83483,83244,83411
 4.0000e-001 83509 -1.8349e+002 -4.8892e+001  8.9174e+000 54905 83114,83270,83483
 4.0000e-001 83532 -1.9062e+002 -4.0504e+001  1.3844e+000 54905 83114,83483,83411
 4.0000e-001 83961 -1.3962e+002  1.0474e+000 -1.9064e+001 54593 83638,83768,83690
 4.0000e-001 83938 -2.1942e+001  1.6325e+001  7.1954e-002 54593 83638,83794,83768
 4.0000e-001 83915 -8.1501e+001  5.1284e+001  5.6532e+000 54593 83690,83768,83742
 4.0000e-001 83892 -9.2077e+001  3.4641e+001 -5.5323e+001 54593 83638,83820,83794
 4.0000e-001 83869 -5.4051e+001  2.8776e+002 -5.1466e+001 54593 83638,83690,83664
 4.0000e-001 83846 -1.8823e+001  2.3768e+000  7.5946e+001 54593 83690,83742,83716
 4.0000e-001 84209 -1.5851e+002 -4.4991e+001  2.6416e+000 54132 84232,84062,83984
 4.0000e-001 84186 -1.7812e+002 -4.9956e+001  7.0152e+000 54132 84232,83984,84114
 4.0000e-001 84163 -1.5092e+002 -2.3263e+001 -1.2330e+001 54132 83984,84062,84036
 4.0000e-001 84140 -1.2094e+002 -7.4194e+001  8.5470e+000 54132 83984,84036,84010
 4.0000e-001 84258 -1.8173e+002 -2.9461e+001  3.3541e+000 54132 84088,84062,84232
 4.0000e-001 84281 -2.1161e+002 -4.1884e+001  9.0300e+000 54132 84088,84232,84114
 4.0000e-001 84382 -2.8539e+002  4.7955e+000  3.6551e+000 53521 84304,84356,84330
 4.0000e-001 84632 -1.9020e+002 -3.3149e+001  5.3673e+000 53067 84655,84485,84459
 4.0000e-001 84609 -1.5932e+002 -5.6709e+001  1.0334e+001 53067 84655,84459,84407
 4.0000e-001 84586 -2.0356e+002 -7.5822e+001  6.0132e+000 53067 84485,84537,84511
 4.0000e-001 84563 -1.5309e+002 -3.9901e+001  1.4380e+001 53067 84407,84459,84433
 4.0000e-001 84681 -1.9811e+002 -5.0098e+001  1.1092e+001 53067 84537,84485,84655
 4.0000e-001 84704 -1.8851e+002 -8.9878e+001  2.3963e+001 53067 84537,84655,84407
 4.0000e-001 85214 -8.1112e+001 -9.2239e+000 -1.6858e+001 52513 85021,85073,85047
 4.0000e-001 85191 -1.2874e+002  1.3006e+001 -1.1887e+001 52513 84943,85073,85021
 4.0000e-001 85168 -2.2702e+002 -3.7672e+001 -4.9425e+001 52513 84943,85021,84995
 4.0000e-001 85145 -1.4822e+002 -4.5877e+001  4.8166e-002 52513 84917,85073,84943
 4.0000e-001 85122 -1.4347e+002 -4.5583e+001 -5.5308e+001 52513 84943,84995,84969
 4.0000e-001 85099 -6.2467e+001 -6.2421e+001 -7.5968e+000 52513 84891,85073,84917
 4.0000e-001 85582 -1.6635e+002 -1.7370e+001 -3.7951e+001 52037 85605,85311,85285
 4.0000e-001 85559 -1.9792e+002 -3.9815e+001 -1.4154e+001 52037 85749,85605,85285
 4.0000e-001 85536 -1.9455e+002 -6.8766e+001  3.0957e+000 52037 85893,85677,85389
 4.0000e-001 85513 -2.0067e+002 -5.6175e+001 -6.0737e+000 52037 85749,85285,85259
 4.0000e-001 85490 -1.9061e+002 -6.8911e+001 -9.9639e+000 52037 85893,85389,85363
 4.0000e-001 85467 -1.9056e+002  5.6724e+000  4.0659e+000 52037 85259,85441,85415
 4.0000e-001 85631 -2.1145e+002  8.2418e-001  3.3546e+000 52037 85337,85311,85605
 4.0000e-001 85654 -2.1872e+002 -6.2908e+001  1.7261e+001 52037 85677,85337,85605
 4.0000e-001 85703 -2.0816e+002 -5.4062e+001 -4.2846e+000 52037 85415,85389,85677
 4.0000e-001 85726 -2.0627e+002 -1.6724e+001  2.6921e-001 52037 85821,85677,85605
 4.0000e-001 85775 -2.0219e+002 -1.9916e+001 -1.1880e+001 52037 85821,85605,85749
 4.0000e-001 85798 -2.0027e+002 -3.8616e+001 -6.3913e+000 52037 85415,85749,85259
 4.0000e-001 85847 -2.1292e+002 -3.2800e+001  1.5386e+000 52037 85415,85677,85821
 4.0000e-001 85870 -2.1018e+002 -3.6848e+001 -9.5712e+000 52037 85415,85821,85749
 4.0000e-001 85919 -2.0278e+002 -8.9737e+001  5.6409e+000 52037 85337,85677,85893
 4.0000e-001 85942 -2.0140e+002 -9.2760e+001 -6.4433e+000 52037 85337,85893,85363
 4.0000e-001 86224 -8.9615e+001 -8.9079e+000  3.6363e+000 51368 86375,86100,86074
 4.0000e-001 86201 -6.0939e+001  1.6250e+000  3.3880e+000 51368 86375,86074,86247
 4.0000e-001 86178 -4.8037e+001 -1.3519e+001 -2.7210e+001 51368 86048,86152,86126
 4.0000e-001 86273 -1.5135e+002 -1.6884e+001  4.1884e+000 51368 86048,86126,86247
 4.0000e-001 86401 -1.0491e+002  3.7429e+000  1.7004e+001 51368 86126,86100,86375
 4.0000e-001 86424 -9.0494e+001  5.0790e+000  1.6595e+001 51368 86126,86375,86247
 4.0000e-001 86802 -2.1983e+002 -6.0740e+001  9.6052e+000 51028 86528,86632,86580
 4.0000e-001 86779 -1.5012e+002 -2.0212e+001 -1.2297e+001 51028 86528,86684,86632
 4.0000e-001 86756 -1.8727e+002  1.7451e+001  3.0070e+000 51028 86528,86580,86554
 4.0000e-001 86733 -1.7486e+002 -2.5505e+001 -3.8018e+001 51028 86632,86684,86658
 4.0000e-001 86710 -1.8698e+002 -2.3179e+001  3.6250e+001 51028 86580,86632,86606
 4.0000e-001 87131 -1.6394e+002 -1.4237e+001  3.3211e+001 50624 86958,87036,87010
 4.0000e-001 87108 -1.5439e+002 -5.5021e+001  3.2020e+001 50624 86932,87036,86958
 4.0000e-001 87085 -1.4675e+002 -8.8838e-001 -4.0352e+000 50624 86958,87010,86984
 4.0000e-001 87062 -1.0058e+002 -3.8925e+001  2.3424e+001 50624 86906,87036,86932
 4.0000e-001 87330 -1.1087e+002 -3.0196e+001  4.8139e+000 50234 87353,87180,87154
 4.0000e-001 87307 -1.5242e+002 -1.4982e+001 -4.6108e+000 50234 87353,87154,87258
 4.0000e-001 87284 -1.8438e+002  2.6917e-002 -1.4182e+000 50234 87206,87258,87232
 4.0000e-001 87379 -1.4278e+002 -3.6188e+001 -1.2949e+001 50234 87206,87180,87353
 4.0000e-001 87402 -1.9275e+002 -2.1702e+001 -1.6773e+001 50234 87206,87353,87258
 4.0000e-001 87650 -1.9172e+002 -2.1734e+001 -2.1544e+000 49730 87673,87503,87451
 4.0000e-001 87627 -1.5002e+002 -2.5473e+000  9.4053e+000 49730 87673,87451,87425
 4.0000e-001 87604 -1.8053e+002 -5.2536e+001  3.2443e+001 49730 87503,87555,87529
 4.0000e-001 87581 -2.9778e+002 -4.4191e+001  2.4611e+001 49730 87451,87503,87477
 4.0000e-001 87699 -1.9545e+002 -1.6800e+000  1.2276e+001 49730 87555,87503,87673
 4.0000e-001 87722 -1.8839e+002  7.9888e+000  1.7232e+001 49730 87555,87673,87425
 4.0000e-001 88232 -1.8979e+002 -8.9255e+001  7.9847e+000 49176 88255,87935,87909
 4.0000e-001 88209 -1.5948e+002 -5.8651e+001 -2.3014e+001 49176 88255,87909,88065
 4.0000e-001 88186 -2.0744e+002 -5.5943e+001 -2.7608e+001 49176 87935,88039,87961
 4.0000e-001 88163 -1.6180e+002 -2.0242e+001 -3.9642e+001 49176 87909,88091,88065
 4.0000e-001 88140 -2.5070e+002 -6.8246e+001  2.9699e+001 49176 87961,88039,88013
 4.0000e-001 88117 -2.3325e+002 -8.1075e+001  3.9614e+000 49176 87961,88013,87987
 4.0000e-001 88281 -1.5823e+002 -7.6752e+001 -2.1088e+001 49176 88039,87935,88255
 4.0000e-001 88304 -1.2968e+002 -4.9531e+001 -5.1573e+001 49176 88039,88255,88065
 4.0000e-001 88503 -1.9617e+002 -9.1416e+001 -1.6812e+001 48772 88526,88379,88353
 4.0000e-001 88480 -1.9631e+002 -6.6840e+001 -1.0572e+001 48772 88526,88353,88327
 4.0000e-001 88457 -1.6257e+002  3.3007e+000 -1.7191e+001 48772 88379,88431,88405
 4.0000e-001 88552 -1.9319e+002 -7.0787e+001 -1.8734e+001 48772 88431,88379,88526
 4.0000e-001 88575 -2.0106e+002 -5.6375e+001 -1.5902e+001 48772 88431,88526,88327
 4.0000e-001 89083 -1.4362e+000  3.6975e+000  1.6625e-001 48368 88786,88916,88864
 4.0000e-001 89060 -1.2935e+000 -6.5197e+000  8.0955e+000 48368 88786,88942,88916
 4.0000e-001 89037 -1.0938e+001  5.4779e+000  1.0851e+001 48368 88786,88864,88812
 4.0000e-001 89014  1.1187e+001  8.6282e+000  3.3626e+000 48368 88864,88916,88890
 4.0000e-001 88991 -2.7859e+001  1.6081e+001 -1.6604e-001 48368 88812,88864,88838
 4.0000e-001 88968 -6.1302e+000 -7.8958e+000  8.7318e+000 48368 88760,88942,88786
 4.0000e-001 89331 -1.7181e+002 -4.8157e+001 -2.2233e+001 47928 89158,89236,89210
 4.0000e-001 89308 -1.6077e+002 -3.7808e+001 -3.1956e+001 47928 89132,89236,89158
 4.0000e-001 89285 -1.2057e+002 -3.8160e+001 -3.1503e+000 47928 89158,89210,89184
 4.0000e-001 89262 -1.8741e+002 -1.7470e+001 -3.2561e+001 47928 89106,89236,89132
 4.0000e-001 89662 -1.3484e+002 -3.0076e+001  2.1297e+000 47588 89463,89541,89515
 4.0000e-001 89639 -1.3998e+002 -5.7274e+001 -3.8895e-002 47588 89463,89567,89541
 4.0000e-001 89616 -1.3158e+002 -2.8229e+001  5.0457e+000 47588 89463,89515,89489
 4.0000e-001 89593 -1.5570e+002 -9.0211e+001  2.2242e+001 47588 89437,89567,89463
 4.0000e-001 89763 -4.5108e+002 -4.8506e+001 -1.5511e+001 47390 89685,89737,89711
 4.0000e-001 89913 -2.8558e+002 -7.1010e+001 -3.1441e+001 47078 89786,89838,89812
 4.0000e-001 89890 -1.1902e+002 -9.0541e+001 -3.8645e+001 47078 89786,89864,89838
 4.0000e-001 90163 -1.8167e+002 -3.2564e+001  2.8160e+001 46474 89964,90042,89990
 4.0000e-001 90140 -1.9161e+002 -3.6227e+001  2.5549e+001 46474 89938,90042,89964
 4.0000e-001 90117 -1.5949e+002 -4.6273e+001  2.8082e+001 46474 89990,90042,90016
 4.0000e-001 90094 -1.8217e+002 -5.0326e+001  2.6300e+001 46474 89938,90068,90042
 4.0000e-001 90364 -7.9804e+001 -1.9898e+001  2.9532e+001 46184 90240,90292,90266
 4.0000e-001 90341 -1.1558e+002 -1.0016e+001  3.6869e+001 46184 90188,90292,90240
 4.0000e-001 90318 -1.0916e+002 -5.9642e+001  3.8378e+001 46184 90188,90240,90214
 4.0000e-001 90565 -2.3984e+002 -1.8135e+001 -1.9729e+001 45780 90588,90415,90389
 4.0000e-001 90542 -1.8648e+002  7.5766e+000 -2.9267e+001 45780 90588,90389,90493
 4.0000e-001 90519 -1.6817e+002 -7.1036e+001  8.7650e+000 45780 90415,90467,90441
 4.0000e-001 90614 -1.9832e+002 -5.1793e+001  1.8547e+001 45780 90467,90415,90588
 4.0000e-001 90637 -1.3909e+002 -2.5203e+001  1.3182e+001 45780 90467,90588,90493
 4.0000e-001 91196 -1.4498e+002 -3.2528e+001  3.1454e+000 45226 91219,90876,90850
 4.0000e-001 91173 -1.5666e+002 -3.6254e+001  5.6639e-001 45226 91219,90850,91032
 4.0000e-001 91150 -1.7180e+002 -4.2307e+001 -7.0102e-001 45226 90824,91032,90850
 4.0000e-001 91127 -1.9811e+002 -5.2472e+001 -6.1179e+000 45226 90876,90980,90902
 4.0000e-001 91104 -1.4022e+002 -3.2743e+001 -5.7402e+000 45226 90876,91006,90980
 4.0000e-001 91081 -2.3592e+002 -3.0245e+001  3.4144e+001 45226 90902,90980,90954
 4.0000e-001 91058 -4.9865e+002 -8.2492e+001  9.2006e+000 45226 90902,90954,90928
 4.0000e-001 91245 -1.5670e+002 -3.2306e+001 -1.6168e-001 45226 91006,90876,91219
 4.0000e-001 91268 -1.6819e+002 -3.5319e+001 -2.0387e+000 45226 91006,91219,91032
 4.0000e-001 91516 -5.3684e+001  3.4382e+001 -9.7398e+000 44836 91539,91421,91395
 4.0000e-001 91493 -1.2385e+002  3.5958e+001 -2.3119e+001 44836 91317,91421,91343
 4.0000e-001 91470 -5.0069e+001 -3.9870e+001  3.1661e+001 44836 91539,91395,91369
 4.0000e-001 91447 -3.6900e+001 -1.6596e+001 -6.4543e+001 44836 91291,91421,91317
 4.0000e-001 91565 -4.1861e+001  6.7927e+001 -1.0123e+001 44836 91343,91421,91539
 4.0000e-001 91588 -1.1578e+001  4.9803e+001  3.3290e+001 44836 91343,91539,91369
 4.0000e-001 91787 -1.4499e+002 -3.9931e+000 -1.8082e+001 44432 91810,91637,91611
 4.0000e-001 91764 -7.2815e+001 -4.5916e+001 -2.2574e+001 44432 91810,91611,91715
 4.0000e-001 91741 -1.0105e+002  9.8915e+000 -1.8265e+001 44432 91637,91689,91663
 4.0000e-001 91836 -8.9170e+001  1.5057e+001 -3.4872e+000 44432 91689,91637,91810
 4.0000e-001 91859 -2.8556e+001 -2.5572e+001  1.9199e+000 44432 91689,91810,91715
 4.0000e-001 92207 -1.5428e+002 -3.2909e+000 -3.9389e+001 43864 92230,91936,91910
 4.0000e-001 92184 -1.0111e+002 -6.6131e+001 -4.0164e+001 43864 92230,91910,92040
 4.0000e-001 92161 -7.1664e+001 -4.9392e+001 -1.4119e+001 43864 91884,92040,91910
 4.0000e-001 92138 -2.3960e+002  2.0039e+001  5.9568e+000 43864 91936,92014,91988
 4.0000e-001 92115 -7.1316e+001  3.4677e+001  2.3550e+001 43864 91936,91988,91962
 4.0000e-001 92092 -3.1481e+001 -2.7980e+001 -2.6651e+001 43864 91884,92066,92040
 4.0000e-001 92256 -1.1658e+002  7.6580e+001 -1.5472e+001 43864 92014,91936,92230
 4.0000e-001 92279 -1.0035e+002 -2.5168e+001 -2.8496e+001 43864 92014,92230,92040
 4.0000e-001 92529 -2.2783e+002 -6.7305e+001  4.0855e+001 43410 92552,92330,92304
 4.0000e-001 92506 -2.1695e+002 -4.1776e+001  3.5311e+001 43410 92552,92304,92408
 4.0000e-001 92483 -1.6658e+002 -4.3421e+001  1.5698e+001 43410 92304,92434,92408
 4.0000e-001 92460 -2.1613e+002 -6.7787e+001  9.8074e+000 43410 92330,92382,92356
 4.0000e-001 92578 -2.3329e+002 -6.6343e+001  1.0076e+001 43410 92382,92330,92552
 4.0000e-001 92601 -2.0646e+002 -8.4682e+000  2.6549e+000 43410 92382,92552,92408
 4.0000e-001 92802 -7.2354e+001 -1.7520e+001  4.1936e+001 43162 92825,92704,92652
 4.0000e-001 92779 -8.1101e+001 -1.4841e+001  1.4550e+001 43162 92825,92652,92626
 4.0000e-001 92756 -5.1630e+001  3.6932e+001  6.0677e+001 43162 92652,92704,92678
 4.0000e-001 92851 -5.8567e+001 -1.1610e+001  4.1414e+001 43162 92730,92704,92825
 4.0000e-001 92874 -8.3979e+000  1.8941e+001 -2.2092e+000 43162 92730,92825,92626
 4.0000e-001 93463 -2.4536e+002 -1.0642e+002  3.9986e+001 42758 93140,93270,93166
 4.0000e-001 93440 -2.0229e+002 -8.9892e+001  3.0501e+000 42758 93140,93296,93270
 4.0000e-001 93417 -1.9008e+002 -4.6012e+001  6.5764e+000 42758 93166,93270,93218
 4.0000e-001 93394 -3.0434e+002 -3.1356e+001  4.4854e+001 42758 93218,93270,93244
 4.0000e-001 93371 -1.9253e+002 -8.9445e+001  1.8298e+000 42758 93140,93322,93296
 4.0000e-001 93348 -1.6315e+002  1.8259e+001  1.0377e+001 42758 93166,93218,93192
 4.0000e-001 93920 -1.1840e+002 -2.6683e+001  4.7456e+000 42304 93943,93672,93646
 4.0000e-001 93897 -1.2687e+002 -4.0285e+001  9.1826e+000 42304 93943,93646,93802
 4.0000e-001 93874 -1.3917e+002 -2.6618e+001 -1.2197e+000 42304 93724,93802,93776
 4.0000e-001 93851 -1.2259e+002 -3.3862e+000 -3.6156e+000 42304 93672,93724,93698
 4.0000e-001 93828 -7.0920e+001  1.6263e+001  2.4184e+001 42304 93724,93776,93750
 4.0000e-001 93969 -1.2811e+002 -2.2209e+001  1.0078e+001 42304 93724,93672,93943
 4.0000e-001 93992 -1.3274e+002 -2.7128e+001  1.2477e+001 42304 93724,93943,93802
 4.0000e-001 94321 -1.0704e+002 -9.6269e+000 -1.6854e+001 41478 94096,94148,94122
 4.0000e-001 94298 -1.0349e+002 -2.4460e+001 -2.3157e+001 41478 94096,94226,94148
 4.0000e-001 94275 -6.4721e+001 -5.2111e+000 -1.0670e+001 41478 94148,94226,94174
 4.0000e-001 94252 -5.8778e+001 -4.8855e+000 -1.7516e+001 41478 94174,94226,94200
 4.0000e-001 94618 -1.4821e+002 -4.1395e+001  2.5150e+001 40910 94344,94422,94396
 4.0000e-001 94595 -1.6501e+002 -2.8617e+001  2.2678e+001 40910 94344,94448,94422
 4.0000e-001 94572 -1.5531e+002 -4.7416e+000  2.8887e+001 40910 94344,94474,94448
 4.0000e-001 94549 -1.1247e+002 -6.3384e+001  2.6862e+000 40910 94344,94396,94370
 4.0000e-001 94526 -1.5429e+002 -3.2967e+001  3.2507e+001 40910 94344,94500,94474
 4.0000e-001 94866 -2.1000e+002 -9.3041e+000  1.2286e+001 40306 94667,94719,94693
 4.0000e-001 94843 -1.6698e+002 -6.2153e+000  7.9410e+000 40306 94641,94719,94667
 4.0000e-001 94820 -1.4657e+002  3.4390e+001  1.0818e+000 40306 94641,94745,94719
 4.0000e-001 94797 -1.3618e+002 -1.6438e+001  2.1375e+001 40306 94641,94771,94745
 4.0000e-001 95089 -1.8362e+002 -8.9232e+001 -7.8469e+000 39702 94913,94991,94939
 4.0000e-001 95066 -2.1971e+002 -9.6020e+001 -8.5831e+000 39702 94913,95017,94991
 4.0000e-001 95043 -2.4850e+002 -1.1784e+002 -1.4987e+001 39702 94939,94991,94965
 4.0000e-001 95339 -1.9002e+002 -2.0663e+001  4.7782e+000 39248 95140,95218,95166
 4.0000e-001 95316 -1.8493e+002 -2.1490e+001  7.9225e+000 39248 95140,95244,95218
 4.0000e-001 95293 -1.8636e+002  2.2414e+001  3.4935e+001 39248 95114,95244,95140
 4.0000e-001 95270 -2.4533e+002 -2.7858e+001  1.3344e+001 39248 95166,95218,95192
 4.0000e-001 95770 -2.0176e+001  4.5977e+000 -4.8662e-001 38694 95551,95629,95577
 4.0000e-001 95747 -7.5545e+001 -2.5130e-001 -1.5022e+001 38694 95447,95629,95551
 4.0000e-001 95724 -8.5925e+001 -4.6016e+000  2.1480e+001 38694 95447,95551,95473
 4.0000e-001 95701 -3.5282e+001  4.4464e+000  9.1348e+000 38694 95473,95551,95499
 4.0000e-001 95678 -4.7481e+001  2.3970e+000  2.8856e+000 38694 95499,95551,95525
 4.0000e-001 95655 -2.1175e+001  1.7288e+000  6.2828e-002 38694 95577,95629,95603
 4.0000e-001 96325 -1.6126e+002 -1.3870e+001  1.0432e+000 38240 95953,96031,96005
 4.0000e-001 96302 -1.8096e+002 -3.4234e+001  1.4056e+001 38240 95953,96161,96031
 4.0000e-001 96279 -1.7143e+002 -8.0044e+001 -2.8312e+001 38240 96031,96161,96135
 4.0000e-001 96256 -2.1962e+002 -4.8670e+001 -8.2408e+000 38240 96348,96109,96057
 4.0000e-001 96233 -2.2212e+002 -1.0739e+002 -6.0909e+001 38240 96348,96057,96031
 4.0000e-001 96210 -2.2559e+002 -2.4269e+001 -1.6971e+001 38240 96057,96109,96083
 4.0000e-001 96187 -7.1909e+001 -2.4133e+001  4.7840e+001 38240 95953,96005,95979
 4.0000e-001 96374 -1.8106e+002  8.7745e+000  1.5785e+001 38240 96135,96109,96348
 4.0000e-001 96397 -1.7926e+002 -5.6988e+001 -3.4919e+001 38240 96135,96348,96031
 4.0000e-001 96618 -1.1955e+002  2.7101e+001  5.5217e+000 37821 96494,96546,96520
 4.0000e-001 96595 -1.6083e+002 -2.8883e+001 -2.0135e+001 37821 96468,96546,96494
 4.0000e-001 96572 -1.9424e+002 -4.3185e+001 -1.7642e+001 37821 96442,96546,96468
 4.0000e-001 97126 -1.8368e+002  9.8290e+000  2.2491e+001 37367 97149,96855,96829
 4.0000e-001 97103 -1.3876e+002  3.3458e+001  3.5424e+000 37367 97149,96829,96985
 4.0000e-001 97080 -1.1087e+002  4.4383e+001  7.9221e+000 37367 96803,96985,96829
 4.0000e-001 97057 -1.4473e+002 -3.2440e+001  4.2543e+001 37367 96855,96907,96881
 4.0000e-001 97034 -6.8853e+001  1.6643e+001  6.9247e+000 37367 96907,96985,96959
 4.0000e-001 97011 -2.7900e+001  1.0213e+001  3.8868e+001 37367 96907,96959,96933
 4.0000e-001 97175 -1.3924e+002 -2.6274e+001  4.6074e+001 37367 96907,96855,97149
 4.0000e-001 97198 -1.0711e+002 -4.1932e+000  2.9397e+001 37367 96907,97149,96985
 4.0000e-001 97704 -1.1064e+002 -1.8286e+001 -9.5088e+000 36863 97727,97511,97485
 4.0000e-001 97681 -1.0926e+002 -2.8631e+001 -2.0334e+001 36863 97727,97485,97433
 4.0000e-001 97658 -7.0673e+001  3.2487e+001 -6.7520e+000 36863 97381,97563,97433
 4.0000e-001 97635 -5.8605e+001  4.2967e+000 -8.6270e+000 36863 97511,97563,97537
 4.0000e-001 97612 -1.9770e+002 -5.8069e+001 -1.2148e+001 36863 97433,97485,97459
 4.0000e-001 97589 -2.4914e+001  1.8090e+001 -4.9176e+001 36863 97381,97433,97407
 4.0000e-001 97753 -1.0254e+002 -1.1745e+001 -6.4544e+000 36863 97563,97511,97727
 4.0000e-001 97776 -9.7393e+001 -1.9989e+001 -1.6434e+001 36863 97563,97727,97433
 4.0000e-001 98331 -9.3624e+001 -2.0325e+001  1.0407e+000 36287 98354,98089,98063
 4.0000e-001 98308 -8.5095e+001 -6.9924e+000  6.0587e+000 36287 98354,98063,98011
 4.0000e-001 98285 -1.0408e+002  2.9500e+001  2.1227e+001 36287 98426,97985,98115
 4.0000e-001 98262 -7.6647e+001 -3.0654e+001  1.2357e+000 36287 98011,98063,98037
 4.0000e-001 98239 -1.6081e+002 -2.4460e+001  5.0197e+001 36287 97985,98141,98115
 4.0000e-001 98216 -2.8291e+002 -3.7661e+001  5.9795e+001 36287 97959,98141,97985
 4.0000e-001 98193 -3.0662e+002  2.2561e+001  4.1151e+001 36287 97959,98167,98141
 4.0000e-001 98380 -1.0631e+002 -2.1767e+000 -1.3223e+001 36287 98115,98089,98354
 4.0000e-001 98403 -9.0475e+001  2.7675e+001 -2.7607e+000 36287 98426,98115,98354
 4.0000e-001 98452 -1.2087e+002 -4.7514e+000  2.6743e+001 36287 98011,97985,98426
 4.0000e-001 98475 -1.1117e+002 -1.4458e+001  4.1128e+000 36287 98011,98426,98354
 4.0000e-001 99030 -6.8730e+001  2.9224e+001  2.8192e+001 35726 99053,98736,98710
 4.0000e-001 99007 -9.6367e+001 -2.5899e+000  1.3648e+001 35726 99053,98710,98684
 4.0000e-001 98984 -8.0299e+001 -2.7436e+001  2.8520e+001 35726 99125,98814,98736
 4.0000e-001 98961 -8.2008e+001 -8.6697e-001  3.9077e+001 35726 98736,98814,98788
 4.0000e-001 98938 -1.4494e+002 -1.4289e+001 -1.7620e+001 35726 98684,98866,98840
 4.0000e-001 98915 -8.9396e+001  1.4153e+001 -1.9435e+001 35726 98736,98788,98762
 4.0000e-001 98892 -6.6699e+001  1.6974e+001 -6.6998e+000 35726 98658,98866,98684
 4.0000e-001 99079 -8.5118e+001 -1.4900e+001  2.4447e+001 35726 99125,98736,99053
 4.0000e-001 99102 -7.7897e+001  5.7760e+000  8.1196e+000 35726 98840,99053,98684
 4.0000e-001 99151 -8.0034e+001 -3.0494e+001  1.0570e+001 35726 98840,98814,99125
 4.0000e-001 99174 -7.3721e+001 -3.0802e+000  5.8208e+000 35726 98840,99125,99053
 4.0000e-001 99454 -1.3712e+002 -3.9610e+001  1.8916e+001 35222 99278,99330,99304
 4.0000e-001 99431 -1.3594e+002 -2.2036e+001  2.5390e+001 35222 99278,99382,99330
 4.0000e-001 99408 -1.4548e+002 -1.0562e+001  2.4301e+001 35222 99330,99382,99356
 4.0000e-001 99653 -1.4557e+002 -2.5923e+001 -1.3197e+001 34867 99477,99529,99503
 4.0000e-001 99630 -1.1324e+002 -4.3028e+001 -1.2346e+001 34867 99477,99581,99529
 4.0000e-001 99607 -9.2675e+001 -4.2840e+000 -2.0879e+001 34867 99529,99581,99555
 4.0000e-001 100104 -1.7259e+002 -6.7569e+000 -1.6744e+000 34363 99781,99885,99807
 4.0000e-001 100081 -1.1957e+002  2.1777e+001 -1.9712e+001 34363 99781,99963,99885
 4.0000e-001 100058 -1.9623e+002 -3.3831e+001  5.2771e+000 34363 99885,99963,99911
 4.0000e-001 100035 -1.9516e+002 -3.5803e+001 -1.1981e+001 34363 99807,99885,99859
 4.0000e-001 100012 -1.5364e+002 -1.7937e+001  1.7916e+001 34363 99911,99963,99937
 4.0000e-001 99989 -2.0028e+002 -4.6083e+001 -3.8932e+001 34363 99807,99859,99833
 4.0000e-001 100303 -1.6767e+002 -3.0795e+001 -8.0904e+000 33909 100127,100205,100179
 4.0000e-001 100280 -1.3949e+002  2.2588e+001 -4.0448e+001 33909 100127,100231,100205
 4.0000e-001 100257 -1.3953e+002  1.0482e+001 -5.1600e+001 33909 100127,100179,100153
 4.0000e-001 100890 -1.4092e+002 -4.2670e+001  2.5903e+000 33412 100645,100749,100697
 4.0000e-001 100867 -1.4357e+002 -3.6526e+001 -6.5189e-001 33412 100567,100749,100645
 4.0000e-001 100844 -1.1753e+002  2.2344e+001 -6.9848e+000 33412 100567,100645,100619
 4.0000e-001 100821 -1.9099e+002 -1.4047e+001  2.7661e+001 33412 100645,100697,100671
 4.0000e-001 100798 -1.6061e+002 -4.2458e+001 -2.9812e+001 33412 100567,100619,100593
 4.0000e-001 100775 -1.2714e+002 -2.1587e+001 -3.7561e+000 33412 100697,100749,100723
 4.0000e-001 101268 -1.5079e+002  2.8945e+001  6.0859e-002 32908 101435,101291,101098
 4.0000e-001 101245 -1.3012e+002 -2.6262e+001  6.9382e+000 32908 101291,101072,101020
 4.0000e-001 101222 -1.8100e+002 -5.9303e+001 -2.8414e+001 32908 101363,101150,101124
 4.0000e-001 101199 -1.0465e+002  1.8033e+000 -3.9768e+001 32908 101020,101072,101046
 4.0000e-001 101176 -1.5560e+002  4.7024e+000  9.5812e+000 32908 100994,101150,101020
 4.0000e-001 101317 -1.7445e+002 -2.2098e+001  2.4692e+001 32908 101124,101098,101291
 4.0000e-001 101340 -1.5867e+002 -6.8517e+001 -5.2049e+000 32908 101363,101124,101291
 4.0000e-001 101389 -1.5815e+002 -3.3690e+001 -1.3128e+001 32908 101020,101150,101363
 4.0000e-001 101412 -1.4165e+002 -3.4430e+001  1.0577e+001 32908 101020,101363,101291
 4.0000e-001 101461 -1.6868e+002 -1.0615e+001  7.2220e+000 32908 101072,101291,101435
 4.0000e-001 101918 -1.7299e+002 -2.1551e+001  6.9764e+000 32618 101941,101670,101644
 4.0000e-001 101895 -1.7944e+002 -5.5450e+001  7.7883e+000 32618 101941,101644,101774
 4.0000e-001 101872 -2.3522e+002 -7.5501e+001  3.5237e+001 32618 102013,101696,101670
 4.0000e-001 101849 -2.0443e+002 -1.0266e+002  2.6377e+001 32618 101696,101748,101722
 4.0000e-001 101826 -1.6308e+002 -3.3739e+001 -3.9470e-001 32618 101644,101800,101774
 4.0000e-001 101967 -2.1971e+002 -5.8158e+001  2.2893e+001 32618 102013,101670,101941
 4.0000e-001 101990 -1.5115e+002 -2.3847e+001 -1.0355e+001 32618 101748,101941,101774
 4.0000e-001 102039 -2.0603e+002 -9.8830e+001  1.5589e+001 32618 101748,101696,102013
 4.0000e-001 102062 -1.6961e+002 -7.0213e+001  1.6607e+000 32618 101748,102013,101941
 4.0000e-001 102440 -5.7665e+001  1.4880e+001 -1.5683e+001 32306 102463,102270,102244
 4.0000e-001 102417 -6.1712e+001  6.1990e+000 -1.8086e+001 32306 102463,102244,102192
 4.0000e-001 102394 -8.1441e+001 -1.4530e+000 -9.9984e+000 32306 102192,102244,102218
 4.0000e-001 102371 -3.5710e+001  1.5378e+001 -1.0267e+001 32306 102270,102322,102296
 4.0000e-001 102348 -6.8685e+001  7.3400e+000 -3.0906e+000 32306 102166,102322,102192
 4.0000e-001 102489 -5.1860e+001  1.2731e+001 -6.2398e+000 32306 102322,102270,102463
 4.0000e-001 102512 -5.8150e+001 -1.5196e+000 -9.0129e+000 32306 102322,102463,102192
 4.0000e-001 102662 -1.2640e+002 -7.4644e+001  9.6586e+000 31852 102943,102587,102561
 4.0000e-001 102639 -1.8499e+002  4.0303e+001  2.2223e+001 31852 102815,102685,102561
 4.0000e-001 102711 -1.4995e+002  1.4071e+001  5.0222e+001 31852 102943,102561,102685
 4.0000e-001 102841 -1.0483e+002 -2.0922e+001 -1.2906e+001 31852 102535,102685,102815
 4.0000e-001 102969 -8.9116e+001  1.3232e+001  8.0419e+000 31852 102613,102587,102943
 4.0000e-001 102992 -1.2206e+002  8.1592e+001  5.1442e+001 31852 102613,102943,102685
 4.0000e-001 103370 -1.6618e+002 -7.6364e+001  1.3261e+001 31134 103096,103200,103122
 4.0000e-001 103347 -1.6415e+002 -5.3569e+001 -3.0499e+001 31134 103096,103226,103200
 4.0000e-001 103324 -2.1350e+002 -7.6692e+001  5.1889e+000 31134 103122,103200,103174
 4.0000e-001 103301 -2.1980e+002 -5.1119e+001 -1.4760e+001 31134 103096,103252,103226
 4.0000e-001 103278 -1.5284e+002  6.7837e+000 -2.7489e+001 31134 103122,103174,103148
 4.0000e-001 103520 -2.3800e+002 -4.5898e+001 -1.1202e+000 30822 103393,103445,103419
 4.0000e-001 103497 -2.3281e+002 -5.7380e+001 -6.9593e+000 30822 103393,103471,103445
 4.0000e-001 103719 -9.2598e+001  1.1051e+001 -1.8097e+000 30182 103742,103621,103569
 4.0000e-001 103696 -1.3143e+002  2.2094e+001 -8.4366e+000 30182 103742,103569,103543
 4.0000e-001 103673 -7.0250e+001  3.0998e+001  3.7429e+001 30182 103569,103621,103595
 4.0000e-001 103768 -7.4029e+001  1.5784e+001 -3.3228e+000 30182 103647,103621,103742
 4.0000e-001 103791 -9.1524e+001  4.1804e+001 -1.7074e+001 30182 103647,103742,103543
 4.0000e-001 104252 -8.8856e+001 -2.6978e+001  1.4412e+001 29728 104030,104108,104056
 4.0000e-001 104229 -1.1395e+002 -5.2902e+001 -7.8452e+000 29728 104004,104108,104030
 4.0000e-001 104206 -9.1604e+001 -3.7453e+001 -9.2503e-001 29728 104004,104134,104108
 4.0000e-001 104183 -8.6121e+001 -3.4986e+001  7.8706e+000 29728 103978,104134,104004
 4.0000e-001 104160 -7.4024e+001 -1.8384e+001  8.1313e+000 29728 104056,104108,104082
 4.0000e-001 104630 -1.6791e+002 -6.4507e+001  5.4956e+001 29217 104653,104382,104356
 4.0000e-001 104607 -1.7106e+002 -6.3268e+001  2.8347e+001 29217 104653,104356,104512
 4.0000e-001 104584 -1.0953e+002 -1.6865e+001  4.2517e+001 29217 104434,104512,104486
 4.0000e-001 104561 -1.6103e+002 -2.5982e+001  4.4096e+001 29217 104382,104434,104408
 4.0000e-001 104538 -1.1174e+002 -4.1602e+001  2.6496e+001 29217 104434,104486,104460
 4.0000e-001 104679 -1.5046e+002 -5.7172e+001  5.0942e+001 29217 104434,104382,104653
 4.0000e-001 104702 -1.4490e+002 -5.6075e+001  2.7075e+001 29217 104434,104653,104512
 4.0000e-001 105178 -1.5092e+002 -1.4930e+001  7.2149e+000 28649 105201,104962,104936
 4.0000e-001 105155 -1.3377e+002 -2.0155e+001 -3.0942e+000 28649 105201,104936,104884
 4.0000e-001 105132 -1.2675e+002 -2.4831e+001  6.5177e+000 28649 105273,104858,105014
 4.0000e-001 105109 -1.2056e+002  5.7285e+000  8.5561e+000 28649 104962,105014,104988
 4.0000e-001 105086 -1.2919e+002 -1.7721e+001 -4.1704e+000 28649 104884,104936,104910
 4.0000e-001 105063 -8.3737e+001 -2.7209e+001  3.3549e-001 28649 104806,105014,104858
 4.0000e-001 105040 -9.0480e+001 -5.3489e+001 -2.0088e+000 28649 104806,104858,104832
 4.0000e-001 105227 -1.2965e+002 -2.7261e+000  1.2381e+001 28649 105014,104962,105201
 4.0000e-001 105250 -1.3259e+002 -2.1364e+001  2.2646e+000 28649 105273,105014,105201
 4.0000e-001 105299 -1.2132e+002 -2.1232e+001  4.6306e+000 28649 104884,104858,105273
 4.0000e-001 105322 -1.2304e+002 -1.5334e+001 -4.9991e-001 28649 104884,105273,105201
 4.0000e-001 105673 -2.3354e+002 -2.6219e+001  3.6758e+000 28351 105474,105578,105552
 4.0000e-001 105650 -2.4603e+002 -5.0750e+001 -6.3818e-001 28351 105448,105578,105474
 4.0000e-001 105627 -2.2860e+002  3.9898e+001 -1.5426e+001 28351 105500,105552,105526
 4.0000e-001 105604 -2.3880e+002 -2.5064e+001 -2.7373e+000 28351 105474,105552,105500
 4.0000e-001 106130 -1.5134e+002 -2.7993e+001 -2.5650e+001 28004 106153,105882,105856
 4.0000e-001 106107 -1.6239e+002 -6.4005e+001 -2.6738e+001 28004 106153,105856,105986
 4.0000e-001 106084 -1.4105e+002 -9.7284e+001 -3.8798e+001 28004 105934,105986,105960
 4.0000e-001 106061 -1.2788e+002 -4.8225e+001 -4.1452e+001 28004 105856,106012,105986
 4.0000e-001 106038 -1.1676e+002  1.1586e+001 -2.8072e+001 28004 105882,105934,105908
 4.0000e-001 106179 -1.4779e+002 -5.3764e+001 -5.2411e+000 28004 105934,105882,106153
 4.0000e-001 106202 -1.4751e+002 -7.4885e+001 -7.8244e+000 28004 105934,106153,105986
 4.0000e-001 106885 -1.5221e+002 -5.6061e+000  1.7531e+001 27564 106908,106620,106516
 4.0000e-001 106862 -2.0795e+002 -1.9739e+001  1.3695e+001 27564 106908,106516,106490
 4.0000e-001 106839 -2.5934e+002 -5.5429e+001  3.0857e+001 27564 106516,106620,106542
 4.0000e-001 106816 -1.4197e+002  5.0821e+000  6.4657e+001 27564 106620,106672,106646
 4.0000e-001 106793 -3.3405e+002 -4.3084e+001  4.3754e+001 27564 106542,106620,106594
 4.0000e-001 106770 -1.8006e+002 -2.8343e+001  7.1973e+000 27564 106490,106698,106672
 4.0000e-001 106747 -1.4571e+002 -4.1930e+001  3.6279e+001 27564 106464,106698,106490
 4.0000e-001 106724 -2.7568e+002 -3.6106e+000  2.3250e+001 27564 106542,106594,106568
 4.0000e-001 106934 -1.2500e+002 -1.9318e+001  1.9936e+001 27564 106672,106620,106908
 4.0000e-001 106957 -1.5214e+002 -1.3713e+001  1.3529e+001 27564 106672,106908,106490
 4.0000e-001 107463 -6.6937e+001 -2.7833e+001  1.4171e+001 27053 107218,107322,107296
 4.0000e-001 107440 -5.5858e+001 -3.1911e+000  7.9264e+000 27053 107166,107322,107218
 4.0000e-001 107417 -5.6711e+001  1.4555e+001  1.9703e+001 27053 107218,107296,107244
 4.0000e-001 107394 -5.9751e+001 -1.2996e+001  4.7936e+000 27053 107140,107322,107166
 4.0000e-001 107371 -3.4287e+001  1.1650e+000  5.0571e+000 27053 107166,107218,107192
 4.0000e-001 107348 -6.8297e+001 -1.3577e+001  2.1573e+001 27053 107244,107296,107270
 4.0000e-001 108097 -1.1919e+002 -2.4791e+001  2.6272e+000 26549 108192,108120,107803
 4.0000e-001 108074 -1.4717e+002  1.1253e+001 -1.3204e+001 26549 108120,107725,107933
 4.0000e-001 108051 -1.4524e+002 -3.5385e+001  2.5733e+001 26549 107751,107803,107777
 4.0000e-001 108028 -1.3752e+002 -1.8440e+001  1.7770e+001 26549 108192,107803,107751
 4.0000e-001 108005 -1.7050e+002 -4.8649e+001 -1.9881e+001 26549 108264,107855,107803
 4.0000e-001 107982 -1.6560e+002 -6.1716e+001  6.8699e-001 26549 107881,107933,107907
 4.0000e-001 107959 -1.7244e+002 -1.3243e+001 -7.0293e+001 26549 107803,107855,107829
 4.0000e-001 108146 -1.3210e+002 -3.8118e+001 -1.3610e+001 26549 108264,107803,108120
 4.0000e-001 108169 -1.5992e+002 -2.1379e+001 -7.5391e+000 26549 107881,108120,107933
 4.0000e-001 108218 -1.5578e+002 -3.3392e+001  3.1729e+000 26549 107725,108120,108192
 4.0000e-001 108241 -1.7020e+002 -2.3673e+001  1.7463e+001 26549 107725,108192,107751
 4.0000e-001 108290 -1.9750e+002 -2.6293e+001 -1.0591e+001 26549 107881,107855,108264
 4.0000e-001 108313 -1.7191e+002 -2.5114e+001 -2.7031e+000 26549 107881,108264,108120
 4.0000e-001 108512 -1.0395e+002 -3.0867e+000  1.9032e+001 26137 108388,108440,108414
 4.0000e-001 108489 -1.1548e+002 -2.0495e+001  9.9436e+000 26137 108362,108440,108388
 4.0000e-001 108466 -1.5523e+002 -3.7338e+001  1.0026e+000 26137 108336,108440,108362
 4.0000e-001 108662 -1.3720e+002 -4.2812e+000  3.4972e+000 25733 108817,108685,108535
 4.0000e-001 108639 -1.5044e+002  7.8878e-001 -3.1896e-001 25733 109017,108817,108535
 4.0000e-001 108711 -1.2766e+002  2.5521e+000 -3.5493e+000 25733 108561,108535,108685
 4.0000e-001 108843 -1.5666e+002 -4.6741e+000 -6.2624e+000 25733 108587,108685,108817
 4.0000e-001 108866 -1.5864e+002 -2.2892e+000  3.8291e-001 25733 108889,108817,108613
 4.0000e-001 108915 -1.6611e+002 -4.2015e+000 -1.6880e+000 25733 108587,108817,108889
 4.0000e-001 109043 -1.5797e+002 -2.6724e+001 -2.1701e+000 25733 108613,108817,109017
 4.0000e-001 109500 -5.4657e+001  2.7049e+001 -2.1097e+001 25229 109523,109356,109330
 4.0000e-001 109477 -8.3672e+001  3.1709e+000 -1.8951e+000 25229 109595,109523,109330
 4.0000e-001 109454 -5.0556e+001 -1.9603e+000  1.1548e+001 25229 109595,109330,109278
 4.0000e-001 109431 -6.8790e+001 -3.9795e+001 -1.6876e+001 25229 109667,109226,109382
 4.0000e-001 109408 -9.9842e+001  1.4775e+000  2.2141e+001 25229 109278,109330,109304
 4.0000e-001 109549 -5.5494e+001  2.0210e+001 -4.9986e+000 25229 109382,109356,109523
 4.0000e-001 109572 -7.8335e+001 -2.3443e+001 -1.3327e+001 25229 109667,109382,109523
 4.0000e-001 109621 -4.4519e+001  6.3906e+001  1.6683e+001 25229 109252,109523,109595
 4.0000e-001 109644 -6.2735e+001 -1.5618e+000  3.7429e+000 25229 109739,109595,109278
 4.0000e-001 109693 -1.2545e+002  6.9419e+000 -2.4520e+001 25229 109252,109226,109667
 4.0000e-001 109716 -9.5929e+001  4.9419e+001 -8.6806e-001 25229 109252,109667,109523
 4.0000e-001 109765 -3.4413e+001  1.4325e+001  1.1617e+001 25229 109252,109595,109739
 4.0000e-001 110478 -1.2438e+002 -9.0845e+000 -2.8836e+001 24917 110158,110236,110184
 4.0000e-001 110455 -6.3184e+001  2.3813e+001 -6.7751e+000 24917 110158,110288,110236
 4.0000e-001 110432 -1.0743e+002  3.9599e+001 -4.8494e+000 24917 110236,110288,110262
 4.0000e-001 110409 -1.0250e+002  1.5163e+000 -2.0512e+001 24917 110184,110236,110210
 4.0000e-001 110386 -6.7919e+001  1.7369e+000 -5.1566e+000 24917 110132,110288,110158
 4.0000e-001 110363 -3.1198e+001  1.9208e+001  4.4599e-001 24917 110132,110314,110288
 4.0000e-001 110340 -3.8204e+001  1.1972e+000  3.6768e+000 24917 110106,110314,110132
 4.0000e-001 110829 -1.8899e+002 -7.7901e+001  2.4263e+001 24307 110604,110682,110630
 4.0000e-001 110806 -1.5161e+002 -3.5345e+001  6.1133e+000 24307 110604,110708,110682
 4.0000e-001 110783 -1.2210e+002 -1.6469e+001 -1.1608e+001 24307 110604,110734,110708
 4.0000e-001 110760 -2.8370e+002 -1.1853e+002  2.7973e+001 24307 110630,110682,110656
 4.0000e-001 111335 -1.3328e+002 -2.9847e+001  2.5371e+001 23767 111012,111168,111038
 4.0000e-001 111312 -8.9914e+001  2.6578e+001  4.2777e+000 23767 111012,111194,111168
 4.0000e-001 111289 -7.4771e+001 -6.7333e+000 -4.1109e+000 23767 111358,111064,111038
 4.0000e-001 111266 -8.7967e+001 -4.9637e-001  1.2661e+001 23767 111358,111038,111168
 4.0000e-001 111243 -1.0620e+002 -3.2005e+001  3.5808e+000 23767 111430,111142,111090
 4.0000e-001 111220 -1.1418e+002 -3.6008e+001 -5.8721e+000 23767 111090,111142,111116
 4.0000e-001 111384 -7.7648e+001 -1.0423e+001  6.6689e+000 23767 111090,111064,111358
 4.0000e-001 111407 -8.0597e+001 -2.2630e+001  8.8319e+000 23767 111430,111090,111358
 4.0000e-001 111456 -1.3203e+002 -1.2949e+001  9.2902e+000 23767 111168,111142,111430
 4.0000e-001 111479 -1.1814e+002 -1.2899e+001  1.1513e+001 23767 111168,111430,111358
 4.0000e-001 111985 -1.6187e+002 -9.2347e+001 -1.8080e+001 23477 111688,111844,111818
 4.0000e-001 111962 -1.5748e+002 -6.3974e+001  2.6899e+001 23477 111662,111844,111688
 4.0000e-001 111939 -1.2806e+002 -3.3998e+001 -3.8226e+000 23477 111766,111818,111792
 4.0000e-001 111916 -1.6674e+002 -5.5303e+001  5.2061e+000 23477 111740,111818,111766
 4.0000e-001 111893 -1.6821e+002 -6.3207e+001 -1.3294e+001 23477 111688,111818,111740
 4.0000e-001 111870 -2.7287e+002 -9.3505e+000 -5.1900e+001 23477 111688,111740,111714
 4.0000e-001 112314 -1.4128e+002 -7.8056e+000 -3.9591e+000 23023 112141,112219,112193
 4.0000e-001 112291 -1.4300e+002 -3.4130e+001 -5.3777e+000 23023 112115,112219,112141
 4.0000e-001 112268 -1.2377e+002  2.8541e+001  1.5529e+000 23023 112141,112193,112167
 4.0000e-001 112245 -1.1151e+002 -5.1300e+000  8.7497e+000 23023 112089,112219,112115
 4.0000e-001 112692 -1.6267e+002 -3.0265e+001 -1.6702e+000 22768 112444,112574,112548
 4.0000e-001 112669 -1.5341e+002  2.0690e+001  4.0596e+000 22768 112418,112574,112444
 4.0000e-001 112646 -1.0833e+002 -1.6133e+001 -4.7668e+000 22768 112444,112522,112470
 4.0000e-001 112623 -1.2501e+002 -1.3965e+001  4.9061e-002 22768 112444,112548,112522
 4.0000e-001 112600 -1.0118e+002 -1.4232e+001  5.1381e+000 22768 112470,112522,112496
 4.0000e-001 113011 -2.9476e+002 -3.5922e+001 -2.7110e+001 22314 112763,112867,112789
 4.0000e-001 112988 -2.9081e+002 -9.4278e+001 -1.7117e+001 22314 112763,112893,112867
 4.0000e-001 112965 -3.0005e+002  4.9019e+001  0.0000e+000 22314 112815,112867,112841
 4.0000e-001 112942 -3.5355e+002 -6.4553e+001 -1.6406e+001 22314 112789,112867,112815
 4.0000e-001 112919 -2.4400e+002 -9.8600e+001 -5.0250e+001 22314 112737,112893,112763
 4.0000e-001 113519 -1.2406e+002 -4.6189e+000  1.2207e+001 21924 113614,113542,113248
 4.0000e-001 113496 -1.1747e+002 -6.8808e+000  1.4368e+001 21924 113542,113196,113378
 4.0000e-001 113473 -7.8714e+001 -9.3185e-001  9.8177e+000 21924 113614,113248,113222
 4.0000e-001 113450 -1.1024e+002  6.0699e+000 -1.6830e+000 21924 113686,113274,113248
 4.0000e-001 113427 -8.6743e+001 -1.0671e+001 -2.0775e+001 21924 113274,113352,113326
 4.0000e-001 113404 -3.6348e+001 -6.5292e+000  1.4836e+001 21924 113274,113326,113300
 4.0000e-001 113568 -1.1096e+002 -2.1603e+000  1.6617e-001 21924 113686,113248,113542
 4.0000e-001 113591 -1.3245e+002 -7.0109e+001 -1.7383e+001 21924 113352,113542,113378
 4.0000e-001 113640 -7.9235e+001  2.4933e+000  3.0518e+001 21924 113196,113542,113614
 4.0000e-001 113663 -6.1517e+001 -1.1294e+001  3.2733e+001 21924 113196,113614,113222
 4.0000e-001 113712 -1.1053e+002 -2.3570e+000  1.8347e+000 21924 113352,113274,113686
 4.0000e-001 113735 -1.1169e+002 -9.1919e+000  4.6218e+000 21924 113352,113686,113542
 4.0000e-001 113885 -4.5886e+001  9.1600e+000  4.7019e+000 21520 113980,113908,113784
 4.0000e-001 113862 -1.1520e+002 -5.9299e+001 -8.9172e+000 21520 114238,113908,113758
 4.0000e-001 113934 -9.7831e+001  3.6919e+001 -1.7284e+000 21520 114110,113908,113810
 4.0000e-001 113957 -1.1510e+002  1.7942e+001  1.2560e+001 21520 113810,113908,113836
 4.0000e-001 114006 -9.8217e+001 -3.2474e+001  2.2723e+001 21520 113758,113908,113980
 4.0000e-001 114136 -1.9503e+001  3.8901e+001  3.0945e+001 21520 113784,113908,114110
 4.0000e-001 114264 -8.7572e+001  2.9668e+001  1.9543e+001 21520 113836,113908,114238
 4.0000e-001 114662 -1.6252e+002 -2.7466e+001  6.9498e-001 21030 114414,114518,114492
 4.0000e-001 114639 -2.0019e+002 -4.7506e+001  1.5835e+001 21030 114414,114544,114518
 4.0000e-001 114616 -5.1332e+001  1.7444e+001  1.3247e+000 21030 114440,114492,114466
 4.0000e-001 114593 -1.6432e+002 -3.0846e+001  3.1455e+000 21030 114414,114492,114440
 4.0000e-001 114570 -1.9666e+002 -2.6637e+001  7.5700e+001 21030 114388,114544,114414
 4.0000e-001 114959 -1.9331e+002 -2.0068e+001 -8.8091e+000 20512 114982,114711,114685
 4.0000e-001 114936 -1.9171e+002 -1.1088e+001 -2.5584e+000 20512 115054,114982,114685
 4.0000e-001 114913 -2.1844e+002  1.5276e+001  8.6643e+000 20512 115054,114685,114841
 4.0000e-001 114890 -7.5948e+001  6.5147e+000  4.4703e+000 20512 114711,114763,114737
 4.0000e-001 114867 -1.3014e+002 -2.5377e-001  4.0888e+000 20512 114763,114815,114789
 4.0000e-001 115008 -1.9798e+002 -1.9059e+001 -3.2607e+000 20512 114763,114711,114982
 4.0000e-001 115031 -2.0035e+002 -3.3872e+001 -8.6519e+000 20512 114763,114982,114815
 4.0000e-001 115080 -2.1936e+002 -3.0656e+001 -1.4562e+001 20512 114815,114982,115054
 4.0000e-001 115103 -2.3091e+002 -8.9151e+000 -1.2488e+001 20512 114815,115054,114841
 4.0000e-001 115507 -1.2506e+002 -4.0376e+001 -7.7962e+001 20143 115285,115389,115363
 4.0000e-001 115484 -2.5260e+002 -2.0812e+001  8.2594e+000 20143 115259,115389,115285
 4.0000e-001 115461 -2.3393e+002 -9.6826e+000  2.3939e+001 20143 115233,115389,115259
 4.0000e-001 115438 -1.3418e+002 -4.5302e+001  3.0862e+001 20143 115285,115337,115311
 4.0000e-001 115415 -7.7512e+001 -3.9989e+001  3.0224e+001 20143 115285,115363,115337
 4.0000e-001 115875 -9.2592e+001 -2.1649e+001  3.3149e-001 19632 115656,115734,115682
 4.0000e-001 115852 -9.8195e+001 -3.7123e+001 -1.6158e+000 19632 115552,115734,115656
 4.0000e-001 115829 -9.6948e+001 -3.2044e+001 -1.2968e+001 19632 115552,115656,115578
 4.0000e-001 115806 -1.0685e+002 -5.2403e+000 -9.7285e+000 19632 115578,115656,115630
 4.0000e-001 115783 -7.9783e+001 -2.3509e+001 -1.2437e+001 19632 115682,115734,115708
 4.0000e-001 115760 -8.2054e+001 -3.9421e+000  1.9256e+001 19632 115578,115630,115604
 4.0000e-001 116025 -1.3847e+002  2.3746e+000  1.0452e+001 19178 115898,115950,115924
 4.0000e-001 116002 -1.3391e+002 -9.3654e+000  1.8646e-001 19178 115898,115976,115950
 4.0000e-001 116633 -6.4731e+001  1.1063e+001  1.6053e-001 18738 116800,116656,116342
 4.0000e-001 116610 -5.6135e+001  2.3965e+001 -2.5926e+001 18738 116656,116238,116446
 4.0000e-001 116587 -5.4877e+001 -3.2563e+000  5.4106e+000 18738 116728,116368,116342
 4.0000e-001 116564 -6.9126e+001  1.4074e+000  5.5047e+000 18738 116800,116342,116264
 4.0000e-001 116541 -3.7780e+001  2.5438e+002 -8.5024e+001 18738 116212,116446,116238
 4.0000e-001 116518 -3.5299e+001  5.3078e+000 -3.9604e+001 18738 116394,116446,116420
 4.0000e-001 116495 -1.7612e+002 -4.2647e+001  6.0953e+000 18738 116264,116342,116316
 4.0000e-001 116472 -4.3190e+001  1.2342e+001 -2.7315e-001 18738 116264,116316,116290
 4.0000e-001 116682 -5.3989e+001  2.3056e+000 -6.6551e+000 18738 116728,116342,116656
 4.0000e-001 116705 -6.1364e+001 -1.1108e+001 -2.7398e+001 18738 116394,116656,116446
 4.0000e-001 116754 -3.8248e+001  5.1264e+000 -3.4656e+000 18738 116394,116368,116728
 4.0000e-001 116777 -3.4636e+001  1.2887e+001 -1.5859e+001 18738 116394,116728,116656
 4.0000e-001 116826 -7.0459e+001  3.2012e+001 -9.8292e+000 18738 116238,116656,116800
 4.0000e-001 116849 -8.0636e+001  1.9111e+001 -2.7222e+000 18738 116238,116800,116264
 4.0000e-001 116999 -6.6358e+001  5.2346e+001  2.4290e+001 18184 116872,116924,116898
 4.0000e-001 116976 -3.8487e+001 -5.2191e+001  3.2196e+001 18184 116872,116950,116924
 4.0000e-001 117330 -1.0747e+002  6.0382e+000  1.1190e+001 17694 117157,117235,117183
 4.0000e-001 117307 -1.0268e+002 -9.3725e+000  4.1717e+000 17694 117131,117235,117157
 4.0000e-001 117284 -1.1026e+002 -1.4056e+001  2.1737e+000 17694 117105,117235,117131
 4.0000e-001 117261 -1.3546e+002 -3.8325e+001  2.4111e+001 17694 117183,117235,117209
 4.0000e-001 117480 -8.8041e+001 -2.1718e+001  1.6685e+001 17290 117353,117405,117379
 4.0000e-001 117457 -7.3830e+001  1.2736e+001  6.0701e+000 17290 117353,117431,117405
 4.0000e-001 117679 -9.6343e+001 -5.0236e+001  7.1307e+000 16718 117555,117607,117581
 4.0000e-001 117656 -1.1084e+002 -3.1557e+001 -5.4334e+000 16718 117529,117607,117555
 4.0000e-001 117633 -1.3279e+002 -2.5093e+001 -3.0533e-001 16718 117503,117607,117529
 4.0000e-001 117782 -8.4885e+001  1.2222e+000 -4.4463e+000 16520 117704,117756,117730
 4.0000e-001 117983 -2.0254e+002 -1.3901e+002  6.0874e+000 16208 117859,117911,117885
 4.0000e-001 117960 -1.5308e+002 -9.6806e+001 -1.9539e+001 16208 117833,117911,117859
 4.0000e-001 117937 -1.0487e+002 -5.4049e+001 -6.5214e-001 16208 117807,117911,117833
 4.0000e-001 118135 -1.6906e+001  3.0010e+001  5.0187e+000 15674 118034,118086,118060
 4.0000e-001 118112 -7.4340e+001  2.0203e+000 -4.1854e+000 15674 118008,118086,118034
 4.0000e-001 118238 -1.3893e+002 -3.9885e+000  2.9214e+000 15355 118160,118212,118186
 4.0000e-001 118341  4.1688e+000 -6.1415e+000 -3.5141e+000 421 118263,118315,118289
 5.0000e-001 68152 -9.6031e-001 -1.6393e+001  3.7607e+000 67838 68074,68126,68100
 5.0000e-001 68550 -1.7885e+002 -3.9606e+000 -1.7657e+000 67526 68276,68380,68302
 5.0000e-001 68527 -1.6266e+002 -2.5270e+000 -3.4299e+000 67526 68276,68406,68380
 5.0000e-001 68504 -1.7604e+002 -4.1464e+000 -4.4927e-001 67526 68328,68380,68354
 5.0000e-001 68481 -1.7844e+002 -3.0223e+000 -1.7780e+000 67526 68302,68380,68328
 5.0000e-001 68458 -1.5571e+002  5.3032e+000 -1.8205e+001 67526 68276,68432,68406
 5.0000e-001 68651 -8.2835e+001 -6.5312e+001 -5.2501e+001 67328 68573,68625,68599
 5.0000e-001 68970 -2.9211e+002 -1.0335e+002 -2.0579e+001 67016 68722,68800,68774
 5.0000e-001 68947 -2.8371e+002 -7.5542e+001 -2.3963e+001 67016 68722,68826,68800
 5.0000e-001 68924 -2.7663e+002 -1.7300e+001 -3.4776e+001 67016 68696,68826,68722
 5.0000e-001 68901 -2.5148e+002 -2.9368e+001  2.5252e+001 67016 68722,68774,68748
 5.0000e-001 68878 -1.7836e+002  2.2573e+000  6.4519e+001 67016 68696,68852,68826
 5.0000e-001 69291 -2.2628e+002 -2.3580e+001 -4.7734e+001 66654 69069,69147,69095
 5.0000e-001 69268 -7.3038e+001 -1.5624e+001  1.4442e+001 66654 69069,69173,69147
 5.0000e-001 69245 -3.8715e+001 -4.6215e+000 -1.2594e+001 66654 69043,69173,69069
 5.0000e-001 69222 -2.6790e+002  6.0470e+000  2.4389e+001 66654 69095,69147,69121
 5.0000e-001 69199 -2.7764e+001 -6.8462e+000  8.0699e+000 66654 69017,69173,69043
 5.0000e-001 69695 -2.7195e+002 -6.0279e+001 -9.8300e+000 66456 69447,69577,69551
 5.0000e-001 69672 -2.8710e+002 -3.0937e+001 -2.9331e+001 66456 69421,69577,69447
 5.0000e-001 69649 -3.3156e+002 -1.2764e+002  2.4265e+001 66456 69473,69551,69525
 5.0000e-001 69626 -2.7168e+002 -5.5876e+001 -5.0786e+000 66456 69447,69551,69473
 5.0000e-001 69603 -3.5164e+002 -1.0509e+002  9.5745e+001 66456 69473,69525,69499
 5.0000e-001 70024 -2.9294e+001  4.1327e+001 -6.2684e+001 66258 70047,69851,69825
 5.0000e-001 70001 -8.4643e+001  1.4159e+001  2.5334e+001 66258 70047,69825,69903
 5.0000e-001 69978 -7.8009e+001  2.5520e+001  2.1942e+001 66258 69799,69903,69825
 5.0000e-001 69955 -8.0183e+001 -2.2259e+001  2.5672e+001 66258 69799,69929,69903
 5.0000e-001 70073 -1.0842e+002 -8.8461e+000 -2.4010e+001 66258 69877,69851,70047
 5.0000e-001 70096 -1.9081e+002 -5.7960e+001  6.8512e+001 66258 69877,70047,69903
 5.0000e-001 70602 -5.5438e+002 -1.2615e+002  6.2705e+001 66060 70305,70435,70331
 5.0000e-001 70579 -1.7515e+002 -1.1690e+002 -6.2832e+001 66060 70279,70435,70305
 5.0000e-001 70556 -2.1529e+002  6.0305e+000  4.8835e+001 66060 70331,70435,70409
 5.0000e-001 70533 -1.3626e+002 -2.4496e+001 -6.1570e+001 66060 70279,70461,70435
 5.0000e-001 70510 -3.8488e+002 -7.6726e+001  1.3884e+002 66060 70331,70409,70357
 5.0000e-001 70487 -3.0921e+002 -7.8916e+001  1.9566e+002 66060 70357,70409,70383
 5.0000e-001 70703 -7.5824e+001  5.1698e+000 -3.7244e+001 65862 70625,70677,70651
 5.0000e-001 71083 -7.5927e+001  1.4932e+001  1.3221e+001 65664 70887,70965,70939
 5.0000e-001 71060 -1.4869e+002  8.9852e+000  3.3040e+001 65664 70861,70965,70887
 5.0000e-001 71037 -1.5827e+002  7.4008e+001  7.4186e+000 65664 70809,70965,70861
 5.0000e-001 71014 -1.5621e+002  1.8433e+002  6.1874e+001 65664 70809,70861,70835
 5.0000e-001 70991 -7.0796e+001  1.2351e-001 -1.3302e+001 65664 70887,70939,70913
 5.0000e-001 71611 -5.2819e+001  8.5443e-001  2.6373e+001 65260 71288,71444,71314
 5.0000e-001 71588 -1.1292e+002 -3.4274e+001  1.1974e+001 65260 71288,71470,71444
 5.0000e-001 71565 -3.5524e+002 -1.8526e+001 -5.8747e+001 65260 71314,71418,71392
 5.0000e-001 71542 -7.7209e+001 -6.5608e+001  2.2384e+001 65260 71314,71444,71418
 5.0000e-001 71519 -2.3932e+002  9.0544e+000 -8.0102e+001 65260 71314,71392,71340
 5.0000e-001 71496 -2.5867e+002 -4.3090e+001 -4.1709e+001 65260 71340,71392,71366
 5.0000e-001 72060 -1.8662e+002 -2.7679e+001  1.7879e+001 64870 71737,71893,71789
 5.0000e-001 72037 -2.6716e+002 -6.4873e+001  3.8929e+000 64870 71737,71919,71893
 5.0000e-001 72014 -1.7947e+002 -9.1654e+001 -4.1672e+001 64870 71789,71841,71815
 5.0000e-001 71991 -2.1652e+002 -4.6615e+001 -7.3424e-001 64870 71789,71893,71841
 5.0000e-001 71968 -1.9613e+002 -4.5928e+001  2.1437e+001 64870 71737,71789,71763
 5.0000e-001 71945 -2.5447e+002 -2.1828e+001  0.0000e+000 64870 71841,71893,71867
 5.0000e-001 72517 -2.6542e+002 -9.9010e+001 -6.8886e+000 64466 72321,72399,72347
 5.0000e-001 72494 -2.1349e+002 -1.2122e+002 -2.6992e+000 64466 72269,72399,72321
 5.0000e-001 72471 -2.3967e+002 -2.7381e+001 -2.6262e+001 64466 72347,72399,72373
 5.0000e-001 72448 -2.3425e+002 -1.1036e+002  3.8292e+001 64466 72243,72399,72269
 5.0000e-001 72425 -1.7273e+002 -1.5611e+001  2.5111e+000 64466 72269,72321,72295
 5.0000e-001 72944 -2.4478e+002 -6.7174e+001 -1.4059e+001 64062 73111,73039,72699
 5.0000e-001 72921 -2.5030e+002 -6.9106e+001  7.0641e-001 64062 73183,72967,72647
 5.0000e-001 72898 -2.4813e+002 -7.3379e+001 -8.1896e+000 64062 72967,72803,72751
 5.0000e-001 72875 -2.4608e+002 -6.7515e+001 -1.9807e+001 64062 73111,72699,72673
 5.0000e-001 72852 -2.5965e+002 -5.6614e+001 -5.8405e+000 64062 73183,72647,72621
 5.0000e-001 72829 -2.3914e+002 -9.9429e+001  2.1464e+001 64062 72751,72803,72777
 5.0000e-001 72993 -2.5654e+002 -8.3109e+001 -6.9295e+000 64062 73039,72647,72967
 5.0000e-001 73016 -2.2882e+002 -5.8894e+001 -9.7524e-001 64062 72725,72967,72751
 5.0000e-001 73065 -3.1198e+002 -5.4635e+001 -5.8470e+001 64062 72725,72699,73039
 5.0000e-001 73088 -2.4180e+002 -4.6136e+001 -5.0609e+000 64062 72725,73039,72967
 5.0000e-001 73137 -2.4672e+002 -8.0479e+001 -1.9405e+001 64062 72647,73039,73111
 5.0000e-001 73160 -2.4843e+002 -7.9783e+001 -2.2780e+001 64062 72647,73111,72673
 5.0000e-001 73209 -2.4488e+002 -5.7755e+001 -6.6190e+000 64062 72803,72967,73183
 5.0000e-001 73232 -2.4759e+002 -3.4239e+001 -1.3214e+001 64062 72803,73183,72621
 5.0000e-001 73333 -1.0552e+002  9.7220e+000  4.3522e+000 63814 73356,73281,73255
 5.0000e-001 73382 -3.2744e+002 -4.2664e+001  4.2076e+001 63814 73486,73356,73307
 5.0000e-001 73512 -9.5662e+001  5.6514e+001 -1.5332e+001 63814 73281,73356,73486
 5.0000e-001 73839 -1.7187e+002 -4.0070e+000  2.2495e+001 63616 73862,73692,73666
 5.0000e-001 73816 -1.5784e+002 -2.2414e+001  1.6279e+001 63616 73934,73862,73666
 5.0000e-001 73793 -1.4777e+002  2.5405e+001  1.1676e+001 63616 73934,73666,73640
 5.0000e-001 73770 -1.1939e+002  3.9711e+001 -1.7974e+001 63616 73614,73744,73640
 5.0000e-001 73888 -1.8128e+002 -1.7926e+001  2.6881e+001 63616 73718,73692,73862
 5.0000e-001 73911 -1.7387e+002 -4.7283e+001 -1.7278e+001 63616 73718,73862,73744
 5.0000e-001 73960 -1.4901e+002  1.4949e+001 -1.7434e+001 63616 73744,73862,73934
 5.0000e-001 73983 -1.5286e+002  3.1264e+001 -2.5911e+001 63616 73744,73934,73640
 5.0000e-001 74363 -2.8099e+002 -8.7351e+001 -7.2615e+000 63390 74386,74115,74089
 5.0000e-001 74340 -2.5285e+002 -8.8222e+001 -1.0871e+001 63390 74458,74386,74089
 5.0000e-001 74317 -2.6688e+002 -8.1082e+001 -3.8017e+001 63390 74458,74089,74245
 5.0000e-001 74294 -2.3974e+002 -1.2929e+002  1.2337e+001 63390 74530,74167,74141
 5.0000e-001 74271 -2.2515e+002 -8.1044e+001  2.5163e+001 63390 74167,74219,74193
 5.0000e-001 74412 -2.6122e+002 -6.7725e+001  4.7792e+000 63390 74141,74115,74386
 5.0000e-001 74435 -2.6613e+002 -1.1119e+002 -9.2099e+000 63390 74530,74141,74386
 5.0000e-001 74484 -2.7687e+002 -1.2514e+002 -3.1075e+001 63390 74219,74386,74458
 5.0000e-001 74507 -3.0591e+002 -1.3046e+002 -6.0808e+001 63390 74219,74458,74245
 5.0000e-001 74556 -2.1045e+002 -1.1485e+002  7.5138e+000 63390 74219,74167,74530
 5.0000e-001 74579 -2.2815e+002 -9.1605e+001 -1.6394e+001 63390 74219,74530,74386
 5.0000e-001 74680 -8.6595e+001 -4.4269e+000 -2.2344e+000 63100 75089,74833,74703
 5.0000e-001 74729 -3.8875e+001  3.5465e-001 -4.1800e+000 63100 74961,74703,74654
 5.0000e-001 74859 -1.1679e+002 -1.6235e+001 -7.5908e+000 63100 74602,74703,74833
 5.0000e-001 74987 -5.2024e+001 -1.4876e+001  2.2492e+001 63100 75089,74703,74961
 5.0000e-001 75115 -1.5954e+002 -1.0231e+001 -8.3429e+000 63100 74628,74833,75089
 5.0000e-001 75138 -1.2432e+002 -2.0264e+001  1.6473e+001 63100 74628,75089,74961
 5.0000e-001 75723 -8.7295e+001 -7.4412e+001  3.1065e+001 62532 75746,75504,75426
 5.0000e-001 75700 -2.1299e+002  5.0650e+000  1.1066e+002 62532 75746,75426,75556
 5.0000e-001 75677 -9.4725e+001  1.0908e+001 -4.0614e+001 62532 75426,75504,75452
 5.0000e-001 75654 -3.3826e+002 -2.9743e+001  1.0386e+002 62532 75400,75556,75426
 5.0000e-001 75631 -4.2592e+002 -2.3828e+002  1.0156e+002 62532 75400,75582,75556
 5.0000e-001 75608 -9.5121e+001 -4.5909e+001 -2.6548e+001 62532 75452,75504,75478
 5.0000e-001 75772 -2.2991e+002 -5.4894e+001  2.2764e+001 62532 75530,75504,75746
 5.0000e-001 75795 -4.2090e+002 -2.4533e+001  1.0326e+002 62532 75530,75746,75556
 5.0000e-001 76301 -1.7409e+002 -4.5509e+001 -8.8237e+000 62192 76324,76082,76030
 5.0000e-001 76278 -1.5792e+002 -1.0305e+001  5.6447e+000 62192 76324,76030,76004
 5.0000e-001 76255 -1.5207e+002 -3.7498e+001 -6.2669e+000 62192 76030,76082,76056
 5.0000e-001 76232 -1.9638e+002  2.3987e+001 -3.4789e+001 62192 76082,76134,76108
 5.0000e-001 76209 -3.7890e+002 -4.1981e+001 -5.9907e+001 62192 76004,76160,76134
 5.0000e-001 76186 -2.7807e+002 -2.1410e+002 -3.5733e+001 62192 75978,76160,76004
 5.0000e-001 76350 -2.1355e+002  1.1207e+000 -8.7234e+000 62192 76134,76082,76324
 5.0000e-001 76373 -1.8800e+002  5.2813e+001  4.7735e+000 62192 76134,76324,76004
 5.0000e-001 76879 -3.1257e+001  1.1810e+000 -1.3770e+001 61788 76902,76660,76582
 5.0000e-001 76856 -5.2563e+001 -7.6679e+000 -1.6894e+001 61788 76902,76582,76556
 5.0000e-001 76833 -4.8130e+001 -3.4985e+000 -1.6658e+001 61788 76582,76660,76634
 5.0000e-001 76810 -2.1222e+001 -1.9170e+001 -1.5305e+001 61788 76582,76634,76608
 5.0000e-001 76787 -9.1026e+000 -1.3693e+001 -6.4469e-001 61788 76556,76738,76686
 5.0000e-001 76764 -1.5974e+001 -1.0264e+001 -2.0359e-001 61788 76686,76738,76712
 5.0000e-001 76928 -1.2299e+001 -9.5618e+000 -1.4839e+001 61788 76686,76660,76902
 5.0000e-001 76951 -3.0712e+001 -1.7046e+001 -1.8657e+001 61788 76686,76902,76556
 5.0000e-001 77408 -2.0325e+002  2.3478e+001  7.3387e+001 61498 77212,77264,77238
 5.0000e-001 77385 -2.6994e+002 -3.0735e+001 -2.4361e+001 61498 77160,77264,77212
 5.0000e-001 77362 -1.4020e+002  2.2565e+001 -6.2816e+000 61498 77160,77290,77264
 5.0000e-001 77339 -2.1150e+002  4.5931e+000 -4.1660e+001 61498 77160,77212,77186
 5.0000e-001 77316 -1.3778e+002  2.8532e+001 -6.3744e+000 61498 77134,77290,77160
 5.0000e-001 77678 -4.7884e+002  5.5530e+001  1.0377e+001 61129 77479,77557,77505
 5.0000e-001 77655 -4.7756e+002 -6.2820e+001  3.9464e+000 61129 77479,77583,77557
 5.0000e-001 77632 -4.4200e+002 -1.7150e+002  2.9820e+001 61129 77453,77583,77479
 5.0000e-001 77609 -4.1862e+002  1.5731e+002  1.0111e+002 61129 77505,77557,77531
 5.0000e-001 77828 -4.1918e+001  7.4906e+000 -6.3849e+000 60931 77851,77727,77701
 5.0000e-001 77805 -3.7827e+001  2.0979e+001 -1.2841e+001 60931 77851,77701,77779
 5.0000e-001 77877 -3.1892e+001  4.1815e+000 -6.6287e+000 60931 77923,77851,77753
 5.0000e-001 77900 -2.9779e+001  6.3979e+000 -1.2831e+001 60931 77753,77851,77779
 5.0000e-001 77949 -3.5476e+001 -6.1413e+000 -7.8310e+000 60931 77727,77851,77923
 5.0000e-001 78133 -2.9911e+002 -1.4112e+002  1.7747e+001 60377 78055,78107,78081
 5.0000e-001 78535 -1.7545e+002 -1.9089e+001 -1.4058e+001 60015 78287,78391,78313
 5.0000e-001 78512 -2.4832e+002 -5.9643e+001  6.8044e+000 60015 78287,78417,78391
 5.0000e-001 78489 -1.8423e+002 -4.8923e+001 -7.9567e+000 60015 78261,78417,78287
 5.0000e-001 78466 -3.0419e+002 -4.7678e+001  9.6772e+000 60015 78339,78391,78365
 5.0000e-001 78443 -3.4304e+002 -9.0476e+001 -1.9417e+001 60015 78313,78391,78339
 5.0000e-001 78913 -1.8856e+002  1.0178e+001  2.2700e+001 59725 78936,78743,78691
 5.0000e-001 78890 -9.8041e+001  4.7511e+001  5.3096e+001 59725 79008,78936,78691
 5.0000e-001 78867 -7.2973e+001  4.7890e+001  1.2155e+002 59725 79008,78691,78665
 5.0000e-001 78844 -1.7368e+002 -1.1757e+001  6.8784e+001 59725 78691,78743,78717
 5.0000e-001 78821 -2.3355e+002 -1.4595e+002  4.5975e+001 59725 78639,78795,78769
 5.0000e-001 78962 -1.7654e+002  2.2907e+001  1.6786e+001 59725 78769,78743,78936
 5.0000e-001 78985 -2.4305e+002 -4.9355e+001 -1.2053e+001 59725 78769,78936,78639
 5.0000e-001 79034 -2.3566e+002 -6.0033e+000  3.6293e+001 59725 78639,78936,79008
 5.0000e-001 79057 -1.5338e+002  6.6181e-001  9.3231e+001 59725 78639,79008,78665
 5.0000e-001 79386 -2.5382e+002 -3.7058e+001 -1.0447e+000 59221 79187,79239,79213
 5.0000e-001 79363 -2.6508e+002 -5.4658e+001  6.0736e+000 59221 79187,79265,79239
 5.0000e-001 79340 -2.1400e+002 -3.7870e+001  9.0663e-001 59221 79187,79291,79265
 5.0000e-001 79317 -2.5510e+002 -1.3167e+002  1.1255e+001 59221 79161,79291,79187
 5.0000e-001 79813 -2.0417e+002  2.6235e+000  1.4746e+001 58831 79836,79542,79516
 5.0000e-001 79790 -1.5712e+002  8.1013e+000  2.7665e+001 58831 79980,79836,79516
 5.0000e-001 79767 -8.0276e+001  1.4660e+001 -1.5717e+001 58831 79908,79646,79568
 5.0000e-001 79744 -2.3645e+002 -1.6712e+001  2.3925e+001 58831 79980,79516,79490
 5.0000e-001 79721 -2.5146e+001  2.9437e+001 -1.3215e+001 58831 79568,79646,79594
 5.0000e-001 79698  4.4597e+000 -4.7004e+000  4.8335e+000 58831 79594,79646,79620
 5.0000e-001 79862 -1.3490e+002  2.3897e+001  2.3428e+001 58831 79568,79542,79836
 5.0000e-001 79885 -7.9943e+001 -1.1567e+000 -9.9160e+000 58831 79908,79568,79836
 5.0000e-001 79934 -8.2300e+001  6.9007e+000 -2.3357e+000 58831 79672,79646,79908
 5.0000e-001 79957 -8.8832e+001 -1.0027e+001  5.4291e+000 58831 79672,79908,79836
 5.0000e-001 80006 -1.2688e+002 -1.7272e+001 -4.3731e+000 58831 79672,79836,79980
 5.0000e-001 80029 -1.5534e+002 -1.7973e+001  7.0821e+000 58831 79672,79980,79490
 5.0000e-001 80358 -2.5632e+002  2.4588e+000  1.4369e+001 58377 80381,80185,80159
 5.0000e-001 80335 -2.7071e+002 -1.5930e+001  6.1836e+000 58377 80381,80159,80133
 5.0000e-001 80312 -2.7696e+002 -5.8143e+001  3.3932e+000 58377 80133,80263,80237
 5.0000e-001 80289 -2.2178e+002 -1.4048e+001  4.5443e+000 58377 80185,80237,80211
 5.0000e-001 80407 -2.2274e+002 -1.9932e+001  1.2726e+001 58377 80237,80185,80381
 5.0000e-001 80430 -2.5140e+002 -4.5780e+001 -6.4759e-001 58377 80237,80381,80133
 5.0000e-001 80759 -2.4366e+002 -7.6771e+001 -4.0185e+001 57873 80782,80586,80560
 5.0000e-001 80736 -2.0145e+002 -3.5476e+001 -2.2985e+001 57873 80782,80560,80534
 5.0000e-001 80713 -1.7970e+002  1.8899e+001  1.9102e-001 57873 80586,80638,80612
 5.0000e-001 80690 -2.3130e+002 -1.4607e+001 -3.0400e+001 57873 80534,80664,80638
 5.0000e-001 80808 -2.2414e+002 -3.8284e+001 -1.9224e+001 57873 80638,80586,80782
 5.0000e-001 80831 -2.1903e+002 -2.7564e+001 -1.1886e+001 57873 80638,80782,80534
 5.0000e-001 81337 -2.5127e+001 -6.4964e+000 -8.5960e+000 57262 81360,81144,81092
 5.0000e-001 81314 -2.5828e+001 -9.1084e+000 -1.0568e+001 57262 81360,81092,81066
 5.0000e-001 81291 -1.2028e+001 -5.0723e+000 -3.8364e+000 57262 81014,81196,81066
 5.0000e-001 81268 -4.2188e+001 -9.7153e+000 -1.6277e+001 57262 81092,81144,81118
 5.0000e-001 81245 -2.3826e+001 -1.8273e+001 -3.1037e-001 57262 81144,81196,81170
 5.0000e-001 81222 -9.0699e+000 -6.7721e-002  4.4756e+000 57262 81014,81066,81040
 5.0000e-001 81386 -2.3900e+001 -3.4617e+000 -6.5346e+000 57262 81196,81144,81360
 5.0000e-001 81409 -2.5436e+001 -6.5582e+000 -8.6865e+000 57262 81196,81360,81066
 5.0000e-001 81608 -5.0112e+002 -1.7370e+002 -5.7981e+001 57007 81458,81536,81510
 5.0000e-001 81585 -4.7662e+002 -1.3753e+002 -4.6661e+001 57007 81432,81536,81458
 5.0000e-001 81562 -2.7137e+002 -2.4492e+002 -1.8751e+002 57007 81458,81510,81484
 5.0000e-001 82086 -1.6392e+002 -3.2759e+001  1.0211e+001 56339 81792,81922,81818
 5.0000e-001 82063 -7.3196e+001 -2.3003e+001  3.9693e+000 56339 81714,81922,81792
 5.0000e-001 82040 -2.0357e+002 -8.6648e+001  4.6593e+001 56339 82109,81844,81818
 5.0000e-001 82017 -1.8315e+002 -7.3551e+001  5.3601e+001 56339 82109,81818,81922
 5.0000e-001 81994 -1.8444e+002 -5.3492e+001 -2.2217e+001 56339 81844,81896,81870
 5.0000e-001 81971 -7.9896e+001 -2.1572e+001 -4.1958e+001 56339 81714,81792,81766
 5.0000e-001 81948 -1.1339e+002 -3.4926e+001 -5.4897e+001 56339 81714,81766,81740
 5.0000e-001 82135 -2.4387e+002 -7.1860e+001  3.7503e+001 56339 81896,81844,82109
 5.0000e-001 82158 -2.0821e+002 -4.1929e+001  5.0951e+001 56339 81896,82109,81922
 5.0000e-001 82536 -2.7967e+002 -7.3239e+001 -2.8654e+001 55699 82288,82392,82314
 5.0000e-001 82513 -4.2470e+002 -1.3382e+002 -2.6252e+001 55699 82288,82418,82392
 5.0000e-001 82490 -2.1344e+002 -9.3983e+001 -2.9426e-001 55699 82314,82392,82340
 5.0000e-001 82467 -2.5072e+002 -1.1436e+002  1.4460e+001 55699 82340,82392,82366
 5.0000e-001 82444 -2.4613e+002 -4.5466e+001  2.2949e+001 55699 82262,82418,82288
 5.0000e-001 83091  3.2543e+000 -2.7860e+001 -1.1111e+001 55409 82745,82901,82875
 5.0000e-001 83068  1.3294e+001 -9.8336e+000 -6.2900e+000 55409 82719,82901,82745
 5.0000e-001 83045 -3.6290e+001 -6.8471e+000 -1.7913e+001 55409 82771,82849,82823
 5.0000e-001 83022 -2.3895e+001  8.3391e+000  6.1581e+000 55409 82745,82849,82771
 5.0000e-001 82999 -1.8244e+001 -3.8111e+001  1.5379e+001 55409 82745,82875,82849
 5.0000e-001 82976  1.2846e+001 -1.8222e+001 -2.3808e+001 55409 82771,82823,82797
 5.0000e-001 82953  2.6161e+000 -2.1043e+000 -8.6690e+000 55409 82719,82927,82901
 5.0000e-001 83388 -2.0887e+002 -4.0390e+001 -1.8545e+000 54905 83411,83218,83166
 5.0000e-001 83365 -2.2140e+002 -2.9685e+001  5.5610e+000 54905 83411,83166,83114
 5.0000e-001 83342 -1.8951e+002 -1.7117e+001  2.1243e+001 54905 83483,83270,83244
 5.0000e-001 83319 -2.4495e+002 -5.5033e+000 -2.9202e+001 54905 83166,83218,83192
 5.0000e-001 83296 -2.1813e+002 -4.1973e+001  2.5078e+001 54905 83114,83166,83140
 5.0000e-001 83437 -1.9881e+002 -2.2525e+001 -5.8973e+000 54905 83244,83218,83411
 5.0000e-001 83460 -2.0414e+002 -1.2917e+001  9.4836e+000 54905 83483,83244,83411
 5.0000e-001 83509 -2.0912e+002 -4.2037e+001  1.2156e+001 54905 83114,83270,83483
 5.0000e-001 83532 -2.1638e+002 -3.3339e+001  4.3544e+000 54905 83114,83483,83411
 5.0000e-001 83961 -1.7951e+002 -2.3956e+000 -2.6112e+001 54593 83638,83768,83690
 5.0000e-001 83938 -2.5680e+001  1.6368e+001  8.1339e-002 54593 83638,83794,83768
 5.0000e-001 83915 -1.0387e+002  6.4080e+001  6.8061e+000 54593 83690,83768,83742
 5.0000e-001 83892 -1.1770e+002  4.4938e+001 -7.8164e+001 54593 83638,83820,83794
 5.0000e-001 83869 -6.9065e+001  3.7643e+002 -7.2940e+001 54593 83638,83690,83664
 5.0000e-001 83846 -2.7734e+001  6.6756e-001  9.6619e+001 54593 83690,83742,83716
 5.0000e-001 84209 -1.8311e+002 -4.3662e+001  1.1032e+001 54132 84232,84062,83984
 5.0000e-001 84186 -2.0915e+002 -4.3089e+001  1.5125e+001 54132 84232,83984,84114
 5.0000e-001 84163 -1.7732e+002 -2.7081e+001 -4.3460e-001 54132 83984,84062,84036
 5.0000e-001 84140 -1.3141e+002 -5.7299e+001  2.7630e+001 54132 83984,84036,84010
 5.0000e-001 84258 -2.1066e+002 -3.0153e+001  1.0574e+001 54132 84088,84062,84232
 5.0000e-001 84281 -2.5005e+002 -3.9462e+001  1.5154e+001 54132 84088,84232,84114
 5.0000e-001 84382 -3.6488e+002  1.0720e+001  2.1862e+000 53521 84304,84356,84330
 5.0000e-001 84632 -2.1553e+002 -9.1208e+000  1.2942e+001 53067 84655,84485,84459
 5.0000e-001 84609 -1.8307e+002 -3.5684e+001  1.8091e+001 53067 84655,84459,84407
 5.0000e-001 84586 -2.2180e+002 -5.7937e+001  4.7097e+000 53067 84485,84537,84511
 5.0000e-001 84563 -1.6092e+002  1.8221e+000 -9.9415e+000 53067 84407,84459,84433
 5.0000e-001 84681 -2.2286e+002 -2.8631e+001  1.9354e+001 53067 84537,84485,84655
 5.0000e-001 84704 -2.1321e+002 -7.2583e+001  3.3164e+001 53067 84537,84655,84407
 5.0000e-001 85214 -7.9226e+001 -2.9994e+001 -2.1523e+001 52513 85021,85073,85047
 5.0000e-001 85191 -1.3911e+002  1.3137e+001 -1.8230e+001 52513 84943,85073,85021
 5.0000e-001 85168 -2.2665e+002 -2.8555e+001 -3.7654e+001 52513 84943,85021,84995
 5.0000e-001 85145 -1.4076e+002 -1.5191e+001  6.1519e+000 52513 84917,85073,84943
 5.0000e-001 85122 -1.6320e+002 -3.9195e+001 -4.0723e+001 52513 84943,84995,84969
 5.0000e-001 85099 -3.2872e+001 -3.5026e+001 -3.4648e+000 52513 84891,85073,84917
 5.0000e-001 85582 -2.0497e+002 -1.8953e+001 -3.7172e+001 52037 85605,85311,85285
 5.0000e-001 85559 -2.3652e+002 -4.0895e+001 -1.3252e+001 52037 85749,85605,85285
 5.0000e-001 85536 -2.2692e+002 -7.8661e+001  3.0876e+000 52037 85893,85677,85389
 5.0000e-001 85513 -2.3859e+002 -5.6865e+001 -5.3294e+000 52037 85749,85285,85259
 5.0000e-001 85490 -2.1870e+002 -7.7438e+001 -1.3079e+001 52037 85893,85389,85363
 5.0000e-001 85467 -2.2485e+002  2.7992e+001  1.1129e+001 52037 85259,85441,85415
 5.0000e-001 85631 -2.4499e+002  7.0366e+000  1.1119e+001 52037 85337,85311,85605
 5.0000e-001 85654 -2.5949e+002 -7.3393e+001  2.3453e+001 52037 85677,85337,85605
 5.0000e-001 85703 -2.4845e+002 -6.1624e+001 -5.6453e+000 52037 85415,85389,85677
 5.0000e-001 85726 -2.4297e+002 -1.5886e+001  2.1966e+000 52037 85821,85677,85605
 5.0000e-001 85775 -2.3992e+002 -1.9766e+001 -1.0575e+001 52037 85821,85605,85749
 5.0000e-001 85798 -2.3879e+002 -3.9213e+001 -5.9423e+000 52037 85415,85749,85259
 5.0000e-001 85847 -2.5017e+002 -3.2980e+001  2.7004e+000 52037 85415,85677,85821
 5.0000e-001 85870 -2.4789e+002 -3.7478e+001 -8.9492e+000 52037 85415,85821,85749
 5.0000e-001 85919 -2.3613e+002 -1.0448e+002  1.0031e+001 52037 85337,85677,85893
 5.0000e-001 85942 -2.3305e+002 -1.0765e+002 -4.9279e+000 52037 85337,85893,85363
 5.0000e-001 86224 -6.0679e+001 -1.3037e+001 -5.6055e+000 51368 86375,86100,86074
 5.0000e-001 86201 -4.2234e+001 -2.8576e+000 -1.2386e+000 51368 86375,86074,86247
 5.0000e-001 86178 -2.7172e+001  2.4622e+000 -3.3602e+001 51368 86048,86152,86126
 5.0000e-001 86273 -1.1552e+002 -1.0072e+001 -5.8551e+000 51368 86048,86126,86247
 5.0000e-001 86401 -7.1612e+001  1.8583e+000  4.9578e+000 51368 86126,86100,86375
 5.0000e-001 86424 -6.2538e+001  8.3260e+000  7.8110e+000 51368 86126,86375,86247
 5.0000e-001 86802 -2.8429e+002 -7.7941e+001  1.4220e+001 51028 86528,86632,86580
 5.0000e-001 86779 -1.8598e+002 -4.1031e+001 -1.2506e+001 51028 86528,86684,86632
 5.0000e-001 86756 -2.5106e+002  4.1649e-001  1.2548e+001 51028 86528,86580,86554
 5.0000e-001 86733 -2.0403e+002 -3.4363e+001 -3.5547e+001 51028 86632,86684,86658
 5.0000e-001 86710 -2.2451e+002 -3.0692e+001  4.1627e+001 51028 86580,86632,86606
 5.0000e-001 87131 -1.9571e+002 -1.1777e+001  3.7709e+001 50624 86958,87036,87010
 5.0000e-001 87108 -1.7049e+002 -6.4178e+001  4.0241e+001 50624 86932,87036,86958
 5.0000e-001 87085 -1.6284e+002  8.4904e+000 -2.2416e+000 50624 86958,87010,86984
 5.0000e-001 87062 -1.1279e+002 -5.2775e+001  2.1111e+001 50624 86906,87036,86932
 5.0000e-001 87330 -9.8608e+001 -1.0251e+001 -1.1159e+001 50234 87353,87180,87154
 5.0000e-001 87307 -1.4123e+002 -1.0822e+000 -1.7079e+001 50234 87353,87154,87258
 5.0000e-001 87284 -1.8977e+002  1.3483e+000 -1.7977e+000 50234 87206,87258,87232
 5.0000e-001 87379 -1.3333e+002 -3.4590e+000 -3.1120e+001 50234 87206,87180,87353
 5.0000e-001 87402 -1.8932e+002  7.9416e-002 -2.9989e+001 50234 87206,87353,87258
 5.0000e-001 87650 -2.3343e+002 -4.0979e+001 -2.7521e+000 49730 87673,87503,87451
 5.0000e-001 87627 -2.2795e+002 -3.4822e+001  2.8124e+001 49730 87673,87451,87425
 5.0000e-001 87604 -1.8343e+002 -4.2276e+001  4.7376e+001 49730 87503,87555,87529
 5.0000e-001 87581 -3.7860e+002 -5.5100e+001  3.0864e+001 49730 87451,87503,87477
 5.0000e-001 87699 -2.3214e+002 -1.6424e+001  7.3110e+000 49730 87555,87503,87673
 5.0000e-001 87722 -2.3438e+002  9.5872e+000  2.2685e+001 49730 87555,87673,87425
 5.0000e-001 88232 -2.2282e+002 -1.0843e+002  1.0499e+001 49176 88255,87935,87909
 5.0000e-001 88209 -1.8426e+002 -6.6875e+001 -2.7435e+001 49176 88255,87909,88065
 5.0000e-001 88186 -2.4684e+002 -5.8308e+001 -3.9198e+001 49176 87935,88039,87961
 5.0000e-001 88163 -1.9756e+002 -6.1818e+001 -2.9594e+001 49176 87909,88091,88065
 5.0000e-001 88140 -2.9211e+002 -7.0729e+001  3.1932e+001 49176 87961,88039,88013
 5.0000e-001 88117 -2.6104e+002 -9.0569e+001 -1.2947e+001 49176 87961,88013,87987
 5.0000e-001 88281 -1.8398e+002 -9.2881e+001 -2.8118e+001 49176 88039,87935,88255
 5.0000e-001 88304 -1.4790e+002 -5.5946e+001 -6.5371e+001 49176 88039,88255,88065
 5.0000e-001 88503 -2.2444e+002 -1.1267e+002 -2.1946e+001 48772 88526,88379,88353
 5.0000e-001 88480 -2.2214e+002 -7.5710e+001 -1.2181e+001 48772 88526,88353,88327
 5.0000e-001 88457 -1.8060e+002  1.6963e+001 -2.2212e+001 48772 88379,88431,88405
 5.0000e-001 88552 -2.2124e+002 -8.1329e+001 -2.4337e+001 48772 88431,88379,88526
 5.0000e-001 88575 -2.3162e+002 -6.0414e+001 -2.0062e+001 48772 88431,88526,88327
 5.0000e-001 89083 -5.1607e+000 -1.7362e+000  3.4700e+000 48368 88786,88916,88864
 5.0000e-001 89060 -1.1108e+001 -2.6893e+000  2.9234e+000 48368 88786,88942,88916
 5.0000e-001 89037  1.7723e+000 -5.0782e+000 -4.9571e+000 48368 88786,88864,88812
 5.0000e-001 89014 -7.1998e+000 -1.6604e+000  3.2189e+000 48368 88864,88916,88890
 5.0000e-001 88991  1.0410e+001 -8.8740e+000 -4.7990e-001 48368 88812,88864,88838
 5.0000e-001 88968  3.0212e+000 -4.7873e+000 -7.5169e+000 48368 88760,88942,88786
 5.0000e-001 89331 -1.1073e+002 -4.3636e+001 -4.5207e+001 47928 89158,89236,89210
 5.0000e-001 89308 -1.2948e+002 -2.3406e+001 -9.2023e+000 47928 89132,89236,89158
 5.0000e-001 89285 -1.0897e+002 -6.1044e+000 -4.2535e+001 47928 89158,89210,89184
 5.0000e-001 89262 -2.1734e+002 -3.4190e+001 -2.7622e+001 47928 89106,89236,89132
 5.0000e-001 89662 -1.6098e+002 -3.5249e+001  6.8689e+000 47588 89463,89541,89515
 5.0000e-001 89639 -1.6181e+002 -6.9079e+001 -4.0346e-001 47588 89463,89567,89541
 5.0000e-001 89616 -1.5946e+002 -3.1635e+001  7.1546e+000 47588 89463,89515,89489
 5.0000e-001 89593 -1.7402e+002 -1.1073e+002  2.9372e+001 47588 89437,89567,89463
 5.0000e-001 89763 -5.7134e+002 -6.0651e+001 -2.0365e+001 47390 89685,89737,89711
 5.0000e-001 89913 -3.6972e+002 -1.0306e+002 -4.1735e+001 47078 89786,89838,89812
 5.0000e-001 89890 -1.6267e+002 -1.2076e+002 -5.2408e+001 47078 89786,89864,89838
 5.0000e-001 90163 -2.4381e+002 -4.7351e+001  2.6090e+001 46474 89964,90042,89990
 5.0000e-001 90140 -2.2106e+002 -4.2097e+001  4.6463e+001 46474 89938,90042,89964
 5.0000e-001 90117 -1.4557e+002 -5.2482e+001  3.9223e+001 46474 89990,90042,90016
 5.0000e-001 90094 -2.0191e+002 -4.6769e+001  4.3381e+001 46474 89938,90068,90042
 5.0000e-001 90364 -9.1524e+001 -1.9287e+001  3.8404e+001 46184 90240,90292,90266
 5.0000e-001 90341 -1.1811e+002 -1.3055e+001  4.3142e+001 46184 90188,90292,90240
 5.0000e-001 90318 -1.1131e+002 -7.2167e+001  4.4788e+001 46184 90188,90240,90214
 5.0000e-001 90565 -2.3499e+002 -8.0026e+000 -9.1571e+000 45780 90588,90415,90389
 5.0000e-001 90542 -1.9277e+002  6.7140e-001 -9.8465e+000 45780 90588,90389,90493
 5.0000e-001 90519 -1.9061e+002 -5.4904e+001  6.0950e+000 45780 90415,90467,90441
 5.0000e-001 90614 -2.0180e+002 -2.7798e+001  1.9367e+001 45780 90467,90415,90588
 5.0000e-001 90637 -1.5049e+002 -9.6423e+000  2.3625e+001 45780 90467,90588,90493
 5.0000e-001 91196 -1.6406e+002 -3.1639e+001 -3.4491e+000 45226 91219,90876,90850
 5.0000e-001 91173 -1.7081e+002 -3.5158e+001 -1.6798e+000 45226 91219,90850,91032
 5.0000e-001 91150 -1.8870e+002 -4.2976e+001 -3.7479e+000 45226 90824,91032,90850
 5.0000e-001 91127 -2.1641e+002 -5.2028e+001 -1.3953e+001 45226 90876,90980,90902
 5.0000e-001 91104 -1.5911e+002 -3.1973e+001 -1.4201e+001 45226 90876,91006,90980
 5.0000e-001 91081 -2.5655e+002 -1.6160e+001  4.2763e+001 45226 90902,90980,90954
 5.0000e-001 91058 -6.4940e+002 -1.0491e+002  1.5240e+001 45226 90902,90954,90928
 5.0000e-001 91245 -1.7202e+002 -2.6768e+001 -5.1075e+000 45226 91006,90876,91219
 5.0000e-001 91268 -1.7943e+002 -3.1041e+001 -3.0647e+000 45226 91006,91219,91032
 5.0000e-001 91516 -6.0123e+001  4.2480e+001 -1.2771e+001 44836 91539,91421,91395
 5.0000e-001 91493 -1.5230e+002  4.3932e+001 -3.0757e+001 44836 91317,91421,91343
 5.0000e-001 91470 -5.9253e+001 -4.6275e+001  3.6488e+001 44836 91539,91395,91369
 5.0000e-001 91447 -4.0753e+001 -2.3248e+001 -8.3869e+001 44836 91291,91421,91317
 5.0000e-001 91565 -4.7551e+001  8.2641e+001 -1.5137e+001 44836 91343,91421,91539
 5.0000e-001 91588 -1.3621e+001  6.0784e+001  3.5933e+001 44836 91343,91539,91369
 5.0000e-001 91787 -1.4990e+002  4.2391e+000 -2.1674e+001 44432 91810,91637,91611
 5.0000e-001 91764 -7.8633e+001 -3.1651e+001 -2.7177e+001 44432 91810,91611,91715
 5.0000e-001 91741 -1.0427e+002  1.6107e+001 -1.2231e+001 44432 91637,91689,91663
 5.0000e-001 91836 -9.4040e+001  2.0548e+001 -7.6042e+000 44432 91689,91637,91810
 5.0000e-001 91859 -3.5881e+001 -1.6195e+001 -2.9968e+000 44432 91689,91810,91715
 5.0000e-001 92207 -1.4613e+002 -1.7644e+001 -2.1191e+001 43864 92230,91936,91910
 5.0000e-001 92184 -1.0157e+002 -3.8921e+001 -2.6730e+001 43864 92230,91910,92040
 5.0000e-001 92161 -4.9715e+001 -1.5285e+001 -1.8057e+001 43864 91884,92040,91910
 5.0000e-001 92138 -1.8394e+002 -2.8269e+001  1.9796e+000 43864 91936,92014,91988
 5.0000e-001 92115 -1.2315e+002 -7.1344e+000 -2.4992e+000 43864 91936,91988,91962
 5.0000e-001 92092 -5.5848e+001 -2.9907e+001 -1.3968e+001 43864 91884,92066,92040
 5.0000e-001 92256 -1.0759e+002  6.1445e+000 -8.7197e+000 43864 92014,91936,92230
 5.0000e-001 92279 -8.2674e+001 -3.2739e+001 -2.2587e+001 43864 92014,92230,92040
 5.0000e-001 92529 -2.7149e+002 -5.9591e+001  4.8785e+001 43410 92552,92330,92304
 5.0000e-001 92506 -2.5239e+002 -1.5029e+001  4.8734e+001 43410 92552,92304,92408
 5.0000e-001 92483 -1.6586e+002 -3.0340e+001  1.5094e+001 43410 92304,92434,92408
 5.0000e-001 92460 -2.2116e+002 -6.9697e+001 -4.3120e+000 43410 92330,92382,92356
 5.0000e-001 92578 -2.8828e+002 -6.0286e+001 -4.3025e+000 43410 92382,92330,92552
 5.0000e-001 92601 -2.4669e+002  3.8112e+001 -6.3665e+000 43410 92382,92552,92408
 5.0000e-001 92802 -7.3424e+001  6.3258e+000  3.4255e+000 43162 92825,92704,92652
 5.0000e-001 92779 -7.9285e+001  2.1036e+000 -7.1370e+000 43162 92825,92652,92626
 5.0000e-001 92756 -1.0392e+001  1.1927e+000  7.5871e+000 43162 92652,92704,92678
 5.0000e-001 92851 -6.2289e+001  7.7869e+000  1.1365e+001 43162 92730,92704,92825
 5.0000e-001 92874 -5.5586e+001 -1.2007e+001 -4.3729e+000 43162 92730,92825,92626
 5.0000e-001 93463 -2.9301e+002 -1.2350e+002  5.0810e+001 42758 93140,93270,93166
 5.0000e-001 93440 -2.4233e+002 -1.0481e+002  6.9952e+000 42758 93140,93296,93270
 5.0000e-001 93417 -2.2642e+002 -4.8103e+001  8.7991e+000 42758 93166,93270,93218
 5.0000e-001 93394 -3.7365e+002 -2.8032e+001  5.9269e+001 42758 93218,93270,93244
 5.0000e-001 93371 -2.2770e+002 -1.0205e+002  4.5467e+000 42758 93140,93322,93296
 5.0000e-001 93348 -1.9434e+002  3.0178e+001  1.9505e+001 42758 93166,93218,93192
 5.0000e-001 93920 -1.4201e+002 -1.5883e+001  6.4454e+000 42304 93943,93672,93646
 5.0000e-001 93897 -1.5348e+002 -4.3745e+001  7.9021e+000 42304 93943,93646,93802
 5.0000e-001 93874 -1.6091e+002 -2.0163e+001  6.3579e+000 42304 93724,93802,93776
 5.0000e-001 93851 -1.5889e+002  2.1576e+000  7.7816e+000 42304 93672,93724,93698
 5.0000e-001 93828 -7.3398e+001  3.3215e+001  3.8640e+001 42304 93724,93776,93750
 5.0000e-001 93969 -1.5345e+002 -6.5953e+000  1.5865e+001 42304 93724,93672,93943
 5.0000e-001 93992 -1.5560e+002 -1.8050e+001  1.5416e+001 42304 93724,93943,93802
 5.0000e-001 94321 -1.2108e+002 -3.8031e+001 -1.3664e+000 41478 94096,94148,94122
 5.0000e-001 94298 -1.0238e+002 -9.9679e+000 -9.9491e+000 41478 94096,94226,94148
 5.0000e-001 94275 -5.3321e+001 -8.8904e+000  2.3492e+000 41478 94148,94226,94174
 5.0000e-001 94252 -3.8051e+001 -6.7562e-002 -1.1679e+001 41478 94174,94226,94200
 5.0000e-001 94618 -1.6173e+002 -3.5656e+001  2.6978e+001 40910 94344,94422,94396
 5.0000e-001 94595 -1.6396e+002 -2.3627e+001  2.8124e+001 40910 94344,94448,94422
 5.0000e-001 94572 -1.6217e+002 -1.7079e+001  3.9810e+001 40910 94344,94474,94448
 5.0000e-001 94549 -1.2208e+002 -5.4113e+001  6.5637e+000 40910 94344,94396,94370
 5.0000e-001 94526 -2.2219e+002 -3.7328e+001  5.8523e+001 40910 94344,94500,94474
 5.0000e-001 94866 -2.6007e+002  1.9714e+001 -1.8486e+001 40306 94667,94719,94693
 5.0000e-001 94843 -2.2590e+002 -6.4914e+001  5.5652e+000 40306 94641,94719,94667
 5.0000e-001 94820 -1.7842e+002  3.1734e+001 -9.5675e+000 40306 94641,94745,94719
 5.0000e-001 94797 -1.0896e+002 -3.9485e+000  2.0205e+000 40306 94641,94771,94745
 5.0000e-001 95089 -2.1171e+002 -1.0303e+002 -1.0715e+001 39702 94913,94991,94939
 5.0000e-001 95066 -2.5480e+002 -1.1005e+002 -1.2326e+001 39702 94913,95017,94991
 5.0000e-001 95043 -2.8769e+002 -1.3666e+002 -2.0036e+001 39702 94939,94991,94965
 5.0000e-001 95339 -2.0596e+002  2.0426e+000  2.4259e+001 39248 95140,95218,95166
 5.0000e-001 95316 -2.1726e+002 -1.4040e+001  3.8716e+001 39248 95140,95244,95218
 5.0000e-001 95293 -1.7470e+002 -1.6276e+001  3.2510e+001 39248 95114,95244,95140
 5.0000e-001 95270 -2.2974e+002 -3.5666e+000  2.5667e+001 39248 95166,95218,95192
 5.0000e-001 95770 -2.1616e+001  1.7493e+000 -6.1375e+000 38694 95551,95629,95577
 5.0000e-001 95747 -4.6767e+001 -1.6912e+000 -1.2697e+001 38694 95447,95629,95551
 5.0000e-001 95724 -5.1794e+001 -3.0832e+000  9.0517e+000 38694 95447,95551,95473
 5.0000e-001 95701 -1.5698e+001 -2.2159e-001  6.0607e-001 38694 95473,95551,95499
 5.0000e-001 95678 -1.7667e+001 -1.4553e+000  1.4660e+000 38694 95499,95551,95525
 5.0000e-001 95655 -1.8152e+001  4.3184e+000  1.3924e-002 38694 95577,95629,95603
 5.0000e-001 96325 -2.0188e+002 -1.7201e+000 -4.8304e+000 38240 95953,96031,96005
 5.0000e-001 96302 -2.2690e+002 -3.5035e+001  9.0827e+000 38240 95953,96161,96031
 5.0000e-001 96279 -2.1692e+002 -8.5614e+001 -3.6093e+001 38240 96031,96161,96135
 5.0000e-001 96256 -2.5880e+002 -5.9559e+001 -8.2537e+000 38240 96348,96109,96057
 5.0000e-001 96233 -2.6422e+002 -1.3681e+002 -7.2228e+001 38240 96348,96057,96031
 5.0000e-001 96210 -2.7371e+002 -3.3212e+001 -2.3782e+001 38240 96057,96109,96083
 5.0000e-001 96187 -7.1675e+001 -1.8051e+001  6.3637e+001 38240 95953,96005,95979
 5.0000e-001 96374 -2.1444e+002  1.8272e+001  2.4082e+001 38240 96135,96109,96348
 5.0000e-001 96397 -2.1564e+002 -6.9936e+001 -3.6846e+001 38240 96135,96348,96031
 5.0000e-001 96618 -1.4100e+002  3.2732e+001  7.1901e+000 37821 96494,96546,96520
 5.0000e-001 96595 -1.9108e+002 -3.4505e+001 -2.3579e+001 37821 96468,96546,96494
 5.0000e-001 96572 -2.3102e+002 -5.1602e+001 -2.0608e+001 37821 96442,96546,96468
 5.0000e-001 97126 -2.1076e+002  6.1405e+000  2.1275e+001 37367 97149,96855,96829
 5.0000e-001 97103 -1.6476e+002  3.1278e+001 -9.1390e-001 37367 97149,96829,96985
 5.0000e-001 97080 -1.4776e+002  5.2721e+001  8.9173e+000 37367 96803,96985,96829
 5.0000e-001 97057 -1.6198e+002 -4.1570e+001  3.9499e+001 37367 96855,96907,96881
 5.0000e-001 97034 -8.2306e+001  4.1675e+001  3.9199e-001 37367 96907,96985,96959
 5.0000e-001 97011 -1.3648e+001  2.7927e+001  5.3260e+001 37367 96907,96959,96933
 5.0000e-001 97175 -1.6469e+002 -3.4587e+001  4.5366e+001 37367 96907,96855,97149
 5.0000e-001 97198 -1.3176e+002 -1.0357e+001  2.5821e+001 37367 96907,97149,96985
 5.0000e-001 97704 -1.0814e+002 -1.8256e+001 -1.6740e+001 36863 97727,97511,97485
 5.0000e-001 97681 -1.0553e+002 -3.5159e+001 -3.5007e+001 36863 97727,97485,97433
 5.0000e-001 97658 -6.9595e+001  2.0859e+001 -2.4975e+001 36863 97381,97563,97433
 5.0000e-001 97635 -4.1746e+001  7.4306e+000 -1.0832e+001 36863 97511,97563,97537
 5.0000e-001 97612 -1.5989e+002 -4.5596e+001 -3.4578e+001 36863 97433,97485,97459
 5.0000e-001 97589 -4.5924e+001  9.2461e+000 -4.7915e+001 36863 97381,97433,97407
 5.0000e-001 97753 -9.4520e+001 -7.7446e+000 -1.1904e+001 36863 97563,97511,97727
 5.0000e-001 97776 -8.5567e+001 -2.1109e+001 -2.8749e+001 36863 97563,97727,97433
 5.0000e-001 98331 -1.1113e+002 -2.1901e+001 -2.6420e+000 36287 98354,98089,98063
 5.0000e-001 98308 -1.0038e+002 -2.3133e+001  1.3657e+001 36287 98354,98063,98011
 5.0000e-001 98285 -1.2027e+002 -1.3508e+000  1.2999e+001 36287 98426,97985,98115
 5.0000e-001 98262 -8.7832e+001 -3.6915e+001  7.0626e+000 36287 98011,98063,98037
 5.0000e-001 98239 -2.0019e+002 -4.0196e+001  2.6449e+001 36287 97985,98141,98115
 5.0000e-001 98216 -3.2768e+002 -7.4521e+000  6.9071e+001 36287 97959,98141,97985
 5.0000e-001 98193 -3.1380e+002  3.9351e+001  5.2279e+001 36287 97959,98167,98141
 5.0000e-001 98380 -1.7086e+002 -2.5949e+001 -9.1005e+000 36287 98115,98089,98354
 5.0000e-001 98403 -1.1811e+002 -3.2565e+000  3.5526e+000 36287 98426,98115,98354
 5.0000e-001 98452 -1.2348e+002 -1.6214e+001  1.1712e+001 36287 98011,97985,98426
 5.0000e-001 98475 -1.2258e+002 -2.1074e+001  2.7435e+000 36287 98011,98426,98354
 5.0000e-001 99030 -6.4795e+001 -2.1071e+001  2.5179e+000 35726 99053,98736,98710
 5.0000e-001 99007 -7.7516e+001 -1.1375e+001  7.7188e+000 35726 99053,98710,98684
 5.0000e-001 98984 -6.0258e+001 -2.0178e+001  5.6214e+000 35726 99125,98814,98736
 5.0000e-001 98961 -6.4671e+001 -2.3026e+001  4.3657e+000 35726 98736,98814,98788
 5.0000e-001 98938 -1.1637e+002 -9.2376e+000 -2.0869e+001 35726 98684,98866,98840
 5.0000e-001 98915 -1.0122e+002 -2.7287e+001 -3.0910e+001 35726 98736,98788,98762
 5.0000e-001 98892 -8.6668e+001  1.3226e+001 -1.0789e+001 35726 98658,98866,98684
 5.0000e-001 99079 -6.3574e+001 -1.7154e+001  3.3884e+000 35726 99125,98736,99053
 5.0000e-001 99102 -6.9269e+001  3.0725e+000  3.2669e+000 35726 98840,99053,98684
 5.0000e-001 99151 -5.8563e+001 -2.0098e+001  2.0030e+000 35726 98840,98814,99125
 5.0000e-001 99174 -5.8185e+001 -1.3380e+001 -6.4592e-001 35726 98840,99125,99053
 5.0000e-001 99454 -1.4475e+002 -3.4431e+001  1.7086e+001 35222 99278,99330,99304
 5.0000e-001 99431 -1.4848e+002 -2.2179e+001  2.7188e+001 35222 99278,99382,99330
 5.0000e-001 99408 -1.7082e+002 -1.0244e+001  2.2640e+001 35222 99330,99382,99356
 5.0000e-001 99653 -1.7212e+002 -2.9318e+001 -1.4619e+001 34867 99477,99529,99503
 5.0000e-001 99630 -1.3134e+002 -4.8256e+001 -1.4264e+001 34867 99477,99581,99529
 5.0000e-001 99607 -1.0863e+002 -6.0647e+000 -2.4017e+001 34867 99529,99581,99555
 5.0000e-001 100104 -1.9864e+002  2.5184e+000 -1.3082e+000 34363 99781,99885,99807
 5.0000e-001 100081 -1.4012e+002  3.4632e+001 -2.2931e+001 34363 99781,99963,99885
 5.0000e-001 100058 -2.3046e+002 -3.2714e+001  7.0502e+000 34363 99885,99963,99911
 5.0000e-001 100035 -2.2953e+002 -3.2871e+001 -1.4551e+001 34363 99807,99885,99859
 5.0000e-001 100012 -1.7892e+002 -1.3166e+001  2.0551e+001 34363 99911,99963,99937
 5.0000e-001 99989 -2.3141e+002 -4.6325e+001 -5.6760e+001 34363 99807,99859,99833
 5.0000e-001 100303 -1.8587e+002 -4.6048e+001 -1.0784e+001 33909 100127,100205,100179
 5.0000e-001 100280 -2.0681e+002  2.3192e+000 -4.6172e+001 33909 100127,100231,100205
 5.0000e-001 100257 -1.6938e+002 -8.3010e+000 -1.3059e+001 33909 100127,100179,100153
 5.0000e-001 100890 -1.5613e+002 -6.1105e+001  8.4943e+000 33412 100645,100749,100697
 5.0000e-001 100867 -1.5850e+002 -5.7811e+001  6.0157e+000 33412 100567,100749,100645
 5.0000e-001 100844 -1.4248e+002 -3.0198e+001 -8.2432e-001 33412 100567,100645,100619
 5.0000e-001 100821 -2.0704e+002 -4.9535e+001  2.2640e+001 33412 100645,100697,100671
 5.0000e-001 100798 -1.7331e+002 -4.3415e+001 -3.0826e+001 33412 100567,100619,100593
 5.0000e-001 100775 -1.4278e+002 -4.4835e+001  2.7472e+000 33412 100697,100749,100723
 5.0000e-001 101268 -1.7503e+002  4.3514e+001  3.2472e-001 32908 101435,101291,101098
 5.0000e-001 101245 -1.6530e+002 -3.1446e+001  1.1553e+001 32908 101291,101072,101020
 5.0000e-001 101222 -2.1485e+002 -7.5081e+001 -1.6035e+001 32908 101363,101150,101124
 5.0000e-001 101199 -1.5023e+002 -3.1401e+001 -3.9119e+001 32908 101020,101072,101046
 5.0000e-001 101176 -2.0049e+002 -4.0391e+001  1.8581e+001 32908 100994,101150,101020
 5.0000e-001 101317 -1.7830e+002 -1.7241e+001  3.1031e+001 32908 101124,101098,101291
 5.0000e-001 101340 -1.8409e+002 -7.3797e+001 -2.2468e+000 32908 101363,101124,101291
 5.0000e-001 101389 -1.9022e+002 -6.0329e+001  5.6640e+000 32908 101020,101150,101363
 5.0000e-001 101412 -1.7404e+002 -5.8447e+001  2.1273e+001 32908 101020,101363,101291
 5.0000e-001 101461 -2.0285e+002 -1.8001e+001  1.1248e+001 32908 101072,101291,101435
 5.0000e-001 101918 -1.9924e+002 -1.8211e+001 -1.7947e-001 32618 101941,101670,101644
 5.0000e-001 101895 -2.0615e+002 -5.9497e+001  1.4490e+000 32618 101941,101644,101774
 5.0000e-001 101872 -2.6863e+002 -8.3363e+001  3.1711e+001 32618 102013,101696,101670
 5.0000e-001 101849 -2.2830e+002 -1.0902e+002  1.2681e+001 32618 101696,101748,101722
 5.0000e-001 101826 -1.9263e+002 -3.5670e+001 -3.9666e+000 32618 101644,101800,101774
 5.0000e-001 101967 -2.5101e+002 -6.2072e+001  1.8541e+001 32618 102013,101670,101941
 5.0000e-001 101990 -1.7535e+002 -2.5518e+001 -1.7977e+001 32618 101748,101941,101774
 5.0000e-001 102039 -2.3593e+002 -1.1061e+002  8.9762e+000 32618 101748,101696,102013
 5.0000e-001 102062 -1.9624e+002 -7.7446e+001 -6.4270e+000 32618 101748,102013,101941
 5.0000e-001 102440 -3.2921e+001 -1.9527e+001 -7.6595e+000 32306 102463,102270,102244
 5.0000e-001 102417 -2.7703e+001 -8.7759e+000 -3.6846e+000 32306 102463,102244,102192
 5.0000e-001 102394 -1.5789e+001 -5.1719e+000 -8.6111e+000 32306 102192,102244,102218
 5.0000e-001 102371 -4.0858e+001  1.1278e+001 -2.4463e+001 32306 102270,102322,102296
 5.0000e-001 102348 -2.3243e+001  7.0093e+000 -1.2248e+001 32306 102166,102322,102192
 5.0000e-001 102489 -4.1352e+001 -1.7035e+001 -1.9495e+001 32306 102322,102270,102463
 5.0000e-001 102512 -3.3333e+001  7.3289e-001 -1.4947e+001 32306 102322,102463,102192
 5.0000e-001 102662 -1.5798e+002 -1.0163e+002  8.4204e-001 31852 102943,102587,102561
 5.0000e-001 102639 -2.1822e+002 -2.5569e-001  2.3423e+001 31852 102815,102685,102561
 5.0000e-001 102711 -1.7463e+002  1.0375e+001  5.1559e+001 31852 102943,102561,102685
 5.0000e-001 102841 -1.1974e+002  3.8762e+000  2.0913e+001 31852 102535,102685,102815
 5.0000e-001 102969 -1.1441e+002  9.7653e+000  1.0191e+001 31852 102613,102587,102943
 5.0000e-001 102992 -1.4240e+002  9.6951e+001  6.4026e+001 31852 102613,102943,102685
 5.0000e-001 103370 -1.9658e+002 -7.6255e+001  1.8826e+001 31134 103096,103200,103122
 5.0000e-001 103347 -2.0401e+002 -6.0784e+001 -5.1183e+001 31134 103096,103226,103200
 5.0000e-001 103324 -2.3248e+002 -8.2826e+001  1.7486e+001 31134 103122,103200,103174
 5.0000e-001 103301 -2.6747e+002 -7.5925e+001 -3.0738e+001 31134 103096,103252,103226
 5.0000e-001 103278 -1.5219e+002 -1.8923e+000 -3.6539e+001 31134 103122,103174,103148
 5.0000e-001 103520 -3.0800e+002 -8.2605e+001 -1.3169e+000 30822 103393,103445,103419
 5.0000e-001 103497 -2.9681e+002 -7.4334e+001 -7.8725e+000 30822 103393,103471,103445
 5.0000e-001 103719 -1.1165e+002  1.3220e+001 -1.9197e+000 30182 103742,103621,103569
 5.0000e-001 103696 -1.5570e+002  2.5896e+001 -9.4068e+000 30182 103742,103569,103543
 5.0000e-001 103673 -8.4273e+001  3.6971e+001  4.3565e+001 30182 103569,103621,103595
 5.0000e-001 103768 -9.0749e+001  1.8760e+001 -3.7330e+000 30182 103647,103621,103742
 5.0000e-001 103791 -1.1052e+002  4.8512e+001 -1.9314e+001 30182 103647,103742,103543
 5.0000e-001 104252 -6.4912e+001 -3.8605e+000  5.3468e+000 29728 104030,104108,104056
 5.0000e-001 104229 -7.9438e+001 -1.7738e+001 -8.1564e+000 29728 104004,104108,104030
 5.0000e-001 104206 -7.3964e+001 -2.7599e+001 -1.1038e+001 29728 104004,104134,104108
 5.0000e-001 104183 -5.1520e+001  1.2750e+000  9.9246e+000 29728 103978,104134,104004
 5.0000e-001 104160 -8.0469e+001 -5.8667e+000  1.1822e+001 29728 104056,104108,104082
 5.0000e-001 104630 -1.9675e+002 -7.0479e+001  6.2169e+001 29217 104653,104382,104356
 5.0000e-001 104607 -2.1175e+002 -9.1435e+001  1.8477e+001 29217 104653,104356,104512
 5.0000e-001 104584 -1.3836e+002 -6.2556e+001  4.0121e+001 29217 104434,104512,104486
 5.0000e-001 104561 -1.9401e+002 -2.1239e+001  5.9023e+001 29217 104382,104434,104408
 5.0000e-001 104538 -1.0149e+002 -3.2847e+001  5.4313e+001 29217 104434,104486,104460
 5.0000e-001 104679 -1.7270e+002 -6.0030e+001  6.6385e+001 29217 104434,104382,104653
 5.0000e-001 104702 -1.6757e+002 -6.7848e+001  2.7306e+001 29217 104434,104653,104512
 5.0000e-001 105178 -1.6565e+002 -9.1689e+000  2.7684e+000 28649 105201,104962,104936
 5.0000e-001 105155 -1.4855e+002 -2.6695e+001 -8.6662e+000 28649 105201,104936,104884
 5.0000e-001 105132 -1.4268e+002 -2.5193e+001  6.9593e+000 28649 105273,104858,105014
 5.0000e-001 105109 -1.3237e+002  1.1814e+000  2.1861e+001 28649 104962,105014,104988
 5.0000e-001 105086 -1.4953e+002 -2.1360e+001 -1.8156e+001 28649 104884,104936,104910
 5.0000e-001 105063 -1.0019e+002 -2.3022e+001  3.6187e+000 28649 104806,105014,104858
 5.0000e-001 105040 -1.0613e+002 -6.2304e+001  2.1504e+000 28649 104806,104858,104832
 5.0000e-001 105227 -1.4299e+002  1.1468e+001  1.6220e+001 28649 105014,104962,105201
 5.0000e-001 105250 -1.4913e+002 -1.9722e+001  2.0166e+000 28649 105273,105014,105201
 5.0000e-001 105299 -1.3721e+002 -1.9854e+001  3.1299e+000 28649 104884,104858,105273
 5.0000e-001 105322 -1.3851e+002 -1.1041e+001 -2.8905e+000 28649 104884,105273,105201
 5.0000e-001 105673 -2.9745e+002 -3.1259e+001  6.2385e+000 28351 105474,105578,105552
 5.0000e-001 105650 -3.1347e+002 -6.1097e+001  1.9168e-001 28351 105448,105578,105474
 5.0000e-001 105627 -2.8880e+002  7.4952e+001 -2.2366e+001 28351 105500,105552,105526
 5.0000e-001 105604 -3.0726e+002 -2.9980e+001 -3.9744e+000 28351 105474,105552,105500
 5.0000e-001 106130 -1.8977e+002 -3.4921e+001 -2.7466e+001 28004 106153,105882,105856
 5.0000e-001 106107 -2.1003e+002 -7.8663e+001 -3.4015e+001 28004 106153,105856,105986
 5.0000e-001 106084 -1.6745e+002 -1.1223e+002 -4.0370e+001 28004 105934,105986,105960
 5.0000e-001 106061 -1.6140e+002 -6.0054e+001 -5.4948e+001 28004 105856,106012,105986
 5.0000e-001 106038 -1.3441e+002  1.3922e+001 -2.9803e+001 28004 105882,105934,105908
 5.0000e-001 106179 -1.7193e+002 -6.5484e+001 -9.6729e-001 28004 105934,105882,106153
 5.0000e-001 106202 -1.8315e+002 -9.2245e+001 -7.5253e+000 28004 105934,106153,105986
 5.0000e-001 106885 -1.7894e+002  2.2661e+001  4.0250e+001 27564 106908,106620,106516
 5.0000e-001 106862 -2.6307e+002 -8.9237e-001  3.3544e+001 27564 106908,106516,106490
 5.0000e-001 106839 -3.4778e+002 -4.4142e+001  3.6863e+001 27564 106516,106620,106542
 5.0000e-001 106816 -1.5448e+002  1.9165e+001  8.8119e+001 27564 106620,106672,106646
 5.0000e-001 106793 -4.7470e+002 -6.6746e+001  3.5434e+001 27564 106542,106620,106594
 5.0000e-001 106770 -2.0090e+002 -9.3330e+000  2.3945e+001 27564 106490,106698,106672
 5.0000e-001 106747 -1.6200e+002 -2.1449e+001  5.5756e+001 27564 106464,106698,106490
 5.0000e-001 106724 -3.6066e+002 -7.3282e+001  8.1608e+001 27564 106542,106594,106568
 5.0000e-001 106934 -1.3668e+002 -3.7432e-001  4.4244e+001 27564 106672,106620,106908
 5.0000e-001 106957 -1.7776e+002  5.5737e+000  3.4373e+001 27564 106672,106908,106490
 5.0000e-001 107463 -3.9000e+001 -2.4612e+001  3.9018e-001 27053 107218,107322,107296
 5.0000e-001 107440 -2.8844e+001 -2.1860e-001  4.0027e+000 27053 107166,107322,107218
 5.0000e-001 107417 -3.8950e+001  7.9233e+000  1.6810e+000 27053 107218,107296,107244
 5.0000e-001 107394 -2.9064e-001 -6.0343e+000  6.2767e+000 27053 107140,107322,107166
 5.0000e-001 107371 -7.7150e+000  1.3957e+000  2.0809e+000 27053 107166,107218,107192
 5.0000e-001 107348 -3.3459e+001  7.3821e-001 -7.4083e+000 27053 107244,107296,107270
 5.0000e-001 108097 -1.4542e+002 -3.8513e+000 -5.0710e-001 26549 108192,108120,107803
 5.0000e-001 108074 -1.9642e+002 -6.4230e+001 -1.6908e+001 26549 108120,107725,107933
 5.0000e-001 108051 -1.4730e+002  3.7101e-001  4.2512e+001 26549 107751,107803,107777
 5.0000e-001 108028 -1.6778e+002  3.5812e+001  2.4811e+001 26549 108192,107803,107751
 5.0000e-001 108005 -2.2269e+002 -3.7857e+001 -2.9740e+001 26549 108264,107855,107803
 5.0000e-001 107982 -2.0250e+002 -1.0059e+002  4.0524e+000 26549 107881,107933,107907
 5.0000e-001 107959 -2.0559e+002  9.4511e+000 -8.6579e+001 26549 107803,107855,107829
 5.0000e-001 108146 -1.7157e+002 -3.8341e+001 -2.6470e+001 26549 108264,107803,108120
 5.0000e-001 108169 -1.7913e+002 -2.4765e+001 -1.4270e+001 26549 107881,108120,107933
 5.0000e-001 108218 -1.9080e+002 -4.6715e+001 -2.3412e+001 26549 107725,108120,108192
 5.0000e-001 108241 -2.1083e+002 -9.9543e+000  2.7747e+000 26549 107725,108192,107751
 5.0000e-001 108290 -2.5316e+002 -2.4445e+001 -1.8743e+001 26549 107881,107855,108264
 5.0000e-001 108313 -2.2114e+002 -4.1552e+001 -1.0847e+001 26549 107881,108264,108120
 5.0000e-001 108512 -1.2507e+002 -3.5791e+000  2.2159e+001 26137 108388,108440,108414
 5.0000e-001 108489 -1.3898e+002 -2.5252e+001  1.1787e+001 26137 108362,108440,108388
 5.0000e-001 108466 -1.8591e+002 -4.4830e+001  1.3345e+000 26137 108336,108440,108362
 5.0000e-001 108662 -1.6023e+002  9.3671e+000 -2.4000e+000 25733 108817,108685,108535
 5.0000e-001 108639 -1.7508e+002  1.4989e+001 -6.6463e+000 25733 109017,108817,108535
 5.0000e-001 108711 -1.5873e+002  6.3208e+000 -4.8013e+000 25733 108561,108535,108685
 5.0000e-001 108843 -1.7891e+002 -2.0175e+001 -1.0423e+001 25733 108587,108685,108817
 5.0000e-001 108866 -1.5385e+002  1.0974e+001 -3.9252e+000 25733 108889,108817,108613
 5.0000e-001 108915 -1.8287e+002  1.3719e+000 -7.7590e+000 25733 108587,108817,108889
 5.0000e-001 109043 -1.7613e+002 -3.8287e+000 -1.2134e+001 25733 108613,108817,109017
 5.0000e-001 109500 -5.4724e+001  2.0723e+001 -2.5046e+001 25229 109523,109356,109330
 5.0000e-001 109477 -8.4935e+001 -8.2932e+000 -6.1660e+000 25229 109595,109523,109330
 5.0000e-001 109454 -7.5733e+001 -2.0414e+001  6.9252e+000 25229 109595,109330,109278
 5.0000e-001 109431 -7.8385e+001 -2.6820e+001 -1.0145e+000 25229 109667,109226,109382
 5.0000e-001 109408 -1.0382e+002 -1.3393e+001  1.6559e+001 25229 109278,109330,109304
 5.0000e-001 109549 -5.5407e+001  7.6661e+000  6.6639e+000 25229 109382,109356,109523
 5.0000e-001 109572 -7.6473e+001 -2.9949e+001 -1.6755e+000 25229 109667,109382,109523
 5.0000e-001 109621 -7.5257e+001  1.5932e+001 -3.9536e-001 25229 109252,109523,109595
 5.0000e-001 109644 -7.6748e+001 -2.8225e+000  3.9831e+000 25229 109739,109595,109278
 5.0000e-001 109693 -1.3859e+002 -2.0449e+001  3.4520e+000 25229 109252,109226,109667
 5.0000e-001 109716 -1.0060e+002  7.2971e-001  1.1892e+001 25229 109252,109667,109523
 5.0000e-001 109765 -7.0893e+001 -4.4603e+000 -2.6147e+000 25229 109252,109595,109739
 5.0000e-001 110478 -6.2131e+001 -6.0913e+000 -3.2591e+000 24917 110158,110236,110184
 5.0000e-001 110455 -3.0894e+001  7.1611e+000 -2.6389e+000 24917 110158,110288,110236
 5.0000e-001 110432 -4.6718e+001  3.3728e+000  5.4580e-001 24917 110236,110288,110262
 5.0000e-001 110409 -3.4222e+001 -7.1052e+000  6.3906e+000 24917 110184,110236,110210
 5.0000e-001 110386 -2.5314e+001 -1.8563e+000  4.4029e+000 24917 110132,110288,110158
 5.0000e-001 110363 -7.0954e+000  3.4970e+000 -2.2496e-001 24917 110132,110314,110288
 5.0000e-001 110340 -9.5154e+000 -2.5072e+000  8.6762e-001 24917 110106,110314,110132
 5.0000e-001 110829 -2.2466e+002 -9.2846e+001  2.8683e+001 24307 110604,110682,110630
 5.0000e-001 110806 -1.8120e+002 -4.3669e+001  7.5195e+000 24307 110604,110708,110682
 5.0000e-001 110783 -1.4790e+002 -2.2422e+001 -1.2228e+001 24307 110604,110734,110708
 5.0000e-001 110760 -3.3944e+002 -1.4208e+002  3.3214e+001 24307 110630,110682,110656
 5.0000e-001 111335 -1.3308e+002 -2.8815e+001  1.7371e+001 23767 111012,111168,111038
 5.0000e-001 111312 -8.2705e+001  4.2553e+001 -6.0472e+000 23767 111012,111194,111168
 5.0000e-001 111289 -7.1238e+001  1.0931e+001 -2.5917e+001 23767 111358,111064,111038
 5.0000e-001 111266 -9.6447e+001  6.1842e+000 -1.3515e-001 23767 111358,111038,111168
 5.0000e-001 111243 -1.2143e+002 -5.0732e+000 -6.5019e+000 23767 111430,111142,111090
 5.0000e-001 111220 -1.4613e+002 -1.6124e+001 -1.3808e+001 23767 111090,111142,111116
 5.0000e-001 111384 -9.2996e+001 -1.3666e+000 -1.2494e+001 23767 111090,111064,111358
 5.0000e-001 111407 -8.7213e+001 -4.2990e+000 -3.3178e+000 23767 111430,111090,111358
 5.0000e-001 111456 -1.5352e+002  3.6646e+000  2.1821e+000 23767 111168,111142,111430
 5.0000e-001 111479 -1.3244e+002 -5.4408e+000  3.3284e+000 23767 111168,111430,111358
 5.0000e-001 111985 -2.0423e+002 -1.0756e+002 -2.2751e+001 23477 111688,111844,111818
 5.0000e-001 111962 -1.9061e+002 -5.2458e+001  3.7594e+001 23477 111662,111844,111688
 5.0000e-001 111939 -1.3090e+002 -2.5052e+001 -6.4000e+000 23477 111766,111818,111792
 5.0000e-001 111916 -2.0352e+002 -4.7920e+001  2.2769e+000 23477 111740,111818,111766
 5.0000e-001 111893 -2.0861e+002 -6.3758e+001 -1.4490e+001 23477 111688,111818,111740
 5.0000e-001 111870 -3.2808e+002  1.8917e+001 -6.9658e+001 23477 111688,111740,111714
 5.0000e-001 112314 -1.6034e+002  7.0232e+000 -1.0643e+001 23023 112141,112219,112193
 5.0000e-001 112291 -1.6688e+002 -4.6434e+001 -1.1849e+001 23023 112115,112219,112141
 5.0000e-001 112268 -1.3707e+002  1.7266e+001  7.5980e+000 23023 112141,112193,112167
 5.0000e-001 112245 -1.2825e+002  1.0205e+000  5.1709e+000 23023 112089,112219,112115
 5.0000e-001 112692 -1.9352e+002 -3.0651e+001 -3.6986e+000 22768 112444,112574,112548
 5.0000e-001 112669 -1.9739e+002  2.6597e+001 -2.6418e+000 22768 112418,112574,112444
 5.0000e-001 112646 -1.3101e+002 -9.4165e+000 -4.5352e+000 22768 112444,112522,112470
 5.0000e-001 112623 -1.4974e+002 -1.0712e+001  1.2762e+000 22768 112444,112548,112522
 5.0000e-001 112600 -1.1886e+002 -6.6808e+000  1.6637e+001 22768 112470,112522,112496
 5.0000e-001 113011 -3.8929e+002 -3.5853e+001 -3.9021e+001 22314 112763,112867,112789
 5.0000e-001 112988 -3.8604e+002 -1.2070e+002 -2.3956e+001 22314 112763,112893,112867
 5.0000e-001 112965 -3.9766e+002  8.6624e+001  0.0000e+000 22314 112815,112867,112841
 5.0000e-001 112942 -4.7503e+002 -7.7473e+001 -2.3770e+001 22314 112789,112867,112815
 5.0000e-001 112919 -3.3442e+002 -1.3347e+002 -7.2432e+001 22314 112737,112893,112763
 5.0000e-001 113519 -1.3460e+002  3.4705e+000  2.3162e+001 21924 113614,113542,113248
 5.0000e-001 113496 -1.2049e+002  9.3113e+000  1.8531e+001 21924 113542,113196,113378
 5.0000e-001 113473 -7.6051e+001  5.1772e+000  2.1345e+001 21924 113614,113248,113222
 5.0000e-001 113450 -1.2430e+002  1.3732e+001  2.9495e+000 21924 113686,113274,113248
 5.0000e-001 113427 -9.6458e+001 -1.2913e+001 -2.8781e+001 21924 113274,113352,113326
 5.0000e-001 113404 -3.5112e+001 -6.7541e+000  1.4558e+001 21924 113274,113326,113300
 5.0000e-001 113568 -1.1958e+002  6.9174e+000  9.5515e+000 21924 113686,113248,113542
 5.0000e-001 113591 -1.4604e+002 -8.0093e+001 -1.4749e+001 21924 113352,113542,113378
 5.0000e-001 113640 -7.6770e+001  1.5989e+001  4.6841e+001 21924 113196,113542,113614
 5.0000e-001 113663 -5.3052e+001 -4.1818e+000  5.0303e+001 21924 113196,113614,113222
 5.0000e-001 113712 -1.3063e+002  7.3159e+000  5.7161e+000 21924 113352,113274,113686
 5.0000e-001 113735 -1.2971e+002 -7.9417e-001  1.3140e+001 21924 113352,113686,113542
 5.0000e-001 113885  1.2425e+001  1.2585e+001  2.1063e+001 21520 113980,113908,113784
 5.0000e-001 113862 -1.4502e+002 -6.6926e+001 -7.0429e+000 21520 114238,113908,113758
 5.0000e-001 113934 -1.0307e+002  4.3408e+000 -1.4061e+001 21520 114110,113908,113810
 5.0000e-001 113957 -1.1171e+002  4.5748e+001  2.0626e+001 21520 113810,113908,113836
 5.0000e-001 114006 -1.0572e+002  1.0713e+001  2.7324e+001 21520 113758,113908,113980
 5.0000e-001 114136 -2.7436e+001 -4.9815e+000  1.7470e+001 21520 113784,113908,114110
 5.0000e-001 114264 -1.0486e+002  4.8534e+001  3.0585e+001 21520 113836,113908,114238
 5.0000e-001 114662 -1.9050e+002 -2.9004e+001  2.1256e-001 21030 114414,114518,114492
 5.0000e-001 114639 -2.6304e+002 -5.2692e+001  2.8803e+001 21030 114414,114544,114518
 5.0000e-001 114616 -5.2312e+001  3.0868e+001  1.5969e+000 21030 114440,114492,114466
 5.0000e-001 114593 -1.9052e+002 -2.8043e+001  3.1384e+000 21030 114414,114492,114440
 5.0000e-001 114570 -2.1595e+002 -1.2872e+001  9.2102e+001 21030 114388,114544,114414
 5.0000e-001 114959 -2.4579e+002 -2.5242e+001 -6.3040e+000 20512 114982,114711,114685
 5.0000e-001 114936 -2.4016e+002 -8.0227e+000 -1.7729e+000 20512 115054,114982,114685
 5.0000e-001 114913 -2.7389e+002  3.8812e+001  1.2394e+001 20512 115054,114685,114841
 5.0000e-001 114890 -9.8682e+001  1.1082e+001  5.0952e+000 20512 114711,114763,114737
 5.0000e-001 114867 -1.6640e+002 -3.5328e-001  2.5757e+000 20512 114763,114815,114789
 5.0000e-001 115008 -2.4901e+002 -2.4027e+001 -1.4676e+000 20512 114763,114711,114982
 5.0000e-001 115031 -2.4824e+002 -4.0083e+001 -1.2587e+001 20512 114763,114982,114815
 5.0000e-001 115080 -2.7848e+002 -3.9852e+001 -1.8418e+001 20512 114815,114982,115054
 5.0000e-001 115103 -2.9608e+002 -6.3169e+000 -1.5252e+001 20512 114815,115054,114841
 5.0000e-001 115507 -1.4826e+002 -4.4882e+001 -9.7338e+001 20143 115285,115389,115363
 5.0000e-001 115484 -2.9685e+002 -6.5279e+000  4.9861e+000 20143 115259,115389,115285
 5.0000e-001 115461 -2.6865e+002 -1.6546e+001  3.8140e+001 20143 115233,115389,115259
 5.0000e-001 115438 -1.4027e+002 -4.7147e+001  2.6453e+001 20143 115285,115337,115311
 5.0000e-001 115415 -8.8561e+001 -3.4186e+001  3.0113e+001 20143 115285,115363,115337
 5.0000e-001 115875 -6.2912e+001 -7.9490e-001  2.6340e+000 19632 115656,115734,115682
 5.0000e-001 115852 -5.0658e+001 -1.6458e+000  9.2433e+000 19632 115552,115734,115656
 5.0000e-001 115829 -5.3910e+001 -6.3337e+000 -5.9392e+000 19632 115552,115656,115578
 5.0000e-001 115806 -6.5003e+001  1.7951e+000 -1.7313e+000 19632 115578,115656,115630
 5.0000e-001 115783 -2.7886e+001  1.5047e+001 -2.5738e+001 19632 115682,115734,115708
 5.0000e-001 115760 -5.3326e+001 -5.0436e+000  1.5228e+001 19632 115578,115630,115604
 5.0000e-001 116025 -1.5841e+002  1.0948e+001  1.1391e+001 19178 115898,115950,115924
 5.0000e-001 116002 -1.5700e+002 -8.1968e+000  1.6832e+000 19178 115898,115976,115950
 5.0000e-001 116633 -7.8255e+001  1.2024e+001  1.2461e-001 18738 116800,116656,116342
 5.0000e-001 116610 -6.9373e+001  2.7505e+001 -3.0587e+001 18738 116656,116238,116446
 5.0000e-001 116587 -6.5787e+001 -4.7626e+000  6.3301e+000 18738 116728,116368,116342
 5.0000e-001 116564 -8.3762e+001  6.6847e-001  6.3646e+000 18738 116800,116342,116264
 5.0000e-001 116541 -4.8142e+001  2.9982e+002 -1.0116e+002 18738 116212,116446,116238
 5.0000e-001 116518 -4.4074e+001  5.1347e+000 -4.7194e+001 18738 116394,116446,116420
 5.0000e-001 116495 -2.1500e+002 -5.4000e+001  5.4665e+000 18738 116264,116342,116316
 5.0000e-001 116472 -4.8593e+001  1.6131e+001 -4.2168e+000 18738 116264,116316,116290
 5.0000e-001 116682 -6.4911e+001  1.5632e+000 -8.3224e+000 18738 116728,116342,116656
 5.0000e-001 116705 -7.4440e+001 -1.3963e+001 -3.3061e+001 18738 116394,116656,116446
 5.0000e-001 116754 -4.5534e+001  5.3648e+000 -3.7684e+000 18738 116394,116368,116728
 5.0000e-001 116777 -4.1410e+001  1.4244e+001 -1.8810e+001 18738 116394,116728,116656
 5.0000e-001 116826 -8.5399e+001  3.6945e+001 -1.2010e+001 18738 116238,116656,116800
 5.0000e-001 116849 -9.7913e+001  2.1655e+001 -3.6602e+000 18738 116238,116800,116264
 5.0000e-001 116999 -7.1933e+001  8.7175e+001  3.4913e+001 18184 116872,116924,116898
 5.0000e-001 116976 -3.6669e+001 -4.5044e+001  4.5258e+001 18184 116872,116950,116924
 5.0000e-001 117330 -1.1438e+002  1.9831e+001  1.6493e+001 17694 117157,117235,117183
 5.0000e-001 117307 -1.0982e+002 -2.9981e+000  6.1350e+000 17694 117131,117235,117157
 5.0000e-001 117284 -1.1773e+002 -4.4068e+000  5.8618e+000 17694 117105,117235,117131
 5.0000e-001 117261 -1.4356e+002 -2.7096e+001  3.0030e+001 17694 117183,117235,117209
 5.0000e-001 117480 -1.3399e+002 -5.4602e+001  4.1163e+001 17290 117353,117405,117379
 5.0000e-001 117457 -6.7070e+001 -2.1001e+000  1.7825e+001 17290 117353,117431,117405
 5.0000e-001 117679 -1.3272e+002 -6.8811e+001  1.0378e+001 16718 117555,117607,117581
 5.0000e-001 117656 -1.3997e+002 -4.2590e+001 -5.8944e+000 16718 117529,117607,117555
 5.0000e-001 117633 -1.8730e+002 -4.8981e+001 -5.8879e+000 16718 117503,117607,117529
 5.0000e-001 117782 -1.0425e+002 -4.5632e+000 -5.4999e+000 16520 117704,117756,117730
 5.0000e-001 117983 -2.4672e+002 -1.6560e+002  7.9619e+000 16208 117859,117911,117885
 5.0000e-001 117960 -1.8117e+002 -1.1204e+002 -2.3617e+001 16208 117833,117911,117859
 5.0000e-001 117937 -9.3569e+001 -5.5043e+001  1.1067e+000 16208 117807,117911,117833
 5.0000e-001 118135 -2.0890e+001  2.9783e+001  4.6605e+000 15674 118034,118086,118060
 5.0000e-001 118112 -9.1364e+001 -3.5246e+000 -5.1863e+000 15674 118008,118086,118034
 5.0000e-001 118238 -1.7954e+002 -8.9818e-003 -3.3854e-001 15355 118160,118212,118186
 5.0000e-001 118341  2.8760e-001 -3.0762e+000  1.2256e-002 421 118263,118315,118289
 6.0000e-001 68152 -5.4840e+000 -2.9043e+000  5.8066e+000 67838 68074,68126,68100
 6.0000e-001 68550 -1.9705e+002 -1.3756e+001 -1.5410e+000 67526 68276,68380,68302
 6.0000e-001 68527 -1.1607e+002  5.2040e+000 -1.9236e+000 67526 68276,68406,68380
 6.0000e-001 68504 -2.3189e+002 -2.7392e+001  4.4440e+000 67526 68328,68380,68354
 6.0000e-001 68481 -1.9537e+002 -9.8303e+000 -1.5950e+000 67526 68302,68380,68328
 6.0000e-001 68458 -1.1967e+002 -7.1435e+000 -1.1174e+001 67526 68276,68432,68406
 6.0000e-001 68651 -9.5694e+001 -5.5809e+001 -4.6345e+001 67328 68573,68625,68599
 6.0000e-001 68970 -3.3080e+002 -1.0230e+002 -2.5655e+001 67016 68722,68800,68774
 6.0000e-001 68947 -3.2596e+002 -7.7248e+001 -3.2731e+001 67016 68722,68826,68800
 6.0000e-001 68924 -3.1488e+002  2.0420e+001 -5.0595e+001 67016 68696,68826,68722
 6.0000e-001 68901 -2.7672e+002 -1.5526e+001  2.6944e+001 67016 68722,68774,68748
 6.0000e-001 68878 -1.7558e+002  4.6254e+001  8.8770e+001 67016 68696,68852,68826
 6.0000e-001 69291 -2.2618e+002 -1.7365e+001 -4.0000e+001 66654 69069,69147,69095
 6.0000e-001 69268 -9.6268e+001 -5.0923e+000  1.2668e+001 66654 69069,69173,69147
 6.0000e-001 69245 -5.7765e+001 -6.6869e+000 -2.1325e+001 66654 69043,69173,69069
 6.0000e-001 69222 -2.6101e+002  5.9607e+000  1.9951e+001 66654 69095,69147,69121
 6.0000e-001 69199 -3.9999e+001 -4.1989e+000  7.9631e+000 66654 69017,69173,69043
 6.0000e-001 69695 -2.9768e+002 -6.4938e+001 -1.4052e+001 66456 69447,69577,69551
 6.0000e-001 69672 -3.2749e+002 -3.1807e+001 -3.7475e+001 66456 69421,69577,69447
 6.0000e-001 69649 -3.5291e+002 -1.3370e+002  2.2591e+001 66456 69473,69551,69525
 6.0000e-001 69626 -2.9901e+002 -6.2032e+001 -6.3841e+000 66456 69447,69551,69473
 6.0000e-001 69603 -3.7336e+002 -1.1049e+002  9.5612e+001 66456 69473,69525,69499
 6.0000e-001 70024 -7.0191e+001  2.2991e+001 -4.0516e+001 66258 70047,69851,69825
 6.0000e-001 70001 -1.0770e+002  5.2390e+000  2.0422e+001 66258 70047,69825,69903
 6.0000e-001 69978 -1.0117e+002  1.2136e+001  1.7741e+001 66258 69799,69903,69825
 6.0000e-001 69955 -1.0397e+002 -3.5473e+001  2.1071e+001 66258 69799,69929,69903
 6.0000e-001 70073 -1.2518e+002 -1.1749e+001 -1.4484e+001 66258 69877,69851,70047
 6.0000e-001 70096 -1.8081e+002 -4.3967e+001  4.9440e+001 66258 69877,70047,69903
 6.0000e-001 70602 -6.1854e+002 -1.2691e+002  7.4153e+001 66060 70305,70435,70331
 6.0000e-001 70579 -1.9740e+002 -1.2858e+002 -6.5159e+001 66060 70279,70435,70305
 6.0000e-001 70556 -2.8398e+002 -1.2819e+000  6.5322e+001 66060 70331,70435,70409
 6.0000e-001 70533 -1.5759e+002 -3.4817e+001 -6.2891e+001 66060 70279,70461,70435
 6.0000e-001 70510 -4.0917e+002 -1.3453e+002  1.2487e+002 66060 70331,70409,70357
 6.0000e-001 70487 -2.7805e+002 -1.0020e+002  1.5660e+002 66060 70357,70409,70383
 6.0000e-001 70703 -9.2938e+001 -3.7341e+000 -3.9266e+001 65862 70625,70677,70651
 6.0000e-001 71083 -5.6049e+001  1.0866e+001  1.2458e+001 65664 70887,70965,70939
 6.0000e-001 71060 -1.7174e+002 -1.9862e+001  4.7227e+001 65664 70861,70965,70887
 6.0000e-001 71037 -1.8628e+002  7.6215e+001  9.4306e+000 65664 70809,70965,70861
 6.0000e-001 71014 -1.9987e+002  1.4500e+002  6.4008e+001 65664 70809,70861,70835
 6.0000e-001 70991 -5.0774e+001 -1.1548e+000 -1.2107e+001 65664 70887,70939,70913
 6.0000e-001 71611 -6.5601e+001 -1.6384e+001  2.7839e+001 65260 71288,71444,71314
 6.0000e-001 71588 -1.3934e+002 -4.7597e+001  1.7772e+001 65260 71288,71470,71444
 6.0000e-001 71565 -3.6906e+002 -4.8941e+001 -6.2501e+001 65260 71314,71418,71392
 6.0000e-001 71542 -8.7505e+001 -8.0284e+001  2.1137e+001 65260 71314,71444,71418
 6.0000e-001 71519 -2.4779e+002 -1.9708e+001 -8.4469e+001 65260 71314,71392,71340
 6.0000e-001 71496 -2.8951e+002 -1.1208e+002 -1.1451e+002 65260 71340,71392,71366
 6.0000e-001 72060 -1.9280e+002  1.5864e+000  2.3792e+001 64870 71737,71893,71789
 6.0000e-001 72037 -2.8738e+002 -4.3491e+001  9.4581e-001 64870 71737,71919,71893
 6.0000e-001 72014 -1.9532e+002 -8.5087e+001 -5.4481e+001 64870 71789,71841,71815
 6.0000e-001 71991 -2.3282e+002 -2.3547e+001 -1.2129e+000 64870 71789,71893,71841
 6.0000e-001 71968 -2.0414e+002 -4.1375e+001  1.7688e+001 64870 71737,71789,71763
 6.0000e-001 71945 -2.8503e+002  9.4589e+000  0.0000e+000 64870 71841,71893,71867
 6.0000e-001 72517 -2.9529e+002 -9.8105e+001 -1.5758e+001 64466 72321,72399,72347
 6.0000e-001 72494 -2.2293e+002 -1.1664e+002 -7.0941e+000 64466 72269,72399,72321
 6.0000e-001 72471 -2.6959e+002 -2.7749e+001 -3.3166e+001 64466 72347,72399,72373
 6.0000e-001 72448 -2.5612e+002 -1.1284e+002  2.9662e+001 64466 72243,72399,72269
 6.0000e-001 72425 -1.8358e+002 -1.7007e+001 -4.1571e+000 64466 72269,72321,72295
 6.0000e-001 72944 -2.5837e+002 -7.3627e+001 -1.4121e+001 64062 73111,73039,72699
 6.0000e-001 72921 -2.5725e+002 -6.2174e+001 -8.5502e+000 64062 73183,72967,72647
 6.0000e-001 72898 -2.7386e+002 -6.8501e+001 -1.2360e+001 64062 72967,72803,72751
 6.0000e-001 72875 -2.6803e+002 -7.7701e+001 -1.6107e+001 64062 73111,72699,72673
 6.0000e-001 72852 -2.5940e+002 -5.4064e+001 -1.0557e+001 64062 73183,72647,72621
 6.0000e-001 72829 -2.6021e+002 -9.4253e+001  1.8628e+001 64062 72751,72803,72777
 6.0000e-001 72993 -2.7532e+002 -7.6333e+001 -1.5035e+001 64062 73039,72647,72967
 6.0000e-001 73016 -2.6018e+002 -5.6170e+001 -5.5901e+000 64062 72725,72967,72751
 6.0000e-001 73065 -3.3812e+002 -6.1283e+001 -6.4052e+001 64062 72725,72699,73039
 6.0000e-001 73088 -2.7013e+002 -5.5547e+001 -5.3356e+000 64062 72725,73039,72967
 6.0000e-001 73137 -2.8308e+002 -7.9959e+001 -1.7382e+001 64062 72647,73039,73111
 6.0000e-001 73160 -2.8420e+002 -7.9499e+001 -1.9661e+001 64062 72647,73111,72673
 6.0000e-001 73209 -2.6437e+002 -5.3127e+001 -1.6609e+001 64062 72803,72967,73183
 6.0000e-001 73232 -2.5826e+002 -3.1331e+001 -1.6318e+001 64062 72803,73183,72621
 6.0000e-001 73333 -1.2708e+002  1.0329e+001  4.9466e+000 63814 73356,73281,73255
 6.0000e-001 73382 -4.0530e+002 -5.6236e+001  3.3223e+001 63814 73486,73356,73307
 6.0000e-001 73512 -1.4093e+002  5.7166e+001 -1.4397e+001 63814 73281,73356,73486
 6.0000e-001 73839 -1.7641e+002 -7.7477e+000  1.4767e+001 63616 73862,73692,73666
 6.0000e-001 73816 -1.6963e+002 -3.0485e+001  6.3816e+000 63616 73934,73862,73666
 6.0000e-001 73793 -1.6714e+002 -3.3086e+000  1.0479e+000 63616 73934,73666,73640
 6.0000e-001 73770 -1.6240e+002  2.4610e+001 -1.3907e+001 63616 73614,73744,73640
 6.0000e-001 73888 -1.8103e+002 -2.8684e+001  1.8661e+001 63616 73718,73692,73862
 6.0000e-001 73911 -1.7554e+002 -5.0191e+001 -1.4441e+001 63616 73718,73862,73744
 6.0000e-001 73960 -1.6004e+002 -8.1480e+000 -1.2079e+001 63616 73744,73862,73934
 6.0000e-001 73983 -1.6440e+002  2.4787e+000 -1.9190e+001 63616 73744,73934,73640
 6.0000e-001 74363 -3.1060e+002 -8.2198e+001 -1.3651e+001 63390 74386,74115,74089
 6.0000e-001 74340 -2.8261e+002 -8.3564e+001 -1.7094e+001 63390 74458,74386,74089
 6.0000e-001 74317 -3.0077e+002 -7.4998e+001 -5.0825e+001 63390 74458,74089,74245
 6.0000e-001 74294 -2.6581e+002 -1.3684e+002  1.0768e+001 63390 74530,74167,74141
 6.0000e-001 74271 -2.4846e+002 -8.7941e+001  2.2548e+001 63390 74167,74219,74193
 6.0000e-001 74412 -2.9179e+002 -5.9928e+001  9.9061e-001 63390 74141,74115,74386
 6.0000e-001 74435 -2.9790e+002 -1.1297e+002 -1.5828e+001 63390 74530,74141,74386
 6.0000e-001 74484 -3.1292e+002 -1.2868e+002 -4.4087e+001 63390 74219,74386,74458
 6.0000e-001 74507 -3.5107e+002 -1.3625e+002 -8.1001e+001 63390 74219,74458,74245
 6.0000e-001 74556 -2.3079e+002 -1.1779e+002  3.4740e+000 63390 74219,74167,74530
 6.0000e-001 74579 -2.5190e+002 -8.7218e+001 -2.6007e+001 63390 74219,74530,74386
 6.0000e-001 74680 -9.8955e+001 -1.7530e+001  4.0257e-001 63100 75089,74833,74703
 6.0000e-001 74729 -4.9977e+001  6.2700e-001 -4.3993e+000 63100 74961,74703,74654
 6.0000e-001 74859 -1.3356e+002 -4.5155e+001 -1.1606e+001 63100 74602,74703,74833
 6.0000e-001 74987 -6.3755e+001 -1.5076e+001  2.3641e+001 63100 75089,74703,74961
 6.0000e-001 75115 -1.7605e+002 -5.9362e+000 -1.7362e+001 63100 74628,74833,75089
 6.0000e-001 75138 -1.4005e+002 -2.9364e+000  5.9711e+000 63100 74628,75089,74961
 6.0000e-001 75723 -9.6367e+001 -8.1329e+001  3.5170e+001 62532 75746,75504,75426
 6.0000e-001 75700 -2.3199e+002  5.0803e+000  1.2225e+002 62532 75746,75426,75556
 6.0000e-001 75677 -1.0734e+002  1.1395e+001 -4.6707e+001 62532 75426,75504,75452
 6.0000e-001 75654 -3.7271e+002 -2.9042e+001  1.1029e+002 62532 75400,75556,75426
 6.0000e-001 75631 -4.5438e+002 -2.4783e+002  6.3396e+001 62532 75400,75582,75556
 6.0000e-001 75608 -1.1009e+002 -4.8274e+001 -3.1663e+001 62532 75452,75504,75478
 6.0000e-001 75772 -2.5142e+002 -6.0192e+001  2.6533e+001 62532 75530,75504,75746
 6.0000e-001 75795 -4.5864e+002 -2.7521e+001  1.1470e+002 62532 75530,75746,75556
 6.0000e-001 76301 -1.8261e+002 -5.5652e+001 -1.8192e+001 62192 76324,76082,76030
 6.0000e-001 76278 -1.5270e+002 -1.9810e+001 -3.0220e+000 62192 76324,76030,76004
 6.0000e-001 76255 -1.4996e+002 -5.0155e+001  8.0115e-001 62192 76030,76082,76056
 6.0000e-001 76232 -2.2820e+002  1.9265e+000 -2.5944e+001 62192 76082,76134,76108
 6.0000e-001 76209 -3.9128e+002 -4.9629e+001 -6.3785e+001 62192 76004,76160,76134
 6.0000e-001 76186 -3.1035e+002 -2.0366e+002 -4.6243e+001 62192 75978,76160,76004
 6.0000e-001 76350 -2.3344e+002 -4.1102e+000 -1.6164e+001 62192 76134,76082,76324
 6.0000e-001 76373 -1.9742e+002  4.5527e+001  1.0571e-001 62192 76134,76324,76004
 6.0000e-001 76879 -4.0971e+001  2.0434e+000 -1.4861e+001 61788 76902,76660,76582
 6.0000e-001 76856 -6.2878e+001 -1.1014e+001 -2.0312e+001 61788 76902,76582,76556
 6.0000e-001 76833 -7.0157e+001 -4.0554e+000 -2.2780e+001 61788 76582,76660,76634
 6.0000e-001 76810 -2.7858e+001 -2.9720e+001 -2.0530e+001 61788 76582,76634,76608
 6.0000e-001 76787 -8.6510e+000 -2.0050e+001 -1.5227e+000 61788 76556,76738,76686
 6.0000e-001 76764 -3.0297e+001 -3.9256e+001  6.6019e+000 61788 76686,76738,76712
 6.0000e-001 76928 -1.9007e+001 -1.3382e+001 -1.5532e+001 61788 76686,76660,76902
 6.0000e-001 76951 -3.8631e+001 -2.6205e+001 -2.1298e+001 61788 76686,76902,76556
 6.0000e-001 77408 -2.2874e+002  4.3133e+001  1.0039e+002 61498 77212,77264,77238
 6.0000e-001 77385 -3.4306e+002 -3.2569e+001 -7.0599e+001 61498 77160,77264,77212
 6.0000e-001 77362 -2.1461e+002  5.1994e+001 -3.3948e+001 61498 77160,77290,77264
 6.0000e-001 77339 -2.5976e+002 -6.7663e+001 -7.2437e+001 61498 77160,77212,77186
 6.0000e-001 77316 -2.0454e+002  3.9325e+001  3.0562e+000 61498 77134,77290,77160
 6.0000e-001 77678 -5.6676e+002  6.7565e+001  1.1561e+001 61129 77479,77557,77505
 6.0000e-001 77655 -5.6881e+002 -8.0789e+001  5.4216e+000 61129 77479,77583,77557
 6.0000e-001 77632 -5.1294e+002 -2.1113e+002  4.3416e+001 61129 77453,77583,77479
 6.0000e-001 77609 -5.0106e+002  1.8167e+002  1.1379e+002 61129 77505,77557,77531
 6.0000e-001 77828 -4.0430e+001 -4.4706e+000 -6.0988e+000 60931 77851,77727,77701
 6.0000e-001 77805 -3.5078e+001 -6.8684e+000 -4.7717e+000 60931 77851,77701,77779
 6.0000e-001 77877 -3.5461e+001 -8.0048e+000 -3.6547e+000 60931 77923,77851,77753
 6.0000e-001 77900 -2.1584e+001 -2.7531e+000 -7.1420e-001 60931 77753,77851,77779
 6.0000e-001 77949 -3.3662e+001 -5.0444e+000 -4.8785e+000 60931 77727,77851,77923
 6.0000e-001 78133 -3.5371e+002 -1.5998e+002  2.1534e+001 60377 78055,78107,78081
 6.0000e-001 78535 -1.8564e+002 -5.8875e+000 -2.4612e+001 60015 78287,78391,78313
 6.0000e-001 78512 -2.8147e+002 -7.6433e+001  7.3560e+000 60015 78287,78417,78391
 6.0000e-001 78489 -2.0732e+002 -5.7223e+001 -1.5924e+000 60015 78261,78417,78287
 6.0000e-001 78466 -3.8467e+002 -1.0836e+002  1.0722e+001 60015 78339,78391,78365
 6.0000e-001 78443 -4.0335e+002 -9.3906e+001 -1.9520e+001 60015 78313,78391,78339
 6.0000e-001 78913 -1.9937e+002 -4.2227e+001  5.3081e+000 59725 78936,78743,78691
 6.0000e-001 78890 -1.5040e+002  1.3853e+000  2.4618e+001 59725 79008,78936,78691
 6.0000e-001 78867 -1.3939e+002 -1.3926e+000  6.1071e+001 59725 79008,78691,78665
 6.0000e-001 78844 -2.3319e+002 -5.6809e+001  7.4092e+000 59725 78691,78743,78717
 6.0000e-001 78821 -2.2274e+002 -7.6687e+001  4.5300e+001 59725 78639,78795,78769
 6.0000e-001 78962 -2.0104e+002 -1.4319e+001  9.6358e+000 59725 78769,78743,78936
 6.0000e-001 78985 -2.1503e+002 -1.3418e+001  8.3552e+000 59725 78769,78936,78639
 6.0000e-001 79034 -2.2357e+002 -2.7961e+001  1.7983e+001 59725 78639,78936,79008
 6.0000e-001 79057 -1.8122e+002 -2.5139e+001  4.8486e+001 59725 78639,79008,78665
 6.0000e-001 79386 -2.7910e+002 -6.0633e+001  6.1937e-001 59221 79187,79239,79213
 6.0000e-001 79363 -2.8788e+002 -8.8185e+001  1.1464e+001 59221 79187,79265,79239
 6.0000e-001 79340 -2.3989e+002 -8.4143e+001 -1.1830e+001 59221 79187,79291,79265
 6.0000e-001 79317 -2.6319e+002 -1.3484e+002  4.5625e+000 59221 79161,79291,79187
 6.0000e-001 79813 -2.1572e+002  2.0969e+000  1.7439e+001 58831 79836,79542,79516
 6.0000e-001 79790 -1.5870e+002  9.9651e+000  3.1154e+001 58831 79980,79836,79516
 6.0000e-001 79767 -8.2274e+001  8.4082e+000 -2.1753e+001 58831 79908,79646,79568
 6.0000e-001 79744 -2.4496e+002 -1.4644e+001  2.9078e+001 58831 79980,79516,79490
 6.0000e-001 79721 -4.4633e+001  2.7688e+001 -1.4235e+001 58831 79568,79646,79594
 6.0000e-001 79698 -8.0054e+000  9.4908e+000  6.6400e+000 58831 79594,79646,79620
 6.0000e-001 79862 -1.3292e+002  3.5306e+001  3.1164e+001 58831 79568,79542,79836
 6.0000e-001 79885 -7.1589e+001 -1.6050e+000 -7.6120e+000 58831 79908,79568,79836
 6.0000e-001 79934 -9.0917e+001  6.9576e-001 -1.3757e+001 58831 79672,79646,79908
 6.0000e-001 79957 -9.6055e+001 -1.5291e+001  2.3614e+000 58831 79672,79908,79836
 6.0000e-001 80006 -1.2543e+002 -1.3957e+001 -3.8174e+000 58831 79672,79836,79980
 6.0000e-001 80029 -1.5778e+002 -1.4259e+001  1.0197e+001 58831 79672,79980,79490
 6.0000e-001 80358 -2.7451e+002 -1.7998e+000  2.1386e+001 58377 80381,80185,80159
 6.0000e-001 80335 -2.9025e+002 -2.1838e+001  1.2504e+001 58377 80381,80159,80133
 6.0000e-001 80312 -3.0524e+002 -5.5853e+001 -2.6629e+000 58377 80133,80263,80237
 6.0000e-001 80289 -2.3238e+002 -1.4801e+001  2.3426e+001 58377 80185,80237,80211
 6.0000e-001 80407 -2.3780e+002 -2.6341e+001  1.9791e+001 58377 80237,80185,80381
 6.0000e-001 80430 -2.6914e+002 -5.4632e+001  5.2227e+000 58377 80237,80381,80133
 6.0000e-001 80759 -2.7927e+002 -6.8878e+001 -6.5325e+001 57873 80782,80586,80560
 6.0000e-001 80736 -2.2510e+002 -4.3285e+001 -5.2785e+001 57873 80782,80560,80534
 6.0000e-001 80713 -2.0544e+002 -1.9871e+001 -1.7356e+001 57873 80586,80638,80612
 6.0000e-001 80690 -2.5551e+002 -5.3866e+001 -2.5757e+001 57873 80534,80664,80638
 6.0000e-001 80808 -2.6481e+002 -4.4904e+001 -3.8161e+001 57873 80638,80586,80782
 6.0000e-001 80831 -2.4953e+002 -4.0343e+001 -3.7974e+001 57873 80638,80782,80534
 6.0000e-001 81337 -2.9163e+001 -5.1679e+000 -1.2109e+001 57262 81360,81144,81092
 6.0000e-001 81314 -3.0922e+001 -1.0761e+001 -1.5349e+001 57262 81360,81092,81066
 6.0000e-001 81291 -2.0370e+001  3.8665e+000 -7.7111e+000 57262 81014,81196,81066
 6.0000e-001 81268 -3.3117e+001 -1.5310e+001 -1.3778e+001 57262 81092,81144,81118
 6.0000e-001 81245 -6.5319e+000 -4.9020e+000 -6.2136e+000 57262 81144,81196,81170
 6.0000e-001 81222 -2.2968e+001 -4.5368e+000  1.3243e+000 57262 81014,81066,81040
 6.0000e-001 81386 -2.6807e+001  5.8827e-001 -8.1447e+000 57262 81196,81144,81360
 6.0000e-001 81409 -2.9968e+001 -5.8620e+000 -1.1718e+001 57262 81196,81360,81066
 6.0000e-001 81608 -6.0335e+002 -2.3039e+002 -6.9773e+001 57007 81458,81536,81510
 6.0000e-001 81585 -5.6723e+002 -1.6591e+002 -5.5529e+001 57007 81432,81536,81458
 6.0000e-001 81562 -3.1020e+002 -2.8689e+002 -2.0428e+002 57007 81458,81510,81484
 6.0000e-001 82086 -1.9158e+002 -5.4522e+001  4.3723e+000 56339 81792,81922,81818
 6.0000e-001 82063 -8.4924e+001 -3.1752e+001  4.2628e+000 56339 81714,81922,81792
 6.0000e-001 82040 -2.2527e+002 -9.5006e+001  4.7304e+001 56339 82109,81844,81818
 6.0000e-001 82017 -2.0370e+002 -7.8547e+001  5.5119e+001 56339 82109,81818,81922
 6.0000e-001 81994 -2.1429e+002 -5.5513e+001 -1.8883e+001 56339 81844,81896,81870
 6.0000e-001 81971 -1.0510e+002 -4.9260e+001 -7.7232e+001 56339 81714,81792,81766
 6.0000e-001 81948 -2.0844e+002 -6.4068e+001 -1.1667e+002 56339 81714,81766,81740
 6.0000e-001 82135 -2.7034e+002 -7.6775e+001  3.6469e+001 56339 81896,81844,82109
 6.0000e-001 82158 -2.3124e+002 -4.0809e+001  5.1684e+001 56339 81896,82109,81922
 6.0000e-001 82536 -3.0064e+002 -7.3147e+001 -2.8639e+001 55699 82288,82392,82314
 6.0000e-001 82513 -4.5133e+002 -1.3535e+002 -2.3516e+001 55699 82288,82418,82392
 6.0000e-001 82490 -2.3366e+002 -9.2203e+001  2.3724e-001 55699 82314,82392,82340
 6.0000e-001 82467 -2.8010e+002 -1.0589e+002  1.7966e+001 55699 82340,82392,82366
 6.0000e-001 82444 -2.7511e+002 -4.2529e+001  2.6611e+001 55699 82262,82418,82288
 6.0000e-001 83091 -5.6365e+000 -3.4405e+001 -8.9622e+000 55409 82745,82901,82875
 6.0000e-001 83068  6.9337e+000 -1.3585e+001 -3.0689e+000 55409 82719,82901,82745
 6.0000e-001 83045 -2.5844e+001 -1.2859e+001 -2.1183e+001 55409 82771,82849,82823
 6.0000e-001 83022 -2.2625e+001  8.9918e-001  8.5960e+000 55409 82745,82849,82771
 6.0000e-001 82999 -2.8599e+001 -4.5452e+001  1.9865e+001 55409 82745,82875,82849
 6.0000e-001 82976 -1.7885e+001 -2.2026e+001 -2.0536e+001 55409 82771,82823,82797
 6.0000e-001 82953 -1.4437e+000 -1.2954e+000 -7.2698e+000 55409 82719,82927,82901
 6.0000e-001 83388 -2.0653e+002 -2.3526e+001 -1.1966e+001 54905 83411,83218,83166
 6.0000e-001 83365 -2.2364e+002 -1.2084e+001 -3.7800e+000 54905 83411,83166,83114
 6.0000e-001 83342 -1.6147e+002  9.7491e+000  9.6925e+000 54905 83483,83270,83244
 6.0000e-001 83319 -2.8055e+002 -4.3109e+001 -9.6455e+000 54905 83166,83218,83192
 6.0000e-001 83296 -2.1989e+002 -3.6385e+001  2.8847e+001 54905 83114,83166,83140
 6.0000e-001 83437 -2.0998e+002 -1.2558e+001 -5.7864e+000 54905 83244,83218,83411
 6.0000e-001 83460 -1.9514e+002  1.2020e+000  5.0791e+000 54905 83483,83244,83411
 6.0000e-001 83509 -2.0794e+002 -5.8712e+000 -1.8580e+000 54905 83114,83270,83483
 6.0000e-001 83532 -2.1286e+002  1.7771e+000 -8.4887e+000 54905 83114,83483,83411
 6.0000e-001 83961 -2.1232e+002  1.8428e+000 -3.1909e+001 54593 83638,83768,83690
 6.0000e-001 83938 -2.5453e+001  2.3466e+001  1.0967e+000 54593 83638,83794,83768
 6.0000e-001 83915 -1.2329e+002  8.0912e+001  7.4003e+000 54593 83690,83768,83742
 6.0000e-001 83892 -1.3364e+002  5.1821e+001 -8.4596e+001 54593 83638,83820,83794
 6.0000e-001 83869 -8.2493e+001  4.4652e+002 -8.6882e+001 54593 83638,83690,83664
 6.0000e-001 83846 -3.4258e+001  5.4658e+000  1.1423e+002 54593 83690,83742,83716
 6.0000e-001 84209 -2.2520e+002 -4.1634e+001 -6.0437e+000 54132 84232,84062,83984
 6.0000e-001 84186 -2.4928e+002 -5.9405e+001  2.1089e+000 54132 84232,83984,84114
 6.0000e-001 84163 -2.1831e+002 -1.9028e+001 -3.0958e+001 54132 83984,84062,84036
 6.0000e-001 84140 -1.7850e+002 -1.1117e+002 -1.2690e+000 54132 83984,84036,84010
 6.0000e-001 84258 -2.5892e+002 -1.0417e+001 -2.8140e+000 54132 84088,84062,84232
 6.0000e-001 84281 -2.9622e+002 -3.7448e+001  8.9869e+000 54132 84088,84232,84114
 6.0000e-001 84382 -4.3334e+002  9.4017e+000  6.3023e+000 53521 84304,84356,84330
 6.0000e-001 84632 -2.3899e+002 -1.2348e+001  1.4486e+001 53067 84655,84485,84459
 6.0000e-001 84609 -1.9332e+002 -3.4689e+001  2.3872e+001 53067 84655,84459,84407
 6.0000e-001 84586 -2.5790e+002 -6.4943e+001  4.5431e+000 53067 84485,84537,84511
 6.0000e-001 84563 -1.7040e+002  5.4839e-001 -1.1142e+001 53067 84407,84459,84433
 6.0000e-001 84681 -2.5559e+002 -2.4524e+001  1.9957e+001 53067 84537,84485,84655
 6.0000e-001 84704 -2.3896e+002 -6.8350e+001  3.8619e+001 53067 84537,84655,84407
 6.0000e-001 85214 -9.0910e+001 -3.3950e+001 -2.3560e+001 52513 85021,85073,85047
 6.0000e-001 85191 -1.4773e+002  1.7551e+001 -2.1825e+001 52513 84943,85073,85021
 6.0000e-001 85168 -2.6502e+002 -3.7809e+001 -4.7535e+001 52513 84943,85021,84995
 6.0000e-001 85145 -1.5523e+002 -2.2536e+001 -1.0636e+000 52513 84917,85073,84943
 6.0000e-001 85122 -1.4082e+002 -6.0899e+001 -5.3642e+001 52513 84943,84995,84969
 6.0000e-001 85099 -4.8002e+001 -4.1188e+001 -1.0967e+001 52513 84891,85073,84917
 6.0000e-001 85582 -2.3239e+002 -3.9090e+001 -2.7350e+001 52037 85605,85311,85285
 6.0000e-001 85559 -2.6427e+002 -5.1384e+001  5.6891e-002 52037 85749,85605,85285
 6.0000e-001 85536 -2.5911e+002 -7.3276e+001 -4.0041e+000 52037 85893,85677,85389
 6.0000e-001 85513 -2.8133e+002 -6.3627e+001  5.4192e+000 52037 85749,85285,85259
 6.0000e-001 85490 -2.4665e+002 -7.1633e+001 -3.0083e+001 52037 85893,85389,85363
 6.0000e-001 85467 -2.9000e+002  5.1923e+000  1.6486e+001 52037 85259,85441,85415
 6.0000e-001 85631 -2.7437e+002 -2.3583e+001  9.3769e+000 52037 85337,85311,85605
 6.0000e-001 85654 -2.8354e+002 -8.3144e+001  2.0003e+001 52037 85677,85337,85605
 6.0000e-001 85703 -2.9846e+002 -6.6415e+001 -8.4148e+000 52037 85415,85389,85677
 6.0000e-001 85726 -2.8272e+002 -3.3758e+001  2.6618e+000 52037 85821,85677,85605
 6.0000e-001 85775 -2.8416e+002 -3.6282e+001 -2.1464e+000 52037 85821,85605,85749
 6.0000e-001 85798 -2.9702e+002 -4.7293e+001 -2.5128e+000 52037 85415,85749,85259
 6.0000e-001 85847 -2.8606e+002 -4.0814e+001  5.6462e-001 52037 85415,85677,85821
 6.0000e-001 85870 -2.8602e+002 -4.2795e+001 -3.7260e+000 52037 85415,85821,85749
 6.0000e-001 85919 -2.7417e+002 -1.1483e+002  6.2747e+000 52037 85337,85677,85893
 6.0000e-001 85942 -2.6945e+002 -1.2002e+002 -1.7894e+001 52037 85337,85893,85363
 6.0000e-001 86224 -7.5775e+001 -9.5851e+000 -4.7376e+000 51368 86375,86100,86074
 6.0000e-001 86201 -3.5466e+001  3.8118e+000 -6.8652e+000 51368 86375,86074,86247
 6.0000e-001 86178 -4.2886e+001  1.0524e+001 -2.1193e+001 51368 86048,86152,86126
 6.0000e-001 86273 -1.1715e+002 -9.5297e+000  3.1903e+000 51368 86048,86126,86247
 6.0000e-001 86401 -9.7181e+001  5.4890e+000  1.3316e+001 51368 86126,86100,86375
 6.0000e-001 86424 -7.6897e+001  5.0340e+000  1.1497e+001 51368 86126,86375,86247
 6.0000e-001 86802 -3.0347e+002 -6.7710e+001  7.3251e+000 51028 86528,86632,86580
 6.0000e-001 86779 -1.8760e+002 -1.6328e+001 -2.5770e+001 51028 86528,86684,86632
 6.0000e-001 86756 -2.6441e+002  2.4082e+001  6.4148e+000 51028 86528,86580,86554
 6.0000e-001 86733 -2.0413e+002 -6.1819e+000 -4.8510e+001 51028 86632,86684,86658
 6.0000e-001 86710 -2.0002e+002 -2.0418e+001  2.0089e+001 51028 86580,86632,86606
 6.0000e-001 87131 -2.2264e+002  7.6736e-001  3.6788e+001 50624 86958,87036,87010
 6.0000e-001 87108 -1.8367e+002 -6.6804e+001  4.2055e+001 50624 86932,87036,86958
 6.0000e-001 87085 -1.7930e+002  2.8258e+001 -2.0765e+001 50624 86958,87010,86984
 6.0000e-001 87062 -1.2114e+002 -5.4378e+001  2.1329e+001 50624 86906,87036,86932
 6.0000e-001 87330 -1.2865e+002 -7.4612e+000 -1.9942e+001 50234 87353,87180,87154
 6.0000e-001 87307 -1.6890e+002 -1.0047e+001 -1.9969e+001 50234 87353,87154,87258
 6.0000e-001 87284 -2.2596e+002  4.1651e+000 -5.0837e+000 50234 87206,87258,87232
 6.0000e-001 87379 -1.6430e+002  2.0035e+001 -4.1890e+001 50234 87206,87180,87353
 6.0000e-001 87402 -2.2502e+002  4.2649e+000 -3.3191e+001 50234 87206,87353,87258
 6.0000e-001 87650 -2.5585e+002 -2.3628e+001 -1.1290e+001 49730 87673,87503,87451
 6.0000e-001 87627 -2.3148e+002 -8.7564e+000  2.2971e+001 49730 87673,87451,87425
 6.0000e-001 87604 -1.9329e+002 -3.4343e+001  5.8401e+001 49730 87503,87555,87529
 6.0000e-001 87581 -4.7005e+002 -6.4543e+001  4.1864e+001 49730 87451,87503,87477
 6.0000e-001 87699 -2.5635e+002  8.8354e+000  4.6888e+000 49730 87555,87503,87673
 6.0000e-001 87722 -2.5523e+002  3.7652e+001  2.1293e+001 49730 87555,87673,87425
 6.0000e-001 88232 -2.5955e+002 -1.2267e+002  1.2176e+001 49176 88255,87935,87909
 6.0000e-001 88209 -2.1233e+002 -7.9518e+001 -3.9723e+001 49176 88255,87909,88065
 6.0000e-001 88186 -2.8304e+002 -4.6853e+001 -4.7644e+001 49176 87935,88039,87961
 6.0000e-001 88163 -1.9098e+002 -7.1927e+001 -4.3066e+001 49176 87909,88091,88065
 6.0000e-001 88140 -3.4423e+002 -6.4805e+001  4.3763e+001 49176 87961,88039,88013
 6.0000e-001 88117 -3.0790e+002 -1.0746e+002 -1.7001e+001 49176 87961,88013,87987
 6.0000e-001 88281 -2.0798e+002 -1.0155e+002 -2.9624e+001 49176 88039,87935,88255
 6.0000e-001 88304 -1.6378e+002 -6.3724e+001 -8.0650e+001 49176 88039,88255,88065
 6.0000e-001 88503 -2.6019e+002 -1.5499e+002 -3.5919e+001 48772 88526,88379,88353
 6.0000e-001 88480 -2.7883e+002 -9.7129e+001 -2.3842e+001 48772 88526,88353,88327
 6.0000e-001 88457 -2.0951e+002 -5.2285e+001 -1.8732e+001 48772 88379,88431,88405
 6.0000e-001 88552 -2.4510e+002 -1.0857e+002 -4.3412e+001 48772 88431,88379,88526
 6.0000e-001 88575 -2.7538e+002 -7.0124e+001 -3.6980e+001 48772 88431,88526,88327
 6.0000e-001 89083  1.0833e+000 -2.7908e+000  3.7056e+000 48368 88786,88916,88864
 6.0000e-001 89060 -1.7920e+001 -5.3360e+000  1.7282e+000 48368 88786,88942,88916
 6.0000e-001 89037  3.7670e+000 -2.6936e+000  8.6967e-001 48368 88786,88864,88812
 6.0000e-001 89014 -2.8557e+001 -8.4420e+000 -2.1122e+000 48368 88864,88916,88890
 6.0000e-001 88991  3.7493e-001 -2.8136e+000  2.6044e-001 48368 88812,88864,88838
 6.0000e-001 88968  2.4455e+000 -5.5650e+000 -9.8400e+000 48368 88760,88942,88786
 6.0000e-001 89331 -1.2086e+002 -5.3179e+001 -5.1418e+001 47928 89158,89236,89210
 6.0000e-001 89308 -1.4433e+002 -2.1165e+001 -3.1774e+000 47928 89132,89236,89158
 6.0000e-001 89285 -1.3953e+002  3.5903e+000 -5.5421e+001 47928 89158,89210,89184
 6.0000e-001 89262 -2.3652e+002 -3.1239e+001 -2.2257e+001 47928 89106,89236,89132
 6.0000e-001 89662 -1.8454e+002 -4.1099e+001  1.4538e+001 47588 89463,89541,89515
 6.0000e-001 89639 -1.8639e+002 -8.0867e+001  6.6505e+000 47588 89463,89567,89541
 6.0000e-001 89616 -1.9426e+002 -3.6712e+001  2.1380e+000 47588 89463,89515,89489
 6.0000e-001 89593 -1.8558e+002 -1.2180e+002  3.8598e+001 47588 89437,89567,89463
 6.0000e-001 89763 -6.9000e+002 -7.5689e+001 -2.3110e+001 47390 89685,89737,89711
 6.0000e-001 89913 -4.4515e+002 -1.2042e+002 -4.7985e+001 47078 89786,89838,89812
 6.0000e-001 89890 -1.9755e+002 -1.4429e+002 -5.9345e+001 47078 89786,89864,89838
 6.0000e-001 90163 -2.3709e+002 -3.7675e+001  2.2568e+001 46474 89964,90042,89990
 6.0000e-001 90140 -2.1601e+002 -3.3945e+001  4.6034e+001 46474 89938,90042,89964
 6.0000e-001 90117 -1.3664e+002 -5.1611e+001  3.3488e+001 46474 89990,90042,90016
 6.0000e-001 90094 -1.8260e+002 -3.7574e+001  3.9731e+001 46474 89938,90068,90042
 6.0000e-001 90364 -8.7820e+001 -1.5148e+001  3.7646e+001 46184 90240,90292,90266
 6.0000e-001 90341 -1.3129e+002 -1.0254e+001  4.2624e+001 46184 90188,90292,90240
 6.0000e-001 90318 -1.2450e+002 -6.7450e+001  4.4361e+001 46184 90188,90240,90214
 6.0000e-001 90565 -2.6976e+002 -4.8340e+000 -2.8522e+001 45780 90588,90415,90389
 6.0000e-001 90542 -2.1255e+002  1.8476e+001 -3.6408e+001 45780 90588,90389,90493
 6.0000e-001 90519 -2.1446e+002 -6.8163e+001 -3.2685e+000 45780 90415,90467,90441
 6.0000e-001 90614 -2.2440e+002 -3.9202e+001  1.1157e+001 45780 90467,90415,90588
 6.0000e-001 90637 -1.5915e+002 -1.1688e+001  8.3293e+000 45780 90467,90588,90493
 6.0000e-001 91196 -1.6007e+002 -2.4151e+001  1.9408e-001 45226 91219,90876,90850
 6.0000e-001 91173 -1.8725e+002 -3.7930e+001  6.3715e+000 45226 91219,90850,91032
 6.0000e-001 91150 -2.0533e+002 -5.1364e+001 -5.0768e-001 45226 90824,91032,90850
 6.0000e-001 91127 -2.4431e+002 -6.2163e+001  4.3005e+000 45226 90876,90980,90902
 6.0000e-001 91104 -1.8306e+002 -1.7376e+001 -2.1244e+001 45226 90876,91006,90980
 6.0000e-001 91081 -2.7341e+002 -3.6796e+001  4.4209e+001 45226 90902,90980,90954
 6.0000e-001 91058 -7.7274e+002 -1.4341e+002  4.0211e+000 45226 90902,90954,90928
 6.0000e-001 91245 -1.9222e+002 -5.1315e+000 -6.6093e+000 45226 91006,90876,91219
 6.0000e-001 91268 -2.2196e+002 -2.1624e+001  7.1238e-001 45226 91006,91219,91032
 6.0000e-001 91516 -7.3965e+001  5.3926e+001 -1.4330e+001 44836 91539,91421,91395
 6.0000e-001 91493 -1.8617e+002  5.6937e+001 -3.6164e+001 44836 91317,91421,91343
 6.0000e-001 91470 -7.2767e+001 -5.6977e+001  4.7360e+001 44836 91539,91395,91369
 6.0000e-001 91447 -4.9579e+001 -2.2963e+001 -9.9963e+001 44836 91291,91421,91317
 6.0000e-001 91565 -5.8049e+001  1.0420e+002 -1.7077e+001 44836 91343,91421,91539
 6.0000e-001 91588 -1.5602e+001  7.7053e+001  4.6803e+001 44836 91343,91539,91369
 6.0000e-001 91787 -1.8710e+002  7.6825e+000 -2.9299e+001 44432 91810,91637,91611
 6.0000e-001 91764 -9.7603e+001 -3.9726e+001 -3.5932e+001 44432 91810,91611,91715
 6.0000e-001 91741 -1.2755e+002  2.4788e+001 -1.1706e+001 44432 91637,91689,91663
 6.0000e-001 91836 -1.1719e+002  2.9251e+001 -1.1576e+001 44432 91689,91637,91810
 6.0000e-001 91859 -4.3575e+001 -1.8436e+001 -5.6628e+000 44432 91689,91810,91715
 6.0000e-001 92207 -1.9088e+002 -1.8793e+001 -3.0248e+001 43864 92230,91936,91910
 6.0000e-001 92184 -1.2679e+002 -3.3403e+001 -4.1035e+001 43864 92230,91910,92040
 6.0000e-001 92161 -7.7904e+001 -7.5390e+000 -1.4611e+001 43864 91884,92040,91910
 6.0000e-001 92138 -2.0321e+002 -3.9151e+001 -3.5402e+000 43864 91936,92014,91988
 6.0000e-001 92115 -1.5720e+002 -1.5591e+001 -1.2233e+001 43864 91936,91988,91962
 6.0000e-001 92092 -2.1964e+001 -2.2790e+001 -2.2645e+001 43864 91884,92066,92040
 6.0000e-001 92256 -1.3234e+002 -6.7373e+000 -1.6074e+001 43864 92014,91936,92230
 6.0000e-001 92279 -9.0848e+001 -3.8822e+001 -3.7809e+001 43864 92014,92230,92040
 6.0000e-001 92529 -3.2358e+002 -7.6639e+001  5.0595e+001 43410 92552,92330,92304
 6.0000e-001 92506 -3.0342e+002 -2.8609e+001  3.7919e+001 43410 92552,92304,92408
 6.0000e-001 92483 -1.9458e+002 -3.3100e+001 -5.2098e+000 43410 92304,92434,92408
 6.0000e-001 92460 -2.6811e+002 -8.4033e+001 -6.1816e+000 43410 92330,92382,92356
 6.0000e-001 92578 -3.3276e+002 -7.2843e+001 -6.5918e+000 43410 92382,92330,92552
 6.0000e-001 92601 -2.8186e+002  3.5706e+001 -2.2627e+001 43410 92382,92552,92408
 6.0000e-001 92802 -7.6223e+001  5.5165e-001  5.3328e+000 43162 92825,92704,92652
 6.0000e-001 92779 -7.4820e+001  1.6285e+000  7.8132e+000 43162 92825,92652,92626
 6.0000e-001 92756 -2.3752e+001 -4.8848e+000  8.5198e+000 43162 92652,92704,92678
 6.0000e-001 92851 -7.8827e+001  1.9278e-001  3.4912e+000 43162 92730,92704,92825
 6.0000e-001 92874 -8.0405e+001  4.8260e+000  7.1899e+000 43162 92730,92825,92626
 6.0000e-001 93463 -3.1281e+002 -1.3241e+002  5.3522e+001 42758 93140,93270,93166
 6.0000e-001 93440 -2.5723e+002 -1.1424e+002  4.7553e+000 42758 93140,93296,93270
 6.0000e-001 93417 -2.4051e+002 -4.3386e+001  2.8470e+000 42758 93166,93270,93218
 6.0000e-001 93394 -3.9633e+002 -3.7347e+000  7.1076e+001 42758 93218,93270,93244
 6.0000e-001 93371 -2.4606e+002 -1.0741e+002  1.4933e+000 42758 93140,93322,93296
 6.0000e-001 93348 -2.0648e+002  4.5087e+001  3.4203e+001 42758 93166,93218,93192
 6.0000e-001 93920 -1.7639e+002 -2.0233e+001  1.7868e+001 42304 93943,93672,93646
 6.0000e-001 93897 -1.7928e+002 -3.3941e+001  1.4956e+001 42304 93943,93646,93802
 6.0000e-001 93874 -1.8233e+002 -5.3130e+000 -8.5501e+000 42304 93724,93802,93776
 6.0000e-001 93851 -1.7721e+002 -4.3447e+000  1.3037e+001 42304 93672,93724,93698
 6.0000e-001 93828 -7.7996e+001 -1.1974e+001  2.2509e+001 42304 93724,93776,93750
 6.0000e-001 93969 -1.7771e+002 -1.5592e+001  2.1704e+001 42304 93724,93672,93943
 6.0000e-001 93992 -1.7544e+002 -2.2049e+001  1.8968e+001 42304 93724,93943,93802
 6.0000e-001 94321 -1.3349e+002 -4.4863e+001 -4.1776e+000 41478 94096,94148,94122
 6.0000e-001 94298 -1.1141e+002 -4.4569e+000 -1.2685e+001 41478 94096,94226,94148
 6.0000e-001 94275 -5.3356e+001 -1.2559e+001  3.5110e-001 41478 94148,94226,94174
 6.0000e-001 94252 -3.8030e+001 -1.2433e+000 -1.2809e+001 41478 94174,94226,94200
 6.0000e-001 94618 -1.8498e+002 -3.4598e+001  2.3478e+001 40910 94344,94422,94396
 6.0000e-001 94595 -1.7895e+002 -2.4358e+001  2.6518e+001 40910 94344,94448,94422
 6.0000e-001 94572 -1.7797e+002 -1.8753e+001  4.5502e+001 40910 94344,94474,94448
 6.0000e-001 94549 -1.4690e+002 -5.3094e+001  3.0476e+000 40910 94344,94396,94370
 6.0000e-001 94526 -2.4569e+002 -3.8942e+001  6.6487e+001 40910 94344,94500,94474
 6.0000e-001 94866 -2.9699e+002  9.3564e+000 -1.8017e+001 40306 94667,94719,94693
 6.0000e-001 94843 -2.4478e+002 -8.2244e+001  5.9445e+000 40306 94641,94719,94667
 6.0000e-001 94820 -1.9557e+002 -6.3958e+000 -1.8832e+001 40306 94641,94745,94719
 6.0000e-001 94797 -1.4874e+002 -4.8044e+001 -4.4322e+000 40306 94641,94771,94745
 6.0000e-001 95089 -2.7683e+002 -1.4030e+002 -9.2256e+000 39702 94913,94991,94939
 6.0000e-001 95066 -3.2407e+002 -1.4379e+002 -1.3782e+001 39702 94913,95017,94991
 6.0000e-001 95043 -3.6351e+002 -1.7904e+002 -2.2582e+001 39702 94939,94991,94965
 6.0000e-001 95339 -2.3298e+002 -4.1789e-001  3.0589e+001 39248 95140,95218,95166
 6.0000e-001 95316 -2.4566e+002 -1.6523e+001  4.4287e+001 39248 95140,95244,95218
 6.0000e-001 95293 -2.0171e+002 -1.6037e+001  3.9379e+001 39248 95114,95244,95140
 6.0000e-001 95270 -2.5762e+002  1.4884e+000  3.8890e+001 39248 95166,95218,95192
 6.0000e-001 95770 -2.2603e+001  1.1897e+000  1.4825e+000 38694 95551,95629,95577
 6.0000e-001 95747 -5.3340e+001 -1.6544e+000 -6.3766e+000 38694 95447,95629,95551
 6.0000e-001 95724 -5.8230e+001 -2.9675e+000  1.4148e+001 38694 95447,95551,95473
 6.0000e-001 95701 -2.2619e+001  2.0207e+000  5.5019e+000 38694 95473,95551,95499
 6.0000e-001 95678 -2.9076e+001  8.0074e-001  2.6297e+000 38694 95499,95551,95525
 6.0000e-001 95655 -2.2244e+001  1.5493e+000  2.0635e+000 38694 95577,95629,95603
 6.0000e-001 96325 -2.3687e+002 -2.5505e+000 -1.1909e-001 38240 95953,96031,96005
 6.0000e-001 96302 -2.7071e+002 -4.4301e+001  1.9648e+001 38240 95953,96161,96031
 6.0000e-001 96279 -2.4330e+002 -1.0584e+002 -5.6524e+001 38240 96031,96161,96135
 6.0000e-001 96256 -3.1542e+002 -7.3538e+001  1.8752e+001 38240 96348,96109,96057
 6.0000e-001 96233 -3.0432e+002 -1.3393e+002 -6.3367e+001 38240 96348,96057,96031
 6.0000e-001 96210 -3.1519e+002  8.6559e-001  4.6347e+000 38240 96057,96109,96083
 6.0000e-001 96187 -1.0108e+002 -3.0937e+001  7.2784e+001 38240 95953,96005,95979
 6.0000e-001 96374 -2.4249e+002 -2.9204e+001  3.8516e+001 38240 96135,96109,96348
 6.0000e-001 96397 -2.1786e+002 -8.5278e+001 -4.3661e+001 38240 96135,96348,96031
 6.0000e-001 96618 -1.7781e+002  3.9872e+001  8.5574e+000 37821 96494,96546,96520
 6.0000e-001 96595 -2.3607e+002 -4.2524e+001 -2.9187e+001 37821 96468,96546,96494
 6.0000e-001 96572 -2.8325e+002 -6.2716e+001 -2.5692e+001 37821 96442,96546,96468
 6.0000e-001 97126 -2.3032e+002 -1.9076e+001  2.1038e+001 37367 97149,96855,96829
 6.0000e-001 97103 -1.8074e+002  7.3200e+000  5.7736e-001 37367 97149,96829,96985
 6.0000e-001 97080 -1.8410e+002  1.2119e+001  3.0763e+000 37367 96803,96985,96829
 6.0000e-001 97057 -1.6916e+002 -5.0467e+001  5.0116e+001 37367 96855,96907,96881
 6.0000e-001 97034 -9.5938e+001  9.4542e-001  2.1666e-001 37367 96907,96985,96959
 6.0000e-001 97011 -4.5431e+001 -4.2532e+000  3.7959e+001 37367 96907,96959,96933
 6.0000e-001 97175 -1.8064e+002 -5.8445e+001  4.6379e+001 37367 96907,96855,97149
 6.0000e-001 97198 -1.4520e+002 -3.3964e+001  2.8444e+001 37367 96907,97149,96985
 6.0000e-001 97704 -1.3971e+002 -2.3305e+001 -2.0599e+001 36863 97727,97511,97485
 6.0000e-001 97681 -1.3557e+002 -4.8479e+001 -4.8554e+001 36863 97727,97485,97433
 6.0000e-001 97658 -8.8457e+001  1.9639e+001 -3.6410e+001 36863 97381,97563,97433
 6.0000e-001 97635 -4.0797e+001  1.0776e+001 -8.5549e+000 36863 97511,97563,97537
 6.0000e-001 97612 -1.9058e+002 -6.2715e+001 -4.5911e+001 36863 97433,97485,97459
 6.0000e-001 97589 -5.6808e+001  1.7087e+001 -6.3858e+001 36863 97381,97433,97407
 6.0000e-001 97753 -1.1831e+002 -7.6226e+000 -1.3499e+001 36863 97563,97511,97727
 6.0000e-001 97776 -1.0449e+002 -2.7396e+001 -3.9290e+001 36863 97563,97727,97433
 6.0000e-001 98331 -1.3192e+002 -2.4189e+001 -3.9364e+000 36287 98354,98089,98063
 6.0000e-001 98308 -1.1090e+002 -2.2002e+001  2.5454e+001 36287 98354,98063,98011
 6.0000e-001 98285 -1.4994e+002 -4.7357e+000  1.2477e+001 36287 98426,97985,98115
 6.0000e-001 98262 -1.0197e+002 -3.8099e+001  2.0531e+001 36287 98011,98063,98037
 6.0000e-001 98239 -2.3846e+002 -6.1816e+001  3.7523e+001 36287 97985,98141,98115
 6.0000e-001 98216 -3.7864e+002 -5.5904e+001  6.3853e+001 36287 97959,98141,97985
 6.0000e-001 98193 -3.7162e+002  2.0968e+001  3.7670e+001 36287 97959,98167,98141
 6.0000e-001 98380 -2.1082e+002 -2.8669e+001 -1.3128e+001 36287 98115,98089,98354
 6.0000e-001 98403 -1.4123e+002 -4.1976e+000  1.9689e+000 36287 98426,98115,98354
 6.0000e-001 98452 -1.6024e+002 -1.8201e+001  1.7961e+001 36287 98011,97985,98426
 6.0000e-001 98475 -1.5348e+002 -2.1223e+001  8.1035e+000 36287 98011,98426,98354
 6.0000e-001 99030 -7.9289e+001 -2.4100e+001  3.8510e+000 35726 99053,98736,98710
 6.0000e-001 99007 -9.6464e+001 -1.0504e+001  1.1112e+001 35726 99053,98710,98684
 6.0000e-001 98984 -7.2499e+001 -2.2200e+001  8.2077e+000 35726 99125,98814,98736
 6.0000e-001 98961 -7.4263e+001 -2.2556e+001  8.0207e+000 35726 98736,98814,98788
 6.0000e-001 98938 -1.3447e+002 -1.7584e+000 -2.8119e+001 35726 98684,98866,98840
 6.0000e-001 98915 -1.2294e+002 -2.9517e+001 -3.4570e+001 35726 98736,98788,98762
 6.0000e-001 98892 -1.0642e+002  2.3859e+001 -1.6137e+001 35726 98658,98866,98684
 6.0000e-001 99079 -7.7396e+001 -1.8278e+001  4.9660e+000 35726 99125,98736,99053
 6.0000e-001 99102 -8.4933e+001  8.7787e+000  5.0541e+000 35726 98840,99053,98684
 6.0000e-001 99151 -6.9372e+001 -2.1636e+001  3.8588e+000 35726 98840,98814,99125
 6.0000e-001 99174 -6.9268e+001 -1.3003e+001 -2.1560e-002 35726 98840,99125,99053
 6.0000e-001 99454 -1.4731e+002 -1.8491e+001  7.1982e+000 35222 99278,99330,99304
 6.0000e-001 99431 -1.6666e+002 -1.9319e+001  3.0914e+001 35222 99278,99382,99330
 6.0000e-001 99408 -1.9657e+002 -4.2949e+000  2.4840e+001 35222 99330,99382,99356
 6.0000e-001 99653 -2.1445e+002 -3.6831e+001 -1.8884e+001 34867 99477,99529,99503
 6.0000e-001 99630 -1.6364e+002 -6.0908e+001 -1.8240e+001 34867 99477,99581,99529
 6.0000e-001 99607 -1.3338e+002 -6.0525e+000 -3.1963e+001 34867 99529,99581,99555
 6.0000e-001 100104 -2.1152e+002 -5.9756e+000 -4.9808e+000 34363 99781,99885,99807
 6.0000e-001 100081 -1.8235e+002  4.5886e+000 -7.3916e-001 34363 99781,99963,99885
 6.0000e-001 100058 -2.6231e+002 -3.8975e+001  2.1141e+001 34363 99885,99963,99911
 6.0000e-001 100035 -2.6369e+002 -2.0939e+000 -1.4697e+001 34363 99807,99885,99859
 6.0000e-001 100012 -2.2751e+002 -2.9106e+001  4.8749e+001 34363 99911,99963,99937
 6.0000e-001 99989 -2.2107e+002 -3.2395e+000 -7.9019e+001 34363 99807,99859,99833
 6.0000e-001 100303 -2.1673e+002 -4.5638e+001 -3.4276e+000 33909 100127,100205,100179
 6.0000e-001 100280 -2.3445e+002 -1.0588e+001 -2.9059e+001 33909 100127,100231,100205
 6.0000e-001 100257 -1.9746e+002 -1.2213e-001 -3.0952e+000 33909 100127,100179,100153
 6.0000e-001 100890 -1.8043e+002 -8.3079e+001  4.5883e+000 33412 100645,100749,100697
 6.0000e-001 100867 -1.8822e+002 -8.0524e+001 -1.8242e+000 33412 100567,100749,100645
 6.0000e-001 100844 -1.6677e+002 -4.2296e+001 -1.0564e+001 33412 100567,100645,100619
 6.0000e-001 100821 -2.4248e+002 -7.1007e+001  2.0731e+001 33412 100645,100697,100671
 6.0000e-001 100798 -2.0836e+002 -5.4340e+001 -5.3213e+001 33412 100567,100619,100593
 6.0000e-001 100775 -1.7260e+002 -5.1178e+001 -9.3282e-001 33412 100697,100749,100723
 6.0000e-001 101268 -2.1085e+002 -5.5346e+000 -6.0876e-001 32908 101435,101291,101098
 6.0000e-001 101245 -1.9527e+002 -5.3533e+001  1.0315e+001 32908 101291,101072,101020
 6.0000e-001 101222 -2.4753e+002 -8.1383e+001 -1.5028e+001 32908 101363,101150,101124
 6.0000e-001 101199 -1.7190e+002 -4.5237e+001 -5.7850e+001 32908 101020,101072,101046
 6.0000e-001 101176 -2.1930e+002 -4.0266e+001  1.9751e+001 32908 100994,101150,101020
 6.0000e-001 101317 -2.2143e+002 -4.4212e+001  1.8286e+001 32908 101124,101098,101291
 6.0000e-001 101340 -2.2142e+002 -8.0250e+001 -3.6674e+000 32908 101363,101124,101291
 6.0000e-001 101389 -2.2643e+002 -6.8873e+001  3.3553e+000 32908 101020,101150,101363
 6.0000e-001 101412 -2.1269e+002 -6.7336e+001  1.6299e+001 32908 101020,101363,101291
 6.0000e-001 101461 -2.3103e+002 -5.0316e+001  7.3341e+000 32908 101072,101291,101435
 6.0000e-001 101918 -2.2166e+002 -1.0071e+002 -2.1733e+001 32618 101941,101670,101644
 6.0000e-001 101895 -1.9059e+002 -6.5051e+001 -6.3516e+000 32618 101941,101644,101774
 6.0000e-001 101872 -3.2107e+002 -5.9303e+001  6.9285e+000 32618 102013,101696,101670
 6.0000e-001 101849 -2.5755e+002 -7.0982e+001  2.7255e+001 32618 101696,101748,101722
 6.0000e-001 101826 -1.7652e+002 -2.9871e+001 -9.6258e+000 32618 101644,101800,101774
 6.0000e-001 101967 -3.0659e+002 -7.5846e+001 -2.2525e+001 32618 102013,101670,101941
 6.0000e-001 101990 -2.0197e+002 -1.3646e+001 -4.7187e+001 32618 101748,101941,101774
 6.0000e-001 102039 -2.8555e+002 -6.8551e+001 -4.8377e+000 32618 101748,101696,102013
 6.0000e-001 102062 -2.1718e+002 -5.5168e+001 -2.6811e+001 32618 101748,102013,101941
 6.0000e-001 102440 -3.6794e+001 -1.5734e+001 -1.0506e+001 32306 102463,102270,102244
 6.0000e-001 102417 -3.2439e+001 -6.3435e+000 -8.2774e+000 32306 102463,102244,102192
 6.0000e-001 102394 -2.7456e+001 -7.2350e+000 -1.0283e+001 32306 102192,102244,102218
 6.0000e-001 102371 -2.7790e+001  3.0786e+001 -3.1603e+001 32306 102270,102322,102296
 6.0000e-001 102348 -4.3176e+001  1.4208e+001 -1.0108e+001 32306 102166,102322,102192
 6.0000e-001 102489 -4.3127e+001 -1.3335e+001 -2.0500e+001 32306 102322,102270,102463
 6.0000e-001 102512 -3.6334e+001  1.9900e+000 -1.7841e+001 32306 102322,102463,102192
 6.0000e-001 102662 -1.6324e+002 -7.3984e+001  4.5318e+001 31852 102943,102587,102561
 6.0000e-001 102639 -2.4409e+002  2.5909e+000  2.8676e+001 31852 102815,102685,102561
 6.0000e-001 102711 -2.0125e+002 -3.0020e+001  6.4543e+001 31852 102943,102561,102685
 6.0000e-001 102841 -1.4427e+002 -6.3977e+001 -7.8030e+000 31852 102535,102685,102815
 6.0000e-001 102969 -1.3744e+002 -3.2830e+001  2.1427e+001 31852 102613,102587,102943
 6.0000e-001 102992 -1.8160e+002 -1.0039e+000  4.2982e+001 31852 102613,102943,102685
 6.0000e-001 103370 -2.1112e+002 -8.5771e+001  3.6807e+001 31134 103096,103200,103122
 6.0000e-001 103347 -2.2256e+002 -6.9011e+001 -5.0107e+001 31134 103096,103226,103200
 6.0000e-001 103324 -2.9069e+002 -9.4485e+001  3.0355e+001 31134 103122,103200,103174
 6.0000e-001 103301 -2.9460e+002 -7.5702e+001 -2.7754e+001 31134 103096,103252,103226
 6.0000e-001 103278 -2.0776e+002 -1.8136e+001 -2.9169e+001 31134 103122,103174,103148
 6.0000e-001 103520 -3.5790e+002 -9.1710e+001  7.0554e-001 30822 103393,103445,103419
 6.0000e-001 103497 -3.5167e+002 -8.0052e+001 -1.6621e+000 30822 103393,103471,103445
 6.0000e-001 103719 -1.3641e+002  1.6572e+001 -1.9753e+000 30182 103742,103621,103569
 6.0000e-001 103696 -1.9287e+002  3.2442e+001 -1.1624e+001 30182 103742,103569,103543
 6.0000e-001 103673 -1.0269e+002  4.5964e+001  5.4567e+001 30182 103569,103621,103595
 6.0000e-001 103768 -1.0936e+002  2.3268e+001 -4.0921e+000 30182 103647,103621,103742
 6.0000e-001 103791 -1.3480e+002  6.0849e+001 -2.4063e+001 30182 103647,103742,103543
 6.0000e-001 104252 -7.6375e+001 -1.0580e+001  4.2852e+000 29728 104030,104108,104056
 6.0000e-001 104229 -8.9777e+001 -1.9884e+001 -1.0165e+001 29728 104004,104108,104030
 6.0000e-001 104206 -7.9239e+001 -3.0350e+001 -1.2849e+001 29728 104004,104134,104108
 6.0000e-001 104183 -5.8355e+001 -4.0704e+000  7.1374e+000 29728 103978,104134,104004
 6.0000e-001 104160 -1.0387e+002 -7.3375e+000  1.5633e+001 29728 104056,104108,104082
 6.0000e-001 104630 -2.5401e+002 -7.3528e+001  8.1653e+001 29217 104653,104382,104356
 6.0000e-001 104607 -2.5970e+002 -6.7186e+001  1.3433e+001 29217 104653,104356,104512
 6.0000e-001 104584 -1.3444e+002 -7.0656e+001  3.5086e+001 29217 104434,104512,104486
 6.0000e-001 104561 -2.2259e+002 -1.5468e+001  6.1164e+001 29217 104382,104434,104408
 6.0000e-001 104538 -1.1590e+002 -3.5590e+001  5.5349e+001 29217 104434,104486,104460
 6.0000e-001 104679 -2.0892e+002 -5.4709e+001  6.9832e+001 29217 104434,104382,104653
 6.0000e-001 104702 -1.9352e+002 -5.0881e+001  8.8211e+000 29217 104434,104653,104512
 6.0000e-001 105178 -1.9467e+002 -1.8258e+001  8.3459e+000 28649 105201,104962,104936
 6.0000e-001 105155 -1.7278e+002 -4.3103e+001 -6.5556e+000 28649 105201,104936,104884
 6.0000e-001 105132 -1.6329e+002 -2.6675e+001  5.8104e+000 28649 105273,104858,105014
 6.0000e-001 105109 -1.4607e+002  1.2842e+001  1.8239e+001 28649 104962,105014,104988
 6.0000e-001 105086 -1.7795e+002 -4.0654e+001 -1.4039e+001 28649 104884,104936,104910
 6.0000e-001 105063 -1.0318e+002 -1.8176e+001  4.3142e+000 28649 104806,105014,104858
 6.0000e-001 105040 -1.1885e+002 -6.5178e+001 -1.6277e+000 28649 104806,104858,104832
 6.0000e-001 105227 -1.6604e+002  4.2458e+000  2.1657e+001 28649 105014,104962,105201
 6.0000e-001 105250 -1.6899e+002 -2.5234e+001  1.9261e+000 28649 105273,105014,105201
 6.0000e-001 105299 -1.5726e+002 -2.4649e+001  5.9210e+000 28649 104884,104858,105273
 6.0000e-001 105322 -1.5963e+002 -2.1595e+001  1.3121e+000 28649 104884,105273,105201
 6.0000e-001 105673 -3.5580e+002  9.5546e-001 -3.5036e+000 28351 105474,105578,105552
 6.0000e-001 105650 -3.7732e+002 -7.0831e+001 -1.6429e+000 28351 105448,105578,105474
 6.0000e-001 105627 -3.7836e+002  1.6514e+000 -2.4952e+001 28351 105500,105552,105526
 6.0000e-001 105604 -3.5953e+002 -9.2743e-002 -4.4104e+000 28351 105474,105552,105500
 6.0000e-001 106130 -2.1287e+002 -3.1071e+001 -1.6711e+001 28004 106153,105882,105856
 6.0000e-001 106107 -2.4440e+002 -7.9967e+001 -3.0598e+001 28004 106153,105856,105986
 6.0000e-001 106084 -1.7435e+002 -1.0267e+002 -1.9443e+001 28004 105934,105986,105960
 6.0000e-001 106061 -1.8735e+002 -6.7136e+001 -5.5177e+001 28004 105856,106012,105986
 6.0000e-001 106038 -1.3546e+002  1.7016e+001 -3.4926e+001 28004 105882,105934,105908
 6.0000e-001 106179 -1.7639e+002 -6.4132e+001  1.5151e+001 28004 105934,105882,106153
 6.0000e-001 106202 -2.0387e+002 -9.5518e+001  3.5393e+000 28004 105934,106153,105986
 6.0000e-001 106885 -2.1565e+002 -2.2115e+000  3.4232e+001 27564 106908,106620,106516
 6.0000e-001 106862 -3.0505e+002 -2.5445e+001  2.8079e+001 27564 106908,106516,106490
 6.0000e-001 106839 -3.8784e+002 -7.5265e+001  4.0926e+001 27564 106516,106620,106542
 6.0000e-001 106816 -1.9750e+002 -2.7809e+001  8.1080e+001 27564 106620,106672,106646
 6.0000e-001 106793 -5.1839e+002 -8.4739e+001  4.7090e+001 27564 106542,106620,106594
 6.0000e-001 106770 -2.6095e+002 -4.3893e+001  1.1867e+001 27564 106490,106698,106672
 6.0000e-001 106747 -1.8484e+002 -6.7370e+001  7.3570e+001 27564 106464,106698,106490
 6.0000e-001 106724 -3.9585e+002 -8.7859e+001  9.3173e+001 27564 106542,106594,106568
 6.0000e-001 106934 -1.7147e+002 -2.5303e+001  3.8072e+001 27564 106672,106620,106908
 6.0000e-001 106957 -2.1477e+002 -1.6686e+001  2.7999e+001 27564 106672,106908,106490
 6.0000e-001 107463 -3.9664e+001 -2.5184e+001  8.2204e-001 27053 107218,107322,107296
 6.0000e-001 107440 -2.9351e+001 -5.3091e-001  3.7887e+000 27053 107166,107322,107218
 6.0000e-001 107417 -4.2875e+001  9.2654e+000  9.1482e-001 27053 107218,107296,107244
 6.0000e-001 107394 -4.8215e+000 -1.2425e+001  3.9014e+000 27053 107140,107322,107166
 6.0000e-001 107371 -6.2322e+000  8.0703e-001  1.8478e+000 27053 107166,107218,107192
 6.0000e-001 107348 -3.8857e+001 -2.9372e+000 -8.4806e+000 27053 107244,107296,107270
 6.0000e-001 108097 -1.7384e+002  7.7331e-001 -1.6964e+001 26549 108192,108120,107803
 6.0000e-001 108074 -2.4284e+002 -6.8115e+001 -1.7934e+001 26549 108120,107725,107933
 6.0000e-001 108051 -1.5280e+002 -4.1039e+000  2.5820e+001 26549 107751,107803,107777
 6.0000e-001 108028 -1.9810e+002  3.0315e+001  8.4566e+000 26549 108192,107803,107751
 6.0000e-001 108005 -2.5162e+002 -8.6065e+001 -6.0731e+001 26549 108264,107855,107803
 6.0000e-001 107982 -2.1096e+002 -1.1522e+002  1.3967e+001 26549 107881,107933,107907
 6.0000e-001 107959 -2.2778e+002 -6.7163e+001 -7.4216e+001 26549 107803,107855,107829
 6.0000e-001 108146 -2.1093e+002 -5.4534e+001 -4.7030e+001 26549 108264,107803,108120
 6.0000e-001 108169 -2.0466e+002  1.7726e+001 -9.6828e+000 26549 107881,108120,107933
 6.0000e-001 108218 -2.2349e+002 -3.2016e+001 -3.1705e+001 26549 107725,108120,108192
 6.0000e-001 108241 -2.4419e+002 -2.6673e+000 -6.1766e+000 26549 107725,108192,107751
 6.0000e-001 108290 -2.8801e+002 -3.8746e+001 -4.7938e+001 26549 107881,107855,108264
 6.0000e-001 108313 -2.5798e+002 -1.1287e+001 -3.6043e+001 26549 107881,108264,108120
 6.0000e-001 108512 -1.5290e+002 -5.4726e+000  2.8509e+001 26137 108388,108440,108414
 6.0000e-001 108489 -1.7102e+002 -3.2799e+001  1.4439e+001 26137 108362,108440,108388
 6.0000e-001 108466 -2.2768e+002 -5.4403e+001  2.4848e+000 26137 108336,108440,108362
 6.0000e-001 108662 -1.8979e+002 -2.3143e+000  3.9351e+000 25733 108817,108685,108535
 6.0000e-001 108639 -2.1209e+002  1.1752e+001 -5.4361e+000 25733 109017,108817,108535
 6.0000e-001 108711 -1.7988e+002 -9.2303e-001 -5.2237e+000 25733 108561,108535,108685
 6.0000e-001 108843 -2.1736e+002 -2.8687e+001 -8.6711e+000 25733 108587,108685,108817
 6.0000e-001 108866 -2.0949e+002 -1.5453e+000 -4.8281e+000 25733 108889,108817,108613
 6.0000e-001 108915 -2.3148e+002 -1.2289e+001 -1.2191e+000 25733 108587,108817,108889
 6.0000e-001 109043 -2.1746e+002 -1.2331e+001 -8.3873e+000 25733 108613,108817,109017
 6.0000e-001 109500 -6.1873e+001  2.4823e+001 -2.6919e+001 25229 109523,109356,109330
 6.0000e-001 109477 -9.7295e+001 -1.0166e+001 -5.0247e+000 25229 109595,109523,109330
 6.0000e-001 109454 -9.1397e+001 -2.3215e+001  7.9625e+000 25229 109595,109330,109278
 6.0000e-001 109431 -9.0783e+001 -2.2730e+001  2.3408e+000 25229 109667,109226,109382
 6.0000e-001 109408 -1.1966e+002 -1.3425e+001  1.9587e+001 25229 109278,109330,109304
 6.0000e-001 109549 -6.1241e+001  9.6242e+000  1.1459e+001 25229 109382,109356,109523
 6.0000e-001 109572 -8.6189e+001 -3.0915e+001  5.7709e-001 25229 109667,109382,109523
 6.0000e-001 109621 -9.0491e+001  1.5496e+001  1.4194e-001 25229 109252,109523,109595
 6.0000e-001 109644 -9.4269e+001 -5.0703e+000  3.7858e+000 25229 109739,109595,109278
 6.0000e-001 109693 -1.6570e+002 -2.3591e+001  1.0484e+001 25229 109252,109226,109667
 6.0000e-001 109716 -1.1735e+002 -2.3028e+000  1.7553e+001 25229 109252,109667,109523
 6.0000e-001 109765 -8.7079e+001 -5.4850e+000 -1.6622e+000 25229 109252,109595,109739
 6.0000e-001 110478 -6.9822e+001 -5.5464e+000 -1.4810e+000 24917 110158,110236,110184
 6.0000e-001 110455 -3.2036e+001  9.9130e+000 -2.4174e+000 24917 110158,110288,110236
 6.0000e-001 110432 -5.0849e+001  1.9650e+000  2.2736e+000 24917 110236,110288,110262
 6.0000e-001 110409 -3.4513e+001 -8.8332e+000  1.0629e+001 24917 110184,110236,110210
 6.0000e-001 110386 -2.7019e+001 -3.0833e+000  5.1864e+000 24917 110132,110288,110158
 6.0000e-001 110363 -5.4184e+000  2.9190e+000 -1.0681e+000 24917 110132,110314,110288
 6.0000e-001 110340 -5.6109e+000  1.5535e+000  1.1996e+000 24917 110106,110314,110132
 6.0000e-001 110829 -2.7609e+002 -1.1524e+002  3.5134e+001 24307 110604,110682,110630
 6.0000e-001 110806 -2.2447e+002 -5.6542e+001  1.0017e+001 24307 110604,110708,110682
 6.0000e-001 110783 -1.8704e+002 -3.1221e+001 -1.5694e+001 24307 110604,110734,110708
 6.0000e-001 110760 -4.1578e+002 -1.7518e+002  4.0708e+001 24307 110630,110682,110656
 6.0000e-001 111335 -1.5080e+002 -3.4369e+001  2.0209e+001 23767 111012,111168,111038
 6.0000e-001 111312 -9.7723e+001  4.4631e+001 -3.7625e+000 23767 111012,111194,111168
 6.0000e-001 111289 -8.0743e+001  1.5902e+001 -3.0348e+001 23767 111358,111064,111038
 6.0000e-001 111266 -1.1113e+002  6.4847e+000 -6.2303e-001 23767 111358,111038,111168
 6.0000e-001 111243 -1.4029e+002 -5.5440e+000 -5.9980e+000 23767 111430,111142,111090
 6.0000e-001 111220 -1.7040e+002 -1.8951e+001 -1.3694e+001 23767 111090,111142,111116
 6.0000e-001 111384 -1.0521e+002  1.2947e+000 -1.1882e+001 23767 111090,111064,111358
 6.0000e-001 111407 -1.0016e+002 -4.5508e+000 -2.2282e+000 23767 111430,111090,111358
 6.0000e-001 111456 -1.7805e+002  4.8337e+000  4.2038e+000 23767 111168,111142,111430
 6.0000e-001 111479 -1.5333e+002 -5.7701e+000  5.5590e+000 23767 111168,111430,111358
 6.0000e-001 111985 -2.1388e+002 -1.1046e+002 -3.7186e+001 23477 111688,111844,111818
 6.0000e-001 111962 -2.0966e+002 -6.8404e+001  4.4196e+001 23477 111662,111844,111688
 6.0000e-001 111939 -1.5052e+002 -6.6564e+000  7.5672e+000 23477 111766,111818,111792
 6.0000e-001 111916 -2.5277e+002 -4.2777e+001  2.1572e+001 23477 111740,111818,111766
 6.0000e-001 111893 -2.4875e+002 -4.7041e+001 -3.1118e+001 23477 111688,111818,111740
 6.0000e-001 111870 -4.4393e+002 -2.8647e+001 -5.8317e+001 23477 111688,111740,111714
 6.0000e-001 112314 -1.9162e+002 -6.3765e+000 -7.0111e+000 23023 112141,112219,112193
 6.0000e-001 112291 -1.9612e+002 -5.8911e+001 -9.3209e+000 23023 112115,112219,112141
 6.0000e-001 112268 -1.6611e+002  1.9024e+001  8.9213e+000 23023 112141,112193,112167
 6.0000e-001 112245 -1.5383e+002 -6.4036e+000  9.2972e+000 23023 112089,112219,112115
 6.0000e-001 112692 -2.1870e+002 -3.3105e+001 -1.6231e+000 22768 112444,112574,112548
 6.0000e-001 112669 -2.2592e+002  2.5032e+001 -1.7699e+000 22768 112418,112574,112444
 6.0000e-001 112646 -1.5116e+002 -7.8242e+000 -3.5758e+000 22768 112444,112522,112470
 6.0000e-001 112623 -1.7678e+002 -1.3465e+001  4.7807e+000 22768 112444,112548,112522
 6.0000e-001 112600 -1.3577e+002 -3.6175e+000  1.6773e+001 22768 112470,112522,112496
 6.0000e-001 113011 -4.2372e+002 -4.1299e+000 -5.8982e+001 22314 112763,112867,112789
 6.0000e-001 112988 -4.7020e+002 -1.0381e+002 -3.0432e+001 22314 112763,112893,112867
 6.0000e-001 112965 -5.0947e+002 -2.1927e+001  0.0000e+000 22314 112815,112867,112841
 6.0000e-001 112942 -5.5943e+002 -7.1651e+001 -3.0512e+001 22314 112789,112867,112815
 6.0000e-001 112919 -3.8524e+002 -1.0950e+002 -8.7451e+001 22314 112737,112893,112763
 6.0000e-001 113519 -1.4199e+002 -3.7161e+001  1.9574e+001 21924 113614,113542,113248
 6.0000e-001 113496 -1.1727e+002  6.8749e+000  8.9262e+000 21924 113542,113196,113378
 6.0000e-001 113473 -8.5254e+001 -6.4743e+001  2.9599e+001 21924 113614,113248,113222
 6.0000e-001 113450 -1.3531e+002 -7.3056e+000  3.0585e+000 21924 113686,113274,113248
 6.0000e-001 113427 -1.3762e+002 -2.5023e+001 -6.8131e+000 21924 113274,113352,113326
 6.0000e-001 113404 -7.6929e+001 -1.4619e+001  3.4351e+001 21924 113274,113326,113300
 6.0000e-001 113568 -1.2639e+002 -1.1272e+001  1.2620e+001 21924 113686,113248,113542
 6.0000e-001 113591 -1.4646e+002 -7.4628e+001 -5.1235e+000 21924 113352,113542,113378
 6.0000e-001 113640 -8.6563e+001  5.6972e+000  4.2925e+001 21924 113196,113542,113614
 6.0000e-001 113663 -5.4941e+001 -3.6191e+001  5.1969e+001 21924 113196,113614,113222
 6.0000e-001 113712 -1.4593e+002 -1.0174e+001  4.4342e+000 21924 113352,113274,113686
 6.0000e-001 113735 -1.4315e+002 -1.7750e+001  1.4525e+001 21924 113352,113686,113542
 6.0000e-001 113885 -1.4190e+001  2.8441e+000  3.8371e+000 21520 113980,113908,113784
 6.0000e-001 113862 -1.5196e+002 -3.8953e+001 -1.4194e+001 21520 114238,113908,113758
 6.0000e-001 113934 -1.1483e+002 -1.2357e+001 -3.4355e+001 21520 114110,113908,113810
 6.0000e-001 113957 -1.4757e+002  3.2731e+000  2.1481e+001 21520 113810,113908,113836
 6.0000e-001 114006 -1.3603e+002 -1.4830e+001  1.6317e+001 21520 113758,113908,113980
 6.0000e-001 114136 -2.5515e+001 -2.0635e+000  2.9317e+000 21520 113784,113908,114110
 6.0000e-001 114264 -7.2031e+001  3.5778e+001  1.6735e+001 21520 113836,113908,114238
 6.0000e-001 114662 -2.2306e+002 -1.9151e+001  1.0118e+000 21030 114414,114518,114492
 6.0000e-001 114639 -3.0565e+002 -6.2715e+001  3.4241e+001 21030 114414,114544,114518
 6.0000e-001 114616 -5.4424e+001  4.7050e+001  5.0015e+000 21030 114440,114492,114466
 6.0000e-001 114593 -2.2645e+002 -2.5798e+001  4.7782e+000 21030 114414,114492,114440
 6.0000e-001 114570 -2.5962e+002 -1.9118e+001  1.1010e+002 21030 114388,114544,114414
 6.0000e-001 114959 -3.0774e+002 -4.0587e+001 -1.3975e+001 20512 114982,114711,114685
 6.0000e-001 114936 -3.0098e+002 -2.7671e+001 -1.8016e+001 20512 115054,114982,114685
 6.0000e-001 114913 -3.0595e+002  2.2632e+001 -1.6221e+001 20512 115054,114685,114841
 6.0000e-001 114890 -1.3476e+002  6.8740e-001  3.2125e+000 20512 114711,114763,114737
 6.0000e-001 114867 -2.2172e+002 -1.4658e+001  9.4930e+000 20512 114763,114815,114789
 6.0000e-001 115008 -2.9912e+002 -3.3617e+001 -7.1783e+000 20512 114763,114711,114982
 6.0000e-001 115031 -3.0890e+002 -6.8875e+001 -1.3505e+001 20512 114763,114982,114815
 6.0000e-001 115080 -3.1735e+002 -5.4960e+001 -2.5182e+001 20512 114815,114982,115054
 6.0000e-001 115103 -3.2937e+002 -3.0482e+001 -2.3107e+001 20512 114815,115054,114841
 6.0000e-001 115507 -1.4579e+002 -3.6071e+001 -1.0948e+002 20143 115285,115389,115363
 6.0000e-001 115484 -3.2091e+002 -3.4884e+000  8.7872e+000 20143 115259,115389,115285
 6.0000e-001 115461 -2.9429e+002 -3.9053e+000  3.6954e+001 20143 115233,115389,115259
 6.0000e-001 115438 -1.6310e+002 -5.5302e+001  3.2298e+001 20143 115285,115337,115311
 6.0000e-001 115415 -7.9642e+001 -3.1479e+001  3.9740e+001 20143 115285,115363,115337
 6.0000e-001 115875 -6.9986e+001  1.7903e+000  4.4157e+000 19632 115656,115734,115682
 6.0000e-001 115852 -5.4450e+001  5.3179e-001  1.2809e+001 19632 115552,115734,115656
 6.0000e-001 115829 -5.7415e+001 -2.7214e+000 -6.4518e+000 19632 115552,115656,115578
 6.0000e-001 115806 -7.4957e+001 -5.7041e-001  4.8785e-001 19632 115578,115656,115630
 6.0000e-001 115783 -2.8878e+001  1.9731e+001 -2.9034e+001 19632 115682,115734,115708
 6.0000e-001 115760 -6.0844e+001 -9.1505e+000  2.1123e+001 19632 115578,115630,115604
 6.0000e-001 116025 -1.8618e+002  1.5620e+001  1.7851e+001 19178 115898,115950,115924
 6.0000e-001 116002 -1.8449e+002 -7.6324e-001  8.9541e+000 19178 115898,115976,115950
 6.0000e-001 116633 -9.7422e+001  1.8801e+001  1.1354e+000 18738 116800,116656,116342
 6.0000e-001 116610 -8.5988e+001  3.4873e+001 -3.8355e+001 18738 116656,116238,116446
 6.0000e-001 116587 -8.3850e+001 -7.4139e+000  9.2366e+000 18738 116728,116368,116342
 6.0000e-001 116564 -1.0380e+002  5.2476e+000  8.6036e+000 18738 116800,116342,116264
 6.0000e-001 116541 -6.0180e+001  3.6452e+002 -1.2416e+002 18738 116212,116446,116238
 6.0000e-001 116518 -5.6607e+001  5.1326e+000 -5.9272e+001 18738 116394,116446,116420
 6.0000e-001 116495 -2.6419e+002 -6.1051e+001  8.8156e+000 18738 116264,116342,116316
 6.0000e-001 116472 -1.0293e+002 -5.1975e+000  1.9667e+001 18738 116264,116316,116290
 6.0000e-001 116682 -8.2127e+001  1.9156e+000 -8.9702e+000 18738 116728,116342,116656
 6.0000e-001 116705 -9.2559e+001 -1.8020e+001 -4.1456e+001 18738 116394,116656,116446
 6.0000e-001 116754 -5.9004e+001  5.4175e+000 -5.7306e+000 18738 116394,116368,116728
 6.0000e-001 116777 -5.3143e+001  1.8224e+001 -2.4427e+001 18738 116394,116728,116656
 6.0000e-001 116826 -1.0570e+002  4.8423e+001 -1.3115e+001 18738 116238,116656,116800
 6.0000e-001 116849 -1.2032e+002  3.0261e+001 -3.1518e+000 18738 116238,116800,116264
 6.0000e-001 116999 -5.3226e+001  1.1939e+001 -9.9882e+000 18184 116872,116924,116898
 6.0000e-001 116976 -5.9182e+001 -3.9315e+001 -1.3121e+000 18184 116872,116950,116924
 6.0000e-001 117330 -1.2196e+002  1.0735e+001  4.2655e-001 17694 117157,117235,117183
 6.0000e-001 117307 -9.2539e+001  1.1566e+001  4.3723e-001 17694 117131,117235,117157
 6.0000e-001 117284 -1.0221e+002  1.7067e+001  3.8856e+000 17694 117105,117235,117131
 6.0000e-001 117261 -1.9546e+002 -5.8010e+001  3.0279e+001 17694 117183,117235,117209
 6.0000e-001 117480 -1.5560e+002 -6.4678e+001  4.9569e+001 17290 117353,117405,117379
 6.0000e-001 117457 -7.4674e+001  5.6595e-001  2.0926e+001 17290 117353,117431,117405
 6.0000e-001 117679 -1.5317e+002 -7.8544e+001  1.1201e+001 16718 117555,117607,117581
 6.0000e-001 117656 -1.6398e+002 -5.2153e+001 -5.5456e+000 16718 117529,117607,117555
 6.0000e-001 117633 -2.1934e+002 -6.2445e+001 -7.0720e+000 16718 117503,117607,117529
 6.0000e-001 117782 -1.3087e+002  5.7488e+000 -9.1779e+000 16520 117704,117756,117730
 6.0000e-001 117983 -2.9474e+002 -2.0252e+002  9.0573e+000 16208 117859,117911,117885
 6.0000e-001 117960 -2.1500e+002 -1.3580e+002 -3.0846e+001 16208 117833,117911,117859
 6.0000e-001 117937 -1.1061e+002 -6.1759e+001  1.4634e+000 16208 117807,117911,117833
 6.0000e-001 118135  1.0218e+000  3.9955e+001 -6.7842e+000 15674 118034,118086,118060
 6.0000e-001 118112 -1.0942e+002 -1.7083e+000 -8.5669e+000 15674 118008,118086,118034
 6.0000e-001 118238 -2.3220e+002 -5.6543e+000  3.2806e-001 15355 118160,118212,118186
 6.0000e-001 118341 -4.9020e+000 -1.4789e+001  1.7748e+000 421 118263,118315,118289
 7.0000e-001 68152 -1.0436e+001 -5.4389e+000  2.7249e+000 67838 68074,68126,68100
 7.0000e-001 68550 -2.2659e+002  2.7738e+000 -3.8720e+000 67526 68276,68380,68302
 7.0000e-001 68527 -1.3569e+002  1.9088e+001 -7.8231e+000 67526 68276,68406,68380
 7.0000e-001 68504 -2.5050e+002 -1.3853e+001  2.5679e+000 67526 68328,68380,68354
 7.0000e-001 68481 -2.2746e+002  7.3618e-001 -3.8433e+000 67526 68302,68380,68328
 7.0000e-001 68458 -1.4210e+002  3.3890e+000 -1.3552e+001 67526 68276,68432,68406
 7.0000e-001 68651 -4.6134e+000  1.0306e-001 -4.5170e-001 67328 68573,68625,68599
 7.0000e-001 68970 -3.8122e+002 -1.3223e+002 -2.1907e+001 67016 68722,68800,68774
 7.0000e-001 68947 -3.7662e+002 -1.0872e+002 -2.8504e+001 67016 68722,68826,68800
 7.0000e-001 68924 -3.7658e+002 -3.0005e+001 -4.0780e+001 67016 68696,68826,68722
 7.0000e-001 68901 -3.1548e+002 -4.4299e+001  2.9357e+001 67016 68722,68774,68748
 7.0000e-001 68878 -2.5981e+002 -2.7652e+001  8.3982e+001 67016 68696,68852,68826
 7.0000e-001 69291 -2.4916e+002 -1.6648e+001 -4.2868e+001 66654 69069,69147,69095
 7.0000e-001 69268 -1.1476e+002 -1.2892e+001  1.1439e+001 66654 69069,69173,69147
 7.0000e-001 69245 -6.9021e+001 -1.0577e+001 -2.7804e+001 66654 69043,69173,69069
 7.0000e-001 69222 -2.8601e+002  9.0407e+000  2.0982e+001 66654 69095,69147,69121
 7.0000e-001 69199 -4.6845e+001 -8.2985e+000  9.2569e+000 66654 69017,69173,69043
 7.0000e-001 69695 -3.1045e+002 -6.4889e+001 -1.4840e+001 66456 69447,69577,69551
 7.0000e-001 69672 -3.3503e+002 -3.9198e+001 -3.3174e+001 66456 69421,69577,69447
 7.0000e-001 69649 -3.6337e+002 -1.4185e+002  2.1255e+001 66456 69473,69551,69525
 7.0000e-001 69626 -3.1361e+002 -6.7449e+001 -8.4724e+000 66456 69447,69551,69473
 7.0000e-001 69603 -3.8805e+002 -1.2938e+002  9.3674e+001 66456 69473,69525,69499
 7.0000e-001 70024 -5.4508e+001  2.5894e+001 -4.6854e+001 66258 70047,69851,69825
 7.0000e-001 70001 -9.6481e+001  3.6134e+000  1.9805e+001 66258 70047,69825,69903
 7.0000e-001 69978 -7.1955e+001  1.6498e+001  1.1718e+001 66258 69799,69903,69825
 7.0000e-001 69955 -7.0577e+001 -1.0437e+001  1.5379e+001 66258 69799,69929,69903
 7.0000e-001 70073 -1.1370e+002 -1.2652e+001 -1.6516e+001 66258 69877,69851,70047
 7.0000e-001 70096 -1.7589e+002 -5.1554e+001  5.3489e+001 66258 69877,70047,69903
 7.0000e-001 70602 -6.9363e+002 -1.3955e+002  8.8935e+001 66060 70305,70435,70331
 7.0000e-001 70579 -2.0603e+002 -1.5129e+002 -7.3425e+001 66060 70279,70435,70305
 7.0000e-001 70556 -3.1901e+002  6.8580e+000  7.1636e+001 66060 70331,70435,70409
 7.0000e-001 70533 -1.5817e+002 -4.1772e+001 -6.6931e+001 66060 70279,70461,70435
 7.0000e-001 70510 -4.6108e+002 -1.5505e+002  1.3859e+002 66060 70331,70409,70357
 7.0000e-001 70487 -2.7382e+002 -9.3058e+001  1.5946e+002 66060 70357,70409,70383
 7.0000e-001 70703 -8.3570e+001 -1.7212e+001 -4.2385e+001 65862 70625,70677,70651
 7.0000e-001 71083 -7.3058e+001  1.2860e+001  1.3451e+001 65664 70887,70965,70939
 7.0000e-001 71060 -2.0482e+002 -2.5424e+001  5.3577e+001 65664 70861,70965,70887
 7.0000e-001 71037 -2.2173e+002  9.0385e+001  8.6017e+000 65664 70809,70965,70861
 7.0000e-001 71014 -2.4295e+002  1.7411e+002  8.1753e+001 65664 70809,70861,70835
 7.0000e-001 70991 -6.5719e+001  2.6222e+000 -1.4367e+001 65664 70887,70939,70913
 7.0000e-001 71611 -4.6620e+001 -1.7648e+001  3.3973e+001 65260 71288,71444,71314
 7.0000e-001 71588 -1.3667e+002 -5.2916e+001  2.3486e+001 65260 71288,71470,71444
 7.0000e-001 71565 -3.6936e+002 -7.3029e+001 -6.5115e+001 65260 71314,71418,71392
 7.0000e-001 71542 -7.0981e+001 -9.0369e+001  2.5324e+001 65260 71314,71444,71418
 7.0000e-001 71519 -2.3476e+002 -9.1986e-001 -3.6113e+001 65260 71314,71392,71340
 7.0000e-001 71496 -2.8266e+002 -1.0034e+002 -2.1331e+002 65260 71340,71392,71366
 7.0000e-001 72060 -2.1057e+002 -1.0884e+001  1.4660e+001 64870 71737,71893,71789
 7.0000e-001 72037 -2.8826e+002 -4.6207e+001  4.2210e+000 64870 71737,71919,71893
 7.0000e-001 72014 -2.0926e+002 -8.4319e+001 -7.8471e+001 64870 71789,71841,71815
 7.0000e-001 71991 -2.4573e+002 -5.8642e+000 -1.2653e+001 64870 71789,71893,71841
 7.0000e-001 71968 -2.0032e+002 -2.6012e+001 -6.1999e+000 64870 71737,71789,71763
 7.0000e-001 71945 -3.3008e+002  1.1604e+000  0.0000e+000 64870 71841,71893,71867
 7.0000e-001 72517 -2.8640e+002 -9.3949e+001 -2.9153e+000 64466 72321,72399,72347
 7.0000e-001 72494 -2.3679e+002 -1.2870e+002 -1.9793e+000 64466 72269,72399,72321
 7.0000e-001 72471 -2.6403e+002 -2.2423e+001 -3.6855e+001 64466 72347,72399,72373
 7.0000e-001 72448 -2.6607e+002 -1.1953e+002  4.2913e+001 64466 72243,72399,72269
 7.0000e-001 72425 -1.8978e+002 -1.1162e+001  2.3768e-001 64466 72269,72321,72295
 7.0000e-001 72944 -2.8784e+002 -7.2090e+001 -1.6377e+001 64062 73111,73039,72699
 7.0000e-001 72921 -2.8563e+002 -6.6499e+001 -7.4941e+000 64062 73183,72967,72647
 7.0000e-001 72898 -2.9868e+002 -6.7136e+001 -6.6090e+000 64062 72967,72803,72751
 7.0000e-001 72875 -2.9311e+002 -7.4287e+001 -1.8261e+001 64062 73111,72699,72673
 7.0000e-001 72852 -2.9181e+002 -5.6634e+001 -1.1996e+001 64062 73183,72647,72621
 7.0000e-001 72829 -2.8131e+002 -1.0413e+002  3.7220e+001 64062 72751,72803,72777
 7.0000e-001 72993 -3.0571e+002 -7.9138e+001 -1.2878e+001 64062 73039,72647,72967
 7.0000e-001 73016 -2.9991e+002 -5.7075e+001  1.7259e+000 64062 72725,72967,72751
 7.0000e-001 73065 -4.1891e+002 -6.3220e+001 -8.4185e+001 64062 72725,72699,73039
 7.0000e-001 73088 -2.9348e+002 -4.2184e+001 -4.1204e+000 64062 72725,73039,72967
 7.0000e-001 73137 -2.9979e+002 -7.7398e+001 -1.8840e+001 64062 72647,73039,73111
 7.0000e-001 73160 -3.0107e+002 -7.7283e+001 -2.0440e+001 64062 72647,73111,72673
 7.0000e-001 73209 -2.8671e+002 -5.7054e+001 -1.4687e+001 64062 72803,72967,73183
 7.0000e-001 73232 -2.8569e+002 -3.5461e+001 -1.8159e+001 64062 72803,73183,72621
 7.0000e-001 73333 -1.4733e+002  7.2349e+000  3.0749e+000 63814 73356,73281,73255
 7.0000e-001 73382 -5.2286e+002 -7.1807e+001 -1.3846e+001 63814 73486,73356,73307
 7.0000e-001 73512 -2.3537e+002  5.1403e+001 -1.3831e+001 63814 73281,73356,73486
 7.0000e-001 73839 -1.8980e+002 -1.7270e+001  1.5883e+001 63616 73862,73692,73666
 7.0000e-001 73816 -2.0025e+002 -3.7107e+001  7.8512e+000 63616 73934,73862,73666
 7.0000e-001 73793 -2.0946e+002 -1.1101e+001 -7.5342e+000 63616 73934,73666,73640
 7.0000e-001 73770 -1.9831e+002  2.3459e+001 -2.0670e+001 63616 73614,73744,73640
 7.0000e-001 73888 -1.7992e+002 -3.1822e+001  1.4841e+001 63616 73718,73692,73862
 7.0000e-001 73911 -1.8821e+002 -5.2242e+001 -9.6308e+000 63616 73718,73862,73744
 7.0000e-001 73960 -1.7319e+002 -1.2059e+001 -7.6804e+000 63616 73744,73862,73934
 7.0000e-001 73983 -1.8514e+002  2.7472e+000 -2.2933e+001 63616 73744,73934,73640
 7.0000e-001 74363 -3.3234e+002 -7.0795e+001 -1.9549e+001 63390 74386,74115,74089
 7.0000e-001 74340 -2.9931e+002 -5.7022e+001 -2.7706e+001 63390 74458,74386,74089
 7.0000e-001 74317 -3.2052e+002 -4.3805e+001 -7.3905e+001 63390 74458,74089,74245
 7.0000e-001 74294 -2.8610e+002 -1.4270e+002  1.1798e+001 63390 74530,74167,74141
 7.0000e-001 74271 -2.6959e+002 -8.8153e+001  2.4624e+001 63390 74167,74219,74193
 7.0000e-001 74412 -3.1241e+002 -5.0313e+001 -6.8470e+000 63390 74141,74115,74386
 7.0000e-001 74435 -3.2407e+002 -1.1129e+002 -2.0258e+001 63390 74530,74141,74386
 7.0000e-001 74484 -3.3833e+002 -1.2337e+002 -5.4834e+001 63390 74219,74386,74458
 7.0000e-001 74507 -3.8081e+002 -1.2946e+002 -1.0583e+002 63390 74219,74458,74245
 7.0000e-001 74556 -2.4529e+002 -1.1742e+002  6.5048e-001 63390 74219,74167,74530
 7.0000e-001 74579 -2.6965e+002 -7.7350e+001 -3.4849e+001 63390 74219,74530,74386
 7.0000e-001 74680 -9.9881e+001 -6.7902e+000  9.6994e+000 63100 75089,74833,74703
 7.0000e-001 74729 -3.4573e+001  1.9330e+000 -3.1227e+000 63100 74961,74703,74654
 7.0000e-001 74859 -1.3133e+002 -3.4568e+001 -2.3323e+000 63100 74602,74703,74833
 7.0000e-001 74987 -5.2134e+001 -1.2522e+001  4.2447e+001 63100 75089,74703,74961
 7.0000e-001 75115 -2.0277e+002 -2.5662e+000 -6.6695e+000 63100 74628,74833,75089
 7.0000e-001 75138 -1.5364e+002 -7.3609e+000  2.6247e+001 63100 74628,75089,74961
 7.0000e-001 75723 -7.7407e+001 -8.7519e+001  3.8656e+001 62532 75746,75504,75426
 7.0000e-001 75700 -2.2939e+002  2.0855e+001  1.4068e+002 62532 75746,75426,75556
 7.0000e-001 75677 -9.4635e+001  1.4335e+001 -5.6627e+001 62532 75426,75504,75452
 7.0000e-001 75654 -3.9808e+002 -2.5057e+001  1.3266e+002 62532 75400,75556,75426
 7.0000e-001 75631 -4.9039e+002 -2.7898e+002  5.8725e+001 62532 75400,75582,75556
 7.0000e-001 75608 -1.3756e+002 -5.3830e+001 -3.3391e+001 62532 75452,75504,75478
 7.0000e-001 75772 -2.5125e+002 -7.6099e+001  2.6380e+001 62532 75530,75504,75746
 7.0000e-001 75795 -4.8461e+002 -2.7070e+001  1.2855e+002 62532 75530,75746,75556
 7.0000e-001 76301 -2.0303e+002 -5.9915e+001 -1.7539e+001 62192 76324,76082,76030
 7.0000e-001 76278 -1.6142e+002 -2.3462e+001 -1.8005e+000 62192 76324,76030,76004
 7.0000e-001 76255 -1.4878e+002 -4.3339e+001 -4.2889e+000 62192 76030,76082,76056
 7.0000e-001 76232 -2.5085e+002  1.4418e+001 -2.8637e+001 62192 76082,76134,76108
 7.0000e-001 76209 -4.1921e+002 -5.6872e+001 -7.0785e+001 62192 76004,76160,76134
 7.0000e-001 76186 -3.3521e+002 -2.1695e+002 -5.4228e+001 62192 75978,76160,76004
 7.0000e-001 76350 -2.6314e+002 -5.2969e+000 -1.3556e+001 62192 76134,76082,76324
 7.0000e-001 76373 -2.1817e+002  4.2638e+001  5.0031e+000 62192 76134,76324,76004
 7.0000e-001 76879 -3.3882e+001 -3.1850e+000 -1.6163e+001 61788 76902,76660,76582
 7.0000e-001 76856 -4.9328e+001 -9.7175e+000 -1.8481e+001 61788 76902,76582,76556
 7.0000e-001 76833 -4.1784e+001 -1.3138e+001 -5.5509e+000 61788 76582,76660,76634
 7.0000e-001 76810 -2.5534e+001 -3.7112e+001 -5.5917e-001 61788 76582,76634,76608
 7.0000e-001 76787 -1.3330e+001 -1.5915e+001  5.4026e-001 61788 76556,76738,76686
 7.0000e-001 76764 -1.4672e+001 -2.2598e+001  2.2684e+000 61788 76686,76738,76712
 7.0000e-001 76928 -1.9986e+001 -1.2249e+001 -1.6727e+001 61788 76686,76660,76902
 7.0000e-001 76951 -3.3357e+001 -1.7819e+001 -1.9534e+001 61788 76686,76902,76556
 7.0000e-001 77408 -2.7145e+002 -9.9859e+000  7.7643e+001 61498 77212,77264,77238
 7.0000e-001 77385 -3.7000e+002 -7.2797e+001 -7.2468e+001 61498 77160,77264,77212
 7.0000e-001 77362 -2.6921e+002 -2.8116e+001 -5.6728e+001 61498 77160,77290,77264
 7.0000e-001 77339 -2.7258e+002 -6.0555e+001 -8.9026e+001 61498 77160,77212,77186
 7.0000e-001 77316 -2.2779e+002  7.4779e-001  1.2902e+001 61498 77134,77290,77160
 7.0000e-001 77678 -6.4666e+002  8.0585e+001  1.2882e+001 61129 77479,77557,77505
 7.0000e-001 77655 -6.4694e+002 -9.1900e+001  4.7794e+000 61129 77479,77583,77557
 7.0000e-001 77632 -5.8798e+002 -2.4741e+002  4.6144e+001 61129 77453,77583,77479
 7.0000e-001 77609 -5.7424e+002  2.0869e+002  1.2791e+002 61129 77505,77557,77531
 7.0000e-001 77828 -5.7613e+001 -5.3674e+000 -9.4787e+000 60931 77851,77727,77701
 7.0000e-001 77805 -4.2885e+001 -9.8286e+000 -6.9022e+000 60931 77851,77701,77779
 7.0000e-001 77877 -3.9274e+001 -2.4985e+000 -1.1166e+001 60931 77923,77851,77753
 7.0000e-001 77900 -2.0402e+001  2.8058e+000  6.7849e-001 60931 77753,77851,77779
 7.0000e-001 77949 -4.4799e+001 -1.3243e+001 -8.6495e+000 60931 77727,77851,77923
 7.0000e-001 78133 -4.3708e+002 -1.8329e+002  2.2293e+001 60377 78055,78107,78081
 7.0000e-001 78535 -2.0120e+002  1.2070e+001 -3.4625e+001 60015 78287,78391,78313
 7.0000e-001 78512 -3.0774e+002 -7.7635e+001  3.8787e+000 60015 78287,78417,78391
 7.0000e-001 78489 -2.3551e+002 -5.7695e+001 -3.3401e+000 60015 78261,78417,78287
 7.0000e-001 78466 -4.4005e+002 -1.2389e+002  9.8969e+000 60015 78339,78391,78365
 7.0000e-001 78443 -4.5313e+002 -8.7684e+001 -2.3432e+001 60015 78313,78391,78339
 7.0000e-001 78913 -2.1856e+002 -5.0401e+001  8.4866e+000 59725 78936,78743,78691
 7.0000e-001 78890 -1.6858e+002  8.0891e-001  2.8938e+001 59725 79008,78936,78691
 7.0000e-001 78867 -1.5376e+002  5.0912e+000  6.7804e+001 59725 79008,78691,78665
 7.0000e-001 78844 -2.3625e+002 -5.3677e+001  2.2977e+000 59725 78691,78743,78717
 7.0000e-001 78821 -2.5520e+002 -1.1764e+002  5.0435e+001 59725 78639,78795,78769
 7.0000e-001 78962 -2.1037e+002 -1.7283e+001  7.3908e+000 59725 78769,78743,78936
 7.0000e-001 78985 -2.4218e+002 -3.0756e+001 -1.1207e-001 59725 78769,78936,78639
 7.0000e-001 79034 -2.4557e+002 -2.8816e+001  1.6901e+001 59725 78639,78936,79008
 7.0000e-001 79057 -1.9955e+002 -2.3437e+001  4.9495e+001 59725 78639,79008,78665
 7.0000e-001 79386 -2.9036e+002 -4.2856e+001  9.9339e-001 59221 79187,79239,79213
 7.0000e-001 79363 -2.9177e+002 -8.5858e+001  1.7556e+001 59221 79187,79265,79239
 7.0000e-001 79340 -2.4835e+002 -9.0588e+001 -1.6235e+001 59221 79187,79291,79265
 7.0000e-001 79317 -2.8307e+002 -1.6595e+002  7.8066e+000 59221 79161,79291,79187
 7.0000e-001 79813 -2.4558e+002  9.5272e+000  1.8844e+001 58831 79836,79542,79516
 7.0000e-001 79790 -1.7567e+002  1.7430e+001  3.6929e+001 58831 79980,79836,79516
 7.0000e-001 79767 -8.4536e+001  1.2359e+001 -2.4495e+001 58831 79908,79646,79568
 7.0000e-001 79744 -2.8582e+002 -1.9489e+001  3.0658e+001 58831 79980,79516,79490
 7.0000e-001 79721 -4.7002e+001  4.0380e+001 -1.1325e+001 58831 79568,79646,79594
 7.0000e-001 79698 -2.4860e+001  7.3300e+000  2.9187e+000 58831 79594,79646,79620
 7.0000e-001 79862 -1.4655e+002  5.7908e+001  3.9107e+001 58831 79568,79542,79836
 7.0000e-001 79885 -7.3099e+001  1.2432e+000 -9.4679e+000 58831 79908,79568,79836
 7.0000e-001 79934 -9.3404e+001  3.9530e+000 -1.5534e+001 58831 79672,79646,79908
 7.0000e-001 79957 -9.8867e+001 -1.3505e+001  1.6841e+000 58831 79672,79908,79836
 7.0000e-001 80006 -1.3655e+002 -2.1957e+001 -7.9730e+000 58831 79672,79836,79980
 7.0000e-001 80029 -1.7412e+002 -2.3788e+001  6.8165e+000 58831 79672,79980,79490
 7.0000e-001 80358 -3.1568e+002  1.6952e+000  2.6834e+001 58377 80381,80185,80159
 7.0000e-001 80335 -3.2993e+002 -2.7870e+001  1.3632e+001 58377 80381,80159,80133
 7.0000e-001 80312 -3.4939e+002 -7.9553e+001  2.9046e+000 58377 80133,80263,80237
 7.0000e-001 80289 -2.7083e+002 -1.6666e+001  1.5227e+001 58377 80185,80237,80211
 7.0000e-001 80407 -2.7574e+002 -3.2997e+001  2.6875e+001 58377 80237,80185,80381
 7.0000e-001 80430 -3.0667e+002 -7.0398e+001  5.8197e+000 58377 80237,80381,80133
 7.0000e-001 80759 -2.8526e+002 -6.1535e+001 -6.4935e+001 57873 80782,80586,80560
 7.0000e-001 80736 -2.6374e+002 -3.9325e+001 -5.5722e+001 57873 80782,80560,80534
 7.0000e-001 80713 -2.1318e+002 -8.7170e+000 -3.2176e+001 57873 80586,80638,80612
 7.0000e-001 80690 -2.7095e+002 -5.7691e+001 -2.5367e+001 57873 80534,80664,80638
 7.0000e-001 80808 -2.7466e+002 -4.0848e+001 -5.4238e+001 57873 80638,80586,80782
 7.0000e-001 80831 -2.7248e+002 -3.4992e+001 -5.0019e+001 57873 80638,80782,80534
 7.0000e-001 81337 -3.6012e+001 -4.3443e+000 -1.5091e+001 57262 81360,81144,81092
 7.0000e-001 81314 -3.8897e+001 -1.4640e+001 -2.3452e+001 57262 81360,81092,81066
 7.0000e-001 81291 -2.6493e+001 -5.5321e-001 -1.3325e+001 57262 81014,81196,81066
 7.0000e-001 81268 -2.5935e+001 -6.7349e-001 -1.0644e+001 57262 81092,81144,81118
 7.0000e-001 81245  1.1515e+000 -8.5784e+000 -1.5344e+000 57262 81144,81196,81170
 7.0000e-001 81222 -2.5196e+001 -2.0165e+000  2.0530e+000 57262 81014,81066,81040
 7.0000e-001 81386 -2.8623e+001  7.3986e+000 -7.4754e+000 57262 81196,81144,81360
 7.0000e-001 81409 -3.4973e+001 -4.8431e+000 -1.6558e+001 57262 81196,81360,81066
 7.0000e-001 81608 -6.9664e+002 -2.6353e+002 -8.0247e+001 57007 81458,81536,81510
 7.0000e-001 81585 -6.5353e+002 -1.8857e+002 -6.2801e+001 57007 81432,81536,81458
 7.0000e-001 81562 -3.7258e+002 -3.3733e+002 -2.4020e+002 57007 81458,81510,81484
 7.0000e-001 82086 -1.9401e+002 -5.3785e+001  2.9998e+000 56339 81792,81922,81818
 7.0000e-001 82063 -7.3157e+001 -3.2372e+001 -6.6150e-001 56339 81714,81922,81792
 7.0000e-001 82040 -2.3747e+002 -9.2673e+001  4.7654e+001 56339 82109,81844,81818
 7.0000e-001 82017 -2.0778e+002 -8.3691e+001  5.6040e+001 56339 82109,81818,81922
 7.0000e-001 81994 -2.1738e+002 -4.7083e+001 -2.9625e+001 56339 81844,81896,81870
 7.0000e-001 81971 -8.2184e+001 -3.7665e+001 -3.7506e+001 56339 81714,81792,81766
 7.0000e-001 81948 -1.0384e+002 -1.0437e+002 -4.9032e+001 56339 81714,81766,81740
 7.0000e-001 82135 -2.8809e+002 -7.9117e+001  3.9309e+001 56339 81896,81844,82109
 7.0000e-001 82158 -2.4056e+002 -5.1438e+001  5.5172e+001 56339 81896,82109,81922
 7.0000e-001 82536 -3.3944e+002 -8.1455e+001 -3.3753e+001 55699 82288,82392,82314
 7.0000e-001 82513 -5.0074e+002 -1.4706e+002 -2.4221e+001 55699 82288,82418,82392
 7.0000e-001 82490 -2.6141e+002 -9.5845e+001 -3.7632e-001 55699 82314,82392,82340
 7.0000e-001 82467 -2.9632e+002 -1.0326e+002  1.2873e+001 55699 82340,82392,82366
 7.0000e-001 82444 -3.4006e+002 -4.2918e+001  2.6283e+001 55699 82262,82418,82288
 7.0000e-001 83091  3.3473e+000 -2.3649e+001 -1.1828e+001 55409 82745,82901,82875
 7.0000e-001 83068  1.5590e+001  8.2534e+000 -5.0283e+000 55409 82719,82901,82745
 7.0000e-001 83045 -2.2393e+001 -8.3787e+000 -1.5427e+001 55409 82771,82849,82823
 7.0000e-001 83022 -1.5615e+001  4.9810e+000  1.0338e+001 55409 82745,82849,82771
 7.0000e-001 82999 -1.9996e+001 -3.5265e+001  1.9871e+001 55409 82745,82875,82849
 7.0000e-001 82976 -1.5088e+001 -1.8704e+001 -1.4450e+001 55409 82771,82823,82797
 7.0000e-001 82953 -9.7194e-001  1.6129e+000 -1.8964e+000 55409 82719,82927,82901
 7.0000e-001 83388 -2.2119e+002 -2.1461e+001 -1.3763e+001 54905 83411,83218,83166
 7.0000e-001 83365 -2.4527e+002 -8.3371e+000 -4.0096e+000 54905 83411,83166,83114
 7.0000e-001 83342 -1.7579e+002  1.5181e+001  2.1283e+001 54905 83483,83270,83244
 7.0000e-001 83319 -3.1486e+002 -4.5741e+001 -1.1187e+001 54905 83166,83218,83192
 7.0000e-001 83296 -2.4074e+002 -4.2612e+001  4.0372e+001 54905 83114,83166,83140
 7.0000e-001 83437 -2.1154e+002 -6.2497e-001 -1.6600e+001 54905 83244,83218,83411
 7.0000e-001 83460 -2.0921e+002  1.6344e+001  4.4493e+000 54905 83483,83244,83411
 7.0000e-001 83509 -2.2074e+002 -2.2925e+001  4.8146e+000 54905 83114,83270,83483
 7.0000e-001 83532 -2.3225e+002 -8.9102e+000 -7.9480e+000 54905 83114,83483,83411
 7.0000e-001 83961 -2.5143e+002 -2.9677e+000 -3.6773e+001 54593 83638,83768,83690
 7.0000e-001 83938 -3.3697e+001  2.4232e+001 -1.5646e-001 54593 83638,83794,83768
 7.0000e-001 83915 -1.4535e+002  8.9879e+001  9.1963e+000 54593 83690,83768,83742
 7.0000e-001 83892 -1.5873e+002  5.8540e+001 -1.0084e+002 54593 83638,83820,83794
 7.0000e-001 83869 -9.7410e+001  5.2203e+002 -1.0082e+002 54593 83638,83690,83664
 7.0000e-001 83846 -4.8111e+001  1.5116e+000  1.3222e+002 54593 83690,83742,83716
 7.0000e-001 84209 -2.7890e+002 -4.9443e+001  7.1633e-001 54132 84232,84062,83984
 7.0000e-001 84186 -2.8920e+002 -7.4172e+001  8.2977e+000 54132 84232,83984,84114
 7.0000e-001 84163 -2.7364e+002 -2.8476e+001 -3.2677e+001 54132 83984,84062,84036
 7.0000e-001 84140 -2.2356e+002 -1.2169e+002  2.8615e+000 54132 83984,84036,84010
 7.0000e-001 84258 -3.0081e+002 -1.8502e+001  5.6034e+000 54132 84088,84062,84232
 7.0000e-001 84281 -3.1747e+002 -4.7246e+001  1.7732e+001 54132 84088,84232,84114
 7.0000e-001 84382 -5.1160e+002  5.5310e+000  1.0013e+001 53521 84304,84356,84330
 7.0000e-001 84632 -2.5946e+002 -8.7472e+000  1.8297e+001 53067 84655,84485,84459
 7.0000e-001 84609 -2.0648e+002 -3.5546e+001  2.8868e+001 53067 84655,84459,84407
 7.0000e-001 84586 -2.8342e+002 -6.8608e+001  1.0643e+001 53067 84485,84537,84511
 7.0000e-001 84563 -1.8460e+002 -4.9512e+000 -1.1380e+001 53067 84407,84459,84433
 7.0000e-001 84681 -2.7822e+002 -2.3534e+001  2.4775e+001 53067 84537,84485,84655
 7.0000e-001 84704 -2.5903e+002 -7.5497e+001  4.6288e+001 53067 84537,84655,84407
 7.0000e-001 85214 -1.0535e+002 -1.9962e+001 -2.6038e+001 52513 85021,85073,85047
 7.0000e-001 85191 -1.5735e+002  2.4038e+001 -2.3229e+001 52513 84943,85073,85021
 7.0000e-001 85168 -3.0965e+002 -4.6910e+001 -5.4368e+001 52513 84943,85021,84995
 7.0000e-001 85145 -1.6905e+002 -1.8109e+001 -1.0869e+001 52513 84917,85073,84943
 7.0000e-001 85122 -1.0903e+002 -8.0388e+001 -6.6368e+001 52513 84943,84995,84969
 7.0000e-001 85099 -5.9142e+001 -4.4346e+001 -2.5068e+001 52513 84891,85073,84917
 7.0000e-001 85582 -2.5130e+002 -4.2170e+001 -3.0066e+001 52037 85605,85311,85285
 7.0000e-001 85559 -2.8961e+002 -5.0232e+001  4.9780e+000 52037 85749,85605,85285
 7.0000e-001 85536 -2.9133e+002 -8.6471e+001  2.8933e-001 52037 85893,85677,85389
 7.0000e-001 85513 -3.1411e+002 -6.0961e+001  9.2505e+000 52037 85749,85285,85259
 7.0000e-001 85490 -2.8232e+002 -8.6383e+001 -2.6136e+001 52037 85893,85389,85363
 7.0000e-001 85467 -3.2077e+002  1.6395e+001  1.6483e+001 52037 85259,85441,85415
 7.0000e-001 85631 -3.0689e+002 -3.0569e+001  7.6113e+000 52037 85337,85311,85605
 7.0000e-001 85654 -3.1247e+002 -9.2303e+001  2.2659e+001 52037 85677,85337,85605
 7.0000e-001 85703 -3.3451e+002 -7.3669e+001 -7.0766e+000 52037 85415,85389,85677
 7.0000e-001 85726 -3.1825e+002 -3.7517e+001  3.8148e+000 52037 85821,85677,85605
 7.0000e-001 85775 -3.1744e+002 -3.8586e+001  3.2013e-001 52037 85821,85605,85749
 7.0000e-001 85798 -3.3308e+002 -4.5807e+001 -2.0329e-001 52037 85415,85749,85259
 7.0000e-001 85847 -3.2028e+002 -4.2278e+001  3.8286e+000 52037 85415,85677,85821
 7.0000e-001 85870 -3.1958e+002 -4.3472e+001  6.5272e-001 52037 85415,85821,85749
 7.0000e-001 85919 -3.0781e+002 -1.2913e+002  6.7461e+000 52037 85337,85677,85893
 7.0000e-001 85942 -3.0458e+002 -1.3510e+002 -1.7732e+001 52037 85337,85893,85363
 7.0000e-001 86224 -9.8247e+001 -2.1390e+001 -6.5959e+000 51368 86375,86100,86074
 7.0000e-001 86201 -3.3414e+001  3.5729e-001 -9.7938e+000 51368 86375,86074,86247
 7.0000e-001 86178 -5.4302e+001  1.5037e+001 -1.8318e+001 51368 86048,86152,86126
 7.0000e-001 86273 -1.3162e+002 -7.6140e+000  7.4544e+000 51368 86048,86126,86247
 7.0000e-001 86401 -1.3281e+002  2.2632e+000  2.2563e+001 51368 86126,86100,86375
 7.0000e-001 86424 -9.9887e+001  2.0865e+000  1.9832e+001 51368 86126,86375,86247
 7.0000e-001 86802 -3.4885e+002 -9.8317e+001  1.3008e+001 51028 86528,86632,86580
 7.0000e-001 86779 -2.2136e+002 -3.4175e+001 -2.5136e+001 51028 86528,86684,86632
 7.0000e-001 86756 -3.0128e+002  1.3444e+001  1.2216e+001 51028 86528,86580,86554
 7.0000e-001 86733 -2.3645e+002 -5.1203e+001 -3.5277e+001 51028 86632,86684,86658
 7.0000e-001 86710 -2.3084e+002 -4.4098e+001  2.7785e+001 51028 86580,86632,86606
 7.0000e-001 87131 -2.2845e+002  1.0645e+001  4.2371e+001 50624 86958,87036,87010
 7.0000e-001 87108 -1.6699e+002 -6.8919e+001  5.2964e+001 50624 86932,87036,86958
 7.0000e-001 87085 -1.7201e+002  4.5922e+001 -2.6209e+001 50624 86958,87010,86984
 7.0000e-001 87062 -9.1574e+001 -5.2023e+001  3.0544e+001 50624 86906,87036,86932
 7.0000e-001 87330 -1.2766e+002 -7.5040e+000 -1.9980e+001 50234 87353,87180,87154
 7.0000e-001 87307 -1.7543e+002 -7.5214e+000 -2.1205e+001 50234 87353,87154,87258
 7.0000e-001 87284 -2.4306e+002 -6.5118e-001 -1.0189e+000 50234 87206,87258,87232
 7.0000e-001 87379 -1.6933e+002  2.0505e+001 -4.4788e+001 50234 87206,87180,87353
 7.0000e-001 87402 -2.3941e+002  6.6153e+000 -3.6106e+001 50234 87206,87353,87258
 7.0000e-001 87650 -2.9299e+002 -1.8010e+001 -2.6597e+000 49730 87673,87503,87451
 7.0000e-001 87627 -2.5336e+002  2.1081e+000  2.2664e+001 49730 87673,87451,87425
 7.0000e-001 87604 -2.1430e+002 -5.2901e+001  8.5317e+001 49730 87503,87555,87529
 7.0000e-001 87581 -5.6078e+002 -7.0141e+001  6.4435e+001 49730 87451,87503,87477
 7.0000e-001 87699 -2.9566e+002  1.1959e+001  1.5010e+001 49730 87555,87503,87673
 7.0000e-001 87722 -2.9062e+002  3.3117e+001  2.6843e+001 49730 87555,87673,87425
 7.0000e-001 88232 -2.8449e+002 -1.5025e+002  2.7919e+001 49176 88255,87935,87909
 7.0000e-001 88209 -2.1655e+002 -9.9825e+001 -5.5954e+001 49176 88255,87909,88065
 7.0000e-001 88186 -3.4447e+002 -2.8055e+001 -5.0155e+001 49176 87935,88039,87961
 7.0000e-001 88163 -1.9053e+002 -9.0716e+001 -5.9981e+001 49176 87909,88091,88065
 7.0000e-001 88140 -4.1998e+002 -5.3747e+001  5.9404e+001 49176 87961,88039,88013
 7.0000e-001 88117 -3.8358e+002 -2.0889e+002 -5.1863e+001 49176 87961,88013,87987
 7.0000e-001 88281 -2.0304e+002 -1.1577e+002 -2.4202e+001 49176 88039,87935,88255
 7.0000e-001 88304 -1.3987e+002 -7.2906e+001 -1.0666e+002 49176 88039,88255,88065
 7.0000e-001 88503 -2.9320e+002 -1.8232e+002 -4.7116e+001 48772 88526,88379,88353
 7.0000e-001 88480 -3.1396e+002 -1.1934e+002 -3.3756e+001 48772 88526,88353,88327
 7.0000e-001 88457 -2.3022e+002 -5.5752e+001 -2.6151e+001 48772 88379,88431,88405
 7.0000e-001 88552 -2.7630e+002 -1.3164e+002 -5.5361e+001 48772 88431,88379,88526
 7.0000e-001 88575 -3.0946e+002 -8.9601e+001 -4.8069e+001 48772 88431,88526,88327
 7.0000e-001 89083 -4.0442e+000 -2.0192e+000  4.8521e+000 48368 88786,88916,88864
 7.0000e-001 89060 -1.2124e+001 -4.5163e+000  5.1081e+000 48368 88786,88942,88916
 7.0000e-001 89037 -2.5199e+000 -2.4290e+000  3.0268e+000 48368 88786,88864,88812
 7.0000e-001 89014 -1.4745e+001 -1.5809e+000  3.4803e+000 48368 88864,88916,88890
 7.0000e-001 88991 -1.8693e+000 -2.5903e+000  3.1905e+000 48368 88812,88864,88838
 7.0000e-001 88968  5.4338e+000 -5.1549e+000 -5.8167e+000 48368 88760,88942,88786
 7.0000e-001 89331 -1.4691e+002 -5.8908e+001 -5.1812e+001 47928 89158,89236,89210
 7.0000e-001 89308 -1.6264e+002 -2.8274e+001 -1.4795e+001 47928 89132,89236,89158
 7.0000e-001 89285 -1.8118e+002  5.6065e-001 -6.1423e+001 47928 89158,89210,89184
 7.0000e-001 89262 -2.6341e+002 -2.7355e+001 -3.3188e+001 47928 89106,89236,89132
 7.0000e-001 89662 -2.1301e+002 -5.4643e+001  1.9105e+001 47588 89463,89541,89515
 7.0000e-001 89639 -2.1264e+002 -9.3020e+001  9.4869e+000 47588 89463,89567,89541
 7.0000e-001 89616 -2.3612e+002 -3.8792e+001 -1.2070e+001 47588 89463,89515,89489
 7.0000e-001 89593 -1.9841e+002 -1.2865e+002  3.9752e+001 47588 89437,89567,89463
 7.0000e-001 89763 -7.9194e+002 -9.3381e+001 -2.8141e+001 47390 89685,89737,89711
 7.0000e-001 89913 -5.2295e+002 -1.4739e+002 -5.4640e+001 47078 89786,89838,89812
 7.0000e-001 89890 -2.3907e+002 -1.7197e+002 -6.8108e+001 47078 89786,89864,89838
 7.0000e-001 90163 -2.6579e+002 -2.5815e+001  3.6909e+001 46474 89964,90042,89990
 7.0000e-001 90140 -2.2958e+002 -1.8426e+001  7.1259e+001 46474 89938,90042,89964
 7.0000e-001 90117 -1.4439e+002 -4.2219e+001  4.9614e+001 46474 89990,90042,90016
 7.0000e-001 90094 -1.8300e+002 -2.7109e+001  6.3044e+001 46474 89938,90068,90042
 7.0000e-001 90364 -6.9698e+001  4.2948e+000  4.0616e+001 46184 90240,90292,90266
 7.0000e-001 90341 -1.2162e+002 -5.1849e-001  4.1155e+001 46184 90188,90292,90240
 7.0000e-001 90318 -1.0867e+002 -5.8928e+001  4.5205e+001 46184 90188,90240,90214
 7.0000e-001 90565 -2.8615e+002  4.6927e+000 -3.2062e+001 45780 90588,90415,90389
 7.0000e-001 90542 -2.1560e+002  2.7643e+001 -3.8580e+001 45780 90588,90389,90493
 7.0000e-001 90519 -2.2886e+002 -7.1250e+001 -2.8203e+000 45780 90415,90467,90441
 7.0000e-001 90614 -2.2970e+002 -3.4336e+001  1.5526e+001 45780 90467,90415,90588
 7.0000e-001 90637 -1.4718e+002 -2.0180e+000  1.6010e+001 45780 90467,90588,90493
 7.0000e-001 91196 -1.8386e+002 -1.5583e+001 -8.6398e+000 45226 91219,90876,90850
 7.0000e-001 91173 -2.0399e+002 -2.9711e+001  4.9825e+000 45226 91219,90850,91032
 7.0000e-001 91150 -2.1632e+002 -4.8503e+001 -8.1556e+000 45226 90824,91032,90850
 7.0000e-001 91127 -2.9231e+002 -9.3473e+001  2.2608e+001 45226 90876,90980,90902
 7.0000e-001 91104 -2.0268e+002 -8.8108e+000 -3.5125e+001 45226 90876,91006,90980
 7.0000e-001 91081 -2.9385e+002 -5.2517e+001  6.9263e+001 45226 90902,90980,90954
 7.0000e-001 91058 -8.8080e+002 -1.6472e+002  1.2345e+001 45226 90902,90954,90928
 7.0000e-001 91245 -2.1043e+002  1.1697e+001 -1.2669e+001 45226 91006,90876,91219
 7.0000e-001 91268 -2.3449e+002 -7.5573e+000  1.4083e+000 45226 91006,91219,91032
 7.0000e-001 91516 -8.7663e+001  6.0471e+001 -1.6425e+001 44836 91539,91421,91395
 7.0000e-001 91493 -2.2250e+002  6.1934e+001 -4.3309e+001 44836 91317,91421,91343
 7.0000e-001 91470 -8.7761e+001 -6.7716e+001  5.4887e+001 44836 91539,91395,91369
 7.0000e-001 91447 -6.2992e+001 -3.1295e+001 -1.1792e+002 44836 91291,91421,91317
 7.0000e-001 91565 -6.9944e+001  1.1854e+002 -2.0396e+001 44836 91343,91421,91539
 7.0000e-001 91588 -2.1799e+001  8.7217e+001  5.3133e+001 44836 91343,91539,91369
 7.0000e-001 91787 -1.9639e+002  8.6604e+000 -2.6121e+001 44432 91810,91637,91611
 7.0000e-001 91764 -1.0335e+002 -4.3418e+001 -3.2814e+001 44432 91810,91611,91715
 7.0000e-001 91741 -1.3681e+002  2.7575e+001 -1.4054e+001 44432 91637,91689,91663
 7.0000e-001 91836 -1.2398e+002  3.3053e+001 -7.4660e+000 44432 91689,91637,91810
 7.0000e-001 91859 -4.6297e+001 -1.7949e+001 -1.3785e+000 44432 91689,91810,91715
 7.0000e-001 92207 -2.0752e+002 -2.0351e+001 -3.8950e+001 43864 92230,91936,91910
 7.0000e-001 92184 -1.5313e+002 -3.2920e+001 -4.8120e+001 43864 92230,91910,92040
 7.0000e-001 92161 -8.9391e+001  2.9228e-001 -1.5971e+001 43864 91884,92040,91910
 7.0000e-001 92138 -2.4883e+002 -5.1334e+001 -1.1956e+001 43864 91936,92014,91988
 7.0000e-001 92115 -1.4113e+002 -1.9194e+001 -1.6096e+001 43864 91936,91988,91962
 7.0000e-001 92092 -2.4207e+001 -2.2256e+001 -2.4365e+001 43864 91884,92066,92040
 7.0000e-001 92256 -1.5809e+002 -1.0019e+001 -2.6957e+001 43864 92014,91936,92230
 7.0000e-001 92279 -1.2289e+002 -3.7458e+001 -4.5429e+001 43864 92014,92230,92040
 7.0000e-001 92529 -3.7753e+002 -8.7535e+001  6.6808e+001 43410 92552,92330,92304
 7.0000e-001 92506 -3.5177e+002 -2.5197e+001  4.6200e+001 43410 92552,92304,92408
 7.0000e-001 92483 -2.4448e+002 -2.7352e+001  3.0583e+000 43410 92304,92434,92408
 7.0000e-001 92460 -3.0638e+002 -8.8119e+001 -8.4256e+000 43410 92330,92382,92356
 7.0000e-001 92578 -3.8664e+002 -8.0402e+001 -6.1612e+000 43410 92382,92330,92552
 7.0000e-001 92601 -3.1954e+002  5.9922e+001 -3.1262e+001 43410 92382,92552,92408
 7.0000e-001 92802 -8.7237e+001  1.9393e+000  1.0852e+001 43162 92825,92704,92652
 7.0000e-001 92779 -9.2722e+001 -3.7117e-001 -1.0091e+000 43162 92825,92652,92626
 7.0000e-001 92756 -4.0600e+001 -5.7983e+000  1.2832e+001 43162 92652,92704,92678
 7.0000e-001 92851 -7.7590e+001  3.9572e+000  1.5924e+001 43162 92730,92704,92825
 7.0000e-001 92874 -6.4195e+001 -3.3892e+000 -2.2447e+000 43162 92730,92825,92626
 7.0000e-001 93463 -3.5215e+002 -1.3723e+002  6.1671e+001 42758 93140,93270,93166
 7.0000e-001 93440 -2.9632e+002 -1.2515e+002  1.0815e+001 42758 93140,93296,93270
 7.0000e-001 93417 -2.5107e+002 -5.8896e+001  2.3654e+001 42758 93166,93270,93218
 7.0000e-001 93394 -4.4332e+002 -6.1622e+001  6.5514e+001 42758 93218,93270,93244
 7.0000e-001 93371 -2.8211e+002 -1.1988e+002  7.6813e+000 42758 93140,93322,93296
 7.0000e-001 93348 -2.2100e+002  3.3252e-001 -1.0930e+001 42758 93166,93218,93192
 7.0000e-001 93920 -1.9395e+002 -1.2290e+000  3.1153e+001 42304 93943,93672,93646
 7.0000e-001 93897 -1.8995e+002  1.6461e+000  2.7232e+001 42304 93943,93646,93802
 7.0000e-001 93874 -1.8526e+002  3.2494e+001 -2.0028e+000 42304 93724,93802,93776
 7.0000e-001 93851 -1.8014e+002  1.1880e+001  1.9941e+001 42304 93672,93724,93698
 7.0000e-001 93828 -5.3929e+001 -2.3939e+001  3.0726e+001 42304 93724,93776,93750
 7.0000e-001 93969 -1.8809e+002 -2.2262e+000  2.9117e+001 42304 93724,93672,93943
 7.0000e-001 93992 -1.8457e+002 -2.1447e+000  2.6597e+001 42304 93724,93943,93802
 7.0000e-001 94321 -1.2100e+002 -2.9244e+001 -9.0061e-001 41478 94096,94148,94122
 7.0000e-001 94298 -9.8771e+001  2.5993e+000 -1.1481e+001 41478 94096,94226,94148
 7.0000e-001 94275 -3.8618e+001 -1.1853e+001  9.1364e-001 41478 94148,94226,94174
 7.0000e-001 94252 -2.7566e+001 -1.8113e+000 -7.9140e+000 41478 94174,94226,94200
 7.0000e-001 94618 -2.0024e+002 -2.7468e+001  2.0588e+001 40910 94344,94422,94396
 7.0000e-001 94595 -1.7931e+002 -2.0420e+001  2.6911e+001 40910 94344,94448,94422
 7.0000e-001 94572 -1.7840e+002 -1.4267e+001  5.5114e+001 40910 94344,94474,94448
 7.0000e-001 94549 -1.6370e+002 -4.1916e+001  3.1260e+000 40910 94344,94396,94370
 7.0000e-001 94526 -2.5516e+002 -3.0929e+001  7.8456e+001 40910 94344,94500,94474
 7.0000e-001 94866 -3.4018e+002  1.0202e+001 -1.7957e+001 40306 94667,94719,94693
 7.0000e-001 94843 -2.8348e+002 -9.3192e+001  8.0747e+000 40306 94641,94719,94667
 7.0000e-001 94820 -2.3193e+002 -7.9751e+000 -1.5975e+001 40306 94641,94745,94719
 7.0000e-001 94797 -1.8486e+002 -4.8077e+001 -2.8710e+000 40306 94641,94771,94745
 7.0000e-001 95089 -3.0238e+002 -1.5259e+002 -1.0236e+001 39702 94913,94991,94939
 7.0000e-001 95066 -3.5455e+002 -1.5865e+002 -1.3815e+001 39702 94913,95017,94991
 7.0000e-001 95043 -3.9574e+002 -1.9415e+002 -2.3349e+001 39702 94939,94991,94965
 7.0000e-001 95339 -2.5673e+002 -1.4968e+000  4.4367e+001 39248 95140,95218,95166
 7.0000e-001 95316 -2.8119e+002 -1.8293e+001  5.3771e+001 39248 95140,95244,95218
 7.0000e-001 95293 -2.2187e+002 -1.6158e+001  4.7778e+001 39248 95114,95244,95140
 7.0000e-001 95270 -2.8674e+002  8.0543e+000  6.1014e+001 39248 95166,95218,95192
 7.0000e-001 95770 -3.3590e+001  6.4653e-001  4.4702e+000 38694 95551,95629,95577
 7.0000e-001 95747 -6.4971e+001 -3.5969e+000 -3.8082e+000 38694 95447,95629,95551
 7.0000e-001 95724 -7.0508e+001 -5.3781e+000  1.8456e+001 38694 95447,95551,95473
 7.0000e-001 95701 -2.9315e+001 -6.7345e-001  8.6983e+000 38694 95473,95551,95499
 7.0000e-001 95678 -4.1392e+001 -3.2234e+000  3.8429e+000 38694 95499,95551,95525
 7.0000e-001 95655 -3.3097e+001  1.5733e+000  4.7994e+000 38694 95577,95629,95603
 7.0000e-001 96325 -2.5586e+002  1.6008e+001 -2.1760e+000 38240 95953,96031,96005
 7.0000e-001 96302 -2.8309e+002 -4.4856e+001  4.7768e+000 38240 95953,96161,96031
 7.0000e-001 96279 -2.6290e+002 -1.0137e+002 -5.6816e+001 38240 96031,96161,96135
 7.0000e-001 96256 -3.5329e+002 -8.2565e+001  1.9689e+001 38240 96348,96109,96057
 7.0000e-001 96233 -3.4185e+002 -1.5326e+002 -7.2172e+001 38240 96348,96057,96031
 7.0000e-001 96210 -3.6684e+002 -5.3335e+001  4.0839e+000 38240 96057,96109,96083
 7.0000e-001 96187 -8.3719e+001 -1.7547e+001  9.0153e+001 38240 95953,96005,95979
 7.0000e-001 96374 -2.7304e+002 -2.8536e+001  4.3506e+001 38240 96135,96109,96348
 7.0000e-001 96397 -2.4707e+002 -9.5736e+001 -4.8038e+001 38240 96135,96348,96031
 7.0000e-001 96618 -2.1002e+002  4.4834e+001  1.1690e+001 37821 96494,96546,96520
 7.0000e-001 96595 -2.7967e+002 -5.1301e+001 -3.2256e+001 37821 96468,96546,96494
 7.0000e-001 96572 -3.3331e+002 -7.4253e+001 -2.8292e+001 37821 96442,96546,96468
 7.0000e-001 97126 -2.4080e+002 -2.1679e+001  1.9867e+001 37367 97149,96855,96829
 7.0000e-001 97103 -1.8109e+002  8.8967e+000  7.6170e-001 37367 97149,96829,96985
 7.0000e-001 97080 -1.9092e+002  1.6330e+001  4.9321e+000 37367 96803,96985,96829
 7.0000e-001 97057 -1.7608e+002 -5.5584e+001  5.3673e+001 37367 96855,96907,96881
 7.0000e-001 97034 -1.0768e+002  3.7898e+000  1.8176e+001 37367 96907,96985,96959
 7.0000e-001 97011 -5.4035e+001 -1.9909e+000  5.7200e+001 37367 96907,96959,96933
 7.0000e-001 97175 -1.8068e+002 -6.2225e+001  4.9449e+001 37367 96907,96855,97149
 7.0000e-001 97198 -1.3814e+002 -3.5488e+001  3.2870e+001 37367 96907,97149,96985
 7.0000e-001 97704 -1.5022e+002 -1.2677e+001 -2.2175e+001 36863 97727,97511,97485
 7.0000e-001 97681 -1.3702e+002 -3.1826e+001 -6.3504e+001 36863 97727,97485,97433
 7.0000e-001 97658 -6.7748e+001 -3.0914e+001 -4.5786e+001 36863 97381,97563,97433
 7.0000e-001 97635 -2.8226e+001  5.3053e+000 -8.0736e+000 36863 97511,97563,97537
 7.0000e-001 97612 -2.1638e+002 -7.1806e+001 -4.8148e+001 36863 97433,97485,97459
 7.0000e-001 97589 -7.5842e+001 -2.6244e+001 -3.7521e+001 36863 97381,97433,97407
 7.0000e-001 97753 -1.1101e+002 -4.4106e+000 -2.1837e+001 36863 97563,97511,97727
 7.0000e-001 97776 -8.4453e+001 -1.6712e+001 -6.0448e+001 36863 97563,97727,97433
 7.0000e-001 98331 -1.3053e+002 -1.6447e+001 -1.0616e+001 36287 98354,98089,98063
 7.0000e-001 98308 -1.0451e+002 -2.0865e+001  2.8900e+001 36287 98354,98063,98011
 7.0000e-001 98285 -1.5058e+002 -1.7832e+000  8.8263e+000 36287 98426,97985,98115
 7.0000e-001 98262 -9.1651e+001 -2.5666e+001  2.2336e+001 36287 98011,98063,98037
 7.0000e-001 98239 -2.6395e+002 -5.9414e+001  2.9861e+001 36287 97985,98141,98115
 7.0000e-001 98216 -4.1643e+002 -3.8782e+001  6.9894e+001 36287 97959,98141,97985
 7.0000e-001 98193 -3.9484e+002  2.6396e+001  4.6727e+001 36287 97959,98167,98141
 7.0000e-001 98380 -2.5081e+002 -3.1449e+001 -1.8597e+001 36287 98115,98089,98354
 7.0000e-001 98403 -1.4654e+002 -2.1138e+000  1.4963e+000 36287 98426,98115,98354
 7.0000e-001 98452 -1.5559e+002 -1.1549e+001  1.0583e+001 36287 98011,97985,98426
 7.0000e-001 98475 -1.5274e+002 -1.4277e+001  3.6604e+000 36287 98011,98426,98354
 7.0000e-001 99030 -8.4024e+001 -3.4955e+001 -1.9704e+000 35726 99053,98736,98710
 7.0000e-001 99007 -1.3147e+002 -4.6232e+000  1.4091e+001 35726 99053,98710,98684
 7.0000e-001 98984 -6.1154e+001 -3.0844e+001  9.6257e+000 35726 99125,98814,98736
 7.0000e-001 98961 -7.6803e+001 -3.0615e+001  9.2710e+000 35726 98736,98814,98788
 7.0000e-001 98938 -1.8561e+002  1.2593e+000 -8.1616e+000 35726 98684,98866,98840
 7.0000e-001 98915 -1.1185e+002 -3.3699e+001 -2.8816e+001 35726 98736,98788,98762
 7.0000e-001 98892 -8.2074e+001  3.1639e+000 -1.4914e+001 35726 98658,98866,98684
 7.0000e-001 99079 -7.9377e+001 -2.3452e+001 -1.8535e+000 35726 99125,98736,99053
 7.0000e-001 99102 -9.6753e+001  3.6601e+001 -1.0487e+000 35726 98840,99053,98684
 7.0000e-001 99151 -4.7389e+001 -2.6067e+001  3.7521e+000 35726 98840,98814,99125
 7.0000e-001 99174 -5.1817e+001 -8.9985e+000 -9.9684e+000 35726 98840,99125,99053
 7.0000e-001 99454 -1.5418e+002 -2.7562e+001  5.0230e+000 35222 99278,99330,99304
 7.0000e-001 99431 -1.7396e+002 -1.6961e+001  3.4994e+001 35222 99278,99382,99330
 7.0000e-001 99408 -2.2025e+002 -1.3738e+000  2.4812e+001 35222 99330,99382,99356
 7.0000e-001 99653 -2.5335e+002 -4.6421e+001 -2.0866e+001 34867 99477,99529,99503
 7.0000e-001 99630 -1.9816e+002 -7.1844e+001 -2.0343e+001 34867 99477,99581,99529
 7.0000e-001 99607 -1.6165e+002 -7.6727e+000 -3.8028e+001 34867 99529,99581,99555
 7.0000e-001 100104 -2.4392e+002 -2.6246e+001 -9.2401e+000 34363 99781,99885,99807
 7.0000e-001 100081 -1.9945e+002 -1.1206e+001  1.8197e-001 34363 99781,99963,99885
 7.0000e-001 100058 -2.9664e+002 -5.0867e+001  2.2893e+001 34363 99885,99963,99911
 7.0000e-001 100035 -2.9252e+002 -1.7869e+001 -1.7360e+001 34363 99807,99885,99859
 7.0000e-001 100012 -2.4539e+002 -3.4634e+001  5.4116e+001 34363 99911,99963,99937
 7.0000e-001 99989 -2.5121e+002 -2.7834e+001 -1.1090e+002 34363 99807,99859,99833
 7.0000e-001 100303 -2.4031e+002 -3.8786e+001 -5.1124e+000 33909 100127,100205,100179
 7.0000e-001 100280 -2.7115e+002 -5.6573e+000 -3.0596e+001 33909 100127,100231,100205
 7.0000e-001 100257 -2.2050e+002  1.3738e+001  1.0129e+001 33909 100127,100179,100153
 7.0000e-001 100890 -1.9634e+002 -9.0814e+001  4.5641e+000 33412 100645,100749,100697
 7.0000e-001 100867 -1.9740e+002 -7.7773e+001  1.1835e+000 33412 100567,100749,100645
 7.0000e-001 100844 -1.7303e+002 -4.5197e+001 -1.2527e+001 33412 100567,100645,100619
 7.0000e-001 100821 -2.6501e+002 -7.6566e+001  2.3268e+001 33412 100645,100697,100671
 7.0000e-001 100798 -2.2679e+002 -6.4892e+001 -6.5685e+001 33412 100567,100619,100593
 7.0000e-001 100775 -1.9205e+002 -5.3503e+001 -2.8256e-001 33412 100697,100749,100723
 7.0000e-001 101268 -2.4282e+002 -1.0829e+001 -7.4770e-001 32908 101435,101291,101098
 7.0000e-001 101245 -2.1799e+002 -5.8028e+001  1.3054e+001 32908 101291,101072,101020
 7.0000e-001 101222 -2.9141e+002 -8.9401e+001 -1.7564e+001 32908 101363,101150,101124
 7.0000e-001 101199 -1.9019e+002 -4.3520e+001 -6.2831e+001 32908 101020,101072,101046
 7.0000e-001 101176 -2.4153e+002 -4.6176e+001  2.4100e+001 32908 100994,101150,101020
 7.0000e-001 101317 -2.5163e+002 -4.6189e+001  1.6483e+001 32908 101124,101098,101291
 7.0000e-001 101340 -2.5580e+002 -8.4568e+001 -6.5478e+000 32908 101363,101124,101291
 7.0000e-001 101389 -2.6425e+002 -7.7693e+001  7.5672e+000 32908 101020,101150,101363
 7.0000e-001 101412 -2.4709e+002 -7.5023e+001  2.1066e+001 32908 101020,101363,101291
 7.0000e-001 101461 -2.6329e+002 -5.5876e+001  8.8075e+000 32908 101072,101291,101435
 7.0000e-001 101918 -2.4001e+002 -9.8484e+001 -3.3835e+001 32618 101941,101670,101644
 7.0000e-001 101895 -1.9311e+002 -5.9903e+001 -8.3957e+000 32618 101941,101644,101774
 7.0000e-001 101872 -3.5973e+002 -5.1313e+001  1.4139e+000 32618 102013,101696,101670
 7.0000e-001 101849 -2.8669e+002 -6.4071e+001  2.1735e+001 32618 101696,101748,101722
 7.0000e-001 101826 -1.6845e+002 -2.1365e+001 -1.9413e+001 32618 101644,101800,101774
 7.0000e-001 101967 -3.4284e+002 -7.1114e+001 -3.3680e+001 32618 102013,101670,101941
 7.0000e-001 101990 -2.2322e+002 -8.3296e+000 -5.2597e+001 32618 101748,101941,101774
 7.0000e-001 102039 -3.1840e+002 -6.1910e+001 -1.2402e+001 32618 101748,101696,102013
 7.0000e-001 102062 -2.3758e+002 -4.6320e+001 -3.8581e+001 32618 101748,102013,101941
 7.0000e-001 102440 -5.2112e+001 -2.1457e+001 -8.0436e+000 32306 102463,102270,102244
 7.0000e-001 102417 -4.6056e+001 -7.4683e+000 -7.4446e+000 32306 102463,102244,102192
 7.0000e-001 102394 -4.2213e+001 -3.2573e+000 -9.1020e+000 32306 102192,102244,102218
 7.0000e-001 102371 -3.3416e+001  4.2331e+001 -3.8656e+001 32306 102270,102322,102296
 7.0000e-001 102348 -4.9079e+001  2.6247e+001 -9.7848e+000 32306 102166,102322,102192
 7.0000e-001 102489 -5.8619e+001 -1.6881e+001 -2.2677e+001 32306 102322,102270,102463
 7.0000e-001 102512 -4.8827e+001  5.7923e+000 -2.1604e+001 32306 102322,102463,102192
 7.0000e-001 102662 -1.7779e+002 -8.5185e+001  4.8297e+001 31852 102943,102587,102561
 7.0000e-001 102639 -2.6642e+002  2.0304e+000  3.0533e+001 31852 102815,102685,102561
 7.0000e-001 102711 -2.1755e+002 -3.1858e+001  7.1344e+001 31852 102943,102561,102685
 7.0000e-001 102841 -1.4876e+002 -5.5110e+001 -1.3163e+000 31852 102535,102685,102815
 7.0000e-001 102969 -1.4843e+002 -3.5204e+001  2.5021e+001 31852 102613,102587,102943
 7.0000e-001 102992 -1.9520e+002  4.0373e+000  5.0684e+001 31852 102613,102943,102685
 7.0000e-001 103370 -2.1680e+002 -9.0177e+001  4.5027e+001 31134 103096,103200,103122
 7.0000e-001 103347 -2.3431e+002 -7.5258e+001 -5.6577e+001 31134 103096,103226,103200
 7.0000e-001 103324 -3.2881e+002 -9.9152e+001  3.4797e+001 31134 103122,103200,103174
 7.0000e-001 103301 -3.2477e+002 -7.7178e+001 -2.8490e+001 31134 103096,103252,103226
 7.0000e-001 103278 -2.6850e+002 -1.6837e+001  2.0636e-001 31134 103122,103174,103148
 7.0000e-001 103520 -4.3284e+002 -9.3250e+001 -1.7971e+000 30822 103393,103445,103419
 7.0000e-001 103497 -4.2573e+002 -9.9010e+001 -7.9739e+000 30822 103393,103471,103445
 7.0000e-001 103719 -1.6635e+002  1.9333e+001 -2.4998e+000 30182 103742,103621,103569
 7.0000e-001 103696 -2.3218e+002  3.8176e+001 -1.3677e+001 30182 103742,103569,103543
 7.0000e-001 103673 -1.2610e+002  5.4100e+001  6.3770e+001 30182 103569,103621,103595
 7.0000e-001 103768 -1.3483e+002  2.6913e+001 -4.8629e+000 30182 103647,103621,103742
 7.0000e-001 103791 -1.6436e+002  7.1182e+001 -2.8123e+001 30182 103647,103742,103543
 7.0000e-001 104252 -8.4043e+001 -4.0987e+000  7.0992e+000 29728 104030,104108,104056
 7.0000e-001 104229 -1.0104e+002 -1.4932e+001 -1.1954e+001 29728 104004,104108,104030
 7.0000e-001 104206 -9.5056e+001 -2.6249e+001 -1.5230e+001 29728 104004,104134,104108
 7.0000e-001 104183 -6.7365e+001  1.0262e+001  1.0283e+001 29728 103978,104134,104004
 7.0000e-001 104160 -1.0254e+002  3.4874e-001  1.4629e+001 29728 104056,104108,104082
 7.0000e-001 104630 -2.8094e+002 -6.6860e+001  9.3145e+001 29217 104653,104382,104356
 7.0000e-001 104607 -2.8798e+002 -5.8642e+001  8.8004e+000 29217 104653,104356,104512
 7.0000e-001 104584 -1.3654e+002 -6.9556e+001  3.3990e+001 29217 104434,104512,104486
 7.0000e-001 104561 -2.3265e+002  4.9688e+000  6.6504e+001 29217 104382,104434,104408
 7.0000e-001 104538 -1.1340e+002 -2.2054e+001  6.1803e+001 29217 104434,104486,104460
 7.0000e-001 104679 -2.2532e+002 -4.3578e+001  7.8408e+001 29217 104434,104382,104653
 7.0000e-001 104702 -2.0646e+002 -3.8679e+001  2.9985e+000 29217 104434,104653,104512
 7.0000e-001 105178 -2.2061e+002 -1.8105e+001  1.4181e+001 28649 105201,104962,104936
 7.0000e-001 105155 -1.9113e+002 -4.5010e+001 -5.3809e+000 28649 105201,104936,104884
 7.0000e-001 105132 -1.7702e+002 -2.4860e+001  7.4151e+000 28649 105273,104858,105014
 7.0000e-001 105109 -1.6523e+002  8.3789e+000  2.6526e+001 28649 104962,105014,104988
 7.0000e-001 105086 -1.9284e+002 -3.8717e+001 -1.6927e+001 28649 104884,104936,104910
 7.0000e-001 105063 -1.1350e+002 -2.1989e+001  2.0434e+000 28649 104806,105014,104858
 7.0000e-001 105040 -1.1474e+002 -5.9687e+001  2.7065e+000 28649 104806,104858,104832
 7.0000e-001 105227 -1.8301e+002  6.6218e+000  2.6656e+001 28649 105014,104962,105201
 7.0000e-001 105250 -1.8469e+002 -2.4501e+001  2.4232e+000 28649 105273,105014,105201
 7.0000e-001 105299 -1.6842e+002 -2.3684e+001  9.4770e+000 28649 104884,104858,105273
 7.0000e-001 105322 -1.7222e+002 -2.1835e+001  3.6106e+000 28649 104884,105273,105201
 7.0000e-001 105673 -4.2830e+002  3.6266e+000 -3.5685e+000 28351 105474,105578,105552
 7.0000e-001 105650 -4.4707e+002 -6.4640e+001 -1.6011e-001 28351 105448,105578,105474
 7.0000e-001 105627 -4.5234e+002  2.4263e+000 -3.1634e+001 28351 105500,105552,105526
 7.0000e-001 105604 -4.2594e+002  5.1262e+000 -4.6535e+000 28351 105474,105552,105500
 7.0000e-001 106130 -2.1881e+002 -5.3468e+000 -2.4428e+001 28004 106153,105882,105856
 7.0000e-001 106107 -2.5815e+002 -7.5935e+001 -3.9932e+001 28004 106153,105856,105986
 7.0000e-001 106084 -1.7899e+002 -1.0438e+002 -1.4864e+001 28004 105934,105986,105960
 7.0000e-001 106061 -2.1328e+002 -6.8954e+001 -5.9591e+001 28004 105856,106012,105986
 7.0000e-001 106038 -1.3522e+002  2.5169e+001 -5.3817e+001 28004 105882,105934,105908
 7.0000e-001 106179 -1.7795e+002 -5.4549e+001  1.9545e+001 28004 105934,105882,106153
 7.0000e-001 106202 -2.0694e+002 -9.8830e+001  5.7847e+000 28004 105934,106153,105986
 7.0000e-001 106885 -2.3056e+002  2.6922e+000  3.2077e+001 27564 106908,106620,106516
 7.0000e-001 106862 -3.3190e+002 -1.8836e+001  2.7880e+001 27564 106908,106516,106490
 7.0000e-001 106839 -4.2201e+002 -8.1699e+001  4.6126e+001 27564 106516,106620,106542
 7.0000e-001 106816 -2.1737e+002 -2.3275e+001  9.1487e+001 27564 106620,106672,106646
 7.0000e-001 106793 -5.7584e+002 -9.5780e+001  5.1998e+001 27564 106542,106620,106594
 7.0000e-001 106770 -2.8720e+002 -3.1969e+001  1.2476e+001 27564 106490,106698,106672
 7.0000e-001 106747 -2.1058e+002 -6.2691e+001  7.5620e+001 27564 106464,106698,106490
 7.0000e-001 106724 -4.3305e+002 -1.0704e+002  1.1352e+002 27564 106542,106594,106568
 7.0000e-001 106934 -1.8330e+002 -1.8846e+001  3.4960e+001 27564 106672,106620,106908
 7.0000e-001 106957 -2.3185e+002 -3.2668e+000  2.4665e+001 27564 106672,106908,106490
 7.0000e-001 107463 -5.6684e+001 -3.1126e+001 -4.4313e+000 27053 107218,107322,107296
 7.0000e-001 107440 -4.3993e+001  3.3427e-001  4.5253e+000 27053 107166,107322,107218
 7.0000e-001 107417 -5.2445e+001  1.0896e+001 -1.2635e+000 27053 107218,107296,107244
 7.0000e-001 107394 -1.0744e+001 -9.2781e+000  6.4930e+000 27053 107140,107322,107166
 7.0000e-001 107371 -1.2802e+001  3.4242e+000  1.5033e+000 27053 107166,107218,107192
 7.0000e-001 107348 -4.4871e+001 -4.8095e-001 -1.4197e+001 27053 107244,107296,107270
 7.0000e-001 108097 -1.9194e+002  1.1230e+001 -2.6424e+001 26549 108192,108120,107803
 7.0000e-001 108074 -2.6896e+002 -7.3790e+001 -3.1045e+001 26549 108120,107725,107933
 7.0000e-001 108051 -1.5672e+002  1.6922e+001  2.0916e+001 26549 107751,107803,107777
 7.0000e-001 108028 -2.1974e+002  4.9874e+001  4.3347e+000 26549 108192,107803,107751
 7.0000e-001 108005 -2.8584e+002 -9.5490e+001 -7.4296e+001 26549 108264,107855,107803
 7.0000e-001 107982 -2.2060e+002 -1.1380e+002  6.4798e+000 26549 107881,107933,107907
 7.0000e-001 107959 -2.3927e+002 -7.4423e+001 -7.9230e+001 26549 107803,107855,107829
 7.0000e-001 108146 -2.3632e+002 -5.9062e+001 -5.8331e+001 26549 108264,107803,108120
 7.0000e-001 108169 -2.2265e+002  2.7372e+001 -1.5954e+001 26549 107881,108120,107933
 7.0000e-001 108218 -2.4960e+002 -3.1179e+001 -4.6909e+001 26549 107725,108120,108192
 7.0000e-001 108241 -2.7360e+002  6.2791e+000 -1.5749e+001 26549 107725,108192,107751
 7.0000e-001 108290 -3.2954e+002 -4.0014e+001 -5.8396e+001 26549 107881,107855,108264
 7.0000e-001 108313 -2.9320e+002 -9.0479e+000 -4.4314e+001 26549 107881,108264,108120
 7.0000e-001 108512 -1.8625e+002 -6.4731e+000  3.4638e+001 26137 108388,108440,108414
 7.0000e-001 108489 -2.0840e+002 -3.9698e+001  1.7368e+001 26137 108362,108440,108388
 7.0000e-001 108466 -2.7550e+002 -6.8225e+001  2.2618e+000 26137 108336,108440,108362
 7.0000e-001 108662 -2.1148e+002  1.0095e+001  5.4069e+000 25733 108817,108685,108535
 7.0000e-001 108639 -2.4005e+002  2.8332e+001 -6.6088e+000 25733 109017,108817,108535
 7.0000e-001 108711 -2.0053e+002  6.7298e+000 -6.3221e+000 25733 108561,108535,108685
 7.0000e-001 108843 -2.4789e+002 -2.5584e+001 -1.1178e+001 25733 108587,108685,108817
 7.0000e-001 108866 -2.3748e+002  1.2309e+001 -4.7703e+000 25733 108889,108817,108613
 7.0000e-001 108915 -2.6323e+002  8.9190e-001 -2.7012e+000 25733 108587,108817,108889
 7.0000e-001 109043 -2.4838e+002 -5.5107e+000 -1.0001e+001 25733 108613,108817,109017
 7.0000e-001 109500 -7.1440e+001  2.0577e+001 -2.9418e+001 25229 109523,109356,109330
 7.0000e-001 109477 -1.0455e+002 -9.0440e+000 -8.0663e+000 25229 109595,109523,109330
 7.0000e-001 109454 -9.8488e+001 -2.5297e+001  7.7295e+000 25229 109595,109330,109278
 7.0000e-001 109431 -9.7943e+001 -2.5435e+001 -4.2380e+000 25229 109667,109226,109382
 7.0000e-001 109408 -1.3198e+002 -1.2271e+001  2.2512e+001 25229 109278,109330,109304
 7.0000e-001 109549 -5.4654e+001  1.0805e+001  1.1876e+001 25229 109382,109356,109523
 7.0000e-001 109572 -9.1182e+001 -3.7514e+001 -6.8291e+000 25229 109667,109382,109523
 7.0000e-001 109621 -9.9370e+001  1.8350e+001 -3.1132e+000 25229 109252,109523,109595
 7.0000e-001 109644 -9.9284e+001 -8.2984e-001  4.0557e+000 25229 109739,109595,109278
 7.0000e-001 109693 -1.9593e+002 -2.8763e+001  7.0495e+000 25229 109252,109226,109667
 7.0000e-001 109716 -1.3203e+002 -2.2666e+000  1.5320e+001 25229 109252,109667,109523
 7.0000e-001 109765 -9.7127e+001 -5.0272e+000 -4.4325e+000 25229 109252,109595,109739
 7.0000e-001 110478 -9.0592e+001 -7.8360e+000 -4.5331e+000 24917 110158,110236,110184
 7.0000e-001 110455 -4.3241e+001  1.1883e+001 -4.6107e+000 24917 110158,110288,110236
 7.0000e-001 110432 -6.3282e+001  2.4456e+000  6.2382e-001 24917 110236,110288,110262
 7.0000e-001 110409 -4.4492e+001 -8.7533e+000  1.1614e+001 24917 110184,110236,110210
 7.0000e-001 110386 -3.7498e+001 -4.0131e+000  4.4443e+000 24917 110132,110288,110158
 7.0000e-001 110363 -1.1286e+001  3.4723e+000 -2.5919e+000 24917 110132,110314,110288
 7.0000e-001 110340 -1.2272e+001 -6.2842e-001  1.3651e+000 24917 110106,110314,110132
 7.0000e-001 110829 -3.3167e+002 -1.3557e+002  4.1889e+001 24307 110604,110682,110630
 7.0000e-001 110806 -2.6882e+002 -6.5913e+001  1.1027e+001 24307 110604,110708,110682
 7.0000e-001 110783 -2.2394e+002 -3.6022e+001 -1.8421e+001 24307 110604,110734,110708
 7.0000e-001 110760 -4.9579e+002 -2.0600e+002  4.8511e+001 24307 110630,110682,110656
 7.0000e-001 111335 -1.6354e+002 -3.4058e+001  2.4149e+001 23767 111012,111168,111038
 7.0000e-001 111312 -1.1188e+002  4.8484e+001  1.8723e+000 23767 111012,111194,111168
 7.0000e-001 111289 -8.7050e+001  1.8958e+001 -3.4127e+001 23767 111358,111064,111038
 7.0000e-001 111266 -1.2207e+002  1.0616e+001  1.1342e+000 23767 111358,111038,111168
 7.0000e-001 111243 -1.5528e+002 -4.4203e+000 -6.4285e+000 23767 111430,111142,111090
 7.0000e-001 111220 -1.8423e+002 -1.7605e+001 -1.8410e+001 23767 111090,111142,111116
 7.0000e-001 111384 -1.1761e+002  1.6066e+000 -1.4941e+001 23767 111090,111064,111358
 7.0000e-001 111407 -1.0986e+002 -3.2834e+000 -2.1634e+000 23767 111430,111090,111358
 7.0000e-001 111456 -1.9806e+002  7.6553e+000  5.1075e+000 23767 111168,111142,111430
 7.0000e-001 111479 -1.7011e+002 -4.3789e+000  6.6103e+000 23767 111168,111430,111358
 7.0000e-001 111985 -2.1997e+002 -1.1105e+002 -4.9800e+001 23477 111688,111844,111818
 7.0000e-001 111962 -2.1334e+002 -6.0734e+001  4.2454e+001 23477 111662,111844,111688
 7.0000e-001 111939 -1.5862e+002  1.3870e-001  1.6625e+001 23477 111766,111818,111792
 7.0000e-001 111916 -2.9005e+002 -4.0106e+001  3.1728e+001 23477 111740,111818,111766
 7.0000e-001 111893 -2.7530e+002 -2.4541e+001 -4.2921e+001 23477 111688,111818,111740
 7.0000e-001 111870 -5.1506e+002 -2.4695e+001 -6.3508e+001 23477 111688,111740,111714
 7.0000e-001 112314 -2.1334e+002  7.9937e+000 -9.6904e+000 23023 112141,112219,112193
 7.0000e-001 112291 -2.2347e+002 -6.4962e+001 -1.0730e+001 23023 112115,112219,112141
 7.0000e-001 112268 -1.8888e+002  2.3942e+001  7.9127e+000 23023 112141,112193,112167
 7.0000e-001 112245 -1.7307e+002 -2.6923e-003  1.1401e+001 23023 112089,112219,112115
 7.0000e-001 112692 -2.4342e+002 -3.1456e+001  2.3276e-001 22768 112444,112574,112548
 7.0000e-001 112669 -2.4461e+002  4.4574e+001  3.1818e+000 22768 112418,112574,112444
 7.0000e-001 112646 -1.6544e+002 -4.8852e-001 -3.9440e+000 22768 112444,112522,112470
 7.0000e-001 112623 -1.9977e+002 -1.0799e+001  7.5517e+000 22768 112444,112548,112522
 7.0000e-001 112600 -1.4741e+002  4.6482e+000  1.7997e+001 22768 112470,112522,112496
 7.0000e-001 113011 -4.7521e+002  2.1424e+001 -8.0941e+001 22314 112763,112867,112789
 7.0000e-001 112988 -5.6438e+002 -9.6477e+001 -3.9869e+001 22314 112763,112893,112867
 7.0000e-001 112965 -6.2082e+002 -3.8852e+001  0.0000e+000 22314 112815,112867,112841
 7.0000e-001 112942 -6.8717e+002 -7.9439e+001 -4.7530e+001 22314 112789,112867,112815
 7.0000e-001 112919 -4.4415e+002 -9.3686e+001 -1.0436e+002 22314 112737,112893,112763
 7.0000e-001 113519 -1.4584e+002 -3.2673e+001  2.4875e+001 21924 113614,113542,113248
 7.0000e-001 113496 -1.1643e+002  2.1128e+001  1.1649e+001 21924 113542,113196,113378
 7.0000e-001 113473 -7.1216e+001 -6.6243e+001  3.6832e+001 21924 113614,113248,113222
 7.0000e-001 113450 -1.4591e+002 -1.0092e+001  5.9677e+000 21924 113686,113274,113248
 7.0000e-001 113427 -1.6041e+002 -1.8785e+001 -1.1304e+000 21924 113274,113352,113326
 7.0000e-001 113404 -9.6453e+001 -2.0668e+001  4.3960e+001 21924 113274,113326,113300
 7.0000e-001 113568 -1.3116e+002 -6.9233e+000  1.8776e+001 21924 113686,113248,113542
 7.0000e-001 113591 -1.4914e+002 -6.9145e+001 -3.4382e+000 21924 113352,113542,113378
 7.0000e-001 113640 -7.2836e+001  2.0851e+001  5.5469e+001 21924 113196,113542,113614
 7.0000e-001 113663 -3.2113e+001 -3.2157e+001  6.6665e+001 21924 113196,113614,113222
 7.0000e-001 113712 -1.6221e+002 -5.0066e+000  4.2206e+000 21924 113352,113274,113686
 7.0000e-001 113735 -1.5649e+002 -8.9955e+000  1.6786e+001 21924 113352,113686,113542
 7.0000e-001 113885 -6.7471e+000  3.3122e+000 -9.0664e-001 21520 113980,113908,113784
 7.0000e-001 113862 -1.3881e+002 -1.7673e+001 -2.1642e+001 21520 114238,113908,113758
 7.0000e-001 113934 -1.0553e+002 -1.3925e+000 -5.5579e+001 21520 114110,113908,113810
 7.0000e-001 113957 -1.5119e+002  6.6124e+000  1.5727e+001 21520 113810,113908,113836
 7.0000e-001 114006 -1.2874e+002 -8.3541e+000  9.6607e+000 21520 113758,113908,113980
 7.0000e-001 114136  6.9156e+000  2.1906e+000 -9.2372e+000 21520 113784,113908,114110
 7.0000e-001 114264 -4.6759e+001  5.1619e+001  9.1152e+000 21520 113836,113908,114238
 7.0000e-001 114662 -2.5075e+002 -1.2726e+001  2.2286e+000 21030 114414,114518,114492
 7.0000e-001 114639 -3.4706e+002 -5.9311e+001  4.0814e+001 21030 114414,114544,114518
 7.0000e-001 114616 -3.8706e+001  7.6258e+001  6.2280e+000 21030 114440,114492,114466
 7.0000e-001 114593 -2.5209e+002 -1.4278e+001  6.8051e+000 21030 114414,114492,114440
 7.0000e-001 114570 -2.9109e+002 -1.2395e+001  1.1461e+002 21030 114388,114544,114414
 7.0000e-001 114959 -3.6199e+002 -4.3114e+001 -2.0032e+001 20512 114982,114711,114685
 7.0000e-001 114936 -3.5210e+002 -2.5155e+001 -2.7154e+001 20512 115054,114982,114685
 7.0000e-001 114913 -3.4768e+002  4.5566e+001 -2.9419e+001 20512 115054,114685,114841
 7.0000e-001 114890 -1.5572e+002  2.3376e+000  3.0479e+000 20512 114711,114763,114737
 7.0000e-001 114867 -2.6456e+002 -1.8105e+001  1.0194e+001 20512 114763,114815,114789
 7.0000e-001 115008 -3.4766e+002 -3.3453e+001 -1.2413e+001 20512 114763,114711,114982
 7.0000e-001 115031 -3.6361e+002 -8.2280e+001 -1.7424e+001 20512 114763,114982,114815
 7.0000e-001 115080 -3.6592e+002 -6.0925e+001 -3.3287e+001 20512 114815,114982,115054
 7.0000e-001 115103 -3.8043e+002 -3.0716e+001 -3.0748e+001 20512 114815,115054,114841
 7.0000e-001 115507 -1.2865e+002 -1.3895e+001 -1.3102e+002 20143 115285,115389,115363
 7.0000e-001 115484 -3.3765e+002  1.5285e+001  8.1924e+000 20143 115259,115389,115285
 7.0000e-001 115461 -3.0898e+002  1.2528e+001  3.9319e+001 20143 115233,115389,115259
 7.0000e-001 115438 -1.5666e+002 -5.5440e+001  2.9184e+001 20143 115285,115337,115311
 7.0000e-001 115415 -5.6489e+001 -1.8593e+001  4.2421e+001 20143 115285,115363,115337
 7.0000e-001 115875 -7.8768e+001  1.7362e+000  4.6206e+000 19632 115656,115734,115682
 7.0000e-001 115852 -5.9735e+001  6.7944e+000  1.4458e+001 19632 115552,115734,115656
 7.0000e-001 115829 -6.6981e+001 -4.9939e+000 -1.2990e+001 19632 115552,115656,115578
 7.0000e-001 115806 -9.6200e+001  5.4000e+000 -1.6362e+000 19632 115578,115656,115630
 7.0000e-001 115783 -3.2816e+001  2.3822e+001 -3.2128e+001 19632 115682,115734,115708
 7.0000e-001 115760 -7.9734e+001 -8.1180e+000  2.3896e+001 19632 115578,115630,115604
 7.0000e-001 116025 -2.0342e+002  3.5805e+001  2.3410e+001 19178 115898,115950,115924
 7.0000e-001 116002 -2.0470e+002  1.2150e+001  1.4935e+001 19178 115898,115976,115950
 7.0000e-001 116633 -1.1637e+002  1.9356e+001  2.5877e-001 18738 116800,116656,116342
 7.0000e-001 116610 -1.0386e+002  4.1054e+001 -4.5154e+001 18738 116656,116238,116446
 7.0000e-001 116587 -9.8819e+001 -7.7110e+000  9.8912e+000 18738 116728,116368,116342
 7.0000e-001 116564 -1.2428e+002  2.8676e+000  9.3051e+000 18738 116800,116342,116264
 7.0000e-001 116541 -7.2742e+001  4.3589e+002 -1.4824e+002 18738 116212,116446,116238
 7.0000e-001 116518 -6.8098e+001  6.9692e+000 -6.9202e+001 18738 116394,116446,116420
 7.0000e-001 116495 -3.2024e+002 -7.7892e+001  1.0339e+001 18738 116264,116342,116316
 7.0000e-001 116472 -9.5003e+001  1.1700e+001  5.9201e+000 18738 116264,116316,116290
 7.0000e-001 116682 -9.7348e+001  2.2583e+000 -1.2020e+001 18738 116728,116342,116656
 7.0000e-001 116705 -1.1082e+002 -2.0025e+001 -4.9181e+001 18738 116394,116656,116446
 7.0000e-001 116754 -6.8764e+001  7.5135e+000 -5.8518e+000 18738 116394,116368,116728
 7.0000e-001 116777 -6.2475e+001  2.1313e+001 -2.8331e+001 18738 116394,116728,116656
 7.0000e-001 116826 -1.2668e+002  5.5583e+001 -1.7247e+001 18738 116238,116656,116800
 7.0000e-001 116849 -1.4469e+002  3.3445e+001 -5.1462e+000 18738 116238,116800,116264
 7.0000e-001 116999 -2.5314e+001  1.8897e+001 -2.1508e+001 18184 116872,116924,116898
 7.0000e-001 116976 -2.8479e+001 -2.5460e+001 -1.4580e+001 18184 116872,116950,116924
 7.0000e-001 117330 -1.2923e+002  1.4948e+001  3.8948e+000 17694 117157,117235,117183
 7.0000e-001 117307 -7.0515e+001  1.0887e+001  1.2834e+000 17694 117131,117235,117157
 7.0000e-001 117284 -7.7680e+001  1.6242e+001  4.5302e+000 17694 117105,117235,117131
 7.0000e-001 117261 -2.1645e+002 -5.1301e+001  3.8030e+001 17694 117183,117235,117209
 7.0000e-001 117480 -1.6883e+002 -6.7213e+001  5.3026e+001 17290 117353,117405,117379
 7.0000e-001 117457 -8.7319e+001 -4.1265e-002  2.3814e+001 17290 117353,117431,117405
 7.0000e-001 117679 -1.6086e+002 -8.5275e+001  1.1492e+001 16718 117555,117607,117581
 7.0000e-001 117656 -1.7993e+002 -5.4531e+001 -8.6911e+000 16718 117529,117607,117555
 7.0000e-001 117633 -2.3477e+002 -6.0344e+001 -7.8124e+000 16718 117503,117607,117529
 7.0000e-001 117782 -1.5793e+002 -7.0422e+000 -9.7295e+000 16520 117704,117756,117730
 7.0000e-001 117983 -3.5072e+002 -2.3598e+002  1.0528e+001 16208 117859,117911,117885
 7.0000e-001 117960 -2.4360e+002 -1.5227e+002 -3.7145e+001 16208 117833,117911,117859
 7.0000e-001 117937 -1.1997e+002 -6.6340e+001  3.0091e-001 16208 117807,117911,117833
 7.0000e-001 118135 -1.6831e+001  3.4201e+001 -6.6145e+000 15674 118034,118086,118060
 7.0000e-001 118112 -1.3541e+002 -1.0975e+001 -9.1776e+000 15674 118008,118086,118034
 7.0000e-001 118238 -2.7324e+002 -2.0850e+000  3.2613e-001 15355 118160,118212,118186
 7.0000e-001 118341  1.7578e-001 -5.3531e+000 -4.2186e-002 421 118263,118315,118289
 8.0000e-001 68152 -1.4611e+001 -2.0018e+001 -1.0678e+000 67838 68074,68126,68100
 8.0000e-001 68550 -2.5992e+002 -9.1380e+000 -8.8749e-001 67526 68276,68380,68302
 8.0000e-001 68527 -1.6910e+002  1.0689e+001 -2.3201e+000 67526 68276,68406,68380
 8.0000e-001 68504 -2.8637e+002 -2.5355e+001  2.9851e+000 67526 68328,68380,68354
 8.0000e-001 68481 -2.6200e+002 -1.3996e+001 -8.1905e-001 67526 68302,68380,68328
 8.0000e-001 68458 -1.6654e+002  3.5129e+000 -2.5318e+001 67526 68276,68432,68406
 8.0000e-001 68651 -5.0109e+000 -2.2526e-001 -2.1569e+000 67328 68573,68625,68599
 8.0000e-001 68970 -4.2163e+002 -1.4682e+002 -2.6448e+001 67016 68722,68800,68774
 8.0000e-001 68947 -4.1574e+002 -1.1810e+002 -3.4107e+001 67016 68722,68826,68800
 8.0000e-001 68924 -4.2214e+002 -3.3443e+001 -4.5709e+001 67016 68696,68826,68722
 8.0000e-001 68901 -3.4315e+002 -5.8426e+001  2.2898e+001 67016 68722,68774,68748
 8.0000e-001 68878 -2.9106e+002 -3.0740e+001  9.3575e+001 67016 68696,68852,68826
 8.0000e-001 69291 -2.4802e+002 -1.6122e+001 -3.7717e+001 66654 69069,69147,69095
 8.0000e-001 69268 -1.2563e+002 -3.5768e+000  1.1874e+001 66654 69069,69173,69147
 8.0000e-001 69245 -7.7417e+001 -1.2009e+001 -3.2305e+001 66654 69043,69173,69069
 8.0000e-001 69222 -2.7528e+002  1.8193e+001  1.7647e+001 66654 69095,69147,69121
 8.0000e-001 69199 -5.1271e+001 -7.1794e+000  1.0051e+001 66654 69017,69173,69043
 8.0000e-001 69695 -3.4002e+002 -8.4997e+001 -1.4193e+001 66456 69447,69577,69551
 8.0000e-001 69672 -3.5597e+002 -6.3071e+001 -2.9275e+001 66456 69421,69577,69447
 8.0000e-001 69649 -4.3507e+002 -1.7109e+002  2.2117e+001 66456 69473,69551,69525
 8.0000e-001 69626 -3.4706e+002 -9.7997e+001 -9.2948e+000 66456 69447,69551,69473
 8.0000e-001 69603 -4.5442e+002 -1.3731e+002  1.0456e+002 66456 69473,69525,69499
 8.0000e-001 70024 -3.3548e+001  2.5760e+001 -3.9367e+001 66258 70047,69851,69825
 8.0000e-001 70001 -6.6659e+001  1.1115e+001  1.5785e+001 66258 70047,69825,69903
 8.0000e-001 69978 -5.0706e+001  1.8838e+001  1.0625e+001 66258 69799,69903,69825
 8.0000e-001 69955 -4.9252e+001 -1.5418e+001  1.5087e+001 66258 69799,69929,69903
 8.0000e-001 70073 -8.3362e+001 -4.8536e+000 -1.7815e+001 66258 69877,69851,70047
 8.0000e-001 70096 -1.3246e+002 -3.1789e+001  3.9968e+001 66258 69877,70047,69903
 8.0000e-001 70602 -7.3630e+002 -1.2692e+002  9.5247e+001 66060 70305,70435,70331
 8.0000e-001 70579 -1.9127e+002 -1.5751e+002 -8.7418e+001 66060 70279,70435,70305
 8.0000e-001 70556 -3.2984e+002  4.9425e+001  5.6492e+001 66060 70331,70435,70409
 8.0000e-001 70533 -1.2463e+002 -1.0460e+001 -7.2200e+001 66060 70279,70461,70435
 8.0000e-001 70510 -4.7819e+002 -1.4029e+002  1.2470e+002 66060 70331,70409,70357
 8.0000e-001 70487 -2.6055e+002 -5.9091e+001  1.3181e+002 66060 70357,70409,70383
 8.0000e-001 70703 -4.7792e+001 -3.9060e+001 -3.2139e+001 65862 70625,70677,70651
 8.0000e-001 71083 -5.9659e+001  1.3638e+001  1.4231e+001 65664 70887,70965,70939
 8.0000e-001 71060 -2.2211e+002 -3.0851e+001  6.3433e+001 65664 70861,70965,70887
 8.0000e-001 71037 -2.4488e+002  1.0255e+002  8.9928e+000 65664 70809,70965,70861
 8.0000e-001 71014 -2.7148e+002  1.8723e+002  9.0253e+001 65664 70809,70861,70835
 8.0000e-001 70991 -5.6030e+001 -1.3445e+000 -9.4522e+000 65664 70887,70939,70913
 8.0000e-001 71611 -5.2995e+001 -2.1281e+001  3.3792e+001 65260 71288,71444,71314
 8.0000e-001 71588 -1.4195e+002 -5.5407e+001  2.3894e+001 65260 71288,71470,71444
 8.0000e-001 71565 -3.7867e+002 -8.5986e+001 -6.7233e+001 65260 71314,71418,71392
 8.0000e-001 71542 -7.6992e+001 -9.3025e+001  2.5191e+001 65260 71314,71444,71418
 8.0000e-001 71519 -2.2941e+002  4.2542e-001 -2.6531e+001 65260 71314,71392,71340
 8.0000e-001 71496 -2.8712e+002 -1.2483e+002 -2.8118e+002 65260 71340,71392,71366
 8.0000e-001 72060 -2.2208e+002 -6.4159e+000  1.4491e+001 64870 71737,71893,71789
 8.0000e-001 72037 -2.9322e+002 -3.9204e+001  2.9495e+000 64870 71737,71919,71893
 8.0000e-001 72014 -2.2259e+002 -8.2658e+001 -8.8717e+001 64870 71789,71841,71815
 8.0000e-001 71991 -2.6047e+002  4.2048e+000 -1.6382e+001 64870 71789,71893,71841
 8.0000e-001 71968 -2.0533e+002 -1.9750e+001 -1.3958e+001 64870 71737,71789,71763
 8.0000e-001 71945 -3.6121e+002  6.9694e+000  0.0000e+000 64870 71841,71893,71867
 8.0000e-001 72517 -2.5308e+002 -6.3677e+001  2.2823e+001 64466 72321,72399,72347
 8.0000e-001 72494 -2.3605e+002 -1.1206e+002  1.4843e+001 64466 72269,72399,72321
 8.0000e-001 72471 -2.3266e+002  1.2454e+001 -2.6943e+001 64466 72347,72399,72373
 8.0000e-001 72448 -2.3625e+002 -8.4576e+001  7.3826e+001 64466 72243,72399,72269
 8.0000e-001 72425 -1.8485e+002 -1.3297e+001 -9.2324e+000 64466 72269,72321,72295
 8.0000e-001 72944 -3.2406e+002 -6.9661e+001 -1.5097e+001 64062 73111,73039,72699
 8.0000e-001 72921 -3.1853e+002 -5.8792e+001  2.1912e+000 64062 73183,72967,72647
 8.0000e-001 72898 -3.3149e+002 -6.5250e+001 -7.4189e+000 64062 72967,72803,72751
 8.0000e-001 72875 -3.2365e+002 -6.9443e+001 -1.6044e+001 64062 73111,72699,72673
 8.0000e-001 72852 -3.2655e+002 -4.3083e+001 -3.9001e+000 64062 73183,72647,72621
 8.0000e-001 72829 -2.9769e+002 -1.0330e+002  4.3117e+001 64062 72751,72803,72777
 8.0000e-001 72993 -3.3821e+002 -7.7428e+001 -6.7775e+000 64062 73039,72647,72967
 8.0000e-001 73016 -3.1907e+002 -4.7577e+001  3.9328e+000 64062 72725,72967,72751
 8.0000e-001 73065 -4.4177e+002 -4.5661e+001 -9.4465e+001 64062 72725,72699,73039
 8.0000e-001 73088 -3.2114e+002 -3.2101e+001 -1.6988e+000 64062 72725,73039,72967
 8.0000e-001 73137 -3.2273e+002 -7.1989e+001 -1.5981e+001 64062 72647,73039,73111
 8.0000e-001 73160 -3.2303e+002 -7.1935e+001 -1.6433e+001 64062 72647,73111,72673
 8.0000e-001 73209 -3.2205e+002 -4.3484e+001 -9.7492e+000 64062 72803,72967,73183
 8.0000e-001 73232 -3.1822e+002 -8.2555e+000 -1.3742e+001 64062 72803,73183,72621
 8.0000e-001 73333 -1.8678e+002  1.1957e+001  6.4085e+000 63814 73356,73281,73255
 8.0000e-001 73382 -6.4581e+002 -8.9531e+001 -7.1490e+000 63814 73486,73356,73307
 8.0000e-001 73512 -2.8316e+002  6.6046e+001 -1.4446e+001 63814 73281,73356,73486
 8.0000e-001 73839 -1.7842e+002 -1.5588e+001  7.8154e+000 63616 73862,73692,73666
 8.0000e-001 73816 -2.0201e+002 -2.8327e+001  2.0381e+000 63616 73934,73862,73666
 8.0000e-001 73793 -2.1936e+002 -1.0907e+001 -1.7884e+001 63616 73934,73666,73640
 8.0000e-001 73770 -2.1767e+002  3.0607e+001 -2.5428e+001 63616 73614,73744,73640
 8.0000e-001 73888 -1.5542e+002 -2.1306e+001  1.8085e+000 63616 73718,73692,73862
 8.0000e-001 73911 -1.7847e+002 -3.7915e+001 -9.4781e+000 63616 73718,73862,73744
 8.0000e-001 73960 -1.6791e+002 -8.0041e+000 -6.7653e+000 63616 73744,73862,73934
 8.0000e-001 73983 -1.8365e+002  5.9094e+000 -2.4998e+001 63616 73744,73934,73640
 8.0000e-001 74363 -3.7288e+002 -7.3098e+001 -2.2824e+001 63390 74386,74115,74089
 8.0000e-001 74340 -3.2612e+002 -5.3310e+001 -3.4444e+001 63390 74458,74386,74089
 8.0000e-001 74317 -3.4914e+002 -3.7378e+001 -8.7908e+001 63390 74458,74089,74245
 8.0000e-001 74294 -3.0989e+002 -1.4850e+002  5.4381e+000 63390 74530,74167,74141
 8.0000e-001 74271 -2.9328e+002 -9.1907e+001  2.0822e+001 63390 74167,74219,74193
 8.0000e-001 74412 -3.4032e+002 -4.9207e+001 -1.0559e+001 63390 74141,74115,74386
 8.0000e-001 74435 -3.5038e+002 -1.1592e+002 -2.8608e+001 63390 74530,74141,74386
 8.0000e-001 74484 -3.7094e+002 -1.3073e+002 -6.4524e+001 63390 74219,74386,74458
 8.0000e-001 74507 -4.1781e+002 -1.3681e+002 -1.2362e+002 63390 74219,74458,74245
 8.0000e-001 74556 -2.6613e+002 -1.2251e+002 -5.5630e+000 63390 74219,74167,74530
 8.0000e-001 74579 -2.9229e+002 -8.0944e+001 -4.3267e+001 63390 74219,74530,74386
 8.0000e-001 74680 -1.0845e+002 -2.9905e+000  1.1337e+001 63100 75089,74833,74703
 8.0000e-001 74729 -3.3432e+001  1.8261e+000 -6.6979e+000 63100 74961,74703,74654
 8.0000e-001 74859 -1.3366e+002 -3.5136e+001 -2.4264e+000 63100 74602,74703,74833
 8.0000e-001 74987 -5.3709e+001 -1.2646e+001  4.9376e+001 63100 75089,74703,74961
 8.0000e-001 75115 -2.2598e+002 -2.2880e+000 -4.7927e+000 63100 74628,74833,75089
 8.0000e-001 75138 -1.6947e+002 -1.0754e+001  3.3469e+001 63100 74628,75089,74961
 8.0000e-001 75723 -7.4885e+001 -9.1088e+001  3.5664e+001 62532 75746,75504,75426
 8.0000e-001 75700 -2.5529e+002  3.8939e+001  1.5879e+002 62532 75746,75426,75556
 8.0000e-001 75677 -9.0721e+001  1.8244e+001 -6.1075e+001 62532 75426,75504,75452
 8.0000e-001 75654 -4.4699e+002 -2.2884e+001  1.5950e+002 62532 75400,75556,75426
 8.0000e-001 75631 -5.4676e+002 -3.1836e+002  3.2557e+001 62532 75400,75582,75556
 8.0000e-001 75608 -1.7244e+002 -5.0504e+001 -3.1373e+001 62532 75452,75504,75478
 8.0000e-001 75772 -2.8176e+002 -7.7691e+001  2.1251e+001 62532 75530,75504,75746
 8.0000e-001 75795 -5.6174e+002 -1.9754e+001  1.4478e+002 62532 75530,75746,75556
 8.0000e-001 76301 -1.8573e+002 -4.5896e+001 -2.5101e+001 62192 76324,76082,76030
 8.0000e-001 76278 -1.4544e+002 -1.8918e+000 -6.3761e+000 62192 76324,76030,76004
 8.0000e-001 76255 -1.5203e+002 -4.3529e+001  2.4069e+000 62192 76030,76082,76056
 8.0000e-001 76232 -2.5802e+002 -1.8041e+000 -2.5965e+001 62192 76082,76134,76108
 8.0000e-001 76209 -4.4155e+002 -3.8986e+001 -8.4356e+001 62192 76004,76160,76134
 8.0000e-001 76186 -3.2412e+002 -2.6197e+002 -6.1313e+001 62192 75978,76160,76004
 8.0000e-001 76350 -2.5075e+002  1.7950e+001 -2.1970e+001 62192 76134,76082,76324
 8.0000e-001 76373 -2.0389e+002  7.7957e+001 -1.3563e+000 62192 76134,76324,76004
 8.0000e-001 76879 -8.3719e+000 -2.9184e+000 -1.2185e+001 61788 76902,76660,76582
 8.0000e-001 76856 -2.2499e+001 -6.2982e+000 -1.2833e+001 61788 76902,76582,76556
 8.0000e-001 76833 -8.2020e+000 -8.2617e+000 -3.8312e+000 61788 76582,76660,76634
 8.0000e-001 76810 -2.6010e+000 -6.0536e+000 -5.1482e+000 61788 76582,76634,76608
 8.0000e-001 76787 -6.2053e-001 -1.1562e+001  3.2209e+000 61788 76556,76738,76686
 8.0000e-001 76764  1.0783e+001 -7.6068e+000  3.1741e-001 61788 76686,76738,76712
 8.0000e-001 76928  2.7428e+000 -7.6237e+000 -1.3180e+001 61788 76686,76660,76902
 8.0000e-001 76951 -9.0405e+000 -9.3708e+000 -1.4539e+001 61788 76686,76902,76556
 8.0000e-001 77408 -2.9901e+002 -1.1629e+001  5.4657e+001 61498 77212,77264,77238
 8.0000e-001 77385 -3.5188e+002 -1.3222e+001 -7.1008e+001 61498 77160,77264,77212
 8.0000e-001 77362 -2.6515e+002 -5.4886e+001 -1.0227e+002 61498 77160,77290,77264
 8.0000e-001 77339 -3.9956e+002 -4.4030e+001 -5.6581e+001 61498 77160,77212,77186
 8.0000e-001 77316 -2.0412e+002 -7.1818e+001  7.0671e+001 61498 77134,77290,77160
 8.0000e-001 77678 -7.4476e+002  9.4037e+001  1.6227e+001 61129 77479,77557,77505
 8.0000e-001 77655 -7.4145e+002 -1.0602e+002  5.1084e+000 61129 77479,77583,77557
 8.0000e-001 77632 -6.7061e+002 -2.8770e+002  5.4532e+001 61129 77453,77583,77479
 8.0000e-001 77609 -6.4753e+002  2.4690e+002  1.4889e+002 61129 77505,77557,77531
 8.0000e-001 77828 -6.3458e+001 -4.7134e-001 -7.8067e+000 60931 77851,77727,77701
 8.0000e-001 77805 -4.5073e+001 -3.1568e+000 -6.0297e+000 60931 77851,77701,77779
 8.0000e-001 77877 -4.6653e+001 -9.1986e+000 -4.4763e+000 60931 77923,77851,77753
 8.0000e-001 77900 -1.4783e+001  2.6707e+000  2.4415e+000 60931 77753,77851,77779
 8.0000e-001 77949 -4.4333e+001 -4.0771e+000 -4.9305e+000 60931 77727,77851,77923
 8.0000e-001 78133 -4.6681e+002 -1.9465e+002  2.9971e+001 60377 78055,78107,78081
 8.0000e-001 78535 -2.3407e+002  1.8196e+001 -3.7364e+001 60015 78287,78391,78313
 8.0000e-001 78512 -3.6610e+002 -8.4888e+001  8.2282e+000 60015 78287,78417,78391
 8.0000e-001 78489 -2.5955e+002 -5.8248e+001 -5.8691e+000 60015 78261,78417,78287
 8.0000e-001 78466 -5.0921e+002 -1.4104e+002  1.0439e+001 60015 78339,78391,78365
 8.0000e-001 78443 -5.2139e+002 -9.6042e+001 -2.5871e+001 60015 78313,78391,78339
 8.0000e-001 78913 -2.2341e+002 -4.1845e+001  1.1375e+001 59725 78936,78743,78691
 8.0000e-001 78890 -1.7899e+002  3.1041e+000  2.9474e+001 59725 79008,78936,78691
 8.0000e-001 78867 -1.6956e+002 -5.4979e+000  6.7336e+001 59725 79008,78691,78665
 8.0000e-001 78844 -2.5057e+002 -4.2965e+001 -4.3242e+000 59725 78691,78743,78717
 8.0000e-001 78821 -2.7613e+002 -1.6059e+002  9.6618e+001 59725 78639,78795,78769
 8.0000e-001 78962 -2.1841e+002 -1.5150e+001  1.1537e+001 59725 78769,78743,78936
 8.0000e-001 78985 -2.4429e+002 -1.0394e+001  1.0166e+001 59725 78769,78936,78639
 8.0000e-001 79034 -2.5602e+002 -2.8722e+001  2.6613e+001 59725 78639,78936,79008
 8.0000e-001 79057 -2.1227e+002 -2.7606e+001  5.8166e+001 59725 78639,79008,78665
 8.0000e-001 79386 -3.1186e+002 -2.1597e+001  5.3576e-001 59221 79187,79239,79213
 8.0000e-001 79363 -2.9817e+002 -7.8757e+001  2.1968e+001 59221 79187,79265,79239
 8.0000e-001 79340 -2.6108e+002 -9.0840e+001 -1.9308e+001 59221 79187,79291,79265
 8.0000e-001 79317 -3.0182e+002 -1.8011e+002  4.8142e+000 59221 79161,79291,79187
 8.0000e-001 79813 -2.2685e+002  1.5187e+001  1.4504e+001 58831 79836,79542,79516
 8.0000e-001 79790 -1.7051e+002  1.8499e+001  3.1934e+001 58831 79980,79836,79516
 8.0000e-001 79767 -8.8298e+001  1.5253e+001 -3.1819e+001 58831 79908,79646,79568
 8.0000e-001 79744 -2.7712e+002 -1.6429e+001  2.6756e+001 58831 79980,79516,79490
 8.0000e-001 79721 -5.9981e+001  4.2400e+001 -1.7862e+001 58831 79568,79646,79594
 8.0000e-001 79698 -1.0901e+001  8.5367e+000  1.0055e+001 58831 79594,79646,79620
 8.0000e-001 79862 -1.4050e+002  6.3178e+001  3.4851e+001 58831 79568,79542,79836
 8.0000e-001 79885 -7.0763e+001  7.6866e+000 -1.2217e+001 58831 79908,79568,79836
 8.0000e-001 79934 -1.0064e+002  7.2034e+000 -2.6169e+001 58831 79672,79646,79908
 8.0000e-001 79957 -1.0494e+002 -9.4330e+000 -4.3579e+000 58831 79672,79908,79836
 8.0000e-001 80006 -1.3273e+002 -1.6903e+001 -1.1605e+001 58831 79672,79836,79980
 8.0000e-001 80029 -1.7014e+002 -1.9107e+001  3.0962e+000 58831 79672,79980,79490
 8.0000e-001 80358 -3.3927e+002  2.8498e+001  3.1258e+001 58377 80381,80185,80159
 8.0000e-001 80335 -3.5646e+002 -5.2920e+000  1.6125e+001 58377 80381,80159,80133
 8.0000e-001 80312 -3.8016e+002 -7.1429e+001  8.0807e+000 58377 80133,80263,80237
 8.0000e-001 80289 -2.8464e+002  1.2653e+001  1.5606e+001 58377 80185,80237,80211
 8.0000e-001 80407 -2.9226e+002 -1.1679e+001  3.1046e+001 58377 80237,80185,80381
 8.0000e-001 80430 -3.2923e+002 -5.4935e+001  6.8440e+000 58377 80237,80381,80133
 8.0000e-001 80759 -3.2936e+002 -4.0691e+001 -7.3735e+001 57873 80782,80586,80560
 8.0000e-001 80736 -2.9317e+002 -3.5051e+001 -6.9438e+001 57873 80782,80560,80534
 8.0000e-001 80713 -2.3585e+002 -1.3995e+001 -2.6245e+001 57873 80586,80638,80612
 8.0000e-001 80690 -2.9903e+002 -6.2682e+001 -2.6913e+001 57873 80534,80664,80638
 8.0000e-001 80808 -3.2408e+002 -3.5365e+001 -5.5340e+001 57873 80638,80586,80782
 8.0000e-001 80831 -3.1053e+002 -3.6249e+001 -5.9168e+001 57873 80638,80782,80534
 8.0000e-001 81337 -4.0558e+001 -5.6431e+000 -1.9509e+001 57262 81360,81144,81092
 8.0000e-001 81314 -4.2961e+001 -1.5257e+001 -2.9609e+001 57262 81360,81092,81066
 8.0000e-001 81291 -3.2251e+001  1.1296e+001 -2.0116e+001 57262 81014,81196,81066
 8.0000e-001 81268 -2.5433e+001 -3.4501e+000 -1.2917e+001 57262 81092,81144,81118
 8.0000e-001 81245  1.1692e+001 -2.5439e+000 -1.0062e+001 57262 81144,81196,81170
 8.0000e-001 81222 -3.3566e+001  1.7083e+000  3.0819e-001 57262 81014,81066,81040
 8.0000e-001 81386 -3.1316e+001  5.8605e+000 -1.2418e+001 57262 81196,81144,81360
 8.0000e-001 81409 -3.7821e+001 -5.9339e+000 -2.3297e+001 57262 81196,81360,81066
 8.0000e-001 81608 -7.9418e+002 -2.9784e+002 -9.3712e+001 57007 81458,81536,81510
 8.0000e-001 81585 -7.4286e+002 -2.2006e+002 -7.0395e+001 57007 81432,81536,81458
 8.0000e-001 81562 -4.1164e+002 -3.7495e+002 -2.7424e+002 57007 81458,81510,81484
 8.0000e-001 82086 -1.8424e+002 -3.3276e+001  2.0486e+001 56339 81792,81922,81818
 8.0000e-001 82063 -8.2402e+001 -2.7504e+001  8.9869e+000 56339 81714,81922,81792
 8.0000e-001 82040 -2.5247e+002 -5.9620e+001  3.5746e+001 56339 82109,81844,81818
 8.0000e-001 82017 -1.9872e+002 -6.6105e+001  4.7164e+001 56339 82109,81818,81922
 8.0000e-001 81994 -2.6345e+002 -4.8914e+001 -3.9243e+001 56339 81844,81896,81870
 8.0000e-001 81971 -7.6832e+001 -6.6731e+000 -7.6721e+000 56339 81714,81792,81766
 8.0000e-001 81948 -4.4258e+001 -2.2678e+001  2.9700e+000 56339 81714,81766,81740
 8.0000e-001 82135 -3.2554e+002 -5.3926e+001  3.0238e+001 56339 81896,81844,82109
 8.0000e-001 82158 -2.4968e+002 -3.9386e+001  5.0837e+001 56339 81896,82109,81922
 8.0000e-001 82536 -3.6526e+002 -8.5071e+001 -5.0528e+001 55699 82288,82392,82314
 8.0000e-001 82513 -4.8293e+002 -1.2850e+002 -2.7162e+001 55699 82288,82418,82392
 8.0000e-001 82490 -2.4673e+002 -9.7624e+001  2.8568e-001 55699 82314,82392,82340
 8.0000e-001 82467 -3.1517e+002 -9.3625e+001  2.5565e+001 55699 82340,82392,82366
 8.0000e-001 82444 -4.8135e+002 -2.9291e+001 -2.9291e+000 55699 82262,82418,82288
 8.0000e-001 83091  5.0614e-001 -2.4601e+001 -4.7345e+000 55409 82745,82901,82875
 8.0000e-001 83068  7.0268e+000  2.4949e+000 -1.2275e-001 55409 82719,82901,82745
 8.0000e-001 83045 -3.0043e+001 -2.5451e+001 -1.7281e+001 55409 82771,82849,82823
 8.0000e-001 83022 -2.0183e+001 -1.0647e+001  9.7849e+000 55409 82745,82849,82771
 8.0000e-001 82999 -2.3395e+001 -3.6161e+001  1.5794e+001 55409 82745,82875,82849
 8.0000e-001 82976 -2.0490e+001 -2.2575e+001 -1.9699e+001 55409 82771,82823,82797
 8.0000e-001 82953  3.0778e+000  4.8757e+000 -1.0112e+000 55409 82719,82927,82901
 8.0000e-001 83388 -2.3629e+002  1.6176e+000 -1.1325e+001 54905 83411,83218,83166
 8.0000e-001 83365 -2.5646e+002  1.3911e+000 -9.5768e+000 54905 83411,83166,83114
 8.0000e-001 83342 -1.5746e+002  2.9751e+001  2.6847e+001 54905 83483,83270,83244
 8.0000e-001 83319 -3.6633e+002 -3.9378e+001 -3.0150e+000 54905 83166,83218,83192
 8.0000e-001 83296 -2.5139e+002 -3.9587e+001  4.2130e+001 54905 83114,83166,83140
 8.0000e-001 83437 -2.4409e+002  4.6708e+000 -3.4865e+000 54905 83244,83218,83411
 8.0000e-001 83460 -2.1183e+002  2.5213e+001  7.7207e+000 54905 83483,83244,83411
 8.0000e-001 83509 -2.3062e+002 -1.6853e+001  3.5453e+000 54905 83114,83270,83483
 8.0000e-001 83532 -2.4542e+002  1.3721e+000 -1.2972e+001 54905 83114,83483,83411
 8.0000e-001 83961 -2.8510e+002 -3.6781e+000 -4.1141e+001 54593 83638,83768,83690
 8.0000e-001 83938 -3.7989e+001  2.5786e+001  1.7462e+000 54593 83638,83794,83768
 8.0000e-001 83915 -1.7067e+002  1.0212e+002  1.2231e+001 54593 83690,83768,83742
 8.0000e-001 83892 -1.7697e+002  6.4669e+001 -1.1111e+002 54593 83638,83820,83794
 8.0000e-001 83869 -1.1218e+002  5.8814e+002 -1.1459e+002 54593 83638,83690,83664
 8.0000e-001 83846 -5.9121e+001  3.0948e+000  1.5168e+002 54593 83690,83742,83716
 8.0000e-001 84209 -3.0463e+002 -4.3127e+001 -6.6406e+000 54132 84232,84062,83984
 8.0000e-001 84186 -3.1493e+002 -7.8711e+001  3.4632e+000 54132 84232,83984,84114
 8.0000e-001 84163 -3.0291e+002 -3.2606e+001 -2.9355e+001 54132 83984,84062,84036
 8.0000e-001 84140 -2.4630e+002 -1.3486e+002  9.5925e+000 54132 83984,84036,84010
 8.0000e-001 84258 -3.3183e+002 -1.5840e+000  4.2034e-001 54132 84088,84062,84232
 8.0000e-001 84281 -3.4896e+002 -4.1185e+001  1.6961e+001 54132 84088,84232,84114
 8.0000e-001 84382 -5.8260e+002  3.9046e+000  9.0941e+000 53521 84304,84356,84330
 8.0000e-001 84632 -2.5715e+002 -8.4096e+000  2.4738e+001 53067 84655,84485,84459
 8.0000e-001 84609 -2.2510e+002 -3.0418e+001  3.0493e+001 53067 84655,84459,84407
 8.0000e-001 84586 -2.6413e+002 -5.3870e+001  1.3820e+001 53067 84485,84537,84511
 8.0000e-001 84563 -2.0157e+002 -1.0662e+000 -1.7321e+001 53067 84407,84459,84433
 8.0000e-001 84681 -2.6604e+002 -2.3222e+001  3.0027e+001 53067 84537,84485,84655
 8.0000e-001 84704 -2.5570e+002 -6.1545e+001  4.3509e+001 53067 84537,84655,84407
 8.0000e-001 85214 -7.9653e+001 -3.3687e+001 -3.3857e+001 52513 85021,85073,85047
 8.0000e-001 85191 -1.4896e+002  2.1927e+001 -2.9026e+001 52513 84943,85073,85021
 8.0000e-001 85168 -2.7653e+002 -3.8801e+001 -6.3790e+001 52513 84943,85021,84995
 8.0000e-001 85145 -1.6193e+002 -2.6113e+001 -1.4757e+001 52513 84917,85073,84943
 8.0000e-001 85122 -7.4632e+001 -7.6335e+001 -7.5984e+001 52513 84943,84995,84969
 8.0000e-001 85099 -6.1570e+001 -5.7918e+001 -3.2056e+001 52513 84891,85073,84917
 8.0000e-001 85582 -2.7257e+002 -3.1974e+001 -3.0749e+001 52037 85605,85311,85285
 8.0000e-001 85559 -3.1727e+002 -4.0116e+001  1.0545e+001 52037 85749,85605,85285
 8.0000e-001 85536 -3.1777e+002 -8.0360e+001  9.4760e-002 52037 85893,85677,85389
 8.0000e-001 85513 -3.4981e+002 -5.1369e+001  1.4730e+001 52037 85749,85285,85259
 8.0000e-001 85490 -3.0497e+002 -7.9704e+001 -3.3466e+001 52037 85893,85389,85363
 8.0000e-001 85467 -3.6450e+002  3.3774e+001  1.9140e+001 52037 85259,85441,85415
 8.0000e-001 85631 -3.3518e+002 -1.7526e+001  1.3155e+001 52037 85337,85311,85605
 8.0000e-001 85654 -3.4339e+002 -8.9804e+001  2.9211e+001 52037 85677,85337,85605
 8.0000e-001 85703 -3.7200e+002 -6.6578e+001 -8.0919e+000 52037 85415,85389,85677
 8.0000e-001 85726 -3.5203e+002 -2.4813e+001  6.9329e+000 52037 85821,85677,85605
 8.0000e-001 85775 -3.5375e+002 -2.6645e+001  4.1482e+000 52037 85821,85605,85749
 8.0000e-001 85798 -3.7796e+002 -3.4268e+001  8.7892e-001 52037 85415,85749,85259
 8.0000e-001 85847 -3.5420e+002 -2.9176e+001  4.9878e+000 52037 85415,85677,85821
 8.0000e-001 85870 -3.5450e+002 -3.0440e+001  2.5375e+000 52037 85415,85821,85749
 8.0000e-001 85919 -3.3833e+002 -1.3455e+002  9.9131e+000 52037 85337,85677,85893
 8.0000e-001 85942 -3.3366e+002 -1.4190e+002 -2.1200e+001 52037 85337,85893,85363
 8.0000e-001 86224 -1.1508e+002 -2.9208e+001 -1.8979e+001 51368 86375,86100,86074
 8.0000e-001 86201 -1.8752e+001  3.1574e+000 -2.3766e+001 51368 86375,86074,86247
 8.0000e-001 86178 -7.0458e+001  4.6944e+000 -2.0685e+001 51368 86048,86152,86126
 8.0000e-001 86273 -1.5270e+002 -3.5042e+000  5.3792e+000 51368 86048,86126,86247
 8.0000e-001 86401 -1.6667e+002  6.6527e+000  2.4985e+001 51368 86126,86100,86375
 8.0000e-001 86424 -1.1776e+002  6.4451e+000  2.0764e+001 51368 86126,86375,86247
 8.0000e-001 86802 -3.7209e+002 -1.0368e+002  1.3377e+001 51028 86528,86632,86580
 8.0000e-001 86779 -2.2809e+002 -3.2847e+001 -2.9468e+001 51028 86528,86684,86632
 8.0000e-001 86756 -3.2047e+002  1.7736e+001  1.2322e+001 51028 86528,86580,86554
 8.0000e-001 86733 -2.3303e+002 -4.5118e+001 -3.0159e+001 51028 86632,86684,86658
 8.0000e-001 86710 -2.2132e+002 -4.8258e+001  1.7936e+001 51028 86580,86632,86606
 8.0000e-001 87131 -2.1767e+002 -1.7145e+001  3.2044e+001 50624 86958,87036,87010
 8.0000e-001 87108 -1.6364e+002 -5.7872e+001  4.3756e+001 50624 86932,87036,86958
 8.0000e-001 87085 -1.7143e+002  8.0530e+000  9.8337e-001 50624 86958,87010,86984
 8.0000e-001 87062 -1.0063e+002 -4.0469e+001  3.0245e+001 50624 86906,87036,86932
 8.0000e-001 87330 -1.7168e+002 -4.0537e+000 -3.9811e+000 50234 87353,87180,87154
 8.0000e-001 87307 -2.0784e+002  5.4075e+000 -9.6520e+000 50234 87353,87154,87258
 8.0000e-001 87284 -2.4927e+002  5.3936e-002 -2.7085e+000 50234 87206,87258,87232
 8.0000e-001 87379 -2.0090e+002 -1.7899e+000 -2.0296e+001 50234 87206,87180,87353
 8.0000e-001 87402 -2.4701e+002  4.1885e+000 -2.0312e+001 50234 87206,87353,87258
 8.0000e-001 87650 -3.0298e+002 -3.9983e+000 -4.0571e+000 49730 87673,87503,87451
 8.0000e-001 87627 -2.7286e+002  1.2218e+001  2.2331e+001 49730 87673,87451,87425
 8.0000e-001 87604 -1.9846e+002 -4.5305e+001  1.0007e+002 49730 87503,87555,87529
 8.0000e-001 87581 -6.2913e+002 -7.8307e+001  7.9842e+001 49730 87451,87503,87477
 8.0000e-001 87699 -3.0453e+002  2.4333e+001  1.1352e+001 49730 87555,87503,87673
 8.0000e-001 87722 -3.0152e+002  4.6383e+001  2.3884e+001 49730 87555,87673,87425
 8.0000e-001 88232 -3.3478e+002 -1.7486e+002  5.2456e+001 49176 88255,87935,87909
 8.0000e-001 88209 -2.4489e+002 -1.1462e+002 -6.5261e+001 49176 88255,87909,88065
 8.0000e-001 88186 -4.1527e+002 -2.4615e+001 -3.7549e+001 49176 87935,88039,87961
 8.0000e-001 88163 -2.1360e+002 -1.0748e+002 -6.8493e+001 49176 87909,88091,88065
 8.0000e-001 88140 -4.8178e+002 -5.1108e+001  3.9632e+001 49176 87961,88039,88013
 8.0000e-001 88117 -4.5496e+002 -2.2086e+002 -7.4328e+001 49176 87961,88013,87987
 8.0000e-001 88281 -2.2172e+002 -1.2580e+002 -1.1723e+001 49176 88039,87935,88255
 8.0000e-001 88304 -1.3899e+002 -7.6047e+001 -1.2732e+002 49176 88039,88255,88065
 8.0000e-001 88503 -3.2117e+002 -1.7668e+002 -6.1925e+001 48772 88526,88379,88353
 8.0000e-001 88480 -3.5407e+002 -1.0907e+002 -4.8688e+001 48772 88526,88353,88327
 8.0000e-001 88457 -2.4442e+002 -5.5388e+001 -2.4203e+001 48772 88379,88431,88405
 8.0000e-001 88552 -2.9828e+002 -1.2329e+002 -7.2519e+001 48772 88431,88379,88526
 8.0000e-001 88575 -3.4055e+002 -7.5429e+001 -6.4451e+001 48772 88431,88526,88327
 8.0000e-001 89083 -4.7653e+000 -2.6439e-001  3.4658e+000 48368 88786,88916,88864
 8.0000e-001 89060 -1.2226e+001 -4.5098e+000  5.1524e+000 48368 88786,88942,88916
 8.0000e-001 89037 -3.5428e+000 -3.2379e+000  9.0748e-001 48368 88786,88864,88812
 8.0000e-001 89014 -1.4708e+001 -5.5715e+000  7.5261e-001 48368 88864,88916,88890
 8.0000e-001 88991 -1.7600e+000 -2.6770e+000  7.4330e-001 48368 88812,88864,88838
 8.0000e-001 88968 -3.0811e-001 -4.9419e+000 -2.5621e+000 48368 88760,88942,88786
 8.0000e-001 89331 -1.3605e+002 -6.8700e+001 -4.6247e+001 47928 89158,89236,89210
 8.0000e-001 89308 -1.3558e+002 -4.4095e+001 -3.4525e+001 47928 89132,89236,89158
 8.0000e-001 89285 -2.0707e+002 -4.3981e+000 -6.9604e+001 47928 89158,89210,89184
 8.0000e-001 89262 -2.0674e+002 -4.0468e+001 -4.7099e+001 47928 89106,89236,89132
 8.0000e-001 89662 -2.1835e+002 -6.6159e+001  1.0109e+001 47588 89463,89541,89515
 8.0000e-001 89639 -2.0069e+002 -8.1014e+001 -8.3863e+000 47588 89463,89567,89541
 8.0000e-001 89616 -2.4698e+002 -4.4986e+001 -2.8565e+001 47588 89463,89515,89489
 8.0000e-001 89593 -2.0328e+002 -1.3456e+002  3.1747e+001 47588 89437,89567,89463
 8.0000e-001 89763 -9.0017e+002 -9.3988e+001 -3.1863e+001 47390 89685,89737,89711
 8.0000e-001 89913 -5.9970e+002 -1.7127e+002 -6.3442e+001 47078 89786,89838,89812
 8.0000e-001 89890 -2.7628e+002 -2.0018e+002 -7.7771e+001 47078 89786,89864,89838
 8.0000e-001 90163 -2.5963e+002 -2.3352e+001  3.7116e+001 46474 89964,90042,89990
 8.0000e-001 90140 -2.1516e+002 -1.5497e+001  8.2873e+001 46474 89938,90042,89964
 8.0000e-001 90117 -1.1330e+002 -4.4766e+001  5.1292e+001 46474 89990,90042,90016
 8.0000e-001 90094 -1.5832e+002 -9.1771e+000  6.9535e+001 46474 89938,90068,90042
 8.0000e-001 90364 -9.0130e+001 -1.9088e+001  2.5641e+001 46184 90240,90292,90266
 8.0000e-001 90341 -1.1181e+002 -1.0427e+001  3.1629e+001 46184 90188,90292,90240
 8.0000e-001 90318 -1.0750e+002 -6.2389e+001  3.1997e+001 46184 90188,90240,90214
 8.0000e-001 90565 -3.2239e+002  7.2233e+000 -6.1518e+001 45780 90588,90415,90389
 8.0000e-001 90542 -2.2333e+002  2.5437e+001 -6.2786e+001 45780 90588,90389,90493
 8.0000e-001 90519 -2.3081e+002 -8.7057e+001 -2.2360e+001 45780 90415,90467,90441
 8.0000e-001 90614 -2.4292e+002 -3.8720e+001  2.7100e+000 45780 90467,90415,90588
 8.0000e-001 90637 -1.2258e+002  2.3644e+000  1.3092e+001 45780 90467,90588,90493
 8.0000e-001 91196 -1.9930e+002 -3.3478e+001 -1.6481e+001 45226 91219,90876,90850
 8.0000e-001 91173 -2.3384e+002 -5.2441e+001 -5.5603e+000 45226 91219,90850,91032
 8.0000e-001 91150 -2.5087e+002 -6.7069e+001 -1.3855e+001 45226 90824,91032,90850
 8.0000e-001 91127 -3.3644e+002 -9.6696e+001  2.8089e+001 45226 90876,90980,90902
 8.0000e-001 91104 -2.4812e+002 -1.2467e+001 -2.9666e+001 45226 90876,91006,90980
 8.0000e-001 91081 -3.3910e+002 -5.6357e+001  7.4501e+001 45226 90902,90980,90954
 8.0000e-001 91058 -1.0033e+003 -1.9232e+002  1.8454e+001 45226 90902,90954,90928
 8.0000e-001 91245 -2.4136e+002 -4.9373e+000 -2.4474e+001 45226 91006,90876,91219
 8.0000e-001 91268 -2.7982e+002 -2.8364e+001 -1.2242e+001 45226 91006,91219,91032
 8.0000e-001 91516 -1.0204e+002  6.8946e+001 -1.9703e+001 44836 91539,91421,91395
 8.0000e-001 91493 -2.5478e+002  7.1956e+001 -5.0935e+001 44836 91317,91421,91343
 8.0000e-001 91470 -1.0324e+002 -8.0349e+001  6.3488e+001 44836 91539,91395,91369
 8.0000e-001 91447 -6.9753e+001 -3.2652e+001 -1.3548e+002 44836 91291,91421,91317
 8.0000e-001 91565 -8.1641e+001  1.3666e+002 -2.4665e+001 44836 91343,91421,91539
 8.0000e-001 91588 -2.6365e+001  1.0030e+002  6.0826e+001 44836 91343,91539,91369
 8.0000e-001 91787 -1.9784e+002  7.4147e+000 -1.5696e+001 44432 91810,91637,91611
 8.0000e-001 91764 -9.8739e+001 -1.4079e+001 -3.0310e+001 44432 91810,91611,91715
 8.0000e-001 91741 -1.4607e+002  3.2037e+000 -1.8170e+001 44432 91637,91689,91663
 8.0000e-001 91836 -1.1597e+002  1.5760e+001  1.0610e+000 44432 91689,91637,91810
 8.0000e-001 91859 -4.4093e+001 -1.8803e+001  2.5541e+000 44432 91689,91810,91715
 8.0000e-001 92207 -2.5603e+002 -2.3721e+001 -4.4460e+001 43864 92230,91936,91910
 8.0000e-001 92184 -1.7416e+002 -4.4999e+001 -5.7673e+001 43864 92230,91910,92040
 8.0000e-001 92161 -8.8922e+001 -1.1632e+000 -1.9139e+001 43864 91884,92040,91910
 8.0000e-001 92138 -2.7145e+002 -4.5677e+001 -8.7972e+000 43864 91936,92014,91988
 8.0000e-001 92115 -2.0141e+002 -2.0797e+001 -1.4347e+001 43864 91936,91988,91962
 8.0000e-001 92092 -2.6077e+001 -2.6177e+001 -2.6317e+001 43864 91884,92066,92040
 8.0000e-001 92256 -1.8228e+002 -4.6485e+000 -2.5840e+001 43864 92014,91936,92230
 8.0000e-001 92279 -1.3041e+002 -4.9686e+001 -5.3170e+001 43864 92014,92230,92040
 8.0000e-001 92529 -4.1628e+002 -1.0348e+002  7.1609e+001 43410 92552,92330,92304
 8.0000e-001 92506 -3.8882e+002 -3.6075e+001  4.7859e+001 43410 92552,92304,92408
 8.0000e-001 92483 -2.5381e+002 -3.3608e+001 -7.2216e+000 43410 92304,92434,92408
 8.0000e-001 92460 -3.6157e+002 -1.0359e+002 -7.9636e+000 43410 92330,92382,92356
 8.0000e-001 92578 -4.2618e+002 -9.4690e+001 -6.6545e+000 43410 92382,92330,92552
 8.0000e-001 92601 -3.5359e+002  5.6739e+001 -3.5135e+001 43410 92382,92552,92408
 8.0000e-001 92802 -5.0579e+001  6.6972e-001  6.1761e+000 43162 92825,92704,92652
 8.0000e-001 92779 -5.3594e+001 -4.3127e-001 -7.7087e-001 43162 92825,92652,92626
 8.0000e-001 92756 -5.2477e+000 -6.1726e+000  8.5694e+000 43162 92652,92704,92678
 8.0000e-001 92851 -4.5209e+001  1.9030e+000  8.8151e+000 43162 92730,92704,92825
 8.0000e-001 92874 -3.6729e+001 -1.0612e+000 -1.8349e+000 43162 92730,92825,92626
 8.0000e-001 93463 -3.8634e+002 -1.4168e+002  7.2910e+001 42758 93140,93270,93166
 8.0000e-001 93440 -3.2093e+002 -1.3615e+002  1.0392e+001 42758 93140,93296,93270
 8.0000e-001 93417 -2.7719e+002 -5.9579e+001  3.3703e+001 42758 93166,93270,93218
 8.0000e-001 93394 -4.6533e+002 -5.7214e+001  7.9054e+001 42758 93218,93270,93244
 8.0000e-001 93371 -3.0445e+002 -1.2954e+002  6.6141e+000 42758 93140,93322,93296
 8.0000e-001 93348 -2.4566e+002 -3.8932e-001 -1.2166e+001 42758 93166,93218,93192
 8.0000e-001 93920 -1.9608e+002  2.0180e+000  3.6791e+001 42304 93943,93672,93646
 8.0000e-001 93897 -1.8602e+002  1.3308e+001  2.8874e+001 42304 93943,93646,93802
 8.0000e-001 93874 -1.7282e+002  3.9733e+001  1.2226e+000 42304 93724,93802,93776
 8.0000e-001 93851 -1.8052e+002  8.1860e+000  2.4298e+001 42304 93672,93724,93698
 8.0000e-001 93828 -3.7239e+001 -2.7376e+001  3.3065e+001 42304 93724,93776,93750
 8.0000e-001 93969 -1.8250e+002 -1.3577e+000  3.1139e+001 42304 93724,93672,93943
 8.0000e-001 93992 -1.7505e+002  1.5219e+000  2.6244e+001 42304 93724,93943,93802
 8.0000e-001 94321 -1.1351e+002 -4.6708e+001  9.7446e+000 41478 94096,94148,94122
 8.0000e-001 94298 -1.0270e+002 -1.4109e+001  8.5336e+000 41478 94096,94226,94148
 8.0000e-001 94275 -5.8298e+001 -2.4542e+001  1.7656e+001 41478 94148,94226,94174
 8.0000e-001 94252 -3.0411e+001 -3.3901e+000 -6.2227e+000 41478 94174,94226,94200
 8.0000e-001 94618 -1.8846e+002 -2.4955e+001  7.2323e+000 40910 94344,94422,94396
 8.0000e-001 94595 -1.7303e+002 -1.4944e+001  1.2582e+001 40910 94344,94448,94422
 8.0000e-001 94572 -1.7281e+002 -1.0053e+001  5.4878e+001 40910 94344,94474,94448
 8.0000e-001 94549 -1.6391e+002 -3.6826e+001 -6.3965e+000 40910 94344,94396,94370
 8.0000e-001 94526 -2.4273e+002 -2.6325e+001  7.6661e+001 40910 94344,94500,94474
 8.0000e-001 94866 -3.4118e+002  1.8064e+001 -3.2009e+001 40306 94667,94719,94693
 8.0000e-001 94843 -2.8913e+002 -9.9789e+001 -2.4052e+000 40306 94641,94719,94667
 8.0000e-001 94820 -2.3861e+002 -6.5623e+000 -2.2324e+001 40306 94641,94745,94719
 8.0000e-001 94797 -1.7058e+002 -4.9076e+001 -1.0067e+001 40306 94641,94771,94745
 8.0000e-001 95089 -3.3747e+002 -1.6764e+002 -1.1584e+001 39702 94913,94991,94939
 8.0000e-001 95066 -4.0016e+002 -1.7578e+002 -1.5339e+001 39702 94913,95017,94991
 8.0000e-001 95043 -4.4223e+002 -2.1432e+002 -2.6640e+001 39702 94939,94991,94965
 8.0000e-001 95339 -2.8795e+002  1.9746e+001  3.8630e+001 39248 95140,95218,95166
 8.0000e-001 95316 -3.1701e+002 -1.2206e+001  6.3374e+001 39248 95140,95244,95218
 8.0000e-001 95293 -2.4869e+002 -1.3378e+001  5.3780e+001 39248 95114,95244,95140
 8.0000e-001 95270 -3.3947e+002  3.8933e+000  3.8953e+001 39248 95166,95218,95192
 8.0000e-001 95770 -3.5184e+000  4.6083e+000 -2.9766e-001 38694 95551,95629,95577
 8.0000e-001 95747 -3.4447e+001  3.5454e-001 -8.6011e+000 38694 95447,95629,95551
 8.0000e-001 95724 -3.9304e+001 -2.1086e+000  8.0347e+000 38694 95447,95551,95473
 8.0000e-001 95701 -1.3972e+001  3.0633e+000  1.7132e+000 38694 95473,95551,95499
 8.0000e-001 95678 -1.6153e+001  3.8754e+000 -1.9211e+000 38694 95499,95551,95525
 8.0000e-001 95655 -5.6611e+000 -1.1418e+000  4.1863e-001 38694 95577,95629,95603
 8.0000e-001 96325 -3.0390e+002  1.3897e+001 -1.2567e+001 38240 95953,96031,96005
 8.0000e-001 96302 -3.2494e+002 -5.5147e+001 -1.4286e+001 38240 95953,96161,96031
 8.0000e-001 96279 -3.0473e+002 -1.0733e+002 -7.2879e+001 38240 96031,96161,96135
 8.0000e-001 96256 -3.9087e+002 -9.0828e+001  2.1093e+001 38240 96348,96109,96057
 8.0000e-001 96233 -3.8050e+002 -1.7963e+002 -8.6339e+001 38240 96348,96057,96031
 8.0000e-001 96210 -3.8978e+002 -4.2192e+001  1.2726e+001 38240 96057,96109,96083
 8.0000e-001 96187 -1.0324e+002 -3.0442e+001  9.5184e+001 38240 95953,96005,95979
 8.0000e-001 96374 -2.9996e+002 -1.9935e+001  5.1881e+001 38240 96135,96109,96348
 8.0000e-001 96397 -2.7365e+002 -1.0700e+002 -5.4477e+001 38240 96135,96348,96031
 8.0000e-001 96618 -2.4450e+002  5.1258e+001  1.1610e+001 37821 96494,96546,96520
 8.0000e-001 96595 -3.2518e+002 -5.9462e+001 -3.8910e+001 37821 96468,96546,96494
 8.0000e-001 96572 -3.8635e+002 -8.5629e+001 -3.4414e+001 37821 96442,96546,96468
 8.0000e-001 97126 -2.4690e+002 -2.2675e+001  2.2051e+001 37367 97149,96855,96829
 8.0000e-001 97103 -1.8348e+002  1.0000e+001  1.8343e+000 37367 97149,96829,96985
 8.0000e-001 97080 -1.9566e+002  1.9736e+001  7.3874e+000 37367 96803,96985,96829
 8.0000e-001 97057 -1.7760e+002 -5.0062e+001  6.4848e+001 37367 96855,96907,96881
 8.0000e-001 97034 -1.0466e+002  9.4800e+000  2.1057e+001 37367 96907,96985,96959
 8.0000e-001 97011 -4.8589e+001  6.1892e+000  6.0704e+001 37367 96907,96959,96933
 8.0000e-001 97175 -1.8202e+002 -6.5755e+001  5.3305e+001 37367 96907,96855,97149
 8.0000e-001 97198 -1.3698e+002 -3.7294e+001  3.5818e+001 37367 96907,97149,96985
 8.0000e-001 97704 -1.6463e+002 -1.9479e+001 -2.3627e+001 36863 97727,97511,97485
 8.0000e-001 97681 -1.5131e+002 -4.6280e+001 -7.2000e+001 36863 97727,97485,97433
 8.0000e-001 97658 -7.5232e+001 -3.4148e+001 -5.2227e+001 36863 97381,97563,97433
 8.0000e-001 97635 -3.3900e+001  1.8146e+000 -4.4929e+000 36863 97511,97563,97537
 8.0000e-001 97612 -1.9697e+002 -7.9449e+001 -5.7160e+001 36863 97433,97485,97459
 8.0000e-001 97589 -8.8796e+001 -3.6092e+001 -4.0901e+001 36863 97381,97433,97407
 8.0000e-001 97753 -1.2083e+002 -6.0631e+000 -2.0721e+001 36863 97563,97511,97727
 8.0000e-001 97776 -9.1695e+001 -2.4594e+001 -6.5790e+001 36863 97563,97727,97433
 8.0000e-001 98331 -1.4801e+002 -1.7339e+001 -4.9343e+000 36287 98354,98089,98063
 8.0000e-001 98308 -1.1731e+002 -2.0991e+001  4.0244e+001 36287 98354,98063,98011
 8.0000e-001 98285 -1.7307e+002 -2.8961e+000  1.7073e+001 36287 98426,97985,98115
 8.0000e-001 98262 -1.0848e+002 -3.9031e+001  3.5035e+001 36287 98011,98063,98037
 8.0000e-001 98239 -2.9862e+002 -5.8503e+001  3.4688e+001 36287 97985,98141,98115
 8.0000e-001 98216 -4.7204e+002 -3.9995e+001  7.7547e+001 36287 97959,98141,97985
 8.0000e-001 98193 -4.3173e+002  2.5645e+001  5.2703e+001 36287 97959,98167,98141
 8.0000e-001 98380 -2.7213e+002 -3.1727e+001 -1.3573e+001 36287 98115,98089,98354
 8.0000e-001 98403 -1.6358e+002 -1.6066e+000  7.0223e+000 36287 98426,98115,98354
 8.0000e-001 98452 -1.8422e+002 -1.5138e+001  2.3823e+001 36287 98011,97985,98426
 8.0000e-001 98475 -1.7670e+002 -1.7298e+001  1.4402e+001 36287 98011,98426,98354
 8.0000e-001 99030 -9.4318e+001 -1.4065e+001 -4.0937e+000 35726 99053,98736,98710
 8.0000e-001 99007 -1.4937e+002 -5.6803e+000  2.0353e+000 35726 99053,98710,98684
 8.0000e-001 98984 -7.4979e+001 -2.5211e+001 -2.2004e-001 35726 99125,98814,98736
 8.0000e-001 98961 -8.3190e+001 -2.1970e+001  8.8317e-001 35726 98736,98814,98788
 8.0000e-001 98938 -1.9929e+002 -2.1087e+001 -8.5194e+000 35726 98684,98866,98840
 8.0000e-001 98915 -1.2297e+002 -3.0111e+001 -2.6214e+001 35726 98736,98788,98762
 8.0000e-001 98892 -1.3532e+002 -6.6424e+000 -5.5218e+000 35726 98658,98866,98684
 8.0000e-001 99079 -9.3675e+001 -2.0507e+001 -1.1555e+001 35726 99125,98736,99053
 8.0000e-001 99102 -1.0742e+002  1.8346e+001 -1.1391e+001 35726 98840,99053,98684
 8.0000e-001 99151 -5.9908e+001 -1.9035e+001 -1.5795e+000 35726 98840,98814,99125
 8.0000e-001 99174 -6.6629e+001 -7.9093e+000 -1.5211e+001 35726 98840,99125,99053
 8.0000e-001 99454 -1.2282e+002 -1.7761e-001 -1.3440e+001 35222 99278,99330,99304
 8.0000e-001 99431 -1.6501e+002 -1.2695e+001  3.4710e+001 35222 99278,99382,99330
 8.0000e-001 99408 -2.2910e+002  9.9461e+000  2.1048e+001 35222 99330,99382,99356
 8.0000e-001 99653 -2.9515e+002 -5.3228e+001 -2.5014e+001 34867 99477,99529,99503
 8.0000e-001 99630 -2.2986e+002 -8.5310e+001 -2.3738e+001 34867 99477,99581,99529
 8.0000e-001 99607 -1.8692e+002 -8.9208e+000 -4.3936e+001 34867 99529,99581,99555
 8.0000e-001 100104 -2.5633e+002 -1.4989e+001 -7.9271e+000 34363 99781,99885,99807
 8.0000e-001 100081 -2.1705e+002 -2.1677e+000  1.6450e+000 34363 99781,99963,99885
 8.0000e-001 100058 -3.1848e+002 -4.5409e+001  2.5900e+001 34363 99885,99963,99911
 8.0000e-001 100035 -3.1976e+002 -1.0989e+001 -1.9897e+001 34363 99807,99885,99859
 8.0000e-001 100012 -2.6848e+002 -3.0565e+001  6.1849e+001 34363 99911,99963,99937
 8.0000e-001 99989 -2.4929e+002 -1.8078e+001 -1.4788e+002 34363 99807,99859,99833
 8.0000e-001 100303 -2.4482e+002 -3.8946e+001 -9.0141e+000 33909 100127,100205,100179
 8.0000e-001 100280 -2.9187e+002 -1.2951e+001 -3.1467e+001 33909 100127,100231,100205
 8.0000e-001 100257 -2.3326e+002 -1.0369e+001 -5.0536e+000 33909 100127,100179,100153
 8.0000e-001 100890 -1.9118e+002 -8.6953e+001 -1.9087e+000 33412 100645,100749,100697
 8.0000e-001 100867 -1.9794e+002 -8.8454e+001 -6.6628e+000 33412 100567,100749,100645
 8.0000e-001 100844 -1.5933e+002 -4.7472e+001 -3.2111e+001 33412 100567,100645,100619
 8.0000e-001 100821 -3.0028e+002 -9.2438e+001  9.7073e+000 33412 100645,100697,100671
 8.0000e-001 100798 -2.0876e+002 -6.0711e+001 -8.2955e+001 33412 100567,100619,100593
 8.0000e-001 100775 -2.0594e+002 -4.7074e+001 -8.8591e-001 33412 100697,100749,100723
 8.0000e-001 101268 -2.6029e+002 -3.6825e+000 -1.1825e+001 32908 101435,101291,101098
 8.0000e-001 101245 -2.0576e+002 -4.6406e+001  6.4029e+000 32908 101291,101072,101020
 8.0000e-001 101222 -3.2480e+002 -8.3555e+001 -2.1424e+001 32908 101363,101150,101124
 8.0000e-001 101199 -2.0146e+002 -8.0477e+001 -6.1019e+001 32908 101020,101072,101046
 8.0000e-001 101176 -2.4381e+002 -5.0653e+001  3.3102e+001 32908 100994,101150,101020
 8.0000e-001 101317 -2.7573e+002 -2.9420e+001  3.0443e-001 32908 101124,101098,101291
 8.0000e-001 101340 -2.7056e+002 -6.3497e+001 -2.1318e+001 32908 101363,101124,101291
 8.0000e-001 101389 -2.8951e+002 -8.5179e+001  1.7313e+001 32908 101020,101150,101363
 8.0000e-001 101412 -2.6922e+002 -7.8428e+001  2.2300e+001 32908 101020,101363,101291
 8.0000e-001 101461 -2.7627e+002 -3.7085e+001  1.7360e+000 32908 101072,101291,101435
 8.0000e-001 101918 -2.6184e+002 -1.0145e+002 -3.6562e+001 32618 101941,101670,101644
 8.0000e-001 101895 -2.0545e+002 -4.9812e+001 -6.9877e+000 32618 101941,101644,101774
 8.0000e-001 101872 -3.8178e+002 -4.0317e+001 -5.5266e+000 32618 102013,101696,101670
 8.0000e-001 101849 -3.0972e+002 -5.9335e+001  3.1663e+001 32618 101696,101748,101722
 8.0000e-001 101826 -1.6570e+002 -2.3110e+001 -3.3140e+001 32618 101644,101800,101774
 8.0000e-001 101967 -3.6607e+002 -6.0509e+001 -3.9997e+001 32618 102013,101670,101941
 8.0000e-001 101990 -2.4830e+002  4.7948e+000 -5.5039e+001 32618 101748,101941,101774
 8.0000e-001 102039 -3.4221e+002 -4.9728e+001 -1.8599e+001 32618 101748,101696,102013
 8.0000e-001 102062 -2.6382e+002 -3.5325e+001 -4.4274e+001 32618 101748,102013,101941
 8.0000e-001 102440 -3.4595e+001 -4.0420e+000 -6.2339e-001 32306 102463,102270,102244
 8.0000e-001 102417 -3.6000e+001 -3.6921e+000 -1.1343e+001 32306 102463,102244,102192
 8.0000e-001 102394 -4.2827e+001 -3.2311e+000 -8.6330e+000 32306 102192,102244,102218
 8.0000e-001 102371 -4.8112e+000  1.6635e-001 -3.4998e+000 32306 102270,102322,102296
 8.0000e-001 102348 -3.9028e+001  8.8001e-002 -8.5982e+000 32306 102166,102322,102192
 8.0000e-001 102489 -2.4064e+001 -4.9928e-001  8.8738e-001 32306 102322,102270,102463
 8.0000e-001 102512 -2.5059e+001 -9.1122e-001 -1.0440e+001 32306 102322,102463,102192
 8.0000e-001 102662 -2.1974e+002 -9.4564e+001  6.8991e+001 31852 102943,102587,102561
 8.0000e-001 102639 -3.1074e+002  3.2775e+000  3.6337e+001 31852 102815,102685,102561
 8.0000e-001 102711 -2.4780e+002 -4.4518e+001  9.0360e+001 31852 102943,102561,102685
 8.0000e-001 102841 -1.6441e+002 -5.2424e+001  5.0935e+000 31852 102535,102685,102815
 8.0000e-001 102969 -1.9489e+002 -4.7165e+001  5.5225e+001 31852 102613,102587,102943
 8.0000e-001 102992 -2.2903e+002 -9.4969e+000  7.8786e+001 31852 102613,102943,102685
 8.0000e-001 103370 -2.2906e+002 -9.6747e+001  4.8372e+001 31134 103096,103200,103122
 8.0000e-001 103347 -2.4566e+002 -7.2653e+001 -5.9150e+001 31134 103096,103226,103200
 8.0000e-001 103324 -3.3755e+002 -9.4718e+001  3.2218e+001 31134 103122,103200,103174
 8.0000e-001 103301 -3.4907e+002 -7.8453e+001 -2.6129e+001 31134 103096,103252,103226
 8.0000e-001 103278 -3.2062e+002 -1.5397e+001  4.4724e+001 31134 103122,103174,103148
 8.0000e-001 103520 -4.9423e+002 -8.1544e+001 -8.0249e+000 30822 103393,103445,103419
 8.0000e-001 103497 -4.9540e+002 -1.0783e+002 -1.1956e+001 30822 103393,103471,103445
 8.0000e-001 103719 -1.8915e+002  2.3855e+001 -3.3251e+000 30182 103742,103621,103569
 8.0000e-001 103696 -2.6623e+002  4.6249e+001 -1.6341e+001 30182 103742,103569,103543
 8.0000e-001 103673 -1.4300e+002  6.4385e+001  7.5025e+001 30182 103569,103621,103595
 8.0000e-001 103768 -1.5269e+002  3.3233e+001 -6.3757e+000 30182 103647,103621,103742
 8.0000e-001 103791 -1.8707e+002  8.5606e+001 -3.3553e+001 30182 103647,103742,103543
 8.0000e-001 104252 -8.1668e+001 -1.4288e+001  1.7784e+001 29728 104030,104108,104056
 8.0000e-001 104229 -9.4435e+001 -1.5288e+001 -4.9527e-001 29728 104004,104108,104030
 8.0000e-001 104206 -5.9031e+001 -5.6464e+000  5.5243e+000 29728 104004,104134,104108
 8.0000e-001 104183 -5.5478e+001  3.5871e+000  5.1962e+000 29728 103978,104134,104004
 8.0000e-001 104160 -9.5289e+001 -3.4452e+000  2.3227e+001 29728 104056,104108,104082
 8.0000e-001 104630 -3.3226e+002 -8.0819e+001  1.2108e+002 29217 104653,104382,104356
 8.0000e-001 104607 -3.3097e+002 -4.8144e+001  1.8405e+001 29217 104653,104356,104512
 8.0000e-001 104584 -1.4999e+002 -7.6531e+001  3.8022e+001 29217 104434,104512,104486
 8.0000e-001 104561 -2.6912e+002  2.9691e+000  7.9797e+001 29217 104382,104434,104408
 8.0000e-001 104538 -1.2406e+002 -2.3421e+001  6.9223e+001 29217 104434,104486,104460
 8.0000e-001 104679 -2.6041e+002 -5.1001e+001  9.2813e+001 29217 104434,104382,104653
 8.0000e-001 104702 -2.3372e+002 -3.5588e+001  1.0331e+000 29217 104434,104653,104512
 8.0000e-001 105178 -2.0329e+002  3.9258e+000  8.9280e+000 28649 105201,104962,104936
 8.0000e-001 105155 -1.9459e+002 -4.4140e+001 -6.7151e-001 28649 105201,104936,104884
 8.0000e-001 105132 -1.9407e+002  4.3381e+000  3.7479e+000 28649 105273,104858,105014
 8.0000e-001 105109 -1.9714e+002  5.1447e+000  4.8551e+001 28649 104962,105014,104988
 8.0000e-001 105086 -2.9580e+002 -6.2275e+001 -3.5569e+001 28649 104884,104936,104910
 8.0000e-001 105063 -8.5618e+001 -5.4783e+000 -1.4026e+001 28649 104806,105014,104858
 8.0000e-001 105040 -1.0410e+002 -5.7710e+001 -2.1192e+001 28649 104806,104858,104832
 8.0000e-001 105227 -1.8475e+002  3.4571e+001  3.4397e+001 28649 105014,104962,105201
 8.0000e-001 105250 -1.8658e+002  1.3677e+000  9.0325e+000 28649 105273,105014,105201
 8.0000e-001 105299 -2.0153e+002  1.0361e+000  4.5010e+000 28649 104884,104858,105273
 8.0000e-001 105322 -1.9880e+002 -4.4566e+000  1.0820e+001 28649 104884,105273,105201
 8.0000e-001 105673 -5.1499e+002  1.3121e+000 -3.1473e+000 28351 105474,105578,105552
 8.0000e-001 105650 -5.2598e+002 -4.9994e+001  2.4277e+000 28351 105448,105578,105474
 8.0000e-001 105627 -5.3292e+002  3.2610e+000 -3.4295e+001 28351 105500,105552,105526
 8.0000e-001 105604 -5.0387e+002  6.5983e+000 -4.7269e+000 28351 105474,105552,105500
 8.0000e-001 106130 -2.3855e+002 -6.8276e+001 -1.4522e+001 28004 106153,105882,105856
 8.0000e-001 106107 -2.8108e+002 -9.1863e+001 -4.0655e+001 28004 106153,105856,105986
 8.0000e-001 106084 -2.0309e+002 -9.6680e+001 -1.8250e+001 28004 105934,105986,105960
 8.0000e-001 106061 -2.3123e+002 -7.1925e+001 -6.2650e+001 28004 105856,106012,105986
 8.0000e-001 106038 -1.3709e+002 -5.0443e+000  7.7843e-001 28004 105882,105934,105908
 8.0000e-001 106179 -1.7020e+002 -8.1179e+001  7.1423e+000 28004 105934,105882,106153
 8.0000e-001 106202 -2.2856e+002 -1.0060e+002 -1.0873e+001 28004 105934,106153,105986
 8.0000e-001 106885 -2.3286e+002  2.2336e+001  1.3811e+001 27564 106908,106620,106516
 8.0000e-001 106862 -3.9010e+002 -8.5833e+000  8.0348e+000 27564 106908,106516,106490
 8.0000e-001 106839 -4.6913e+002 -9.9861e+001  6.9184e+001 27564 106516,106620,106542
 8.0000e-001 106816 -2.3699e+002 -1.7294e+001  1.4185e+002 27564 106620,106672,106646
 8.0000e-001 106793 -5.9305e+002 -1.3023e+002  6.2499e+001 27564 106542,106620,106594
 8.0000e-001 106770 -3.4841e+002 -2.8275e+001 -3.1287e+000 27564 106490,106698,106672
 8.0000e-001 106747 -2.4989e+002 -1.4320e+002  9.5306e+001 27564 106464,106698,106490
 8.0000e-001 106724 -4.7396e+002 -1.1205e+002  8.5531e+001 27564 106542,106594,106568
 8.0000e-001 106934 -1.6171e+002 -8.0933e+000  1.8021e+001 27564 106672,106620,106908
 8.0000e-001 106957 -2.3614e+002  1.9226e+001  1.9998e+000 27564 106672,106908,106490
 8.0000e-001 107463 -4.5288e+001 -2.5007e+001 -2.0879e+000 27053 107218,107322,107296
 8.0000e-001 107440 -3.4931e+001 -2.7703e-002  1.5996e+000 27053 107166,107322,107218
 8.0000e-001 107417 -4.6433e+001  2.2679e+000 -1.5631e+000 27053 107218,107296,107244
 8.0000e-001 107394 -1.9249e+001 -5.6301e+000  2.2940e+000 27053 107140,107322,107166
 8.0000e-001 107371 -1.0451e+001 -2.5302e+000  1.0181e+000 27053 107166,107218,107192
 8.0000e-001 107348 -5.2780e+001 -7.3721e+000  1.7403e+000 27053 107244,107296,107270
 8.0000e-001 108097 -2.0327e+002  1.7086e+001 -3.1600e+001 26549 108192,108120,107803
 8.0000e-001 108074 -2.8237e+002 -6.7288e+001 -4.3674e+001 26549 108120,107725,107933
 8.0000e-001 108051 -1.5374e+002  2.6110e+001  2.0086e+001 26549 107751,107803,107777
 8.0000e-001 108028 -2.3220e+002  6.2421e+001  2.1650e+000 26549 108192,107803,107751
 8.0000e-001 108005 -3.1385e+002 -1.0171e+002 -8.0548e+001 26549 108264,107855,107803
 8.0000e-001 107982 -2.3223e+002 -1.0037e+002 -3.0234e+000 26549 107881,107933,107907
 8.0000e-001 107959 -2.4517e+002 -7.9490e+001 -7.6230e+001 26549 107803,107855,107829
 8.0000e-001 108146 -2.5216e+002 -6.3754e+001 -6.3407e+001 26549 108264,107803,108120
 8.0000e-001 108169 -2.3646e+002  2.8826e+001 -2.2227e+001 26549 107881,108120,107933
 8.0000e-001 108218 -2.6419e+002 -3.2173e+001 -5.6803e+001 26549 107725,108120,108192
 8.0000e-001 108241 -2.8943e+002  1.0900e+001 -2.2336e+001 26549 107725,108192,107751
 8.0000e-001 108290 -3.6536e+002 -4.1061e+001 -6.1168e+001 26549 107881,107855,108264
 8.0000e-001 108313 -3.2097e+002 -1.1941e+001 -4.5104e+001 26549 107881,108264,108120
 8.0000e-001 108512 -2.1356e+002 -6.4992e+000  3.9624e+001 26137 108388,108440,108414
 8.0000e-001 108489 -2.3872e+002 -4.4233e+001  2.0065e+001 26137 108362,108440,108388
 8.0000e-001 108466 -3.1749e+002 -7.6698e+001  2.6722e+000 26137 108336,108440,108362
 8.0000e-001 108662 -2.2770e+002  1.7757e+000  1.6280e+001 25733 108817,108685,108535
 8.0000e-001 108639 -2.5426e+002  1.5021e+001  7.0935e+000 25733 109017,108817,108535
 8.0000e-001 108711 -2.2652e+002  3.6608e+000  1.5734e+001 25733 108561,108535,108685
 8.0000e-001 108843 -2.6470e+002 -1.5763e+000 -2.0484e+000 25733 108587,108685,108817
 8.0000e-001 108866 -2.7445e+002  1.3192e-001  7.2362e+000 25733 108889,108817,108613
 8.0000e-001 108915 -2.7605e+002  1.4329e+000  3.5583e+000 25733 108587,108817,108889
 8.0000e-001 109043 -2.7119e+002 -4.6624e+001  2.8262e+000 25733 108613,108817,109017
 8.0000e-001 109500 -6.2039e+001 -1.2236e+001 -1.1303e+001 25229 109523,109356,109330
 8.0000e-001 109477 -6.5768e+001 -1.0287e+001 -7.4307e+000 25229 109595,109523,109330
 8.0000e-001 109454 -6.5253e+001 -2.5391e+001  5.8976e+000 25229 109595,109330,109278
 8.0000e-001 109431 -7.0446e+001  3.8463e+001 -2.4025e+001 25229 109667,109226,109382
 8.0000e-001 109408 -1.0139e+002 -8.6544e+000  2.3697e+001 25229 109278,109330,109304
 8.0000e-001 109549 -3.0809e+001  4.7551e-001 -1.0942e+001 25229 109382,109356,109523
 8.0000e-001 109572 -5.2450e+001  7.6476e+000 -3.0684e+001 25229 109667,109382,109523
 8.0000e-001 109621 -6.6788e+001  1.0404e+001 -5.0586e+000 25229 109252,109523,109595
 8.0000e-001 109644 -6.5880e+001 -2.1498e+000  2.4886e+000 25229 109739,109595,109278
 8.0000e-001 109693 -1.6788e+002 -5.1724e+000 -5.5421e-001 25229 109252,109226,109667
 8.0000e-001 109716 -9.8211e+001 -1.4758e+000 -7.9453e+000 25229 109252,109667,109523
 8.0000e-001 109765 -6.6488e+001 -7.0851e+000 -5.4139e+000 25229 109252,109595,109739
 8.0000e-001 110478 -8.8326e+001 -8.1957e+000 -8.8341e-001 24917 110158,110236,110184
 8.0000e-001 110455 -3.8619e+001  1.2012e+001 -2.3443e+000 24917 110158,110288,110236
 8.0000e-001 110432 -6.8460e+001  1.9823e+000  4.3519e+000 24917 110236,110288,110262
 8.0000e-001 110409 -4.5625e+001 -1.0096e+001  1.4088e+001 24917 110184,110236,110210
 8.0000e-001 110386 -3.4989e+001 -3.2241e+000  4.7738e+000 24917 110132,110288,110158
 8.0000e-001 110363 -9.1159e+000  4.8752e+000 -5.0430e-001 24917 110132,110314,110288
 8.0000e-001 110340 -1.1308e+001 -1.1004e+000  1.7245e+000 24917 110106,110314,110132
 8.0000e-001 110829 -3.8373e+002 -1.5877e+002  4.8207e+001 24307 110604,110682,110630
 8.0000e-001 110806 -3.1128e+002 -7.7021e+001  1.2799e+001 24307 110604,110708,110682
 8.0000e-001 110783 -2.6180e+002 -4.2695e+001 -2.2936e+001 24307 110604,110734,110708
 8.0000e-001 110760 -5.7235e+002 -2.3973e+002  5.5897e+001 24307 110630,110682,110656
 8.0000e-001 111335 -1.5372e+002 -2.9890e+001  2.8599e+001 23767 111012,111168,111038
 8.0000e-001 111312 -1.2360e+002 -7.8324e+000  1.0756e+001 23767 111012,111194,111168
 8.0000e-001 111289 -8.4660e+001  1.0929e+001 -1.6189e+001 23767 111358,111064,111038
 8.0000e-001 111266 -1.1034e+002  7.4309e+000  1.0507e+001 23767 111358,111038,111168
 8.0000e-001 111243 -1.5062e+002  2.4828e+001  4.8716e-001 23767 111430,111142,111090
 8.0000e-001 111220 -1.4971e+002  2.3742e+001 -1.9874e+001 23767 111090,111142,111116
 8.0000e-001 111384 -1.0005e+002  1.6313e+000 -3.9744e+000 23767 111090,111064,111358
 8.0000e-001 111407 -9.2795e+001  1.0925e+001  1.0861e+000 23767 111430,111090,111358
 8.0000e-001 111456 -2.0204e+002  1.8128e+001  1.6460e+001 23767 111168,111142,111430
 8.0000e-001 111479 -1.6312e+002 -9.1879e+000  1.6175e+001 23767 111168,111430,111358
 8.0000e-001 111985 -2.4730e+002 -1.2330e+002 -5.6816e+001 23477 111688,111844,111818
 8.0000e-001 111962 -2.4219e+002 -7.1492e+001  5.6633e+001 23477 111662,111844,111688
 8.0000e-001 111939 -1.8505e+002  2.1512e+000  2.0268e+001 23477 111766,111818,111792
 8.0000e-001 111916 -3.2692e+002 -4.1341e+001  3.6802e+001 23477 111740,111818,111766
 8.0000e-001 111893 -3.1117e+002 -2.5039e+001 -4.8869e+001 23477 111688,111818,111740
 8.0000e-001 111870 -5.6678e+002 -2.7905e+001 -6.8798e+001 23477 111688,111740,111714
 8.0000e-001 112314 -2.2811e+002  7.5508e+000 -2.8456e+001 23023 112141,112219,112193
 8.0000e-001 112291 -2.3476e+002 -4.4768e+001 -2.9619e+001 23023 112115,112219,112141
 8.0000e-001 112268 -1.9956e+002 -1.2244e+001  2.7089e+000 23023 112141,112193,112167
 8.0000e-001 112245 -1.8220e+002 -4.3408e+001 -5.2461e+000 23023 112089,112219,112115
 8.0000e-001 112692 -2.3481e+002  2.4645e+001  2.0236e+000 22768 112444,112574,112548
 8.0000e-001 112669 -3.5330e+002 -8.7263e+000 -4.3075e+001 22768 112418,112574,112444
 8.0000e-001 112646 -1.5829e+002  4.3937e+000 -5.2110e+001 22768 112444,112522,112470
 8.0000e-001 112623 -2.2691e+002  1.8041e+001 -3.1564e+001 22768 112444,112548,112522
 8.0000e-001 112600 -1.7637e+002 -1.7189e+001  5.0304e+001 22768 112470,112522,112496
 8.0000e-001 113011 -5.2380e+002  3.5628e+001 -9.2312e+001 22314 112763,112867,112789
 8.0000e-001 112988 -6.3842e+002 -9.3197e+001 -4.3808e+001 22314 112763,112893,112867
 8.0000e-001 112965 -7.0181e+002 -4.8031e+001  0.0000e+000 22314 112815,112867,112841
 8.0000e-001 112942 -7.7619e+002 -8.2936e+001 -5.6244e+001 22314 112789,112867,112815
 8.0000e-001 112919 -4.9470e+002 -8.2079e+001 -1.0927e+002 22314 112737,112893,112763
 8.0000e-001 113519 -1.5200e+002 -2.5406e+001  2.5905e+001 21924 113614,113542,113248
 8.0000e-001 113496 -1.1535e+002  3.6075e+001  6.7681e+000 21924 113542,113196,113378
 8.0000e-001 113473 -6.1145e+001 -6.0465e+001  3.7916e+001 21924 113614,113248,113222
 8.0000e-001 113450 -1.5866e+002 -1.1938e+001  5.8372e+000 21924 113686,113274,113248
 8.0000e-001 113427 -1.8766e+002 -1.7061e+001  4.0307e+000 21924 113274,113352,113326
 8.0000e-001 113404 -1.1759e+002 -2.4844e+001  5.3793e+001 21924 113274,113326,113300
 8.0000e-001 113568 -1.3939e+002 -2.5416e+000  2.0915e+001 21924 113686,113248,113542
 8.0000e-001 113591 -1.5641e+002 -7.4247e+001 -9.2139e+000 21924 113352,113542,113378
 8.0000e-001 113640 -6.2997e+001  3.3681e+001  6.2905e+001 21924 113196,113542,113614
 8.0000e-001 113663 -1.5136e+001 -2.6379e+001  7.5154e+001 21924 113196,113614,113222
 8.0000e-001 113712 -1.7933e+002  1.8626e-001  1.3784e+000 21924 113352,113274,113686
 8.0000e-001 113735 -1.7124e+002 -4.4029e-001  1.5524e+001 21924 113352,113686,113542
 8.0000e-001 113885 -2.3441e+001  7.9810e+000  6.0605e+000 21520 113980,113908,113784
 8.0000e-001 113862 -1.5835e+002 -1.6853e+001 -1.8427e+001 21520 114238,113908,113758
 8.0000e-001 113934 -1.0829e+002 -1.5279e+001 -3.5956e+001 21520 114110,113908,113810
 8.0000e-001 113957 -1.3352e+002  1.4822e+000  1.2415e+001 21520 113810,113908,113836
 8.0000e-001 114006 -1.5187e+002 -2.3053e+001  2.4671e+001 21520 113758,113908,113980
 8.0000e-001 114136 -2.8562e+001 -9.9193e-001 -3.6511e+000 21520 113784,113908,114110
 8.0000e-001 114264 -4.4737e+001  3.9600e+001  1.0793e+001 21520 113836,113908,114238
 8.0000e-001 114662 -2.6644e+002 -6.1541e+000  1.2382e+001 21030 114414,114518,114492
 8.0000e-001 114639 -3.6954e+002 -4.7757e+001  5.3272e+001 21030 114414,114544,114518
 8.0000e-001 114616 -7.8464e+001  5.5497e+001  6.1177e+000 21030 114440,114492,114466
 8.0000e-001 114593 -2.7783e+002 -3.1240e+001  1.6998e+001 21030 114414,114492,114440
 8.0000e-001 114570 -3.5905e+002 -1.5964e+001  1.3843e+002 21030 114388,114544,114414
 8.0000e-001 114959 -4.1437e+002 -3.6821e+001 -3.1629e+001 20512 114982,114711,114685
 8.0000e-001 114936 -4.0652e+002 -2.4564e+001 -3.9951e+001 20512 115054,114982,114685
 8.0000e-001 114913 -4.0315e+002  4.4015e+001 -4.1577e+001 20512 115054,114685,114841
 8.0000e-001 114890 -1.4859e+002  1.8353e+001  7.2346e+000 20512 114711,114763,114737
 8.0000e-001 114867 -3.1812e+002 -1.7127e+001  1.0333e+001 20512 114763,114815,114789
 8.0000e-001 115008 -3.9700e+002 -2.2455e+001 -1.7005e+001 20512 114763,114711,114982
 8.0000e-001 115031 -4.2039e+002 -9.1741e+001 -2.3048e+001 20512 114763,114982,114815
 8.0000e-001 115080 -4.2073e+002 -5.9449e+001 -4.6285e+001 20512 114815,114982,115054
 8.0000e-001 115103 -4.3495e+002 -2.9844e+001 -4.3672e+001 20512 114815,115054,114841
 8.0000e-001 115507 -1.6235e+002 -2.5893e+001 -1.2063e+002 20143 115285,115389,115363
 8.0000e-001 115484 -3.6460e+002  2.1097e+001  1.6198e+001 20143 115259,115389,115285
 8.0000e-001 115461 -3.5103e+002  1.5256e+001  3.2709e+001 20143 115233,115389,115259
 8.0000e-001 115438 -1.3527e+002 -4.0740e+001  2.6723e+001 20143 115285,115337,115311
 8.0000e-001 115415 -8.1687e+001  3.7478e-001  4.4998e+001 20143 115285,115363,115337
 8.0000e-001 115875 -6.3907e+001  1.9572e+000  7.8920e+000 19632 115656,115734,115682
 8.0000e-001 115852 -4.8412e+001  5.3235e-001  1.6285e+001 19632 115552,115734,115656
 8.0000e-001 115829 -5.3314e+001 -5.1011e+000 -1.5371e+001 19632 115552,115656,115578
 8.0000e-001 115806 -9.2834e+001  3.3066e+000  1.1547e-001 19632 115578,115656,115630
 8.0000e-001 115783 -1.5542e+001  3.3858e+001 -2.8120e+001 19632 115682,115734,115708
 8.0000e-001 115760 -7.6952e+001 -8.6603e+000  2.4310e+001 19632 115578,115630,115604
 8.0000e-001 116025 -2.3149e+002 -7.4175e+000  3.6505e+001 19178 115898,115950,115924
 8.0000e-001 116002 -2.1676e+002  3.4634e+001  3.6846e+001 19178 115898,115976,115950
 8.0000e-001 116633 -1.3507e+002  2.2266e+001  3.9122e-001 18738 116800,116656,116342
 8.0000e-001 116610 -1.2059e+002  4.7972e+001 -5.2136e+001 18738 116656,116238,116446
 8.0000e-001 116587 -1.1437e+002 -8.5233e+000  1.1241e+001 18738 116728,116368,116342
 8.0000e-001 116564 -1.4426e+002  2.9887e+000  1.0961e+001 18738 116800,116342,116264
 8.0000e-001 116541 -8.6455e+001  4.9848e+002 -1.7179e+002 18738 116212,116446,116238
 8.0000e-001 116518 -7.9184e+001  8.4869e+000 -8.0485e+001 18738 116394,116446,116420
 8.0000e-001 116495 -3.7190e+002 -9.0624e+001  1.2614e+001 18738 116264,116342,116316
 8.0000e-001 116472 -1.1342e+002  1.5451e+001  2.3765e+000 18738 116264,116316,116290
 8.0000e-001 116682 -1.1271e+002  2.9536e+000 -1.3998e+001 18738 116728,116342,116656
 8.0000e-001 116705 -1.2876e+002 -2.3084e+001 -5.6807e+001 18738 116394,116656,116446
 8.0000e-001 116754 -7.9717e+001  9.0384e+000 -6.6922e+000 18738 116394,116368,116728
 8.0000e-001 116777 -7.2555e+001  2.4863e+001 -3.2577e+001 18738 116394,116728,116656
 8.0000e-001 116826 -1.4705e+002  6.4597e+001 -1.9977e+001 18738 116238,116656,116800
 8.0000e-001 116849 -1.6800e+002  3.8764e+001 -5.8462e+000 18738 116238,116800,116264
 8.0000e-001 116999 -1.6756e+001  2.3384e+001 -2.9797e+001 18184 116872,116924,116898
 8.0000e-001 116976 -2.4366e+001 -1.7612e+001 -2.2183e+001 18184 116872,116950,116924
 8.0000e-001 117330 -1.4584e+002  1.6559e+001  6.8276e+000 17694 117157,117235,117183
 8.0000e-001 117307 -5.3900e+001  8.7226e+000  1.9982e+000 17694 117131,117235,117157
 8.0000e-001 117284 -5.9003e+001  1.3162e+001  4.6597e+000 17694 117105,117235,117131
 8.0000e-001 117261 -2.4643e+002 -4.9587e+001  4.5332e+001 17694 117183,117235,117209
 8.0000e-001 117480 -1.7704e+002 -6.8581e+001  5.9898e+001 17290 117353,117405,117379
 8.0000e-001 117457 -3.5954e+001  1.3208e+001  1.7972e+001 17290 117353,117431,117405
 8.0000e-001 117679 -2.8407e+002 -1.6470e+002  1.0182e+001 16718 117555,117607,117581
 8.0000e-001 117656 -1.2953e+002 -7.9375e+001 -2.4211e+001 16718 117529,117607,117555
 8.0000e-001 117633 -2.1371e+002 -5.6927e+001 -5.8373e+000 16718 117503,117607,117529
 8.0000e-001 117782 -1.8310e+002 -5.6136e+000 -1.1347e+001 16520 117704,117756,117730
 8.0000e-001 117983 -3.5891e+002 -1.9895e+002  1.1592e+001 16208 117859,117911,117885
 8.0000e-001 117960 -3.1095e+002 -1.3179e+002 -3.9201e+001 16208 117833,117911,117859
 8.0000e-001 117937 -4.8254e+001 -3.0732e+001  1.9487e+000 16208 117807,117911,117833
 8.0000e-001 118135 -1.9907e+001  4.0094e+001 -9.3108e+000 15674 118034,118086,118060
 8.0000e-001 118112 -1.5717e+002 -1.1042e+001 -1.0684e+001 15674 118008,118086,118034
 8.0000e-001 118238 -3.2462e+002  5.7811e-001  1.8374e-001 15355 118160,118212,118186
 8.0000e-001 118341 -2.9987e+000 -7.4017e+000  1.5430e+000 421 118263,118315,118289
 9.0000e-001 68152  1.9861e-001 -3.9931e+000 -3.7109e+000 67838 68074,68126,68100
 9.0000e-001 68550 -2.8158e+002  9.4373e-001 -2.8687e+000 67526 68276,68380,68302
 9.0000e-001 68527 -1.8112e+002  1.9910e+001 -6.5648e+000 67526 68276,68406,68380
 9.0000e-001 68504 -3.1687e+002 -2.6136e+001  3.6267e+000 67526 68328,68380,68354
 9.0000e-001 68481 -2.8613e+002 -9.6762e+000 -2.7208e+000 67526 68302,68380,68328
 9.0000e-001 68458 -1.8441e+002  9.5299e-001 -2.7664e+001 67526 68276,68432,68406
 9.0000e-001 68651 -1.6766e+000  3.0094e-001 -6.4608e-001 67328 68573,68625,68599
 9.0000e-001 68970 -3.9794e+002 -1.3793e+002 -1.5854e+001 67016 68722,68800,68774
 9.0000e-001 68947 -4.0030e+002 -1.1052e+002 -3.5174e+001 67016 68722,68826,68800
 9.0000e-001 68924 -4.3118e+002 -2.4954e+001 -4.1041e+001 67016 68696,68826,68722
 9.0000e-001 68901 -3.3331e+002 -4.5289e+001  3.8895e+001 67016 68722,68774,68748
 9.0000e-001 68878 -3.0347e+002 -3.0039e+001  9.7783e+001 67016 68696,68852,68826
 9.0000e-001 69291 -2.6877e+002 -1.0195e+001 -3.8726e+001 66654 69069,69147,69095
 9.0000e-001 69268 -1.4012e+002 -5.4494e+000  1.3284e+001 66654 69069,69173,69147
 9.0000e-001 69245 -8.7584e+001 -1.2326e+001 -3.4196e+001 66654 69043,69173,69069
 9.0000e-001 69222 -3.0649e+002  8.2094e+000  2.2554e+001 66654 69095,69147,69121
 9.0000e-001 69199 -5.7247e+001 -3.6223e+000  1.2961e+001 66654 69017,69173,69043
 9.0000e-001 69695 -3.9181e+002 -8.7758e+001 -2.1424e+001 66456 69447,69577,69551
 9.0000e-001 69672 -4.2210e+002 -4.9283e+001 -4.8035e+001 66456 69421,69577,69447
 9.0000e-001 69649 -4.5471e+002 -1.7229e+002  1.6164e+001 66456 69473,69551,69525
 9.0000e-001 69626 -4.0009e+002 -1.0078e+002 -1.2771e+001 66456 69447,69551,69473
 9.0000e-001 69603 -4.8080e+002 -1.4365e+002  1.0960e+002 66456 69473,69525,69499
 9.0000e-001 70024 -2.8697e+001  3.0257e+001 -3.8839e+001 66258 70047,69851,69825
 9.0000e-001 70001 -6.3145e+001  1.6019e+001  1.9442e+001 66258 70047,69825,69903
 9.0000e-001 69978 -4.2314e+001  1.2730e+001  1.4738e+001 66258 69799,69903,69825
 9.0000e-001 69955 -3.7237e+001 -3.7171e+001  2.2950e+001 66258 69799,69929,69903
 9.0000e-001 70073 -8.1459e+001 -1.5994e+000 -1.7196e+001 66258 69877,69851,70047
 9.0000e-001 70096 -1.3266e+002 -2.8457e+001  4.3843e+001 66258 69877,70047,69903
 9.0000e-001 70602 -7.8490e+002 -1.2979e+002  1.0535e+002 66060 70305,70435,70331
 9.0000e-001 70579 -1.8326e+002 -1.6790e+002 -9.8316e+001 66060 70279,70435,70305
 9.0000e-001 70556 -3.4646e+002  7.2063e+001  5.0672e+001 66060 70331,70435,70409
 9.0000e-001 70533 -1.0703e+002  3.3823e-001 -8.0976e+001 66060 70279,70461,70435
 9.0000e-001 70510 -5.1369e+002 -1.4066e+002  1.2811e+002 66060 70331,70409,70357
 9.0000e-001 70487 -2.5403e+002 -3.4790e+001  1.2076e+002 66060 70357,70409,70383
 9.0000e-001 70703 -3.0697e+001 -3.9820e+001 -3.7379e+001 65862 70625,70677,70651
 9.0000e-001 71083 -7.1817e+001  2.4621e+001  1.3521e+001 65664 70887,70965,70939
 9.0000e-001 71060 -2.5460e+002 -3.2003e+001  6.9885e+001 65664 70861,70965,70887
 9.0000e-001 71037 -2.7871e+002  1.1801e+002  1.0090e+001 65664 70809,70965,70861
 9.0000e-001 71014 -3.0726e+002  2.1328e+002  9.9813e+001 65664 70809,70861,70835
 9.0000e-001 70991 -6.7343e+001  1.0499e+001 -1.1425e+001 65664 70887,70939,70913
 9.0000e-001 71611 -5.6305e+001 -1.9211e+001  3.4283e+001 65260 71288,71444,71314
 9.0000e-001 71588 -1.4839e+002 -5.1777e+001  2.5804e+001 65260 71288,71470,71444
 9.0000e-001 71565 -3.7539e+002 -9.7892e+001 -6.4854e+001 65260 71314,71418,71392
 9.0000e-001 71542 -8.2716e+001 -9.7380e+001  2.5396e+001 65260 71314,71444,71418
 9.0000e-001 71519 -2.1224e+002 -2.0401e+000 -1.8434e+001 65260 71314,71392,71340
 9.0000e-001 71496 -2.8358e+002 -1.6301e+002 -3.3756e+002 65260 71340,71392,71366
 9.0000e-001 72060 -2.4536e+002 -1.4480e+001  1.6084e+001 64870 71737,71893,71789
 9.0000e-001 72037 -3.3940e+002 -5.7130e+001  3.8517e+000 64870 71737,71919,71893
 9.0000e-001 72014 -2.3582e+002 -9.6107e+001 -8.9567e+001 64870 71789,71841,71815
 9.0000e-001 71991 -2.8482e+002 -8.8251e+000 -1.4610e+001 64870 71789,71893,71841
 9.0000e-001 71968 -2.3554e+002 -2.8715e+001 -3.7788e+000 64870 71737,71789,71763
 9.0000e-001 71945 -3.7992e+002 -2.5114e+000  0.0000e+000 64870 71841,71893,71867
 9.0000e-001 72517 -2.4532e+002 -4.7836e+001  3.5220e+001 64466 72321,72399,72347
 9.0000e-001 72494 -2.4032e+002 -1.1212e+002  2.1539e+001 64466 72269,72399,72321
 9.0000e-001 72471 -2.2715e+002  2.5398e+001 -1.8848e+001 64466 72347,72399,72373
 9.0000e-001 72448 -2.4307e+002 -8.1766e+001  8.8785e+001 64466 72243,72399,72269
 9.0000e-001 72425 -1.9059e+002 -1.5459e+001 -1.2160e+000 64466 72269,72321,72295
 9.0000e-001 72944 -3.5195e+002 -9.6779e+001 -8.6362e+000 64062 73111,73039,72699
 9.0000e-001 72921 -3.4963e+002 -7.5241e+001  6.0573e+000 64062 73183,72967,72647
 9.0000e-001 72898 -3.5660e+002 -9.3276e+001 -8.8707e+000 64062 72967,72803,72751
 9.0000e-001 72875 -3.4843e+002 -9.5404e+001 -4.3651e+000 64062 73111,72699,72673
 9.0000e-001 72852 -3.6692e+002 -5.0035e+001 -6.3114e+000 64062 73183,72647,72621
 9.0000e-001 72829 -3.4303e+002 -1.2353e+002  2.6663e+001 64062 72751,72803,72777
 9.0000e-001 72993 -3.6477e+002 -9.3266e+001 -3.0180e+000 64062 73039,72647,72967
 9.0000e-001 73016 -3.2490e+002 -6.5013e+001  6.5608e+000 64062 72725,72967,72751
 9.0000e-001 73065 -5.1159e+002 -8.4451e+001 -9.2084e+001 64062 72725,72699,73039
 9.0000e-001 73088 -3.5227e+002 -5.6593e+001  4.7815e+000 64062 72725,73039,72967
 9.0000e-001 73137 -3.4605e+002 -8.5398e+001 -3.9537e+000 64062 72647,73039,73111
 9.0000e-001 73160 -3.4377e+002 -8.5493e+001 -1.4399e+000 64062 72647,73111,72673
 9.0000e-001 73209 -3.4209e+002 -5.1475e+001 -1.0008e+001 64062 72803,72967,73183
 9.0000e-001 73232 -3.4471e+002 -1.8334e+000 -2.1641e+001 64062 72803,73183,72621
 9.0000e-001 73333 -2.1489e+002  1.0994e+001  6.7702e+000 63814 73356,73281,73255
 9.0000e-001 73382 -7.5810e+002 -1.0538e+002 -1.2060e+001 63814 73486,73356,73307
 9.0000e-001 73512 -3.3748e+002  7.5023e+001 -1.7584e+001 63814 73281,73356,73486
 9.0000e-001 73839 -1.9105e+002 -1.4418e+001  6.0118e+000 63616 73862,73692,73666
 9.0000e-001 73816 -2.2012e+002 -2.8166e+001 -3.3364e-001 63616 73934,73862,73666
 9.0000e-001 73793 -2.4158e+002 -1.1846e+001 -2.3491e+001 63616 73934,73666,73640
 9.0000e-001 73770 -2.4812e+002  3.7586e+001 -3.0901e+001 63616 73614,73744,73640
 9.0000e-001 73888 -1.6365e+002 -2.0666e+001 -1.2455e+000 63616 73718,73692,73862
 9.0000e-001 73911 -1.9079e+002 -3.7805e+001 -1.1061e+001 63616 73718,73862,73744
 9.0000e-001 73960 -1.8004e+002 -7.0566e+000 -8.0633e+000 63616 73744,73862,73934
 9.0000e-001 73983 -1.9837e+002  7.7217e+000 -2.8849e+001 63616 73744,73934,73640
 9.0000e-001 74363 -3.7626e+002 -1.0335e+002 -2.6215e+001 63390 74386,74115,74089
 9.0000e-001 74340 -3.4292e+002 -8.0870e+001 -3.6734e+001 63390 74458,74386,74089
 9.0000e-001 74317 -3.6029e+002 -6.7597e+001 -8.0247e+001 63390 74458,74089,74245
 9.0000e-001 74294 -3.2388e+002 -1.5280e+002 -3.8610e-001 63390 74530,74167,74141
 9.0000e-001 74271 -3.0853e+002 -9.5923e+001  2.9847e+001 63390 74167,74219,74193
 9.0000e-001 74412 -3.5964e+002 -1.0134e+002 -2.8958e+001 63390 74141,74115,74386
 9.0000e-001 74435 -3.6639e+002 -1.3049e+002 -3.3918e+001 63390 74530,74141,74386
 9.0000e-001 74484 -3.7801e+002 -1.4600e+002 -5.6090e+001 63390 74219,74386,74458
 9.0000e-001 74507 -4.1134e+002 -1.4900e+002 -1.0431e+002 63390 74219,74458,74245
 9.0000e-001 74556 -2.7537e+002 -1.3531e+002 -2.8502e+000 63390 74219,74167,74530
 9.0000e-001 74579 -3.0510e+002 -1.0638e+002 -4.0024e+001 63390 74219,74530,74386
 9.0000e-001 74680 -1.2410e+002 -6.0977e+000  1.5785e+001 63100 75089,74833,74703
 9.0000e-001 74729 -4.4715e+001  2.0835e-001 -3.9594e+000 63100 74961,74703,74654
 9.0000e-001 74859 -1.5749e+002 -3.9736e+001  1.2767e+000 63100 74602,74703,74833
 9.0000e-001 74987 -6.4619e+001 -1.1226e+001  5.6194e+001 63100 75089,74703,74961
 9.0000e-001 75115 -2.5313e+002  1.9502e+000 -6.3348e+000 63100 74628,74833,75089
 9.0000e-001 75138 -1.9147e+002 -1.6942e+000  3.4337e+001 63100 74628,75089,74961
 9.0000e-001 75723 -7.2964e+001 -9.7085e+001  3.1715e+001 62532 75746,75504,75426
 9.0000e-001 75700 -2.7547e+002  5.3933e+001  1.7394e+002 62532 75746,75426,75556
 9.0000e-001 75677 -8.7830e+001  2.4950e+001 -6.9058e+001 62532 75426,75504,75452
 9.0000e-001 75654 -4.8473e+002 -1.6777e+001  1.7870e+002 62532 75400,75556,75426
 9.0000e-001 75631 -5.8678e+002 -3.4477e+002 -1.7561e+001 62532 75400,75582,75556
 9.0000e-001 75608 -1.9399e+002 -5.1272e+001 -3.3446e+001 62532 75452,75504,75478
 9.0000e-001 75772 -3.0621e+002 -8.5572e+001  1.5271e+001 62532 75530,75504,75746
 9.0000e-001 75795 -6.2349e+002 -1.6737e+001  1.5786e+002 62532 75530,75746,75556
 9.0000e-001 76301 -1.8383e+002 -3.3610e+001 -3.6090e+001 62192 76324,76082,76030
 9.0000e-001 76278 -1.2608e+002  1.0756e+001 -1.6785e+001 62192 76324,76030,76004
 9.0000e-001 76255 -1.5244e+002 -3.4609e+001 -3.0894e+000 62192 76030,76082,76056
 9.0000e-001 76232 -2.7616e+002  3.9029e+000 -2.6836e+001 62192 76082,76134,76108
 9.0000e-001 76209 -4.5550e+002 -3.1735e+001 -9.1417e+001 62192 76004,76160,76134
 9.0000e-001 76186 -3.2294e+002 -2.7645e+002 -6.6626e+001 62192 75978,76160,76004
 9.0000e-001 76350 -2.6209e+002  3.4884e+001 -3.0559e+001 62192 76134,76082,76324
 9.0000e-001 76373 -2.0204e+002  9.1511e+001 -6.7292e+000 62192 76134,76324,76004
 9.0000e-001 76879  1.2485e+000 -4.9119e+000 -9.2826e+000 61788 76902,76660,76582
 9.0000e-001 76856 -2.7252e+001 -7.7072e+000 -8.2548e+000 61788 76902,76582,76556
 9.0000e-001 76833  1.5894e+000 -6.5104e+000 -6.6580e+000 61788 76582,76660,76634
 9.0000e-001 76810 -1.4411e+000  1.0076e+000 -8.4561e+000 61788 76582,76634,76608
 9.0000e-001 76787  4.5098e+000 -1.2226e+001  6.9261e+000 61788 76556,76738,76686
 9.0000e-001 76764  2.6765e+001 -1.3637e+001  3.2843e+000 61788 76686,76738,76712
 9.0000e-001 76928  2.0539e+001 -1.0566e+001 -1.1612e+001 61788 76686,76660,76902
 9.0000e-001 76951 -2.5118e+000 -8.8717e+000 -1.2427e+001 61788 76686,76902,76556
 9.0000e-001 77408 -3.1697e+002 -1.4727e+001  6.3113e+001 61498 77212,77264,77238
 9.0000e-001 77385 -3.7104e+002  5.9474e+000 -8.8562e+001 61498 77160,77264,77212
 9.0000e-001 77362 -2.8506e+002 -5.0333e+001 -1.2767e+002 61498 77160,77290,77264
 9.0000e-001 77339 -4.2998e+002 -5.5141e+001 -6.4044e+001 61498 77160,77212,77186
 9.0000e-001 77316 -2.1483e+002 -8.8115e+001  8.8657e+001 61498 77134,77290,77160
 9.0000e-001 77678 -8.2889e+002  1.0585e+002  1.8401e+001 61129 77479,77557,77505
 9.0000e-001 77655 -8.2726e+002 -1.1774e+002  7.0911e+000 61129 77479,77583,77557
 9.0000e-001 77632 -7.5634e+002 -3.2396e+002  5.8233e+001 61129 77453,77583,77479
 9.0000e-001 77609 -7.2594e+002  2.7273e+002  1.6414e+002 61129 77505,77557,77531
 9.0000e-001 77828 -7.5075e+001 -4.6153e+000 -8.7846e+000 60931 77851,77727,77701
 9.0000e-001 77805 -5.2066e+001 -5.4051e+000 -7.8370e+000 60931 77851,77701,77779
 9.0000e-001 77877 -4.9953e+001 -1.1022e+001 -6.7379e+000 60931 77923,77851,77753
 9.0000e-001 77900 -1.6478e+001  1.0288e+000  1.9816e+000 60931 77753,77851,77779
 9.0000e-001 77949 -5.0707e+001 -1.1867e+001 -5.7660e+000 60931 77727,77851,77923
 9.0000e-001 78133 -4.8861e+002 -2.0443e+002  3.2400e+001 60377 78055,78107,78081
 9.0000e-001 78535 -2.4507e+002  4.1243e+001 -4.6377e+001 60015 78287,78391,78313
 9.0000e-001 78512 -3.9495e+002 -9.2432e+001  9.7517e+000 60015 78287,78417,78391
 9.0000e-001 78489 -2.7921e+002 -6.4403e+001 -6.6951e+000 60015 78261,78417,78287
 9.0000e-001 78466 -5.7228e+002 -1.5533e+002  1.5421e+001 60015 78339,78391,78365
 9.0000e-001 78443 -5.8100e+002 -8.9679e+001 -2.6105e+001 60015 78313,78391,78339
 9.0000e-001 78913 -2.2625e+002 -3.9728e+001  2.1014e+001 59725 78936,78743,78691
 9.0000e-001 78890 -1.9003e+002  1.3615e+000  3.6281e+001 59725 79008,78936,78691
 9.0000e-001 78867 -1.8473e+002 -1.0856e+001  6.7081e+001 59725 79008,78691,78665
 9.0000e-001 78844 -2.5753e+002 -3.1494e+001 -1.2777e+001 59725 78691,78743,78717
 9.0000e-001 78821 -2.8126e+002 -1.6740e+002  1.3116e+002 59725 78639,78795,78769
 9.0000e-001 78962 -2.2767e+002 -1.4003e+001  2.5008e+001 59725 78769,78743,78936
 9.0000e-001 78985 -2.3786e+002  7.9292e+000  3.0437e+001 59725 78769,78936,78639
 9.0000e-001 79034 -2.5398e+002 -2.6002e+001  3.7653e+001 59725 78639,78936,79008
 9.0000e-001 79057 -2.1917e+002 -2.6698e+001  6.3251e+001 59725 78639,79008,78665
 9.0000e-001 79386 -2.8923e+002  1.4492e+001  1.1704e+001 59221 79187,79239,79213
 9.0000e-001 79363 -2.7143e+002 -5.9875e+001  3.9836e+001 59221 79187,79265,79239
 9.0000e-001 79340 -2.1718e+002 -6.6593e+001 -2.7991e+000 59221 79187,79291,79265
 9.0000e-001 79317 -2.7137e+002 -1.8792e+002  1.6379e+001 59221 79161,79291,79187
 9.0000e-001 79813 -2.4631e+002  1.3421e+001  1.6140e+001 58831 79836,79542,79516
 9.0000e-001 79790 -1.7758e+002  1.8517e+001  3.6129e+001 58831 79980,79836,79516
 9.0000e-001 79767 -9.0666e+001  1.7354e+001 -3.3574e+001 58831 79908,79646,79568
 9.0000e-001 79744 -2.8639e+002 -1.2445e+001  3.4374e+001 58831 79980,79516,79490
 9.0000e-001 79721 -4.2929e+001  4.2003e+001 -2.3819e+001 58831 79568,79646,79594
 9.0000e-001 79698 -2.5031e+000  3.2384e+000 -2.8299e-002 58831 79594,79646,79620
 9.0000e-001 79862 -1.4515e+002  6.6845e+001  3.8594e+001 58831 79568,79542,79836
 9.0000e-001 79885 -7.0941e+001  9.0027e+000 -1.1669e+001 58831 79908,79568,79836
 9.0000e-001 79934 -1.0452e+002  8.4272e+000 -2.7450e+001 58831 79672,79646,79908
 9.0000e-001 79957 -1.0922e+002 -1.0118e+001 -3.0711e+000 58831 79672,79908,79836
 9.0000e-001 80006 -1.3639e+002 -1.0385e+001 -8.7892e+000 58831 79672,79836,79980
 9.0000e-001 80029 -1.7649e+002 -1.0971e+001  9.2884e+000 58831 79672,79980,79490
 9.0000e-001 80358 -3.6127e+002  4.1633e+001  4.1695e+001 58377 80381,80185,80159
 9.0000e-001 80335 -3.8664e+002  1.0856e+001  2.8063e+001 58377 80381,80159,80133
 9.0000e-001 80312 -4.1410e+002 -6.0348e+001  1.7963e+001 58377 80133,80263,80237
 9.0000e-001 80289 -2.9386e+002  3.6446e+001  8.2204e+000 58377 80185,80237,80211
 9.0000e-001 80407 -3.0263e+002  3.8491e+000  3.8915e+001 58377 80237,80185,80381
 9.0000e-001 80430 -3.5288e+002 -4.0368e+001  1.6420e+001 58377 80237,80381,80133
 9.0000e-001 80759 -3.4506e+002  9.0181e+000 -7.0791e+001 57873 80782,80586,80560
 9.0000e-001 80736 -3.4434e+002 -2.0908e+001 -8.1485e+001 57873 80782,80560,80534
 9.0000e-001 80713 -2.5227e+002 -5.1033e+000 -3.7165e+001 57873 80586,80638,80612
 9.0000e-001 80690 -3.1252e+002 -6.9091e+001 -2.6198e+001 57873 80534,80664,80638
 9.0000e-001 80808 -3.5691e+002 -1.9127e+001 -7.0096e+001 57873 80638,80586,80782
 9.0000e-001 80831 -3.4732e+002 -2.9260e+001 -8.0616e+001 57873 80638,80782,80534
 9.0000e-001 81337 -5.0178e+001 -8.9032e+000 -1.5882e+001 57262 81360,81144,81092
 9.0000e-001 81314 -5.1408e+001 -2.0132e+001 -3.9103e+001 57262 81360,81092,81066
 9.0000e-001 81291 -4.8209e+001  1.6707e+001 -3.4857e+001 57262 81014,81196,81066
 9.0000e-001 81268 -5.0048e+001 -6.8974e+000 -1.5770e+001 57262 81092,81144,81118
 9.0000e-001 81245 -1.5013e+001  2.9261e+001 -1.6479e+001 57262 81144,81196,81170
 9.0000e-001 81222 -5.0894e+001 -2.9617e+000  2.9762e+000 57262 81014,81066,81040
 9.0000e-001 81386 -2.5166e+001  8.1805e+000 -7.8439e+000 57262 81196,81144,81360
 9.0000e-001 81409 -3.5519e+001 -7.4223e+000 -3.2483e+001 57262 81196,81360,81066
 9.0000e-001 81608 -8.9478e+002 -3.4244e+002 -1.0829e+002 57007 81458,81536,81510
 9.0000e-001 81585 -8.3376e+002 -2.5578e+002 -7.9231e+001 57007 81432,81536,81458
 9.0000e-001 81562 -4.5294e+002 -4.1333e+002 -3.0036e+002 57007 81458,81510,81484
 9.0000e-001 82086 -1.8468e+002 -1.2370e+001  2.5604e+001 56339 81792,81922,81818
 9.0000e-001 82063 -8.2266e+001 -1.2576e+001  9.4928e+000 56339 81714,81922,81792
 9.0000e-001 82040 -2.6513e+002 -4.1443e+001  2.8620e+001 56339 82109,81844,81818
 9.0000e-001 82017 -2.0125e+002 -5.0797e+001  4.1734e+001 56339 82109,81818,81922
 9.0000e-001 81994 -2.8658e+002 -3.7124e+001 -5.1483e+001 56339 81844,81896,81870
 9.0000e-001 81971 -7.7461e+001  1.9908e+000  3.1857e+000 56339 81714,81792,81766
 9.0000e-001 81948 -2.3441e+001 -1.7246e+001  2.0650e+001 56339 81714,81766,81740
 9.0000e-001 82135 -3.5043e+002 -3.6238e+001  2.3120e+001 56339 81896,81844,82109
 9.0000e-001 82158 -2.6094e+002 -2.1664e+001  4.6770e+001 56339 81896,82109,81922
 9.0000e-001 82536 -3.9659e+002 -8.6359e+001 -5.7747e+001 55699 82288,82392,82314
 9.0000e-001 82513 -5.0357e+002 -1.2315e+002 -2.6857e+001 55699 82288,82418,82392
 9.0000e-001 82490 -2.5549e+002 -9.2710e+001  2.8492e+000 55699 82314,82392,82340
 9.0000e-001 82467 -3.2240e+002 -8.8126e+001  2.7542e+001 55699 82340,82392,82366
 9.0000e-001 82444 -5.5009e+002 -2.8562e+001 -1.1827e+001 55699 82262,82418,82288
 9.0000e-001 83091  7.7587e+000 -1.8144e+001 -7.2218e+000 55409 82745,82901,82875
 9.0000e-001 83068  1.3847e+001  1.2517e+001 -2.3546e+000 55409 82719,82901,82745
 9.0000e-001 83045 -2.4801e+001 -2.4380e+001 -1.8097e+001 55409 82771,82849,82823
 9.0000e-001 83022 -8.5705e+000 -8.1415e+000  6.2503e+000 55409 82745,82849,82771
 9.0000e-001 82999 -2.1510e+001 -3.2184e+001  1.3751e+001 55409 82745,82875,82849
 9.0000e-001 82976 -2.1812e+001 -2.7108e+001 -1.8112e+001 55409 82771,82823,82797
 9.0000e-001 82953 -8.5507e-001  8.1425e+000 -2.1295e-001 55409 82719,82927,82901
 9.0000e-001 83388 -2.2698e+002  2.8180e+001 -1.1390e+001 54905 83411,83218,83166
 9.0000e-001 83365 -2.5209e+002  2.3862e+001 -1.1522e+001 54905 83411,83166,83114
 9.0000e-001 83342 -1.2557e+002  5.8440e+001  3.6168e+001 54905 83483,83270,83244
 9.0000e-001 83319 -3.9772e+002 -2.9475e+001  2.0797e+000 54905 83166,83218,83192
 9.0000e-001 83296 -2.4812e+002 -2.1136e+001  4.1350e+001 54905 83114,83166,83140
 9.0000e-001 83437 -2.3874e+002  2.7775e+001 -9.5481e-001 54905 83244,83218,83411
 9.0000e-001 83460 -1.9495e+002  5.3220e+001  1.1064e+001 54905 83483,83244,83411
 9.0000e-001 83509 -2.1949e+002 -2.2593e+000  6.0457e+000 54905 83114,83270,83483
 9.0000e-001 83532 -2.3840e+002  2.1607e+001 -1.5515e+001 54905 83114,83483,83411
 9.0000e-001 83961 -3.2163e+002 -1.5688e+000 -4.6271e+001 54593 83638,83768,83690
 9.0000e-001 83938 -4.0381e+001  3.3316e+001  1.3791e+000 54593 83638,83794,83768
 9.0000e-001 83915 -1.8881e+002  1.1528e+002  1.1754e+001 54593 83690,83768,83742
 9.0000e-001 83892 -1.9156e+002  7.2410e+001 -1.1757e+002 54593 83638,83820,83794
 9.0000e-001 83869 -1.3185e+002  6.5738e+002 -1.3242e+002 54593 83638,83690,83664
 9.0000e-001 83846 -7.0989e+001 -7.5332e-003  1.7038e+002 54593 83690,83742,83716
 9.0000e-001 84209 -3.2070e+002 -2.6321e+001 -8.1081e+000 54132 84232,84062,83984
 9.0000e-001 84186 -3.2541e+002 -6.4696e+001  1.7185e+000 54132 84232,83984,84114
 9.0000e-001 84163 -3.2864e+002 -3.8467e+001 -3.0161e+001 54132 83984,84062,84036
 9.0000e-001 84140 -2.6802e+002 -1.5158e+002  1.1546e+001 54132 83984,84036,84010
 9.0000e-001 84258 -3.4312e+002  1.4805e+001 -4.2811e-001 54132 84088,84062,84232
 9.0000e-001 84281 -3.5188e+002 -2.5449e+001  1.6177e+001 54132 84088,84232,84114
 9.0000e-001 84382 -6.5950e+002  1.3652e+000  7.7305e+000 53521 84304,84356,84330
 9.0000e-001 84632 -2.7439e+002 -2.7404e+000  2.8795e+001 53067 84655,84485,84459
 9.0000e-001 84609 -2.3899e+002 -2.6522e+001  3.5257e+001 53067 84655,84459,84407
 9.0000e-001 84586 -2.7870e+002 -4.7880e+001  1.4301e+001 53067 84485,84537,84511
 9.0000e-001 84563 -2.1710e+002 -3.1045e+000 -1.5924e+001 53067 84407,84459,84433
 9.0000e-001 84681 -2.8429e+002 -1.8350e+001  3.4438e+001 53067 84537,84485,84655
 9.0000e-001 84704 -2.7278e+002 -6.0071e+001  4.9332e+001 53067 84537,84655,84407
 9.0000e-001 85214 -8.9758e+001 -4.2154e+001 -4.3145e+001 52513 85021,85073,85047
 9.0000e-001 85191 -1.7679e+002  2.3243e+001 -3.5717e+001 52513 84943,85073,85021
 9.0000e-001 85168 -3.1883e+002 -4.4719e+001 -7.9141e+001 52513 84943,85021,84995
 9.0000e-001 85145 -1.9152e+002 -3.1896e+001 -1.9620e+001 52513 84917,85073,84943
 9.0000e-001 85122 -8.3567e+001 -9.6623e+001 -9.2099e+001 52513 84943,84995,84969
 9.0000e-001 85099 -8.0334e+001 -6.2456e+001 -3.7367e+001 52513 84891,85073,84917
 9.0000e-001 85582 -2.8974e+002 -2.0964e+001 -1.8937e+001 52037 85605,85311,85285
 9.0000e-001 85559 -3.3482e+002 -2.5478e+001  2.4049e+001 52037 85749,85605,85285
 9.0000e-001 85536 -3.3642e+002 -6.4301e+001  2.2323e+000 52037 85893,85677,85389
 9.0000e-001 85513 -3.7969e+002 -3.5744e+001  2.7242e+001 52037 85749,85285,85259
 9.0000e-001 85490 -3.1914e+002 -6.2439e+001 -3.6115e+001 52037 85893,85389,85363
 9.0000e-001 85467 -4.1292e+002  4.4091e+001  2.6528e+001 52037 85259,85441,85415
 9.0000e-001 85631 -3.4449e+002 -1.7100e+000  2.7474e+001 52037 85337,85311,85605
 9.0000e-001 85654 -3.6017e+002 -7.7897e+001  3.7306e+001 52037 85677,85337,85605
 9.0000e-001 85703 -4.0437e+002 -5.0986e+001 -6.1460e+000 52037 85415,85389,85677
 9.0000e-001 85726 -3.7803e+002 -8.9934e+000  1.4287e+001 52037 85821,85677,85605
 9.0000e-001 85775 -3.8449e+002 -1.1510e+001  1.4665e+001 52037 85821,85605,85749
 9.0000e-001 85798 -4.2257e+002 -1.7109e+001  6.4532e+000 52037 85415,85749,85259
 9.0000e-001 85847 -3.7928e+002 -9.8464e+000  8.8476e+000 52037 85415,85677,85821
 9.0000e-001 85870 -3.8149e+002 -1.0489e+001  9.4001e+000 52037 85415,85821,85749
 9.0000e-001 85919 -3.5922e+002 -1.2625e+002  1.6435e+001 52037 85337,85677,85893
 9.0000e-001 85942 -3.5273e+002 -1.3414e+002 -1.9130e+001 52037 85337,85893,85363
 9.0000e-001 86224 -1.2600e+002 -2.5652e+001 -2.8474e+001 51368 86375,86100,86074
 9.0000e-001 86201 -2.8628e+000  1.3603e+001 -3.7343e+001 51368 86375,86074,86247
 9.0000e-001 86178 -6.8582e+001  1.5399e+001 -2.9870e+001 51368 86048,86152,86126
 9.0000e-001 86273 -1.5952e+002  6.1778e+000 -8.5413e-001 51368 86048,86126,86247
 9.0000e-001 86401 -1.9204e+002  1.6113e+001  2.7002e+001 51368 86126,86100,86375
 9.0000e-001 86424 -1.2932e+002  1.2468e+001  1.9614e+001 51368 86126,86375,86247
 9.0000e-001 86802 -4.0331e+002 -1.0619e+002  1.2983e+001 51028 86528,86632,86580
 9.0000e-001 86779 -2.4816e+002 -3.4150e+001 -3.2401e+001 51028 86528,86684,86632
 9.0000e-001 86756 -3.4932e+002  2.1377e+001  1.0241e+001 51028 86528,86580,86554
 9.0000e-001 86733 -2.4174e+002 -3.6487e+001 -2.4391e+001 51028 86632,86684,86658
 9.0000e-001 86710 -2.1598e+002 -4.9841e+001  5.4316e+000 51028 86580,86632,86606
 9.0000e-001 87131 -2.2152e+002 -1.4243e+001  2.9795e+001 50624 86958,87036,87010
 9.0000e-001 87108 -1.5346e+002 -4.6278e+001  4.6337e+001 50624 86932,87036,86958
 9.0000e-001 87085 -1.7046e+002  1.2425e+001  2.9105e+000 50624 86958,87010,86984
 9.0000e-001 87062 -9.2084e+001 -2.9695e+001  3.2168e+001 50624 86906,87036,86932
 9.0000e-001 87330 -1.9456e+002 -1.7942e-001 -1.2596e+000 50234 87353,87180,87154
 9.0000e-001 87307 -2.2433e+002  5.4004e+000 -4.8177e+000 50234 87353,87154,87258
 9.0000e-001 87284 -2.6233e+002  5.9743e-001 -1.7830e+000 50234 87206,87258,87232
 9.0000e-001 87379 -2.1934e+002  6.5628e+000 -1.5391e+001 50234 87206,87180,87353
 9.0000e-001 87402 -2.5902e+002  7.5213e+000 -1.3789e+001 50234 87206,87353,87258
 9.0000e-001 87650 -3.3120e+002  1.2627e+001 -1.9232e+000 49730 87673,87503,87451
 9.0000e-001 87627 -2.9695e+002  3.0341e+001  2.2134e+001 49730 87673,87451,87425
 9.0000e-001 87604 -1.9851e+002 -4.4268e+001  1.2557e+002 49730 87503,87555,87529
 9.0000e-001 87581 -7.4347e+002 -8.0818e+001  1.0442e+002 49730 87451,87503,87477
 9.0000e-001 87699 -3.3348e+002  3.9981e+001  1.3912e+001 49730 87555,87503,87673
 9.0000e-001 87722 -3.2928e+002  6.0187e+001  2.5240e+001 49730 87555,87673,87425
 9.0000e-001 88232 -3.5480e+002 -1.8857e+002  6.9549e+001 49176 88255,87935,87909
 9.0000e-001 88209 -2.5029e+002 -1.2029e+002 -7.1214e+001 49176 88255,87909,88065
 9.0000e-001 88186 -4.5867e+002 -1.0870e+001 -3.0327e+001 49176 87935,88039,87961
 9.0000e-001 88163 -2.0995e+002 -1.1499e+002 -7.3770e+001 49176 87909,88091,88065
 9.0000e-001 88140 -5.1278e+002 -3.4266e+001  2.0722e+001 49176 87961,88039,88013
 9.0000e-001 88117 -5.0170e+002 -2.1095e+002 -8.3393e+001 49176 87961,88013,87987
 9.0000e-001 88281 -2.2118e+002 -1.2953e+002 -3.3700e+000 49176 88039,87935,88255
 9.0000e-001 88304 -1.2575e+002 -7.4043e+001 -1.4148e+002 49176 88039,88255,88065
 9.0000e-001 88503 -3.2503e+002 -1.6932e+002 -7.7625e+001 48772 88526,88379,88353
 9.0000e-001 88480 -3.7190e+002 -9.9146e+001 -6.5217e+001 48772 88526,88353,88327
 9.0000e-001 88457 -2.3133e+002 -4.8309e+001 -2.4823e+001 48772 88379,88431,88405
 9.0000e-001 88552 -2.9542e+002 -1.1503e+002 -9.0872e+001 48772 88431,88379,88526
 9.0000e-001 88575 -3.4713e+002 -6.2039e+001 -8.2195e+001 48772 88431,88526,88327
 9.0000e-001 89083 -3.4977e+000  2.5833e+000  1.3770e+000 48368 88786,88916,88864
 9.0000e-001 89060 -9.8996e+000 -2.9859e+000  4.2112e+000 48368 88786,88942,88916
 9.0000e-001 89037 -3.2620e+000 -5.3473e-002  3.1568e-002 48368 88786,88864,88812
 9.0000e-001 89014 -1.0849e+001 -9.5094e-001 -4.9106e-001 48368 88864,88916,88890
 9.0000e-001 88991 -9.9277e-001 -2.9834e+000  2.3487e+000 48368 88812,88864,88838
 9.0000e-001 88968  1.6908e+000 -2.2319e+000 -1.6369e+000 48368 88760,88942,88786
 9.0000e-001 89331 -1.4402e+002 -7.7989e+001 -5.6688e+001 47928 89158,89236,89210
 9.0000e-001 89308 -1.4479e+002 -3.3490e+001 -3.3417e+001 47928 89132,89236,89158
 9.0000e-001 89285 -2.4402e+002  8.1685e+000 -9.0453e+001 47928 89158,89210,89184
 9.0000e-001 89262 -2.5104e+002 -4.3507e+001 -5.5541e+001 47928 89106,89236,89132
 9.0000e-001 89662 -2.3493e+002 -8.2187e+001  1.0142e+001 47588 89463,89541,89515
 9.0000e-001 89639 -2.0121e+002 -8.0727e+001 -1.8155e+001 47588 89463,89567,89541
 9.0000e-001 89616 -2.7695e+002 -4.7381e+001 -4.7223e+001 47588 89463,89515,89489
 9.0000e-001 89593 -2.0026e+002 -1.3895e+002  2.5772e+001 47588 89437,89567,89463
 9.0000e-001 89763 -1.0102e+003 -1.1613e+002 -3.7125e+001 47390 89685,89737,89711
 9.0000e-001 89913 -6.7507e+002 -1.9312e+002 -7.1328e+001 47078 89786,89838,89812
 9.0000e-001 89890 -3.2359e+002 -2.2800e+002 -8.5087e+001 47078 89786,89864,89838
 9.0000e-001 90163 -2.7114e+002 -9.7835e+000  3.9594e+001 46474 89964,90042,89990
 9.0000e-001 90140 -2.0789e+002  2.4306e+000  9.7760e+001 46474 89938,90042,89964
 9.0000e-001 90117 -8.6841e+001 -3.7516e+001  5.6137e+001 46474 89990,90042,90016
 9.0000e-001 90094 -1.3389e+002  1.2631e+001  7.9877e+001 46474 89938,90068,90042
 9.0000e-001 90364 -8.6965e+001 -1.4458e+001  2.7872e+001 46184 90240,90292,90266
 9.0000e-001 90341 -1.0521e+002 -1.1740e+001  3.0525e+001 46184 90188,90292,90240
 9.0000e-001 90318 -9.9172e+001 -5.9142e+001  3.1613e+001 46184 90188,90240,90214
 9.0000e-001 90565 -3.5043e+002  1.6496e+001 -8.1347e+001 45780 90588,90415,90389
 9.0000e-001 90542 -2.2769e+002  3.9444e+001 -8.3601e+001 45780 90588,90389,90493
 9.0000e-001 90519 -2.4265e+002 -9.6511e+001 -3.2098e+001 45780 90415,90467,90441
 9.0000e-001 90614 -2.5118e+002 -4.1242e+001 -2.9513e+000 45780 90467,90415,90588
 9.0000e-001 90637 -1.0261e+002  9.2984e+000  9.0541e+000 45780 90467,90588,90493
 9.0000e-001 91196 -1.9974e+002 -3.2841e+001 -2.6911e+001 45226 91219,90876,90850
 9.0000e-001 91173 -2.4255e+002 -5.5897e+001 -1.4574e+001 45226 91219,90850,91032
 9.0000e-001 91150 -2.5887e+002 -7.2277e+001 -2.4692e+001 45226 90824,91032,90850
 9.0000e-001 91127 -3.5541e+002 -9.9663e+001  3.7169e+001 45226 90876,90980,90902
 9.0000e-001 91104 -2.7449e+002 -4.7940e+000 -3.4712e+001 45226 90876,91006,90980
 9.0000e-001 91081 -3.3724e+002 -5.5990e+001  7.9058e+001 45226 90902,90980,90954
 9.0000e-001 91058 -1.1116e+003 -2.2607e+002  2.4860e+001 45226 90902,90954,90928
 9.0000e-001 91245 -2.5156e+002  7.7046e-001 -3.6696e+001 45226 91006,90876,91219
 9.0000e-001 91268 -2.9894e+002 -2.7374e+001 -2.2693e+001 45226 91006,91219,91032
 9.0000e-001 91516 -1.1730e+002  7.8297e+001 -2.3845e+001 44836 91539,91421,91395
 9.0000e-001 91493 -2.8924e+002  8.0712e+001 -5.8189e+001 44836 91317,91421,91343
 9.0000e-001 91470 -1.1614e+002 -9.0533e+001  7.0755e+001 44836 91539,91395,91369
 9.0000e-001 91447 -8.1083e+001 -3.6130e+001 -1.5297e+002 44836 91291,91421,91317
 9.0000e-001 91565 -9.2826e+001  1.5510e+002 -2.7876e+001 44836 91343,91421,91539
 9.0000e-001 91588 -2.8665e+001  1.1446e+002  6.9566e+001 44836 91343,91539,91369
 9.0000e-001 91787 -2.0410e+002  7.0931e+000 -1.0175e+001 44432 91810,91637,91611
 9.0000e-001 91764 -1.0044e+002 -1.1420e+001 -2.6528e+001 44432 91810,91611,91715
 9.0000e-001 91741 -1.5511e+002 -1.8878e+000 -9.9311e+000 44432 91637,91689,91663
 9.0000e-001 91836 -1.1770e+002  1.3742e+001  6.8657e+000 44432 91689,91637,91810
 9.0000e-001 91859 -4.3814e+001 -2.0204e+001  7.6920e+000 44432 91689,91810,91715
 9.0000e-001 92207 -2.9927e+002 -2.2861e+001 -5.2963e+001 43864 92230,91936,91910
 9.0000e-001 92184 -2.0245e+002 -4.1554e+001 -6.9556e+001 43864 92230,91910,92040
 9.0000e-001 92161 -1.0143e+002  1.2080e+001 -1.7650e+001 43864 91884,92040,91910
 9.0000e-001 92138 -3.0111e+002 -5.0865e+001 -1.5072e+001 43864 91936,92014,91988
 9.0000e-001 92115 -2.4434e+002 -3.0177e+001 -1.9950e+001 43864 91936,91988,91962
 9.0000e-001 92092 -2.3763e+001 -2.4755e+001 -2.4771e+001 43864 91884,92066,92040
 9.0000e-001 92256 -2.1088e+002 -9.3514e+000 -3.2407e+001 43864 92014,91936,92230
 9.0000e-001 92279 -1.4733e+002 -5.3065e+001 -6.5271e+001 43864 92014,92230,92040
 9.0000e-001 92529 -4.6811e+002 -1.1876e+002  8.1984e+001 43410 92552,92330,92304
 9.0000e-001 92506 -4.3465e+002 -3.5542e+001  5.2992e+001 43410 92552,92304,92408
 9.0000e-001 92483 -2.8098e+002 -2.8477e+001 -1.0679e+001 43410 92304,92434,92408
 9.0000e-001 92460 -4.1845e+002 -1.2072e+002 -1.3040e+001 43410 92330,92382,92356
 9.0000e-001 92578 -4.8030e+002 -1.0630e+002 -1.3263e+001 43410 92382,92330,92552
 9.0000e-001 92601 -3.9209e+002  7.9057e+001 -4.7680e+001 43410 92382,92552,92408
 9.0000e-001 92802 -5.7206e+001  7.3581e+000  8.3033e-001 43162 92825,92704,92652
 9.0000e-001 92779 -5.9808e+001  4.4487e+000 -2.9444e+000 43162 92825,92652,92626
 9.0000e-001 92756 -2.2717e+000 -4.4644e+000  2.6088e+000 43162 92652,92704,92678
 9.0000e-001 92851 -5.2005e+001  7.7401e+000  5.5613e+000 43162 92730,92704,92825
 9.0000e-001 92874 -5.2495e+001 -6.9148e+000  3.3750e-001 43162 92730,92825,92626
 9.0000e-001 93463 -4.0802e+002 -1.3439e+002  8.2787e+001 42758 93140,93270,93166
 9.0000e-001 93440 -3.3933e+002 -1.3812e+002  1.3889e+001 42758 93140,93296,93270
 9.0000e-001 93417 -2.9059e+002 -5.0302e+001  4.3673e+001 42758 93166,93270,93218
 9.0000e-001 93394 -4.9428e+002 -4.6828e+001  9.3601e+001 42758 93218,93270,93244
 9.0000e-001 93371 -3.2075e+002 -1.3322e+002  1.0384e+001 42758 93140,93322,93296
 9.0000e-001 93348 -2.6247e+002 -2.3732e+000 -1.2682e+001 42758 93166,93218,93192
 9.0000e-001 93920 -2.0822e+002  1.5606e+001  5.0272e+001 42304 93943,93672,93646
 9.0000e-001 93897 -1.8937e+002  4.1772e+001  3.7847e+001 42304 93943,93646,93802
 9.0000e-001 93874 -1.6537e+002  6.9814e+001  4.1752e+000 42304 93724,93802,93776
 9.0000e-001 93851 -1.8446e+002  1.5958e+001  3.1948e+001 42304 93672,93724,93698
 9.0000e-001 93828 -1.2195e+001 -3.3076e+001  3.5302e+001 42304 93724,93776,93750
 9.0000e-001 93969 -1.8457e+002  7.4001e+000  3.8308e+001 42304 93724,93672,93943
 9.0000e-001 93992 -1.7262e+002  1.5436e+001  3.0996e+001 42304 93724,93943,93802
 9.0000e-001 94321 -1.0373e+002 -5.0761e+001  5.8438e+000 41478 94096,94148,94122
 9.0000e-001 94298 -9.6569e+001 -3.4445e+000  1.0996e+001 41478 94096,94226,94148
 9.0000e-001 94275 -5.4228e+001 -2.0571e+001  1.8478e+001 41478 94148,94226,94174
 9.0000e-001 94252 -2.4048e+001 -2.0993e+000 -9.3372e+000 41478 94174,94226,94200
 9.0000e-001 94618 -1.9504e+002 -1.3760e+001  2.5471e-002 40910 94344,94422,94396
 9.0000e-001 94595 -1.6691e+002 -1.1746e+001  7.1503e+000 40910 94344,94448,94422
 9.0000e-001 94572 -1.6363e+002 -1.7985e-001  6.3427e+001 40910 94344,94474,94448
 9.0000e-001 94549 -1.7946e+002 -1.9292e+001 -7.2060e+000 40910 94344,94396,94370
 9.0000e-001 94526 -2.4896e+002 -2.0249e+001  9.0502e+001 40910 94344,94500,94474
 9.0000e-001 94866 -3.6882e+002  3.5189e+001 -4.9755e+001 40306 94667,94719,94693
 9.0000e-001 94843 -3.1257e+002 -1.0532e+002 -1.5884e+001 40306 94641,94719,94667
 9.0000e-001 94820 -2.6542e+002 -6.8787e+000 -2.9784e+001 40306 94641,94745,94719
 9.0000e-001 94797 -1.7100e+002 -4.8397e+001 -2.0531e+001 40306 94641,94771,94745
 9.0000e-001 95089 -3.5101e+002 -1.6979e+002 -1.0243e+001 39702 94913,94991,94939
 9.0000e-001 95066 -4.3301e+002 -1.8246e+002 -1.3834e+001 39702 94913,95017,94991
 9.0000e-001 95043 -4.8103e+002 -2.2768e+002 -2.8391e+001 39702 94939,94991,94965
 9.0000e-001 95339 -3.1022e+002  2.4897e+001  4.4091e+001 39248 95140,95218,95166
 9.0000e-001 95316 -3.5021e+002 -1.5582e+001  7.3713e+001 39248 95140,95244,95218
 9.0000e-001 95293 -2.6212e+002 -1.1978e+001  6.4090e+001 39248 95114,95244,95140
 9.0000e-001 95270 -3.7286e+002  5.8796e+000  4.4931e+001 39248 95166,95218,95192
 9.0000e-001 95770 -9.1578e+000  1.2942e+000 -1.6593e+000 38694 95551,95629,95577
 9.0000e-001 95747 -3.6565e+001 -7.2162e-001 -8.7376e+000 38694 95447,95629,95551
 9.0000e-001 95724 -4.0564e+001 -1.1357e+000  8.0267e+000 38694 95447,95551,95473
 9.0000e-001 95701 -1.4242e+001  1.5246e+000  1.9638e+000 38694 95473,95551,95499
 9.0000e-001 95678 -1.7445e+001  1.7570e+000 -1.3225e+000 38694 95499,95551,95525
 9.0000e-001 95655 -8.6713e+000  6.3234e-001  4.6212e-001 38694 95577,95629,95603
 9.0000e-001 96325 -3.3565e+002  1.9019e+001 -1.9970e+001 38240 95953,96031,96005
 9.0000e-001 96302 -3.4775e+002 -7.2592e+001 -3.7263e+001 38240 95953,96161,96031
 9.0000e-001 96279 -3.2651e+002 -1.1481e+002 -9.0574e+001 38240 96031,96161,96135
 9.0000e-001 96256 -4.2197e+002 -1.0405e+002  2.7374e+001 38240 96348,96109,96057
 9.0000e-001 96233 -4.0749e+002 -2.0225e+002 -9.6632e+001 38240 96348,96057,96031
 9.0000e-001 96210 -4.4188e+002 -4.6441e+001  1.6857e+000 38240 96057,96109,96083
 9.0000e-001 96187 -1.0867e+002 -3.3122e+001  1.0251e+002 38240 95953,96005,95979
 9.0000e-001 96374 -3.1519e+002 -2.8754e+001  6.0387e+001 38240 96135,96109,96348
 9.0000e-001 96397 -2.8144e+002 -1.2270e+002 -6.2720e+001 38240 96135,96348,96031
 9.0000e-001 96618 -2.7814e+002  5.8802e+001  1.3181e+001 37821 96494,96546,96520
 9.0000e-001 96595 -3.7042e+002 -6.8861e+001 -4.4996e+001 37821 96468,96546,96494
 9.0000e-001 96572 -4.4060e+002 -9.8873e+001 -3.9863e+001 37821 96442,96546,96468
 9.0000e-001 97126 -2.5200e+002 -2.1348e+001  2.0158e+001 37367 97149,96855,96829
 9.0000e-001 97103 -1.8447e+002  1.3440e+001 -2.0392e-001 37367 97149,96829,96985
 9.0000e-001 97080 -2.0384e+002  2.5924e+001  7.3819e+000 37367 96803,96985,96829
 9.0000e-001 97057 -1.8517e+002 -4.9247e+001  6.6464e+001 37367 96855,96907,96881
 9.0000e-001 97034 -1.0712e+002  1.8125e+001  2.4820e+001 37367 96907,96985,96959
 9.0000e-001 97011 -3.6251e+001  5.6882e+000  7.4762e+001 37367 96907,96959,96933
 9.0000e-001 97175 -1.8276e+002 -6.5725e+001  5.2399e+001 37367 96907,96855,97149
 9.0000e-001 97198 -1.3474e+002 -3.5796e+001  3.4873e+001 37367 96907,97149,96985
 9.0000e-001 97704 -1.7304e+002 -1.4847e+001 -2.5456e+001 36863 97727,97511,97485
 9.0000e-001 97681 -1.5821e+002 -5.1687e+001 -8.5470e+001 36863 97727,97485,97433
 9.0000e-001 97658 -7.5631e+001 -4.3115e+001 -6.4406e+001 36863 97381,97563,97433
 9.0000e-001 97635 -2.0112e+001  1.3374e+001 -8.4416e-001 36863 97511,97563,97537
 9.0000e-001 97612 -1.8926e+002 -8.5254e+001 -6.8891e+001 36863 97433,97485,97459
 9.0000e-001 97589 -9.1157e+001 -4.4934e+001 -5.1300e+001 36863 97381,97433,97407
 9.0000e-001 97753 -1.2037e+002  4.8122e+000 -1.9803e+001 36863 97563,97511,97727
 9.0000e-001 97776 -8.5808e+001 -2.1542e+001 -7.5594e+001 36863 97563,97727,97433
 9.0000e-001 98331 -1.5056e+002 -6.6819e+000 -9.1665e+000 36287 98354,98089,98063
 9.0000e-001 98308 -1.1847e+002 -2.0281e+001  4.1720e+001 36287 98354,98063,98011
 9.0000e-001 98285 -1.7574e+002 -2.0171e+000  1.6714e+001 36287 98426,97985,98115
 9.0000e-001 98262 -1.0536e+002 -2.7027e+001  3.4673e+001 36287 98011,98063,98037
 9.0000e-001 98239 -3.1299e+002 -5.2876e+001  2.9573e+001 36287 97985,98141,98115
 9.0000e-001 98216 -4.9854e+002 -1.9748e+001  8.7293e+001 36287 97959,98141,97985
 9.0000e-001 98193 -3.8145e+002  3.8908e+001  5.7830e+001 36287 97959,98167,98141
 9.0000e-001 98380 -3.0108e+002 -3.2370e+001 -1.3383e+001 36287 98115,98089,98354
 9.0000e-001 98403 -1.6983e+002 -1.3619e+000  9.2565e+000 36287 98426,98115,98354
 9.0000e-001 98452 -1.8292e+002 -1.1749e+001  2.0559e+001 36287 98011,97985,98426
 9.0000e-001 98475 -1.7837e+002 -1.3605e+001  1.3541e+001 36287 98011,98426,98354
 9.0000e-001 99030 -1.0572e+002 -1.8446e+001 -8.5309e+000 35726 99053,98736,98710
 9.0000e-001 99007 -1.7453e+002 -3.8384e+000  1.2021e+000 35726 99053,98710,98684
 9.0000e-001 98984 -7.8731e+001 -2.3684e+001 -5.1404e+000 35726 99125,98814,98736
 9.0000e-001 98961 -7.7843e+001 -2.4965e+001 -5.6356e+000 35726 98736,98814,98788
 9.0000e-001 98938 -2.2068e+002 -1.9684e+001 -7.4104e+000 35726 98684,98866,98840
 9.0000e-001 98915 -1.2212e+002 -3.3230e+001 -3.7605e+001 35726 98736,98788,98762
 9.0000e-001 98892 -1.6515e+002 -6.3864e+000 -4.3423e+000 35726 98658,98866,98684
 9.0000e-001 99079 -1.0197e+002 -2.0398e+001 -1.8934e+001 35726 99125,98736,99053
 9.0000e-001 99102 -1.2148e+002  2.4336e+001 -1.5358e+001 35726 98840,99053,98684
 9.0000e-001 99151 -5.9409e+001 -1.5082e+001 -2.9029e+000 35726 98840,98814,99125
 9.0000e-001 99174 -6.9564e+001 -6.7592e+000 -1.9517e+001 35726 98840,99125,99053
 9.0000e-001 99454 -1.0304e+002  1.3855e+001 -2.5618e+001 35222 99278,99330,99304
 9.0000e-001 99431 -1.5915e+002 -7.2773e+000  3.7069e+001 35222 99278,99382,99330
 9.0000e-001 99408 -2.4231e+002  1.5360e+001  1.8755e+001 35222 99330,99382,99356
 9.0000e-001 99653 -3.3613e+002 -5.9508e+001 -2.8214e+001 34867 99477,99529,99503
 9.0000e-001 99630 -2.5737e+002 -9.5355e+001 -2.7397e+001 34867 99477,99581,99529
 9.0000e-001 99607 -2.0991e+002 -1.0174e+001 -4.9225e+001 34867 99529,99581,99555
 9.0000e-001 100104 -2.5187e+002  7.1867e+000 -1.4347e+001 34363 99781,99885,99807
 9.0000e-001 100081 -2.2543e+002  1.0749e+001  5.8784e+000 34363 99781,99963,99885
 9.0000e-001 100058 -3.3761e+002 -3.2255e+001  3.1319e+001 34363 99885,99963,99911
 9.0000e-001 100035 -3.5000e+002  1.9631e+001 -3.1631e+001 34363 99807,99885,99859
 9.0000e-001 100012 -2.8001e+002 -1.5061e+001  7.2023e+001 34363 99911,99963,99937
 9.0000e-001 99989 -2.7087e+002  9.7173e+000 -1.8232e+002 34363 99807,99859,99833
 9.0000e-001 100303 -2.5903e+002 -3.4065e+001 -7.6471e+000 33909 100127,100205,100179
 9.0000e-001 100280 -3.3328e+002 -9.0466e+000 -3.1904e+001 33909 100127,100231,100205
 9.0000e-001 100257 -2.4838e+002 -7.7974e+000 -3.4691e+000 33909 100127,100179,100153
 9.0000e-001 100890 -1.8773e+002 -8.7988e+001 -8.9566e+000 33412 100645,100749,100697
 9.0000e-001 100867 -1.9427e+002 -9.5451e+001 -1.2367e+001 33412 100567,100749,100645
 9.0000e-001 100844 -1.4608e+002 -5.0904e+001 -4.6545e+001 33412 100567,100645,100619
 9.0000e-001 100821 -3.2147e+002 -9.7286e+001  3.7288e+000 33412 100645,100697,100671
 9.0000e-001 100798 -2.0189e+002 -6.6085e+001 -1.0378e+002 33412 100567,100619,100593
 9.0000e-001 100775 -2.2031e+002 -4.2845e+001 -2.5935e+000 33412 100697,100749,100723
 9.0000e-001 101268 -2.8574e+002 -1.1580e+001 -1.3011e+001 32908 101435,101291,101098
 9.0000e-001 101245 -2.1164e+002 -4.5910e+001  6.7570e+000 32908 101291,101072,101020
 9.0000e-001 101222 -3.5943e+002 -8.4735e+001 -2.2214e+001 32908 101363,101150,101124
 9.0000e-001 101199 -2.1189e+002 -9.5197e+001 -6.8761e+001 32908 101020,101072,101046
 9.0000e-001 101176 -2.4500e+002 -5.4476e+001  3.7624e+001 32908 100994,101150,101020
 9.0000e-001 101317 -3.0456e+002 -2.7444e+001 -5.9240e+000 32908 101124,101098,101291
 9.0000e-001 101340 -2.9511e+002 -5.7966e+001 -2.6012e+001 32908 101363,101124,101291
 9.0000e-001 101389 -3.1872e+002 -9.1226e+001  2.3811e+001 32908 101020,101150,101363
 9.0000e-001 101412 -2.9602e+002 -8.2567e+001  2.6077e+001 32908 101020,101363,101291
 9.0000e-001 101461 -2.9728e+002 -3.4480e+001  1.2847e+000 32908 101072,101291,101435
 9.0000e-001 101918 -2.6739e+002 -9.0008e+001 -5.5887e+001 32618 101941,101670,101644
 9.0000e-001 101895 -2.0466e+002 -3.8653e+001 -2.2010e+001 32618 101941,101644,101774
 9.0000e-001 101872 -3.9830e+002 -2.8636e+001 -2.1375e+001 32618 102013,101696,101670
 9.0000e-001 101849 -2.7407e+002 -2.3835e+001  1.7850e+000 32618 101696,101748,101722
 9.0000e-001 101826 -1.6516e+002 -2.6253e+001 -5.1189e+001 32618 101644,101800,101774
 9.0000e-001 101967 -3.8084e+002 -4.9471e+001 -5.8577e+001 32618 102013,101670,101941
 9.0000e-001 101990 -2.5420e+002  1.7165e+001 -7.2386e+001 32618 101748,101941,101774
 9.0000e-001 102039 -3.5522e+002 -3.9727e+001 -3.6128e+001 32618 101748,101696,102013
 9.0000e-001 102062 -2.7024e+002 -2.3286e+001 -6.3986e+001 32618 101748,102013,101941
 9.0000e-001 102440 -4.0775e+001 -7.4282e-001  1.5381e+000 32306 102463,102270,102244
 9.0000e-001 102417 -4.3257e+001 -1.6507e+000 -1.2725e+001 32306 102463,102244,102192
 9.0000e-001 102394 -5.1553e+001 -2.0955e+000 -9.3994e+000 32306 102192,102244,102218
 9.0000e-001 102371 -8.4942e-001  1.2195e+000 -4.1103e-001 32306 102270,102322,102296
 9.0000e-001 102348 -4.6438e+001  3.8832e+000 -6.8860e+000 32306 102166,102322,102192
 9.0000e-001 102489 -2.6396e+001  3.4794e+000  4.8571e+000 32306 102322,102270,102463
 9.0000e-001 102512 -2.8650e+001  7.9823e-001 -1.0240e+001 32306 102322,102463,102192
 9.0000e-001 102662 -2.1553e+002 -1.0623e+002  8.1622e+001 31852 102943,102587,102561
 9.0000e-001 102639 -3.3792e+002  3.7625e+000  4.0528e+001 31852 102815,102685,102561
 9.0000e-001 102711 -2.5880e+002 -4.5443e+001  1.0730e+002 31852 102943,102561,102685
 9.0000e-001 102841 -1.6619e+002 -3.3945e+001  1.8118e+001 31852 102535,102685,102815
 9.0000e-001 102969 -1.8268e+002 -4.9752e+001  5.6923e+001 31852 102613,102587,102943
 9.0000e-001 102992 -2.3377e+002 -4.7250e+000  8.5518e+001 31852 102613,102943,102685
 9.0000e-001 103370 -2.3853e+002 -1.0334e+002  5.3148e+001 31134 103096,103200,103122
 9.0000e-001 103347 -2.5784e+002 -7.4202e+001 -6.3854e+001 31134 103096,103226,103200
 9.0000e-001 103324 -3.6101e+002 -9.4192e+001  3.1879e+001 31134 103122,103200,103174
 9.0000e-001 103301 -3.7868e+002 -7.8115e+001 -2.4568e+001 31134 103096,103252,103226
 9.0000e-001 103278 -3.7875e+002 -1.6281e+001  8.5936e+001 31134 103122,103174,103148
 9.0000e-001 103520 -5.7964e+002 -9.9929e+001 -1.1071e+001 30822 103393,103445,103419
 9.0000e-001 103497 -5.7838e+002 -1.2931e+002 -1.7299e+001 30822 103393,103471,103445
 9.0000e-001 103719 -2.1597e+002  2.6427e+001 -3.4804e+000 30182 103742,103621,103569
 9.0000e-001 103696 -3.0272e+002  5.1773e+001 -1.8086e+001 30182 103742,103569,103543
 9.0000e-001 103673 -1.6345e+002  7.2238e+001  8.4492e+001 30182 103569,103621,103595
 9.0000e-001 103768 -1.7497e+002  3.6599e+001 -6.7352e+000 30182 103647,103621,103742
 9.0000e-001 103791 -2.1359e+002  9.5719e+001 -3.7298e+001 30182 103647,103742,103543
 9.0000e-001 104252 -8.8952e+001 -1.7829e+001  2.2322e+001 29728 104030,104108,104056
 9.0000e-001 104229 -1.0472e+002 -1.2906e+001 -3.5177e+000 29728 104004,104108,104030
 9.0000e-001 104206 -5.9523e+001  7.1073e+000  6.7121e+000 29728 104004,104134,104108
 9.0000e-001 104183 -5.9147e+001  1.3367e+001  2.5217e+000 29728 103978,104134,104004
 9.0000e-001 104160 -9.0929e+001  1.0066e+001  2.2732e+001 29728 104056,104108,104082
 9.0000e-001 104630 -3.6275e+002 -8.4325e+001  1.4138e+002 29217 104653,104382,104356
 9.0000e-001 104607 -3.5899e+002 -3.7572e+001  1.8549e+001 29217 104653,104356,104512
 9.0000e-001 104584 -1.4977e+002 -4.7841e+001  3.5398e+001 29217 104434,104512,104486
 9.0000e-001 104561 -2.9633e+002  1.7245e+001  9.0588e+001 29217 104382,104434,104408
 9.0000e-001 104538 -9.7980e+001 -2.7054e+001  4.1454e+001 29217 104434,104486,104460
 9.0000e-001 104679 -2.7568e+002 -4.7798e+001  1.0435e+002 29217 104434,104382,104653
 9.0000e-001 104702 -2.4356e+002 -2.5901e+001 -5.5065e+000 29217 104434,104653,104512
 9.0000e-001 105178 -2.0464e+002  2.0260e+001  5.6222e+000 28649 105201,104962,104936
 9.0000e-001 105155 -1.9250e+002 -3.9393e+001 -7.0221e+000 28649 105201,104936,104884
 9.0000e-001 105132 -1.8946e+002  2.1613e+001 -2.2867e-001 28649 105273,104858,105014
 9.0000e-001 105109 -2.0395e+002  1.4258e+001  5.5221e+001 28649 104962,105014,104988
 9.0000e-001 105086 -2.6841e+002 -5.0815e+001 -3.7051e+001 28649 104884,104936,104910
 9.0000e-001 105063 -6.4794e+001  3.5077e+000 -2.4691e+001 28649 104806,105014,104858
 9.0000e-001 105040 -9.3260e+001 -4.8983e+001 -3.6674e+001 28649 104806,104858,104832
 9.0000e-001 105227 -1.8159e+002  5.6350e+001  3.5148e+001 28649 105014,104962,105201
 9.0000e-001 105250 -1.8318e+002  1.7476e+001  4.4478e+000 28649 105273,105014,105201
 9.0000e-001 105299 -1.9485e+002  1.7543e+001  2.2298e+000 28649 104884,104858,105273
 9.0000e-001 105322 -1.9320e+002  1.0592e+001  7.8768e+000 28649 104884,105273,105201
 9.0000e-001 105673 -5.9874e+002 -8.3285e-002 -2.9639e+000 28351 105474,105578,105552
 9.0000e-001 105650 -5.9990e+002 -3.3638e+001  6.4813e+000 28351 105448,105578,105474
 9.0000e-001 105627 -6.2006e+002  3.8721e+000 -4.4180e+001 28351 105500,105552,105526
 9.0000e-001 105604 -5.8197e+002  7.8107e+000 -5.1963e+000 28351 105474,105552,105500
 9.0000e-001 106130 -2.4886e+002 -5.9871e+001 -2.3656e+001 28004 106153,105882,105856
 9.0000e-001 106107 -2.9920e+002 -9.9814e+001 -5.2041e+001 28004 106153,105856,105986
 9.0000e-001 106084 -1.9431e+002 -9.0989e+001 -2.3564e+000 28004 105934,105986,105960
 9.0000e-001 106061 -2.6527e+002 -7.9661e+001 -6.7196e+001 28004 105856,106012,105986
 9.0000e-001 106038 -1.3867e+002 -3.7996e+000 -7.0887e-001 28004 105882,105934,105908
 9.0000e-001 106179 -1.7415e+002 -8.5368e+001  7.2977e+000 28004 105934,105882,106153
 9.0000e-001 106202 -2.3628e+002 -1.1453e+002 -1.2879e+001 28004 105934,106153,105986
 9.0000e-001 106885 -2.4321e+002  2.3890e+001  1.4705e+001 27564 106908,106620,106516
 9.0000e-001 106862 -4.2715e+002  2.5692e-001  1.4906e+001 27564 106908,106516,106490
 9.0000e-001 106839 -5.0332e+002 -1.1069e+002  7.5229e+001 27564 106516,106620,106542
 9.0000e-001 106816 -2.5310e+002 -1.1132e+001  1.6113e+002 27564 106620,106672,106646
 9.0000e-001 106793 -6.4108e+002 -1.4068e+002  7.0083e+001 27564 106542,106620,106594
 9.0000e-001 106770 -3.7408e+002 -2.7375e+000 -8.5290e-001 27564 106490,106698,106672
 9.0000e-001 106747 -2.6921e+002 -1.3742e+002  1.0593e+002 27564 106464,106698,106490
 9.0000e-001 106724 -4.9935e+002 -1.2021e+002  9.8507e+001 27564 106542,106594,106568
 9.0000e-001 106934 -1.6699e+002 -9.4322e-001  1.6396e+001 27564 106672,106620,106908
 9.0000e-001 106957 -2.5228e+002  4.6435e+001  4.8301e-001 27564 106672,106908,106490
 9.0000e-001 107463 -4.9834e+001 -2.6010e+001 -6.0051e+000 27053 107218,107322,107296
 9.0000e-001 107440 -3.8669e+001  1.2738e+000 -2.4899e-001 27053 107166,107322,107218
 9.0000e-001 107417 -4.8859e+001  2.4463e+000 -4.6068e+000 27053 107218,107296,107244
 9.0000e-001 107394 -2.0409e+001 -3.5227e+000  1.0041e+000 27053 107140,107322,107166
 9.0000e-001 107371 -9.2348e+000 -9.7665e-001 -1.2296e+000 27053 107166,107218,107192
 9.0000e-001 107348 -5.9237e+001 -9.8071e+000  2.1885e+000 27053 107244,107296,107270
 9.0000e-001 108097 -2.3280e+002 -2.5080e+001 -4.6311e+001 26549 108192,108120,107803
 9.0000e-001 108074 -3.0324e+002 -4.9103e+001 -4.4258e+001 26549 108120,107725,107933
 9.0000e-001 108051 -1.7306e+002 -4.4976e+001 -6.2967e+000 26549 107751,107803,107777
 9.0000e-001 108028 -2.5822e+002 -1.2139e+001 -2.3136e+001 26549 108192,107803,107751
 9.0000e-001 108005 -3.3976e+002 -1.3120e+002 -9.5835e+001 26549 108264,107855,107803
 9.0000e-001 107982 -2.5683e+002 -9.6697e+001  7.5357e-001 26549 107881,107933,107907
 9.0000e-001 107959 -3.0205e+002 -9.7849e+001 -1.2124e+002 26549 107803,107855,107829
 9.0000e-001 108146 -2.7067e+002 -8.3387e+001 -7.4666e+001 26549 108264,107803,108120
 9.0000e-001 108169 -2.6474e+002  2.6560e+001 -1.6960e+001 26549 107881,108120,107933
 9.0000e-001 108218 -2.8430e+002 -4.1549e+001 -4.8242e+001 26549 107725,108120,108192
 9.0000e-001 108241 -3.0465e+002 -2.4849e+001 -2.5998e+001 26549 107725,108192,107751
 9.0000e-001 108290 -3.9955e+002 -5.6856e+001 -7.3662e+001 26549 107881,107855,108264
 9.0000e-001 108313 -3.4913e+002 -1.7537e+001 -5.4626e+001 26549 107881,108264,108120
 9.0000e-001 108512 -2.4590e+002 -7.5454e+000  4.4817e+001 26137 108388,108440,108414
 9.0000e-001 108489 -2.7416e+002 -4.9854e+001  2.2843e+001 26137 108362,108440,108388
 9.0000e-001 108466 -3.5979e+002 -8.8376e+001  2.8913e+000 26137 108336,108440,108362
 9.0000e-001 108662 -2.4767e+002  8.3606e+000  1.9364e+001 25733 108817,108685,108535
 9.0000e-001 108639 -2.7527e+002  2.9098e+001  6.0830e+000 25733 109017,108817,108535
 9.0000e-001 108711 -2.4353e+002  5.6910e+000  1.4460e+001 25733 108561,108535,108685
 9.0000e-001 108843 -2.8673e+002  7.0659e+000 -5.0249e-002 25733 108587,108685,108817
 9.0000e-001 108866 -3.0252e+002  3.4481e+000  6.5575e+000 25733 108889,108817,108613
 9.0000e-001 108915 -3.0110e+002  3.8700e+000  6.8157e+000 25733 108587,108817,108889
 9.0000e-001 109043 -2.9745e+002 -4.6414e+001  2.2760e+000 25733 108613,108817,109017
 9.0000e-001 109500 -6.6881e+001 -2.6355e+001 -1.4053e+001 25229 109523,109356,109330
 9.0000e-001 109477 -5.8375e+001 -9.8191e+000 -1.7062e+001 25229 109595,109523,109330
 9.0000e-001 109454 -4.8084e+001 -2.0494e+001 -5.1378e+000 25229 109595,109330,109278
 9.0000e-001 109431 -6.8074e+001  7.1677e+001 -4.1695e+001 25229 109667,109226,109382
 9.0000e-001 109408 -1.0920e+002 -8.2057e+000  1.4039e+001 25229 109278,109330,109304
 9.0000e-001 109549 -2.3563e+001 -1.5862e+000 -3.0408e+001 25229 109382,109356,109523
 9.0000e-001 109572 -4.1737e+001  2.6161e+001 -5.1844e+001 25229 109667,109382,109523
 9.0000e-001 109621 -5.4044e+001  1.0510e+001 -1.3213e+001 25229 109252,109523,109595
 9.0000e-001 109644 -3.9573e+001  1.6616e+000 -2.5959e+000 25229 109739,109595,109278
 9.0000e-001 109693 -1.8654e+002  1.1421e+000 -7.7811e+000 25229 109252,109226,109667
 9.0000e-001 109716 -9.9510e+001 -4.0385e+000 -2.3795e+001 25229 109252,109667,109523
 9.0000e-001 109765 -5.9842e+001 -1.1184e+001 -1.0900e+001 25229 109252,109595,109739
 9.0000e-001 110478 -9.1820e+001 -9.3388e+000 -1.1255e+000 24917 110158,110236,110184
 9.0000e-001 110455 -4.1890e+001  1.0529e+001 -3.8172e+000 24917 110158,110288,110236
 9.0000e-001 110432 -7.9388e+001  1.0121e+000  3.7629e+000 24917 110236,110288,110262
 9.0000e-001 110409 -5.9998e+001 -1.1943e+001  9.9888e+000 24917 110184,110236,110210
 9.0000e-001 110386 -3.6089e+001 -4.3996e+000  5.1029e+000 24917 110132,110288,110158
 9.0000e-001 110363 -7.6226e+000  3.9189e+000 -2.0210e+000 24917 110132,110314,110288
 9.0000e-001 110340 -9.5948e+000 -1.6314e+000  3.9190e-001 24917 110106,110314,110132
 9.0000e-001 110829 -4.3391e+002 -1.7705e+002  5.4055e+001 24307 110604,110682,110630
 9.0000e-001 110806 -3.5167e+002 -8.5731e+001  1.3633e+001 24307 110604,110708,110682
 9.0000e-001 110783 -2.9457e+002 -4.7624e+001 -2.3625e+001 24307 110604,110734,110708
 9.0000e-001 110760 -6.4814e+002 -2.6902e+002  6.2872e+001 24307 110630,110682,110656
 9.0000e-001 111335 -1.5450e+002 -2.7499e+001  2.2551e+001 23767 111012,111168,111038
 9.0000e-001 111312 -9.4914e+001 -1.3431e+001 -1.8412e+001 23767 111012,111194,111168
 9.0000e-001 111289 -7.7970e+001  1.7533e+001 -3.3588e+001 23767 111358,111064,111038
 9.0000e-001 111266 -1.0882e+002  1.7014e+001  2.4851e-001 23767 111358,111038,111168
 9.0000e-001 111243 -1.3992e+002 -2.3471e+001 -1.0529e+001 23767 111430,111142,111090
 9.0000e-001 111220 -1.4485e+002 -2.4409e+001  9.5468e+000 23767 111090,111142,111116
 9.0000e-001 111384 -9.8428e+001  4.0223e+000 -1.2772e+001 23767 111090,111064,111358
 9.0000e-001 111407 -9.7303e+001 -1.2178e+001 -3.2365e+000 23767 111430,111090,111358
 9.0000e-001 111456 -1.8219e+002  2.6528e+000 -5.1126e-001 23767 111168,111142,111430
 9.0000e-001 111479 -1.5822e+002 -6.9932e-001  2.4196e+000 23767 111168,111430,111358
 9.0000e-001 111985 -2.5573e+002 -1.3599e+002 -7.1840e+001 23477 111688,111844,111818
 9.0000e-001 111962 -2.5281e+002 -1.0431e+002  3.7266e+000 23477 111662,111844,111688
 9.0000e-001 111939 -1.0970e+002  1.5660e+001  4.5654e+001 23477 111766,111818,111792
 9.0000e-001 111916 -3.9023e+002 -2.7968e+001  5.9321e+001 23477 111740,111818,111766
 9.0000e-001 111893 -3.9613e+002 -7.0271e+001 -8.4550e+001 23477 111688,111818,111740
 9.0000e-001 111870 -5.6379e+002 -8.1422e+001 -9.2360e+001 23477 111688,111740,111714
 9.0000e-001 112314 -2.4744e+002  8.5898e+000 -2.5420e+001 23023 112141,112219,112193
 9.0000e-001 112291 -2.5651e+002 -4.9000e+001 -2.5699e+001 23023 112115,112219,112141
 9.0000e-001 112268 -2.1486e+002 -1.1239e+001  9.3212e+000 23023 112141,112193,112167
 9.0000e-001 112245 -2.0489e+002 -3.7593e+001 -1.9509e+000 23023 112089,112219,112115
 9.0000e-001 112692 -2.5750e+002  1.2119e+001 -7.3301e+000 22768 112444,112574,112548
 9.0000e-001 112669 -3.6522e+002 -1.0341e+001 -4.8128e+001 22768 112418,112574,112444
 9.0000e-001 112646 -1.6804e+002 -3.1166e+001 -4.3788e+001 22768 112444,112522,112470
 9.0000e-001 112623 -2.3699e+002  1.4858e+001 -2.6655e+001 22768 112444,112548,112522
 9.0000e-001 112600 -1.8838e+002 -4.5420e+001 -1.0857e+000 22768 112470,112522,112496
 9.0000e-001 113011 -6.0833e+002  4.9230e+001 -1.1481e+002 22314 112763,112867,112789
 9.0000e-001 112988 -7.3790e+002 -1.1202e+002 -5.6998e+001 22314 112763,112893,112867
 9.0000e-001 112965 -8.1951e+002 -5.9757e+001  0.0000e+000 22314 112815,112867,112841
 9.0000e-001 112942 -9.0576e+002 -9.2363e+001 -6.7489e+001 22314 112789,112867,112815
 9.0000e-001 112919 -5.3450e+002 -7.6398e+001 -1.1967e+002 22314 112737,112893,112763
 9.0000e-001 113519 -1.2021e+002 -2.5891e+001  1.4684e+001 21924 113614,113542,113248
 9.0000e-001 113496 -8.0862e+001  1.9936e+001 -4.0583e+000 21924 113542,113196,113378
 9.0000e-001 113473 -9.6468e+001 -4.6705e+001  2.2696e+001 21924 113614,113248,113222
 9.0000e-001 113450 -1.4572e+002  1.4051e-001  1.3795e+001 21924 113686,113274,113248
 9.0000e-001 113427 -1.6981e+002  4.9920e+000  1.7662e+001 21924 113274,113352,113326
 9.0000e-001 113404 -1.2208e+002 -2.5029e+001  5.6181e+001 21924 113274,113326,113300
 9.0000e-001 113568 -1.2789e+002 -4.7885e-001  3.0677e+001 21924 113686,113248,113542
 9.0000e-001 113591 -1.0809e+002 -1.6303e+001  3.1016e+001 21924 113352,113542,113378
 9.0000e-001 113640 -9.7358e+001  1.7889e+000  2.4579e+001 21924 113196,113542,113614
 9.0000e-001 113663 -8.1254e+001 -2.2789e+001  3.0252e+001 21924 113196,113614,113222
 9.0000e-001 113712 -1.6600e+002  1.8709e+000  1.3466e+001 21924 113352,113274,113686
 9.0000e-001 113735 -1.5959e+002 -6.8751e+000  3.0571e+001 21924 113352,113686,113542
 9.0000e-001 113885 -3.0722e+001  1.7132e+001  1.1453e+001 21520 113980,113908,113784
 9.0000e-001 113862 -9.0361e+001  1.3196e+001  2.5865e+001 21520 114238,113908,113758
 9.0000e-001 113934 -8.2458e+001 -1.6252e+001 -2.4045e+001 21520 114110,113908,113810
 9.0000e-001 113957 -9.8499e+001  1.7186e+001  2.0868e+001 21520 113810,113908,113836
 9.0000e-001 114006 -1.0667e+002 -2.8308e+001  3.2173e+001 21520 113758,113908,113980
 9.0000e-001 114136 -3.6932e+001  2.5914e+000 -5.3918e+000 21520 113784,113908,114110
 9.0000e-001 114264  1.2942e+000  5.8105e+001  4.9254e+001 21520 113836,113908,114238
 9.0000e-001 114662 -2.8193e+002 -1.5736e+001  1.2535e+001 21030 114414,114518,114492
 9.0000e-001 114639 -3.9786e+002 -5.6446e+001  5.8298e+001 21030 114414,114544,114518
 9.0000e-001 114616 -8.4408e+001  5.5251e+001  9.0956e+000 21030 114440,114492,114466
 9.0000e-001 114593 -2.9026e+002 -3.3625e+001  1.7185e+001 21030 114414,114492,114440
 9.0000e-001 114570 -3.7657e+002 -1.8793e+001  1.4820e+002 21030 114388,114544,114414
 9.0000e-001 114959 -4.5396e+002 -2.8948e+001 -9.8115e+000 20512 114982,114711,114685
 9.0000e-001 114936 -4.3656e+002 -1.2274e+001 -4.1204e+001 20512 115054,114982,114685
 9.0000e-001 114913 -4.0935e+002  5.9625e+001 -5.3275e+001 20512 115054,114685,114841
 9.0000e-001 114890 -9.7495e+001  4.5513e+001  1.9400e+001 20512 114711,114763,114737
 9.0000e-001 114867 -2.9814e+002  1.0865e+001 -3.5295e+000 20512 114763,114815,114789
 9.0000e-001 115008 -4.2061e+002 -1.4055e+001 -6.9659e+000 20512 114763,114711,114982
 9.0000e-001 115031 -4.2269e+002 -5.5243e+001 -2.9762e+001 20512 114763,114982,114815
 9.0000e-001 115080 -4.3277e+002 -4.3885e+001 -3.9780e+001 20512 114815,114982,115054
 9.0000e-001 115103 -4.4248e+002 -2.1654e+001 -3.8220e+001 20512 114815,115054,114841
 9.0000e-001 115507 -1.7503e+002 -2.2469e+001 -1.2953e+002 20143 115285,115389,115363
 9.0000e-001 115484 -3.9022e+002  2.0733e+001  1.4971e+001 20143 115259,115389,115285
 9.0000e-001 115461 -3.7103e+002  1.4387e+001  3.7554e+001 20143 115233,115389,115259
 9.0000e-001 115438 -1.6738e+002 -4.5771e+001  2.7297e+001 20143 115285,115337,115311
 9.0000e-001 115415 -8.9897e+001  2.6251e+000  4.7953e+001 20143 115285,115363,115337
 9.0000e-001 115875 -5.9250e+001 -6.5483e+000  2.1753e+000 19632 115656,115734,115682
 9.0000e-001 115852 -3.4800e+001  3.8694e+000  1.4536e+001 19632 115552,115734,115656
 9.0000e-001 115829 -3.8537e+001  2.3276e+000 -2.4102e+001 19632 115552,115656,115578
 9.0000e-001 115806 -9.0771e+001  2.6014e+000 -3.3140e+000 19632 115578,115656,115630
 9.0000e-001 115783 -1.4430e+001  2.0921e+001 -3.1908e+001 19632 115682,115734,115708
 9.0000e-001 115760 -7.3659e+001 -6.5728e+000  2.1106e+001 19632 115578,115630,115604
 9.0000e-001 116025 -2.6616e+002 -1.3477e+001  4.6137e+001 19178 115898,115950,115924
 9.0000e-001 116002 -2.5284e+002  1.4048e+001  4.2087e+001 19178 115898,115976,115950
 9.0000e-001 116633 -1.5364e+002  2.7217e+001  1.0966e+000 18738 116800,116656,116342
 9.0000e-001 116610 -1.3695e+002  5.5286e+001 -6.0053e+001 18738 116656,116238,116446
 9.0000e-001 116587 -1.3165e+002 -1.1405e+001  1.4292e+001 18738 116728,116368,116342
 9.0000e-001 116564 -1.6408e+002  5.3330e+000  1.3085e+001 18738 116800,116342,116264
 9.0000e-001 116541 -9.6933e+001  5.6748e+002 -1.9557e+002 18738 116212,116446,116238
 9.0000e-001 116518 -9.0859e+001  9.8119e+000 -9.0884e+001 18738 116394,116446,116420
 9.0000e-001 116495 -4.2091e+002 -9.9002e+001  1.8225e+001 18738 116264,116342,116316
 9.0000e-001 116472 -1.3862e+002  1.6672e+001  7.4635e+000 18738 116264,116316,116290
 9.0000e-001 116682 -1.2932e+002  2.8870e+000 -1.4874e+001 18738 116728,116342,116656
 9.0000e-001 116705 -1.4623e+002 -2.5041e+001 -6.5347e+001 18738 116394,116656,116446
 9.0000e-001 116754 -9.1849e+001  9.1191e+000 -8.2420e+000 18738 116394,116368,116728
 9.0000e-001 116777 -8.3118e+001  2.8625e+001 -3.8149e+001 18738 116394,116728,116656
 9.0000e-001 116826 -1.6730e+002  7.5235e+001 -2.2027e+001 18738 116238,116656,116800
 9.0000e-001 116849 -1.9106e+002  4.5940e+001 -6.0013e+000 18738 116238,116800,116264
 9.0000e-001 116999 -3.1736e+000  1.9021e+001 -2.6333e+001 18184 116872,116924,116898
 9.0000e-001 116976 -1.3225e+001 -1.2238e-001 -2.1045e+001 18184 116872,116950,116924
 9.0000e-001 117330 -1.4866e+002  1.0876e+001  8.5339e+000 17694 117157,117235,117183
 9.0000e-001 117307 -1.1109e+002 -5.4278e-001  2.8973e+000 17694 117131,117235,117157
 9.0000e-001 117284 -1.2070e+002 -1.1485e+000  3.1576e+000 17694 117105,117235,117131
 9.0000e-001 117261 -2.2008e+002 -4.1027e+001  3.6267e+001 17694 117183,117235,117209
 9.0000e-001 117480 -1.8655e+002 -9.0120e+001  5.4365e+001 17290 117353,117405,117379
 9.0000e-001 117457 -1.5686e+002 -2.0827e+001  3.2669e+001 17290 117353,117431,117405
 9.0000e-001 117679 -1.7252e+002 -7.3597e+001  7.4263e+000 16718 117555,117607,117581
 9.0000e-001 117656 -1.1707e+002 -3.1282e+001 -1.1763e+001 16718 117529,117607,117555
 9.0000e-001 117633 -1.3673e+002 -1.7688e+001 -2.8996e+000 16718 117503,117607,117529
 9.0000e-001 117782 -2.0698e+002  3.0892e+000 -1.2848e+001 16520 117704,117756,117730
 9.0000e-001 117983 -4.0907e+002 -2.5491e+002  1.2503e+001 16208 117859,117911,117885
 9.0000e-001 117960 -3.3364e+002 -1.8351e+002 -3.3438e+001 16208 117833,117911,117859
 9.0000e-001 117937 -2.3076e+002 -1.1322e+002 -2.8344e+000 16208 117807,117911,117833
 9.0000e-001 118135 -2.1632e+001  5.3743e+001 -4.7250e+000 15674 118034,118086,118060
 9.0000e-001 118112 -1.7777e+002 -8.8302e+000 -1.1979e+001 15674 118008,118086,118034
 9.0000e-001 118238 -3.1425e+002  3.6872e-001  2.3074e-001 15355 118160,118212,118186
 9.0000e-001 118341  8.0159e-002 -5.5873e+000 -1.6178e+000 421 118263,118315,118289
 1.0000e+000 68152  3.0580e+000 -2.6064e-001  3.7583e+000 67838 68074,68126,68100
 1.0000e+000 68550 -3.0457e+002 -1.5663e+001 -1.3996e+000 67526 68276,68380,68302
 1.0000e+000 68527 -1.7457e+002  6.9804e+000 -7.5810e+000 67526 68276,68406,68380
 1.0000e+000 68504 -3.3907e+002 -3.6847e+001  3.8930e+000 67526 68328,68380,68354
 1.0000e+000 68481 -3.0713e+002 -2.1643e+001 -1.3159e+000 67526 68302,68380,68328
 1.0000e+000 68458 -1.7516e+002  2.3828e+000 -1.9300e+001 67526 68276,68432,68406
 1.0000e+000 68651  1.1015e+000  4.8340e-001 -1.1864e-001 67328 68573,68625,68599
 1.0000e+000 68970 -3.8528e+002 -1.3232e+002 -6.7072e+000 67016 68722,68800,68774
 1.0000e+000 68947 -4.0058e+002 -1.1957e+002 -3.7150e+001 67016 68722,68826,68800
 1.0000e+000 68924 -4.5527e+002 -2.4195e+001 -3.8904e+001 67016 68696,68826,68722
 1.0000e+000 68901 -3.1797e+002 -3.5598e+001  5.0325e+001 67016 68722,68774,68748
 1.0000e+000 68878 -3.2480e+002 -3.4246e+001  1.0467e+002 67016 68696,68852,68826
 1.0000e+000 69291 -2.8365e+002 -1.8645e+001 -4.5235e+001 66654 69069,69147,69095
 1.0000e+000 69268 -1.3470e+002 -9.0325e+000  1.5223e+001 66654 69069,69173,69147
 1.0000e+000 69245 -7.9452e+001 -1.2057e+001 -3.3563e+001 66654 69043,69173,69069
 1.0000e+000 69222 -3.2497e+002  7.3215e+000  2.4633e+001 66654 69095,69147,69121
 1.0000e+000 69199 -5.2083e+001 -5.1237e+000  9.9965e+000 66654 69017,69173,69043
 1.0000e+000 69695 -3.5507e+002 -6.7927e+001 -2.5185e+001 66456 69447,69577,69551
 1.0000e+000 69672 -3.9220e+002 -2.3025e+001 -5.6375e+001 66456 69421,69577,69447
 1.0000e+000 69649 -4.2334e+002 -1.5020e+002  1.3557e+001 66456 69473,69551,69525
 1.0000e+000 69626 -3.6387e+002 -8.0875e+001 -1.4858e+001 66456 69447,69551,69473
 1.0000e+000 69603 -4.4544e+002 -1.2487e+002  9.3715e+001 66456 69473,69525,69499
 1.0000e+000 70024 -1.4038e+001  3.2641e+001 -4.7525e+001 66258 70047,69851,69825
 1.0000e+000 70001 -5.4687e+001  1.8040e+001  2.2767e+001 66258 70047,69825,69903
 1.0000e+000 69978 -2.9075e+001  1.5938e+001  1.6692e+001 66258 69799,69903,69825
 1.0000e+000 69955 -1.1073e+001 -4.7920e+001  3.3898e+001 66258 69799,69929,69903
 1.0000e+000 70073 -7.8553e+001 -4.7219e+000 -2.4204e+001 66258 69877,69851,70047
 1.0000e+000 70096 -1.3915e+002 -3.3712e+001  4.9412e+001 66258 69877,70047,69903
 1.0000e+000 70602 -8.0147e+002 -1.2761e+002  1.1351e+002 66060 70305,70435,70331
 1.0000e+000 70579 -1.6917e+002 -1.8449e+002 -1.0070e+002 66060 70279,70435,70305
 1.0000e+000 70556 -3.4900e+002  8.9508e+001  4.7709e+001 66060 70331,70435,70409
 1.0000e+000 70533 -9.3335e+001 -8.1462e+000 -9.3572e+001 66060 70279,70461,70435
 1.0000e+000 70510 -5.2373e+002 -1.3031e+002  1.2922e+002 66060 70331,70409,70357
 1.0000e+000 70487 -2.5691e+002 -1.6824e+001  1.1372e+002 66060 70357,70409,70383
 1.0000e+000 70703 -5.3480e+001 -4.6752e+001 -4.6421e+001 65862 70625,70677,70651
 1.0000e+000 71083 -9.8004e+001  1.6683e+001  1.5905e+001 65664 70887,70965,70939
 1.0000e+000 71060 -2.8522e+002 -4.4302e+001  7.4112e+001 65664 70861,70965,70887
 1.0000e+000 71037 -3.1075e+002  1.1453e+002  1.0858e+001 65664 70809,70965,70861
 1.0000e+000 71014 -3.3932e+002  2.2122e+002  1.0674e+002 65664 70809,70861,70835
 1.0000e+000 70991 -9.3556e+001 -2.0600e+000 -1.3610e+001 65664 70887,70939,70913
 1.0000e+000 71611 -4.3783e+001 -2.8155e+001  2.9627e+001 65260 71288,71444,71314
 1.0000e+000 71588 -1.2913e+002 -5.1402e+001  2.6217e+001 65260 71288,71470,71444
 1.0000e+000 71565 -3.2666e+002 -1.0203e+002 -6.1996e+001 65260 71314,71418,71392
 1.0000e+000 71542 -6.2747e+001 -8.8348e+001  2.0210e+001 65260 71314,71444,71418
 1.0000e+000 71519 -1.7640e+002 -6.7440e-001 -1.4854e+000 65260 71314,71392,71340
 1.0000e+000 71496 -2.5495e+002 -1.8077e+002 -3.6499e+002 65260 71340,71392,71366
 1.0000e+000 72060 -2.4768e+002 -2.6002e+000  1.5297e+001 64870 71737,71893,71789
 1.0000e+000 72037 -3.2508e+002 -3.8236e+001  2.8793e+000 64870 71737,71919,71893
 1.0000e+000 72014 -2.4090e+002 -8.7765e+001 -1.0420e+002 64870 71789,71841,71815
 1.0000e+000 71991 -2.9007e+002  1.2541e+001 -1.9511e+001 64870 71789,71893,71841
 1.0000e+000 71968 -2.2690e+002 -1.9342e+001 -2.0033e+001 64870 71737,71789,71763
 1.0000e+000 71945 -4.0637e+002  1.2968e+001  0.0000e+000 64870 71841,71893,71867
 1.0000e+000 72517 -2.6194e+002 -5.8696e+001  2.9356e+001 64466 72321,72399,72347
 1.0000e+000 72494 -2.3388e+002 -1.0927e+002  2.3132e+001 64466 72269,72399,72321
 1.0000e+000 72471 -2.3431e+002  3.5363e+001 -2.5112e+001 64466 72347,72399,72373
 1.0000e+000 72448 -2.4835e+002 -9.9278e+001  5.6570e+001 64466 72243,72399,72269
 1.0000e+000 72425 -1.7926e+002 -8.1387e+000 -5.8477e+000 64466 72269,72321,72295
 1.0000e+000 72944 -3.4615e+002 -8.8656e+001 -4.6978e+000 64062 73111,73039,72699
 1.0000e+000 72921 -3.4924e+002 -7.3325e+001 -3.0253e+000 64062 73183,72967,72647
 1.0000e+000 72898 -3.6127e+002 -9.8245e+001 -6.3531e+000 64062 72967,72803,72751
 1.0000e+000 72875 -3.6103e+002 -9.5062e+001 -3.5240e+000 64062 73111,72699,72673
 1.0000e+000 72852 -3.5716e+002 -6.1875e+001 -8.6546e+000 64062 73183,72647,72621
 1.0000e+000 72829 -3.4069e+002 -1.3069e+002  3.3967e+001 64062 72751,72803,72777
 1.0000e+000 72993 -3.7312e+002 -8.6989e+001 -8.6228e+000 64062 73039,72647,72967
 1.0000e+000 73016 -3.2490e+002 -6.6067e+001  1.1135e+001 64062 72725,72967,72751
 1.0000e+000 73065 -5.1953e+002 -7.8814e+001 -9.0981e+001 64062 72725,72699,73039
 1.0000e+000 73088 -3.6583e+002 -5.4572e+001  8.8718e+000 64062 72725,73039,72967
 1.0000e+000 73137 -3.8047e+002 -8.9813e+001 -6.1988e+000 64062 72647,73039,73111
 1.0000e+000 73160 -3.8273e+002 -9.0476e+001 -6.8773e+000 64062 72647,73111,72673
 1.0000e+000 73209 -3.4554e+002 -6.2401e+001 -1.0377e+001 64062 72803,72967,73183
 1.0000e+000 73232 -3.4677e+002 -3.9758e+001 -1.5708e+001 64062 72803,73183,72621
 1.0000e+000 73333 -2.3364e+002  1.2989e+001  8.6057e+000 63814 73356,73281,73255
 1.0000e+000 73382 -8.2815e+002 -1.1397e+002 -1.3391e+001 63814 73486,73356,73307
 1.0000e+000 73512 -3.6592e+002  8.4262e+001 -1.8511e+001 63814 73281,73356,73486
 1.0000e+000 73839 -1.9851e+002 -1.6964e+001  4.0222e+000 63616 73862,73692,73666
 1.0000e+000 73816 -2.3403e+002 -2.8127e+001 -1.5259e+000 63616 73934,73862,73666
 1.0000e+000 73793 -2.6080e+002 -1.3362e+001 -2.8988e+001 63616 73934,73666,73640
 1.0000e+000 73770 -2.6557e+002  4.6316e+001 -3.3510e+001 63616 73614,73744,73640
 1.0000e+000 73888 -1.6829e+002 -1.9422e+001 -4.4929e+000 63616 73718,73692,73862
 1.0000e+000 73911 -1.9648e+002 -3.2982e+001 -8.5391e+000 63616 73718,73862,73744
 1.0000e+000 73960 -1.8658e+002 -6.7028e+000 -7.3221e+000 63616 73744,73862,73934
 1.0000e+000 73983 -2.0807e+002  9.5357e+000 -3.1482e+001 63616 73744,73934,73640
 1.0000e+000 74363 -3.6783e+002 -9.6725e+001 -3.4096e+001 63390 74386,74115,74089
 1.0000e+000 74340 -3.4434e+002 -6.5832e+001 -4.5603e+001 63390 74458,74386,74089
 1.0000e+000 74317 -3.5943e+002 -5.1531e+001 -8.9984e+001 63390 74458,74089,74245
 1.0000e+000 74294 -3.2903e+002 -1.5572e+002  1.7802e+000 63390 74530,74167,74141
 1.0000e+000 74271 -3.1365e+002 -9.2643e+001  3.2863e+001 63390 74167,74219,74193
 1.0000e+000 74412 -3.6275e+002 -1.0303e+002 -4.0960e+001 63390 74141,74115,74386
 1.0000e+000 74435 -3.7586e+002 -1.2779e+002 -3.5931e+001 63390 74530,74141,74386
 1.0000e+000 74484 -3.7884e+002 -1.3487e+002 -6.0027e+001 63390 74219,74386,74458
 1.0000e+000 74507 -4.0676e+002 -1.3555e+002 -1.0940e+002 63390 74219,74458,74245
 1.0000e+000 74556 -2.7610e+002 -1.3374e+002 -3.3688e+000 63390 74219,74167,74530
 1.0000e+000 74579 -3.0814e+002 -9.7734e+001 -4.5140e+001 63390 74219,74530,74386
 1.0000e+000 74680 -1.0811e+002 -4.6733e+000  1.8886e+001 63100 75089,74833,74703
 1.0000e+000 74729 -2.6107e+001  1.9847e+000 -2.7089e+000 63100 74961,74703,74654
 1.0000e+000 74859 -1.4154e+002 -3.5606e+001  5.5058e+000 63100 74602,74703,74833
 1.0000e+000 74987 -4.4121e+001 -2.8336e+000  6.1205e+001 63100 75089,74703,74961
 1.0000e+000 75115 -2.4825e+002  1.5490e+001 -1.2148e+001 63100 74628,74833,75089
 1.0000e+000 75138 -1.8160e+002  1.9158e+001  3.0478e+001 63100 74628,75089,74961
 1.0000e+000 75723 -6.8312e+001 -8.9771e+001  3.3711e+001 62532 75746,75504,75426
 1.0000e+000 75700 -2.7270e+002  7.0018e+001  1.7977e+002 62532 75746,75426,75556
 1.0000e+000 75677 -8.5116e+001  3.3292e+001 -6.9438e+001 62532 75426,75504,75452
 1.0000e+000 75654 -4.9327e+002 -1.2101e+001  1.9195e+002 62532 75400,75556,75426
 1.0000e+000 75631 -5.7457e+002 -3.4146e+002 -1.0373e+002 62532 75400,75582,75556
 1.0000e+000 75608 -1.9343e+002 -5.2448e+001 -3.1226e+001 62532 75452,75504,75478
 1.0000e+000 75772 -3.0361e+002 -8.5911e+001  1.5217e+001 62532 75530,75504,75746
 1.0000e+000 75795 -6.2383e+002 -7.9538e+000  1.6092e+002 62532 75530,75746,75556
 1.0000e+000 76301 -1.8266e+002 -2.7128e+001 -4.2004e+001 62192 76324,76082,76030
 1.0000e+000 76278 -1.2059e+002  1.6879e+001 -2.2745e+001 62192 76324,76030,76004
 1.0000e+000 76255 -1.5055e+002 -2.7636e+001 -9.4845e+000 62192 76030,76082,76056
 1.0000e+000 76232 -2.8347e+002  2.3596e+000 -2.7654e+001 62192 76082,76134,76108
 1.0000e+000 76209 -4.6178e+002 -2.7017e+001 -8.6996e+001 62192 76004,76160,76134
 1.0000e+000 76186 -3.0140e+002 -2.8279e+002 -5.4072e+001 62192 75978,76160,76004
 1.0000e+000 76350 -2.6438e+002  4.2465e+001 -3.5864e+001 62192 76134,76082,76324
 1.0000e+000 76373 -2.0117e+002  9.7616e+001 -1.1363e+001 62192 76134,76324,76004
 1.0000e+000 76879  9.8089e+000 -9.6245e+000 -6.6207e+000 61788 76902,76660,76582
 1.0000e+000 76856 -4.0295e+001 -1.1313e+001 -2.8359e+000 61788 76902,76582,76556
 1.0000e+000 76833  9.7102e+000 -5.9349e+000 -1.2232e+001 61788 76582,76660,76634
 1.0000e+000 76810  1.0174e+001  3.3226e+000 -1.4915e+001 61788 76582,76634,76608
 1.0000e+000 76787  1.2018e+001 -1.3408e+001  1.4953e+001 61788 76556,76738,76686
 1.0000e+000 76764  4.5654e+001 -7.0998e+000  7.5584e+000 61788 76686,76738,76712
 1.0000e+000 76928  4.2129e+001 -1.6217e+001 -1.1255e+001 61788 76686,76660,76902
 1.0000e+000 76951  2.2725e+000 -8.9692e+000 -1.1043e+001 61788 76686,76902,76556
 1.0000e+000 77408 -3.2348e+002 -8.8811e+000  6.2272e+001 61498 77212,77264,77238
 1.0000e+000 77385 -3.7215e+002  1.7327e+001 -8.6960e+001 61498 77160,77264,77212
 1.0000e+000 77362 -2.8692e+002 -5.6708e+001 -1.3514e+002 61498 77160,77290,77264
 1.0000e+000 77339 -4.4321e+002 -4.9299e+001 -5.9422e+001 61498 77160,77212,77186
 1.0000e+000 77316 -2.1039e+002 -9.4951e+001  1.0135e+002 61498 77134,77290,77160
 1.0000e+000 77678 -9.1527e+002  1.1487e+002  1.8751e+001 61129 77479,77557,77505
 1.0000e+000 77655 -9.1365e+002 -1.3161e+002  6.5082e+000 61129 77479,77583,77557
 1.0000e+000 77632 -8.3101e+002 -3.5766e+002  6.5229e+001 61129 77453,77583,77479
 1.0000e+000 77609 -8.0029e+002  2.9717e+002  1.7654e+002 61129 77505,77557,77531
 1.0000e+000 77828 -1.0044e+002 -6.2093e+000 -1.5148e+001 60931 77851,77727,77701
 1.0000e+000 77805 -7.1032e+001 -9.1259e+000 -1.3096e+001 60931 77851,77701,77779
 1.0000e+000 77877 -7.1372e+001 -1.5970e+001 -1.1575e+001 60931 77923,77851,77753
 1.0000e+000 77900 -2.4590e+001  9.4363e-001 -9.3347e-002 60931 77753,77851,77779
 1.0000e+000 77949 -7.0498e+001 -1.3466e+001 -1.1169e+001 60931 77727,77851,77923
 1.0000e+000 78133 -5.3128e+002 -2.1473e+002  3.4199e+001 60377 78055,78107,78081
 1.0000e+000 78535 -2.6330e+002  5.2947e+001 -5.2364e+001 60015 78287,78391,78313
 1.0000e+000 78512 -4.3080e+002 -8.9892e+001  8.6430e+000 60015 78287,78417,78391
 1.0000e+000 78489 -3.0070e+002 -6.0476e+001 -1.2396e+001 60015 78261,78417,78287
 1.0000e+000 78466 -6.2908e+002 -1.7534e+002  1.9616e+001 60015 78339,78391,78365
 1.0000e+000 78443 -6.3996e+002 -9.4563e+001 -3.1711e+001 60015 78313,78391,78339
 1.0000e+000 78913 -2.4284e+002 -5.3112e+001  4.5030e+001 59725 78936,78743,78691
 1.0000e+000 78890 -2.1341e+002 -2.2337e+001  5.7159e+001 59725 79008,78936,78691
 1.0000e+000 78867 -2.0071e+002 -9.5334e+000  8.0172e+001 59725 79008,78691,78665
 1.0000e+000 78844 -2.5541e+002 -1.4799e+001 -2.7697e+001 59725 78691,78743,78717
 1.0000e+000 78821 -2.9490e+002 -1.6933e+002  8.3931e+001 59725 78639,78795,78769
 1.0000e+000 78962 -2.2853e+002 -3.4214e+001  3.8499e+001 59725 78769,78743,78936
 1.0000e+000 78985 -2.6407e+002 -6.6408e+001  2.5043e+001 59725 78769,78936,78639
 1.0000e+000 79034 -2.5639e+002 -3.7236e+001  4.2768e+001 59725 78639,78936,79008
 1.0000e+000 79057 -2.2843e+002 -3.0920e+001  6.2316e+001 59725 78639,79008,78665
 1.0000e+000 79386 -2.6690e+002  1.2622e+001  1.9235e+001 59221 79187,79239,79213
 1.0000e+000 79363 -2.7992e+002 -5.0248e+001  4.4596e+001 59221 79187,79265,79239
 1.0000e+000 79340 -1.8927e+002 -6.1322e+001 -2.4404e+001 59221 79187,79291,79265
 1.0000e+000 79317 -2.5901e+002 -2.1222e+002  2.0130e+001 59221 79161,79291,79187
 1.0000e+000 79813 -2.6589e+002  1.7563e+001  1.4316e+001 58831 79836,79542,79516
 1.0000e+000 79790 -1.8996e+002  2.0572e+001  3.9142e+001 58831 79980,79836,79516
 1.0000e+000 79767 -9.7268e+001  3.0901e+001 -3.5881e+001 58831 79908,79646,79568
 1.0000e+000 79744 -3.0120e+002 -4.1983e+000  4.2447e+001 58831 79980,79516,79490
 1.0000e+000 79721 -3.7236e+001  6.0843e+001 -2.4381e+001 58831 79568,79646,79594
 1.0000e+000 79698 -3.4093e+000  4.1720e+000 -3.0431e+000 58831 79594,79646,79620
 1.0000e+000 79862 -1.5638e+002  7.3725e+001  3.7788e+001 58831 79568,79542,79836
 1.0000e+000 79885 -7.9024e+001  1.8652e+001 -1.4248e+001 58831 79908,79568,79836
 1.0000e+000 79934 -1.1023e+002  2.0161e+001 -2.5904e+001 58831 79672,79646,79908
 1.0000e+000 79957 -1.1629e+002 -1.6815e+000 -1.3980e+000 58831 79672,79908,79836
 1.0000e+000 80006 -1.4474e+002  1.0657e+000 -6.7965e+000 58831 79672,79836,79980
 1.0000e+000 80029 -1.8954e+002  2.5468e+000  1.6102e+001 58831 79672,79980,79490
 1.0000e+000 80358 -3.7820e+002  4.9005e+001  2.1808e+001 58377 80381,80185,80159
 1.0000e+000 80335 -4.1088e+002  1.5730e+001  7.0362e+000 58377 80381,80159,80133
 1.0000e+000 80312 -4.1010e+002 -1.0288e+002  3.2953e+001 58377 80133,80263,80237
 1.0000e+000 80289 -3.1156e+002 -1.1943e+000  1.3943e+001 58377 80185,80237,80211
 1.0000e+000 80407 -3.0688e+002  8.0669e+000  1.6635e+001 58377 80237,80185,80381
 1.0000e+000 80430 -3.6997e+002 -4.1941e+001 -7.9030e+000 58377 80237,80381,80133
 1.0000e+000 80759 -3.5421e+002  2.8612e+001 -7.1416e+001 57873 80782,80586,80560
 1.0000e+000 80736 -3.6225e+002 -1.5046e+001 -8.7560e+001 57873 80782,80560,80534
 1.0000e+000 80713 -2.5363e+002 -2.5254e+000 -3.8371e+001 57873 80586,80638,80612
 1.0000e+000 80690 -3.1830e+002 -6.9690e+001 -2.7608e+001 57873 80534,80664,80638
 1.0000e+000 80808 -3.7228e+002 -1.2359e+001 -7.5046e+001 57873 80638,80586,80782
 1.0000e+000 80831 -3.6209e+002 -2.6477e+001 -8.8945e+001 57873 80638,80782,80534
 1.0000e+000 81337 -8.1954e+001 -1.3806e+001 -2.2196e+001 57262 81360,81144,81092
 1.0000e+000 81314 -8.4005e+001 -3.0099e+001 -5.6453e+001 57262 81360,81092,81066
 1.0000e+000 81291 -6.7606e+001  2.6494e+001 -4.6329e+001 57262 81014,81196,81066
 1.0000e+000 81268 -8.4460e+001 -8.4879e+000 -2.3145e+001 57262 81092,81144,81118
 1.0000e+000 81245 -2.4819e+001  4.3621e+001 -2.3880e+001 57262 81144,81196,81170
 1.0000e+000 81222 -7.0131e+001  1.6191e+000  4.0249e+000 57262 81014,81066,81040
 1.0000e+000 81386 -4.4573e+001  1.1197e+001 -1.0564e+001 57262 81196,81144,81360
 1.0000e+000 81409 -6.0035e+001 -1.1466e+001 -4.6862e+001 57262 81196,81360,81066
 1.0000e+000 81608 -9.8910e+002 -3.8222e+002 -1.2035e+002 57007 81458,81536,81510
 1.0000e+000 81585 -9.1945e+002 -2.8280e+002 -8.7270e+001 57007 81432,81536,81458
 1.0000e+000 81562 -4.9154e+002 -4.5159e+002 -3.2807e+002 57007 81458,81510,81484
 1.0000e+000 82086 -1.8866e+002 -2.5386e+001  1.7536e+001 56339 81792,81922,81818
 1.0000e+000 82063 -8.7981e+001 -1.3231e+001  9.7919e+000 56339 81714,81922,81792
 1.0000e+000 82040 -2.6774e+002 -1.9679e+001  2.3877e+001 56339 82109,81844,81818
 1.0000e+000 82017 -1.9580e+002 -4.2211e+001  3.6318e+001 56339 82109,81818,81922
 1.0000e+000 81994 -2.7242e+002 -2.7516e+001 -7.4385e+001 56339 81844,81896,81870
 1.0000e+000 81971 -8.4156e+001 -2.5743e+000  6.8983e+000 56339 81714,81792,81766
 1.0000e+000 81948 -2.4977e+001 -2.3480e+001  2.5790e+001 56339 81714,81766,81740
 1.0000e+000 82135 -3.5451e+002 -2.3530e+001  2.2900e+001 56339 81896,81844,82109
 1.0000e+000 82158 -2.5899e+002 -2.5859e+001  4.4982e+001 56339 81896,82109,81922
 1.0000e+000 82536 -4.1197e+002 -1.0044e+002 -4.7886e+001 55699 82288,82392,82314
 1.0000e+000 82513 -4.8898e+002 -1.2630e+002 -2.2865e+001 55699 82288,82418,82392
 1.0000e+000 82490 -2.7484e+002 -7.9431e+001  1.1094e+001 55699 82314,82392,82340
 1.0000e+000 82467 -2.9818e+002 -6.5590e+001  1.9019e+001 55699 82340,82392,82366
 1.0000e+000 82444 -6.2760e+002 -2.3094e+001 -2.0914e+001 55699 82262,82418,82288
 1.0000e+000 83091  1.4816e+001 -1.2944e+001 -8.9760e-001 55409 82745,82901,82875
 1.0000e+000 83068  1.2746e+001  2.0410e+001  1.7705e+000 55409 82719,82901,82745
 1.0000e+000 83045 -2.4624e+001 -3.4604e+001 -1.7976e+001 55409 82771,82849,82823
 1.0000e+000 83022 -2.7964e+000 -1.6523e+001  5.8013e+000 55409 82745,82849,82771
 1.0000e+000 82999 -7.3503e+000 -2.3171e+001  8.0484e+000 55409 82745,82875,82849
 1.0000e+000 82976 -2.1257e+001 -2.1177e+001 -2.1532e+001 55409 82771,82823,82797
 1.0000e+000 82953 -1.1283e+000  8.0945e+000  6.6189e+000 55409 82719,82927,82901
 1.0000e+000 83388 -2.1501e+002  1.6185e+001 -1.5861e-001 54905 83411,83218,83166
 1.0000e+000 83365 -2.3753e+002 -3.1350e+000 -9.0642e+000 54905 83411,83166,83114
 1.0000e+000 83342 -1.7562e+002  3.1782e+000  6.9154e+000 54905 83483,83270,83244
 1.0000e+000 83319 -4.6310e+002 -3.5411e+001 -3.0212e+000 54905 83166,83218,83192
 1.0000e+000 83296 -2.3209e+002 -3.2245e+001  3.5011e+001 54905 83114,83166,83140
 1.0000e+000 83437 -2.1955e+002 -4.0373e+000 -1.5391e+000 54905 83244,83218,83411
 1.0000e+000 83460 -2.0241e+002  1.0122e+000 -3.0982e+000 54905 83483,83244,83411
 1.0000e+000 83509 -2.1222e+002 -2.1102e+001 -5.0574e+000 54905 83114,83270,83483
 1.0000e+000 83532 -2.1932e+002 -1.1965e+001 -1.3540e+001 54905 83114,83483,83411
 1.0000e+000 83961 -3.5732e+002 -5.2269e+000 -5.2412e+001 54593 83638,83768,83690
 1.0000e+000 83938 -4.3870e+001  3.2623e+001  1.8121e+000 54593 83638,83794,83768
 1.0000e+000 83915 -2.0670e+002  1.2712e+002  1.3290e+001 54593 83690,83768,83742
 1.0000e+000 83892 -2.1475e+002  7.4652e+001 -1.3010e+002 54593 83638,83820,83794
 1.0000e+000 83869 -1.4916e+002  7.1495e+002 -1.4594e+002 54593 83638,83690,83664
 1.0000e+000 83846 -8.0891e+001  1.0798e+000  1.8640e+002 54593 83690,83742,83716
 1.0000e+000 84209 -3.2819e+002 -6.0131e+001 -3.0519e+000 54132 84232,84062,83984
 1.0000e+000 84186 -3.4914e+002 -6.4868e+001  1.5763e+000 54132 84232,83984,84114
 1.0000e+000 84163 -3.2926e+002 -5.1534e+001 -4.0479e+001 54132 83984,84062,84036
 1.0000e+000 84140 -2.8629e+002 -1.7776e+002 -7.3582e+000 54132 83984,84036,84010
 1.0000e+000 84258 -3.5334e+002 -4.3876e+001 -2.1878e+000 54132 84088,84062,84232
 1.0000e+000 84281 -3.8540e+002 -5.6737e+001  3.7918e+000 54132 84088,84232,84114
 1.0000e+000 84382 -7.2597e+002 -2.9965e+000  8.6157e+000 53521 84304,84356,84330
 1.0000e+000 84632 -2.9751e+002 -8.9511e+000  3.9862e+001 53067 84655,84485,84459
 1.0000e+000 84609 -2.9220e+002 -2.7695e+001  3.8812e+001 53067 84655,84459,84407
 1.0000e+000 84586 -2.9228e+002 -5.4215e+001  3.0926e+001 53067 84485,84537,84511
 1.0000e+000 84563 -2.6693e+002 -2.8666e+000 -2.3525e+001 53067 84407,84459,84433
 1.0000e+000 84681 -2.9290e+002 -2.6423e+001  4.4261e+001 53067 84537,84485,84655
 1.0000e+000 84704 -2.9422e+002 -5.0778e+001  4.7392e+001 53067 84537,84655,84407
 1.0000e+000 85214 -9.8389e+001 -5.5876e+001 -5.8731e+001 52513 85021,85073,85047
 1.0000e+000 85191 -2.0952e+002  3.1751e+001 -4.9357e+001 52513 84943,85073,85021
 1.0000e+000 85168 -3.7836e+002 -4.8380e+001 -1.0088e+002 52513 84943,85021,84995
 1.0000e+000 85145 -2.3192e+002 -4.0868e+001 -3.5064e+001 52513 84917,85073,84943
 1.0000e+000 85122 -1.0414e+002 -1.1542e+002 -1.1540e+002 52513 84943,84995,84969
 1.0000e+000 85099 -1.1232e+002 -7.6067e+001 -5.6134e+001 52513 84891,85073,84917
 1.0000e+000 85582 -3.2030e+002 -3.3052e+001 -2.7361e+001 52037 85605,85311,85285
 1.0000e+000 85559 -3.6928e+002 -6.0242e+001  1.2515e+001 52037 85749,85605,85285
 1.0000e+000 85536 -3.7574e+002 -6.2551e+001 -3.5486e+000 52037 85893,85677,85389
 1.0000e+000 85513 -4.1208e+002 -9.4294e+001  2.7597e+001 52037 85749,85285,85259
 1.0000e+000 85490 -3.5506e+002 -5.9330e+001 -4.2552e+001 52037 85893,85389,85363
 1.0000e+000 85467 -4.3953e+002  2.7514e+001  2.5806e+001 52037 85259,85441,85415
 1.0000e+000 85631 -3.6268e+002  3.9732e+000  3.5755e+001 52037 85337,85311,85605
 1.0000e+000 85654 -3.9353e+002 -8.1992e+001  3.3553e+001 52037 85677,85337,85605
 1.0000e+000 85703 -4.5123e+002 -5.7113e+001 -8.3981e+000 52037 85415,85389,85677
 1.0000e+000 85726 -4.1441e+002 -1.6680e+001  1.2085e+001 52037 85821,85677,85605
 1.0000e+000 85775 -4.2246e+002 -2.2223e+001  6.4972e+000 52037 85821,85605,85749
 1.0000e+000 85798 -4.5461e+002 -4.6975e+001  6.2677e+000 52037 85415,85749,85259
 1.0000e+000 85847 -4.1974e+002 -2.6153e+001  4.2584e+000 52037 85415,85677,85821
 1.0000e+000 85870 -4.2188e+002 -2.9243e+001 -5.3059e-001 52037 85415,85821,85749
 1.0000e+000 85919 -3.9796e+002 -1.2546e+002  1.4734e+001 52037 85337,85677,85893
 1.0000e+000 85942 -3.9020e+002 -1.3295e+002 -2.1445e+001 52037 85337,85893,85363
 1.0000e+000 86224 -1.4525e+002 -3.0227e+001 -3.7261e+001 51368 86375,86100,86074
 1.0000e+000 86201 -3.2001e+000  1.6061e+001 -4.6316e+001 51368 86375,86074,86247
 1.0000e+000 86178 -6.8861e+001  2.3749e+001 -3.5631e+001 51368 86048,86152,86126
 1.0000e+000 86273 -1.8141e+002  1.0717e+001  6.9528e-001 51368 86048,86126,86247
 1.0000e+000 86401 -2.2144e+002  2.0703e+001  2.7676e+001 51368 86126,86100,86375
 1.0000e+000 86424 -1.4903e+002  1.8148e+001  1.9848e+001 51368 86126,86375,86247
 1.0000e+000 86802 -4.1595e+002 -9.9707e+001  1.0375e+001 51028 86528,86632,86580
 1.0000e+000 86779 -2.3813e+002 -4.4672e+001 -3.6475e+001 51028 86528,86684,86632
 1.0000e+000 86756 -3.6710e+002  1.2498e+001  1.7373e+001 51028 86528,86580,86554
 1.0000e+000 86733 -2.2817e+002 -3.3367e+001 -2.9855e+001 51028 86632,86684,86658
 1.0000e+000 86710 -2.0255e+002 -3.8086e+001 -1.7233e+000 51028 86580,86632,86606
 1.0000e+000 87131 -2.1554e+002 -2.0177e+001  2.7809e+001 50624 86958,87036,87010
 1.0000e+000 87108 -1.5863e+002 -3.7164e+001  4.2298e+001 50624 86932,87036,86958
 1.0000e+000 87085 -1.9191e+002 -3.3876e+000 -5.3786e+000 50624 86958,87010,86984
 1.0000e+000 87062 -8.5520e+001 -9.2468e+000  3.9889e+001 50624 86906,87036,86932
 1.0000e+000 87330 -2.0096e+002  7.7218e-001 -4.5327e+000 50234 87353,87180,87154
 1.0000e+000 87307 -2.2297e+002  6.9386e+000 -8.0522e+000 50234 87353,87154,87258
 1.0000e+000 87284 -2.4826e+002  1.6810e+000 -9.8023e-001 50234 87206,87258,87232
 1.0000e+000 87379 -2.1873e+002  1.2143e+000 -1.4227e+001 50234 87206,87180,87353
 1.0000e+000 87402 -2.4632e+002  5.6389e+000 -1.4390e+001 50234 87206,87353,87258
 1.0000e+000 87650 -3.6100e+002 -1.6558e+001 -2.4240e+000 49730 87673,87503,87451
 1.0000e+000 87627 -3.8667e+002 -2.1935e+001  4.6052e+001 49730 87673,87451,87425
 1.0000e+000 87604 -2.0707e+002 -3.1653e+001  1.1622e+002 49730 87503,87555,87529
 1.0000e+000 87581 -7.9772e+002 -9.1815e+001  1.0858e+002 49730 87451,87503,87477
 1.0000e+000 87699 -3.5496e+002  1.3160e+001  4.1540e+000 49730 87555,87503,87673
 1.0000e+000 87722 -3.6522e+002  5.3689e+001  2.9004e+001 49730 87555,87673,87425
 1.0000e+000 88232 -3.8446e+002 -2.0038e+002  8.2524e+001 49176 88255,87935,87909
 1.0000e+000 88209 -2.5860e+002 -1.2296e+002 -9.0861e+001 49176 88255,87909,88065
 1.0000e+000 88186 -4.8456e+002 -1.1719e-001 -2.8030e+001 49176 87935,88039,87961
 1.0000e+000 88163 -1.6954e+002 -1.2837e+002 -8.8904e+001 49176 87909,88091,88065
 1.0000e+000 88140 -5.0691e+002 -1.0163e+001 -8.5689e+000 49176 87961,88039,88013
 1.0000e+000 88117 -5.1232e+002 -1.8921e+002 -9.6570e+001 49176 87961,88013,87987
 1.0000e+000 88281 -2.2029e+002 -1.2734e+002 -1.4549e+000 49176 88039,87935,88255
 1.0000e+000 88304 -1.0655e+002 -6.6145e+001 -1.7132e+002 49176 88039,88255,88065
 1.0000e+000 88503 -3.2623e+002 -1.7694e+002 -7.5629e+001 48772 88526,88379,88353
 1.0000e+000 88480 -3.8448e+002 -7.9256e+001 -5.7094e+001 48772 88526,88353,88327
 1.0000e+000 88457 -2.3115e+002 -4.7692e+001 -3.1061e+001 48772 88379,88431,88405
 1.0000e+000 88552 -2.8787e+002 -1.0044e+002 -9.2850e+001 48772 88431,88379,88526
 1.0000e+000 88575 -3.5534e+002 -2.8540e+001 -8.0380e+001 48772 88431,88526,88327
 1.0000e+000 89083 -4.1137e+000  6.4043e+000 -1.2053e+000 48368 88786,88916,88864
 1.0000e+000 89060 -1.1477e+001 -1.2248e+000  2.9091e+000 48368 88786,88942,88916
 1.0000e+000 89037 -5.1504e+000  1.3906e+000 -2.0874e+000 48368 88786,88864,88812
 1.0000e+000 89014 -1.2878e+001 -3.5015e+000 -4.9949e+000 48368 88864,88916,88890
 1.0000e+000 88991  2.0437e+000  1.3751e+000 -1.0126e+000 48368 88812,88864,88838
 1.0000e+000 88968  4.2605e+000  4.0939e-001 -4.2572e+000 48368 88760,88942,88786
 1.0000e+000 89331 -1.7597e+002 -1.0183e+002 -6.7735e+001 47928 89158,89236,89210
 1.0000e+000 89308 -1.6839e+002 -5.5553e+001 -5.4704e+001 47928 89132,89236,89158
 1.0000e+000 89285 -2.9877e+002  5.4716e+000 -1.0925e+002 47928 89158,89210,89184
 1.0000e+000 89262 -3.2282e+002 -5.4414e+001 -8.3901e+001 47928 89106,89236,89132
 1.0000e+000 89662 -2.4084e+002 -6.9902e+001  1.6370e+001 47588 89463,89541,89515
 1.0000e+000 89639 -1.8915e+002 -5.6924e+001 -2.4696e+001 47588 89463,89567,89541
 1.0000e+000 89616 -2.8921e+002 -4.6555e+001 -4.2639e+001 47588 89463,89515,89489
 1.0000e+000 89593 -2.0195e+002 -1.4854e+002  4.1292e+001 47588 89437,89567,89463
 1.0000e+000 89763 -1.1163e+003 -1.3274e+002 -3.9220e+001 47390 89685,89737,89711
 1.0000e+000 89913 -7.4784e+002 -2.2168e+002 -7.7770e+001 47078 89786,89838,89812
 1.0000e+000 89890 -3.6617e+002 -2.5529e+002 -9.3611e+001 47078 89786,89864,89838
 1.0000e+000 90163 -3.0404e+002 -2.7542e+001  3.2005e+001 46474 89964,90042,89990
 1.0000e+000 90140 -2.2316e+002 -1.0006e+001  9.4773e+001 46474 89938,90042,89964
 1.0000e+000 90117 -9.2939e+001 -4.1427e+001  5.4610e+001 46474 89990,90042,90016
 1.0000e+000 90094 -1.5744e+002  4.5597e+000  7.7603e+001 46474 89938,90068,90042
 1.0000e+000 90364 -6.8992e+001 -1.5519e+001  1.9925e+001 46184 90240,90292,90266
 1.0000e+000 90341 -7.6874e+001 -1.0595e+001  2.3155e+001 46184 90188,90292,90240
 1.0000e+000 90318 -8.5248e+001 -5.3734e+001  1.8472e+001 46184 90188,90240,90214
 1.0000e+000 90565 -3.9493e+002  1.2107e+001 -6.5281e+001 45780 90588,90415,90389
 1.0000e+000 90542 -2.5196e+002  1.9092e+001 -5.7097e+001 45780 90588,90389,90493
 1.0000e+000 90519 -2.4795e+002 -1.1090e+002 -1.5378e+001 45780 90415,90467,90441
 1.0000e+000 90614 -2.7936e+002 -4.2613e+001  2.2643e+001 45780 90467,90415,90588
 1.0000e+000 90637 -1.0024e+002  9.7034e+000  5.0069e+001 45780 90467,90588,90493
 1.0000e+000 91196 -2.1217e+002 -3.8075e+001 -2.6387e+001 45226 91219,90876,90850
 1.0000e+000 91173 -2.3560e+002 -5.3801e+001 -1.3106e+001 45226 91219,90850,91032
 1.0000e+000 91150 -2.6997e+002 -6.7303e+001 -1.5556e+001 45226 90824,91032,90850
 1.0000e+000 91127 -3.1782e+002 -1.0586e+002  1.1510e+001 45226 90876,90980,90902
 1.0000e+000 91104 -2.5662e+002 -2.9453e+001 -4.6171e+001 45226 90876,91006,90980
 1.0000e+000 91081 -2.8220e+002 -5.7102e+001  5.3641e+001 45226 90902,90980,90954
 1.0000e+000 91058 -9.7901e+002 -2.1643e+002  1.5436e+001 45226 90902,90954,90928
 1.0000e+000 91245 -2.4321e+002 -9.8183e+000 -3.0851e+001 45226 91006,90876,91219
 1.0000e+000 91268 -2.7065e+002 -3.0628e+001 -1.6912e+001 45226 91006,91219,91032
 1.0000e+000 91516 -1.2970e+002  8.6522e+001 -2.4415e+001 44836 91539,91421,91395
 1.0000e+000 91493 -3.2264e+002  8.5162e+001 -6.5466e+001 44836 91317,91421,91343
 1.0000e+000 91470 -1.3098e+002 -9.8979e+001  7.9548e+001 44836 91539,91395,91369
 1.0000e+000 91447 -9.2491e+001 -4.1817e+001 -1.6905e+002 44836 91291,91421,91317
 1.0000e+000 91565 -1.0383e+002  1.7112e+002 -3.0190e+001 44836 91343,91421,91539
 1.0000e+000 91588 -3.4904e+001  1.2658e+002  7.6361e+001 44836 91343,91539,91369
 1.0000e+000 91787 -2.4370e+002  8.3124e+000 -1.8771e+001 44432 91810,91637,91611
 1.0000e+000 91764 -1.1005e+002 -4.8477e+000 -4.3256e+001 44432 91810,91611,91715
 1.0000e+000 91741 -1.6730e+002 -3.0853e+000 -1.5620e+001 44432 91637,91689,91663
 1.0000e+000 91836 -1.3059e+002  1.1726e+001  1.3364e+000 44432 91689,91637,91810
 1.0000e+000 91859 -3.8443e+001 -2.5991e+001 -2.2523e-001 44432 91689,91810,91715
 1.0000e+000 92207 -3.5572e+002 -3.2617e+001 -7.0230e+001 43864 92230,91936,91910
 1.0000e+000 92184 -2.4006e+002 -5.8168e+001 -8.9844e+001 43864 92230,91910,92040
 1.0000e+000 92161 -1.1035e+002  1.1448e+001 -1.8474e+001 43864 91884,92040,91910
 1.0000e+000 92138 -3.3709e+002 -5.1782e+001 -2.6748e+001 43864 91936,92014,91988
 1.0000e+000 92115 -2.6930e+002 -3.3373e+001 -2.8325e+001 43864 91936,91988,91962
 1.0000e+000 92092 -2.5284e+001 -2.6572e+001 -2.6753e+001 43864 91884,92066,92040
 1.0000e+000 92256 -2.5069e+002 -1.1526e+001 -4.5131e+001 43864 92014,91936,92230
 1.0000e+000 92279 -1.7643e+002 -6.8731e+001 -8.4340e+001 43864 92014,92230,92040
 1.0000e+000 92529 -4.4935e+002 -1.0938e+002  9.8657e+001 43410 92552,92330,92304
 1.0000e+000 92506 -4.1294e+002 -1.7026e+001  6.5443e+001 43410 92552,92304,92408
 1.0000e+000 92483 -2.6653e+002 -1.5581e+001  3.6495e+000 43410 92304,92434,92408
 1.0000e+000 92460 -4.6565e+002 -1.0107e+002 -3.7514e+000 43410 92330,92382,92356
 1.0000e+000 92578 -4.6374e+002 -9.3853e+001 -6.2551e+000 43410 92382,92330,92552
 1.0000e+000 92601 -3.6647e+002  1.1128e+002 -4.5107e+001 43410 92382,92552,92408
 1.0000e+000 92802 -6.4531e+001  3.1899e+000  2.5345e+000 43162 92825,92704,92652
 1.0000e+000 92779 -6.7607e+001  1.0852e+000 -3.4962e+000 43162 92825,92652,92626
 1.0000e+000 92756 -7.6404e+000 -1.8168e+000  6.6999e+000 43162 92652,92704,92678
 1.0000e+000 92851 -5.8723e+001  4.1502e+000  6.4300e+000 43162 92730,92704,92825
 1.0000e+000 92874 -5.3807e+001 -4.7855e+000 -2.5329e+000 43162 92730,92825,92626
 1.0000e+000 93463 -4.2938e+002 -1.3437e+002  8.8720e+001 42758 93140,93270,93166
 1.0000e+000 93440 -3.6570e+002 -1.3922e+002  2.4743e+001 42758 93140,93296,93270
 1.0000e+000 93417 -3.0931e+002 -4.3658e+001  4.5284e+001 42758 93166,93270,93218
 1.0000e+000 93394 -5.4300e+002 -4.5737e+001  9.7049e+001 42758 93218,93270,93244
 1.0000e+000 93371 -3.5392e+002 -1.3709e+002  2.2822e+001 42758 93140,93322,93296
 1.0000e+000 93348 -2.8303e+002 -1.1430e+000 -1.2851e+001 42758 93166,93218,93192
 1.0000e+000 93920 -2.1191e+002  4.4318e+000  4.3451e+001 42304 93943,93672,93646
 1.0000e+000 93897 -1.9737e+002  4.0586e+000  2.2567e+001 42304 93943,93646,93802
 1.0000e+000 93874 -1.7818e+002  1.8221e+001 -4.0487e+000 42304 93724,93802,93776
 1.0000e+000 93851 -1.8122e+002  1.2436e+001  3.4337e+001 42304 93672,93724,93698
 1.0000e+000 93828 -5.8293e+001 -1.6781e+001  2.5569e+001 42304 93724,93776,93750
 1.0000e+000 93969 -1.8829e+002  5.0881e+000  3.8408e+001 42304 93724,93672,93943
 1.0000e+000 93992 -1.7006e+002  1.1804e-001  2.3680e+001 42304 93724,93943,93802
 1.0000e+000 94321 -7.5953e+001 -4.2947e+001 -1.2047e+001 41478 94096,94148,94122
 1.0000e+000 94298 -8.6491e+001 -4.5653e+000  5.7132e+000 41478 94096,94226,94148
 1.0000e+000 94275 -4.2541e+001 -1.7450e+001  1.3979e+001 41478 94148,94226,94174
 1.0000e+000 94252 -2.0998e+001 -3.0074e+000 -5.7762e+000 41478 94174,94226,94200
 1.0000e+000 94618 -2.0769e+002 -1.8875e+001 -1.3335e-001 40910 94344,94422,94396
 1.0000e+000 94595 -2.0921e+002 -1.3840e+001  3.5617e-001 40910 94344,94448,94422
 1.0000e+000 94572 -2.0612e+002 -5.9742e+000  7.2566e+001 40910 94344,94474,94448
 1.0000e+000 94549 -1.8960e+002 -2.6500e+001 -9.8866e+000 40910 94344,94396,94370
 1.0000e+000 94526 -2.8708e+002 -1.4118e+001  9.7822e+001 40910 94344,94500,94474
 1.0000e+000 94866 -3.7557e+002  1.4309e+001 -2.0554e+001 40306 94667,94719,94693
 1.0000e+000 94843 -3.2612e+002 -1.1014e+002  8.5368e+000 40306 94641,94719,94667
 1.0000e+000 94820 -2.6644e+002 -8.2226e+000 -1.8964e+001 40306 94641,94745,94719
 1.0000e+000 94797 -1.8973e+002 -5.0142e+001 -9.1351e+000 40306 94641,94771,94745
 1.0000e+000 95089 -3.9064e+002 -1.7938e+002 -1.4933e+001 39702 94913,94991,94939
 1.0000e+000 95066 -4.9098e+002 -2.0001e+002 -1.5978e+001 39702 94913,95017,94991
 1.0000e+000 95043 -5.4729e+002 -2.4870e+002 -3.3411e+001 39702 94939,94991,94965
 1.0000e+000 95339 -3.1733e+002  6.2189e+000  4.0624e+001 39248 95140,95218,95166
 1.0000e+000 95316 -3.7788e+002 -3.2091e+001  5.9343e+001 39248 95140,95244,95218
 1.0000e+000 95293 -2.6116e+002 -8.5396e+000  5.7601e+001 39248 95114,95244,95140
 1.0000e+000 95270 -4.4180e+002 -9.3652e+000  6.3937e+001 39248 95166,95218,95192
 1.0000e+000 95770 -1.6553e+001  1.5143e-001 -1.4870e+000 38694 95551,95629,95577
 1.0000e+000 95747 -4.4068e+001 -3.0311e+000 -8.8055e+000 38694 95447,95629,95551
 1.0000e+000 95724 -4.7740e+001 -1.6273e+000  9.6301e+000 38694 95447,95551,95473
 1.0000e+000 95701 -1.6927e+001  1.5221e+000  2.5587e+000 38694 95473,95551,95499
 1.0000e+000 95678 -2.1307e+001  1.2543e+000 -7.1256e-001 38694 95499,95551,95525
 1.0000e+000 95655 -1.4237e+001  3.2178e+000  1.4291e+000 38694 95577,95629,95603
 1.0000e+000 96325 -3.6931e+002 -1.2233e+001 -4.8513e+001 38240 95953,96031,96005
 1.0000e+000 96302 -3.4077e+002 -1.1701e+002 -1.0566e+002 38240 95953,96161,96031
 1.0000e+000 96279 -3.3936e+002 -1.1791e+002 -1.0791e+002 38240 96031,96161,96135
 1.0000e+000 96256 -4.6823e+002 -1.2113e+002  3.1298e+001 38240 96348,96109,96057
 1.0000e+000 96233 -4.5096e+002 -2.5356e+002 -1.2474e+002 38240 96348,96057,96031
 1.0000e+000 96210 -4.8851e+002 -5.3030e+001  2.8091e+000 38240 96057,96109,96083
 1.0000e+000 96187 -1.4961e+002 -5.1395e+001  7.3590e+001 38240 95953,96005,95979
 1.0000e+000 96374 -3.3644e+002 -1.7515e+001  7.6237e+001 38240 96135,96109,96348
 1.0000e+000 96397 -2.9565e+002 -1.4642e+002 -7.7650e+001 38240 96135,96348,96031
 1.0000e+000 96618 -3.0938e+002  6.5536e+001  1.4502e+001 37821 96494,96546,96520
 1.0000e+000 96595 -4.1364e+002 -7.6141e+001 -4.9932e+001 37821 96468,96546,96494
 1.0000e+000 96572 -4.9190e+002 -1.0960e+002 -4.4231e+001 37821 96442,96546,96468
 1.0000e+000 97126 -2.8272e+002 -2.3215e+001  2.2461e+001 37367 97149,96855,96829
 1.0000e+000 97103 -1.9524e+002  1.3834e+001  2.0936e+001 37367 97149,96829,96985
 1.0000e+000 97080 -2.1087e+002  1.1094e+001  2.0451e+001 37367 96803,96985,96829
 1.0000e+000 97057 -1.6563e+002 -4.6018e+001  5.5661e+001 37367 96855,96907,96881
 1.0000e+000 97034 -7.3972e+001 -1.7785e+001  1.9210e+001 37367 96907,96985,96959
 1.0000e+000 97011 -5.1331e+001 -1.8331e+001  3.4941e+001 37367 96907,96959,96933
 1.0000e+000 97175 -1.9482e+002 -4.6739e+001  6.2247e+001 37367 96907,96855,97149
 1.0000e+000 97198 -1.3305e+002 -2.2510e+001  6.1707e+001 37367 96907,97149,96985
 1.0000e+000 97704 -1.8649e+002 -2.0501e+001 -2.6959e+001 36863 97727,97511,97485
 1.0000e+000 97681 -1.6768e+002 -5.8514e+001 -9.7550e+001 36863 97727,97485,97433
 1.0000e+000 97658 -8.4038e+001 -7.7390e+001 -8.2080e+001 36863 97381,97563,97433
 1.0000e+000 97635 -2.1343e+001  9.0820e+000 -6.0187e+000 36863 97511,97563,97537
 1.0000e+000 97612 -2.0627e+002 -9.5631e+001 -7.9727e+001 36863 97433,97485,97459
 1.0000e+000 97589 -9.9042e+001 -4.8339e+001 -6.0700e+001 36863 97381,97433,97407
 1.0000e+000 97753 -1.2293e+002 -1.2907e+000 -2.3143e+001 36863 97563,97511,97727
 1.0000e+000 97776 -8.1310e+001 -2.7408e+001 -8.8906e+001 36863 97563,97727,97433
 1.0000e+000 98331 -9.8048e+001  1.8601e+001 -2.3778e+001 36287 98354,98089,98063
 1.0000e+000 98308 -6.8175e+001 -1.9787e+001  3.4502e+001 36287 98354,98063,98011
 1.0000e+000 98285 -1.1816e+002  1.0315e+001  1.2708e+001 36287 98426,97985,98115
 1.0000e+000 98262 -4.2454e+001 -1.3603e+001  2.1391e+001 36287 98011,98063,98037
 1.0000e+000 98239 -2.9393e+002 -1.0313e+001  1.4214e+000 36287 97985,98141,98115
 1.0000e+000 98216 -4.5561e+002 -1.9054e+000  4.1450e+001 36287 97959,98141,97985
 1.0000e+000 98193 -1.8568e+002  3.4886e+000  1.1328e+001 36287 97959,98167,98141
 1.0000e+000 98380 -3.2144e+002 -3.4762e+001 -1.8849e+001 36287 98115,98089,98354
 1.0000e+000 98403 -1.2816e+002  5.8206e+000  1.1515e+001 36287 98426,98115,98354
 1.0000e+000 98452 -1.0779e+002  3.6995e+000  1.7409e-001 36287 98011,97985,98426
 1.0000e+000 98475 -1.1696e+002 -6.6764e-001 -1.1687e+000 36287 98011,98426,98354
 1.0000e+000 99030 -1.2382e+002 -3.4297e+001 -2.2003e+001 35726 99053,98736,98710
 1.0000e+000 99007 -1.8274e+002 -3.1600e+000 -4.4014e+000 35726 99053,98710,98684
 1.0000e+000 98984 -8.9342e+001 -2.6291e+001 -9.6721e+000 35726 99125,98814,98736
 1.0000e+000 98961 -9.5358e+001 -3.4841e+001 -1.3286e+001 35726 98736,98814,98788
 1.0000e+000 98938 -2.5294e+002 -1.8789e+001 -1.1129e+001 35726 98684,98866,98840
 1.0000e+000 98915 -1.5516e+002 -4.6463e+001 -5.3565e+001 35726 98736,98788,98762
 1.0000e+000 98892 -1.7448e+002 -2.2753e+000 -8.1769e+000 35726 98658,98866,98684
 1.0000e+000 99079 -1.1707e+002 -2.2053e+001 -2.6009e+001 35726 99125,98736,99053
 1.0000e+000 99102 -1.3629e+002  3.3177e+001 -2.1105e+001 35726 98840,99053,98684
 1.0000e+000 99151 -6.6319e+001 -1.6133e+001 -7.4775e+000 35726 98840,98814,99125
 1.0000e+000 99174 -7.8316e+001 -5.5719e+000 -2.7193e+001 35726 98840,99125,99053
 1.0000e+000 99454 -1.0981e+002  6.3278e+000 -2.6622e+001 35222 99278,99330,99304
 1.0000e+000 99431 -1.7460e+002 -1.9441e+001  4.6590e+001 35222 99278,99382,99330
 1.0000e+000 99408 -2.8325e+002  1.6740e+001  2.4279e+001 35222 99330,99382,99356
 1.0000e+000 99653 -3.7700e+002 -7.0572e+001 -3.2338e+001 34867 99477,99529,99503
 1.0000e+000 99630 -2.9636e+002 -1.1071e+002 -3.0445e+001 34867 99477,99581,99529
 1.0000e+000 99607 -2.4075e+002 -1.3105e+001 -5.7190e+001 34867 99529,99581,99555
 1.0000e+000 100104 -2.6980e+002  1.2913e+001 -1.7482e+001 34363 99781,99885,99807
 1.0000e+000 100081 -2.3858e+002  1.5162e+001  1.1805e+001 34363 99781,99963,99885
 1.0000e+000 100058 -3.6846e+002 -1.9494e+001  3.6850e+001 34363 99885,99963,99911
 1.0000e+000 100035 -3.8056e+002  2.7295e+001 -3.6943e+001 34363 99807,99885,99859
 1.0000e+000 100012 -2.9532e+002  1.8593e+000  9.1443e+001 34363 99911,99963,99937
 1.0000e+000 99989 -2.9376e+002  1.6088e+001 -2.0412e+002 34363 99807,99859,99833
 1.0000e+000 100303 -2.5272e+002 -2.1893e+001 -2.3550e+001 33909 100127,100205,100179
 1.0000e+000 100280 -3.2448e+002 -1.2817e+001 -3.6798e+001 33909 100127,100231,100205
 1.0000e+000 100257 -2.4800e+002 -5.4459e+000 -6.7461e-001 33909 100127,100179,100153
 1.0000e+000 100890 -2.1428e+002 -9.5657e+001 -3.8293e+000 33412 100645,100749,100697
 1.0000e+000 100867 -2.2285e+002 -1.0587e+002 -8.1912e+000 33412 100567,100749,100645
 1.0000e+000 100844 -1.6809e+002 -5.3894e+001 -4.6963e+001 33412 100567,100645,100619
 1.0000e+000 100821 -3.3936e+002 -9.4275e+001  1.5159e+001 33412 100645,100697,100671
 1.0000e+000 100798 -2.3908e+002 -7.7186e+001 -1.1743e+002 33412 100567,100619,100593
 1.0000e+000 100775 -2.4284e+002 -5.5602e+001  1.9705e+000 33412 100697,100749,100723
 1.0000e+000 101268 -2.9991e+002 -7.2918e+000 -2.2207e+001 32908 101435,101291,101098
 1.0000e+000 101245 -2.3237e+002 -3.6060e+001  8.9168e+000 32908 101291,101072,101020
 1.0000e+000 101222 -4.0628e+002 -7.9919e+001 -2.2594e+001 32908 101363,101150,101124
 1.0000e+000 101199 -2.3125e+002 -8.5573e+001 -7.4545e+001 32908 101020,101072,101046
 1.0000e+000 101176 -2.4078e+002 -6.9684e+001  4.3183e+001 32908 100994,101150,101020
 1.0000e+000 101317 -2.8369e+002 -6.5044e+000 -2.1981e+001 32908 101124,101098,101291
 1.0000e+000 101340 -3.2081e+002 -3.7371e+001 -3.6636e+001 32908 101363,101124,101291
 1.0000e+000 101389 -3.5512e+002 -9.9162e+001  3.9058e+001 32908 101020,101150,101363
 1.0000e+000 101412 -3.2820e+002 -8.6017e+001  3.3635e+001 32908 101020,101363,101291
 1.0000e+000 101461 -3.1800e+002 -4.4430e+001 -2.2810e+000 32908 101072,101291,101435
 1.0000e+000 101918 -2.9294e+002 -9.9323e+001 -6.9889e+001 32618 101941,101670,101644
 1.0000e+000 101895 -2.1511e+002 -4.4331e+001 -2.6471e+001 32618 101941,101644,101774
 1.0000e+000 101872 -4.5789e+002 -3.4190e+001 -2.4601e+001 32618 102013,101696,101670
 1.0000e+000 101849 -2.9727e+002 -2.0778e+001 -1.4402e+001 32618 101696,101748,101722
 1.0000e+000 101826 -1.7489e+002 -2.7121e+001 -5.5066e+001 32618 101644,101800,101774
 1.0000e+000 101967 -4.3507e+002 -5.6964e+001 -7.0768e+001 32618 102013,101670,101941
 1.0000e+000 101990 -2.7740e+002  2.2012e+001 -8.6959e+001 32618 101748,101941,101774
 1.0000e+000 102039 -4.0323e+002 -5.0026e+001 -4.4663e+001 32618 101748,101696,102013
 1.0000e+000 102062 -2.9725e+002 -2.7010e+001 -7.9780e+001 32618 101748,102013,101941
 1.0000e+000 102440 -5.3260e+001 -1.6965e+000  4.0232e+000 32306 102463,102270,102244
 1.0000e+000 102417 -5.5809e+001 -2.0003e+000 -1.2864e+001 32306 102463,102244,102192
 1.0000e+000 102394 -7.0028e+001 -2.8151e+000 -7.1805e+000 32306 102192,102244,102218
 1.0000e+000 102371 -4.9189e+000  3.5693e+000  1.7274e-001 32306 102270,102322,102296
 1.0000e+000 102348 -5.4044e+001  7.7717e+000 -5.8993e+000 32306 102166,102322,102192
 1.0000e+000 102489 -3.6511e+001  3.5995e+000  7.1414e+000 32306 102322,102270,102463
 1.0000e+000 102512 -3.8576e+001  1.6824e+000 -1.0709e+001 32306 102322,102463,102192
 1.0000e+000 102662 -2.1392e+002 -1.3066e+002  8.8651e+001 31852 102943,102587,102561
 1.0000e+000 102639 -3.8057e+002  3.9444e+000  3.7343e+001 31852 102815,102685,102561
 1.0000e+000 102711 -2.7709e+002 -4.4079e+001  1.2419e+002 31852 102943,102561,102685
 1.0000e+000 102841 -1.8653e+002 -3.4047e+000  3.0798e+001 31852 102535,102685,102815
 1.0000e+000 102969 -1.6676e+002 -5.1324e+001  5.2472e+001 31852 102613,102587,102943
 1.0000e+000 102992 -2.4080e+002  1.2979e+001  9.2127e+001 31852 102613,102943,102685
 1.0000e+000 103370 -2.5350e+002 -1.1283e+002  5.4848e+001 31134 103096,103200,103122
 1.0000e+000 103347 -2.7251e+002 -7.4307e+001 -6.4590e+001 31134 103096,103226,103200
 1.0000e+000 103324 -3.5858e+002 -8.7051e+001  2.6873e+001 31134 103122,103200,103174
 1.0000e+000 103301 -3.8886e+002 -7.1723e+001 -2.6184e+001 31134 103096,103252,103226
 1.0000e+000 103278 -4.4183e+002 -1.8313e+001  1.6241e+002 31134 103122,103174,103148
 1.0000e+000 103520 -6.4232e+002 -1.1535e+002 -1.2533e+001 30822 103393,103445,103419
 1.0000e+000 103497 -6.3860e+002 -1.4430e+002 -2.0438e+001 30822 103393,103471,103445
 1.0000e+000 103719 -2.4453e+002  2.8883e+001 -4.1320e+000 30182 103742,103621,103569
 1.0000e+000 103696 -3.4445e+002  5.6805e+001 -2.1169e+001 30182 103742,103569,103543
 1.0000e+000 103673 -1.8542e+002  8.0288e+001  9.4278e+001 30182 103569,103621,103595
 1.0000e+000 103768 -1.9667e+002  4.0117e+001 -7.6249e+000 30182 103647,103621,103742
 1.0000e+000 103791 -2.4149e+002  1.0645e+002 -4.2857e+001 30182 103647,103742,103543
 1.0000e+000 104252 -9.1841e+001 -2.4084e+001  2.9052e+001 29728 104030,104108,104056
 1.0000e+000 104229 -1.0971e+002 -1.6095e+001 -1.4787e+000 29728 104004,104108,104030
 1.0000e+000 104206 -5.4348e+001  1.2097e+001  1.2274e+001 29728 104004,104134,104108
 1.0000e+000 104183 -5.9190e+001  1.7447e+001 -1.3985e+000 29728 103978,104134,104004
 1.0000e+000 104160 -1.0472e+002  9.6589e+000  3.3995e+001 29728 104056,104108,104082
 1.0000e+000 104630 -3.9904e+002 -9.6787e+001  1.8088e+002 29217 104653,104382,104356
 1.0000e+000 104607 -3.9397e+002 -3.5400e+001  2.1294e+001 29217 104653,104356,104512
 1.0000e+000 104584 -1.3299e+002 -4.3806e+001  3.9002e+001 29217 104434,104512,104486
 1.0000e+000 104561 -3.0188e+002  6.6713e+001  1.0580e+002 29217 104382,104434,104408
 1.0000e+000 104538 -7.6952e+001 -4.9980e+001  2.6177e+001 29217 104434,104486,104460
 1.0000e+000 104679 -2.8620e+002 -4.9070e+001  1.3269e+002 29217 104434,104382,104653
 1.0000e+000 104702 -2.4522e+002 -2.0715e+001 -9.8462e+000 29217 104434,104653,104512
 1.0000e+000 105178 -2.4989e+002  6.5531e+000  8.6418e+000 28649 105201,104962,104936
 1.0000e+000 105155 -2.3126e+002 -5.6675e+001 -8.5006e+000 28649 105201,104936,104884
 1.0000e+000 105132 -2.2444e+002  1.7250e+001 -7.7575e+000 28649 105273,104858,105014
 1.0000e+000 105109 -2.2495e+002  1.2502e+001  5.1578e+001 28649 104962,105014,104988
 1.0000e+000 105086 -3.4179e+002 -8.0131e+001 -4.0097e+001 28649 104884,104936,104910
 1.0000e+000 105063 -8.8581e+001 -2.2857e+000 -3.5093e+001 28649 104806,105014,104858
 1.0000e+000 105040 -1.2387e+002 -7.0294e+001 -4.9937e+001 28649 104806,104858,104832
 1.0000e+000 105227 -2.1782e+002  4.3722e+001  3.6467e+001 28649 105014,104962,105201
 1.0000e+000 105250 -2.1547e+002  8.4314e+000 -7.7668e-001 28649 105273,105014,105201
 1.0000e+000 105299 -2.3154e+002  8.9735e+000 -1.2806e+000 28649 104884,104858,105273
 1.0000e+000 105322 -2.3020e+002 -5.0266e+000  7.2986e+000 28649 104884,105273,105201
 1.0000e+000 105673 -6.6145e+002 -1.9754e-001 -3.6202e+000 28351 105474,105578,105552
 1.0000e+000 105650 -6.6306e+002 -3.8109e+001  6.7638e+000 28351 105448,105578,105474
 1.0000e+000 105627 -6.8802e+002  3.9585e+000 -5.3840e+001 28351 105500,105552,105526
 1.0000e+000 105604 -6.4146e+002  9.2125e+000 -6.2807e+000 28351 105474,105552,105500
 1.0000e+000 106130 -2.2476e+002 -5.6478e+001 -3.9760e+001 28004 106153,105882,105856
 1.0000e+000 106107 -2.5959e+002 -6.5326e+001 -6.1883e+001 28004 106153,105856,105986
 1.0000e+000 106084 -1.9625e+002 -6.0598e+001 -3.9958e+001 28004 105934,105986,105960
 1.0000e+000 106061 -2.2130e+002 -9.2921e+001 -8.0354e+001 28004 105856,106012,105986
 1.0000e+000 106038 -1.4058e+002 -2.1062e+000 -4.1177e+000 28004 105882,105934,105908
 1.0000e+000 106179 -1.6466e+002 -5.9834e+001 -2.8000e+001 28004 105934,105882,106153
 1.0000e+000 106202 -2.1675e+002 -6.9986e+001 -4.2222e+001 28004 105934,106153,105986
 1.0000e+000 106885 -2.2219e+002  2.8476e+001 -4.5195e+000 27564 106908,106620,106516
 1.0000e+000 106862 -4.5041e+002  7.5125e+000  1.6138e+000 27564 106908,106516,106490
 1.0000e+000 106839 -4.6386e+002 -1.0257e+002  6.2233e+001 27564 106516,106620,106542
 1.0000e+000 106816 -2.2476e+002  3.1856e+000  1.6360e+002 27564 106620,106672,106646
 1.0000e+000 106793 -6.2253e+002 -1.3322e+002  5.9277e+001 27564 106542,106620,106594
 1.0000e+000 106770 -3.8967e+002  3.3082e+001  1.2376e+001 27564 106490,106698,106672
 1.0000e+000 106747 -2.9340e+002 -1.2243e+002  1.1664e+002 27564 106464,106698,106490
 1.0000e+000 106724 -3.5478e+002 -1.1840e+002  1.3779e+002 27564 106542,106594,106568
 1.0000e+000 106934 -1.3263e+002  5.2158e+000 -5.3053e+000 27564 106672,106620,106908
 1.0000e+000 106957 -2.3718e+002  7.4706e+001 -2.2150e+001 27564 106672,106908,106490
 1.0000e+000 107463 -5.8894e+001 -2.9704e+001 -1.0380e+001 27053 107218,107322,107296
 1.0000e+000 107440 -4.7244e+001 -5.9043e-001 -1.3741e+000 27053 107166,107322,107218
 1.0000e+000 107417 -5.2979e+001 -3.0540e+000 -7.1350e+000 27053 107218,107296,107244
 1.0000e+000 107394 -3.5370e+001 -5.1750e+000 -9.3698e-001 27053 107140,107322,107166
 1.0000e+000 107371 -1.2565e+001 -5.3041e+000 -1.7779e+000 27053 107166,107218,107192
 1.0000e+000 107348 -6.7513e+001 -1.2254e+001  5.5350e+000 27053 107244,107296,107270
 1.0000e+000 108097 -2.6032e+002 -2.8914e+001 -5.2023e+001 26549 108192,108120,107803
 1.0000e+000 108074 -3.4320e+002 -6.2117e+001 -4.9206e+001 26549 108120,107725,107933
 1.0000e+000 108051 -2.1319e+002 -4.7551e+001 -1.7178e+000 26549 107751,107803,107777
 1.0000e+000 108028 -2.9605e+002 -1.1861e+001 -1.9290e+001 26549 108192,107803,107751
 1.0000e+000 108005 -3.7799e+002 -1.4492e+002 -1.0878e+002 26549 108264,107855,107803
 1.0000e+000 107982 -2.8043e+002 -1.1356e+002  1.2567e+000 26549 107881,107933,107907
 1.0000e+000 107959 -3.2044e+002 -1.0788e+002 -1.2922e+002 26549 107803,107855,107829
 1.0000e+000 108146 -3.0340e+002 -9.2831e+001 -8.5772e+001 26549 108264,107803,108120
 1.0000e+000 108169 -2.9741e+002  2.7652e+001 -1.6929e+001 26549 107881,108120,107933
 1.0000e+000 108218 -3.3294e+002 -5.0975e+001 -5.3737e+001 26549 107725,108120,108192
 1.0000e+000 108241 -3.6157e+002 -2.8405e+001 -2.2353e+001 26549 107725,108192,107751
 1.0000e+000 108290 -4.4285e+002 -6.3976e+001 -8.4301e+001 26549 107881,107855,108264
 1.0000e+000 108313 -3.8832e+002 -2.0914e+001 -6.3697e+001 26549 107881,108264,108120
 1.0000e+000 108512 -2.7807e+002 -9.4733e+000  5.0567e+001 26137 108388,108440,108414
 1.0000e+000 108489 -3.1040e+002 -5.7905e+001  2.5516e+001 26137 108362,108440,108388
 1.0000e+000 108466 -4.0595e+002 -1.0095e+002  3.2410e+000 26137 108336,108440,108362
 1.0000e+000 108662 -2.6666e+002  1.6833e+001  1.6066e+001 25733 108817,108685,108535
 1.0000e+000 108639 -2.9155e+002  4.8723e+001 -2.7199e+000 25733 109017,108817,108535
 1.0000e+000 108711 -2.3495e+002  4.6064e+001 -5.6857e+000 25733 108561,108535,108685
 1.0000e+000 108843 -3.0196e+002  5.0485e+001 -2.7048e+000 25733 108587,108685,108817
 1.0000e+000 108866 -3.2443e+002  1.4831e+001 -7.1251e+000 25733 108889,108817,108613
 1.0000e+000 108915 -3.3646e+002 -4.7508e-001  1.2275e+001 25733 108587,108817,108889
 1.0000e+000 109043 -3.1405e+002 -3.7437e+001 -1.0380e+001 25733 108613,108817,109017
 1.0000e+000 109500 -7.2653e+001 -2.5803e+001 -1.7808e+001 25229 109523,109356,109330
 1.0000e+000 109477 -6.0714e+001 -9.3189e+000 -2.3958e+001 25229 109595,109523,109330
 1.0000e+000 109454 -4.1883e+001 -1.7937e+001 -1.1664e+001 25229 109595,109330,109278
 1.0000e+000 109431 -7.0107e+001  7.3820e+001 -4.4953e+001 25229 109667,109226,109382
 1.0000e+000 109408 -1.1188e+002 -4.5153e+000  9.9861e+000 25229 109278,109330,109304
 1.0000e+000 109549 -2.1337e+001  1.7707e+000 -3.2878e+001 25229 109382,109356,109523
 1.0000e+000 109572 -4.2422e+001  2.6125e+001 -5.5715e+001 25229 109667,109382,109523
 1.0000e+000 109621 -5.0210e+001  1.1566e+001 -1.8337e+001 25229 109252,109523,109595
 1.0000e+000 109644 -2.6686e+001  5.0632e+000 -5.0490e+000 25229 109739,109595,109278
 1.0000e+000 109693 -1.9307e+002 -7.7432e-001 -9.2809e+000 25229 109252,109226,109667
 1.0000e+000 109716 -1.0250e+002 -6.6876e+000 -2.6509e+001 25229 109252,109667,109523
 1.0000e+000 109765 -5.8041e+001 -1.3178e+001 -1.5169e+001 25229 109252,109595,109739
 1.0000e+000 110478 -9.9274e+001 -9.5421e+000 -8.6497e-001 24917 110158,110236,110184
 1.0000e+000 110455 -4.5742e+001  1.1187e+001 -5.3360e+000 24917 110158,110288,110236
 1.0000e+000 110432 -9.2767e+001  3.8050e+000  2.9247e+000 24917 110236,110288,110262
 1.0000e+000 110409 -7.1632e+001 -1.2250e+001  8.8030e+000 24917 110184,110236,110210
 1.0000e+000 110386 -3.7928e+001 -2.7890e+000  5.1050e+000 24917 110132,110288,110158
 1.0000e+000 110363 -9.2275e+000  6.6295e+000  2.2780e-001 24917 110132,110314,110288
 1.0000e+000 110340 -1.2052e+001  2.3341e-001  4.5209e-001 24917 110106,110314,110132
 1.0000e+000 110829 -4.9021e+002 -2.0337e+002  6.0588e+001 24307 110604,110682,110630
 1.0000e+000 110806 -3.9851e+002 -1.0247e+002  1.5356e+001 24307 110604,110708,110682
 1.0000e+000 110783 -3.3638e+002 -5.9806e+001 -2.7974e+001 24307 110604,110734,110708
 1.0000e+000 110760 -7.2628e+002 -3.0474e+002  7.0404e+001 24307 110630,110682,110656
 1.0000e+000 111335 -1.7498e+002 -3.2453e+001  2.7540e+001 23767 111012,111168,111038
 1.0000e+000 111312 -1.2438e+002 -1.9878e+001 -7.3481e+000 23767 111012,111194,111168
 1.0000e+000 111289 -9.2918e+001  7.8167e+000 -3.9876e+001 23767 111358,111064,111038
 1.0000e+000 111266 -1.2764e+002  1.7154e+001  2.2945e+000 23767 111358,111038,111168
 1.0000e+000 111243 -1.7205e+002 -3.9997e+001 -1.7219e+001 23767 111430,111142,111090
 1.0000e+000 111220 -1.6742e+002 -3.7345e+001 -4.8401e+000 23767 111090,111142,111116
 1.0000e+000 111384 -1.0942e+002 -4.7472e+000 -1.6152e+001 23767 111090,111064,111358
 1.0000e+000 111407 -1.1034e+002 -2.5305e+001 -7.2093e+000 23767 111430,111090,111358
 1.0000e+000 111456 -2.3284e+002 -4.5115e+000 -2.5291e+000 23767 111168,111142,111430
 1.0000e+000 111479 -1.9754e+002 -1.0507e+001  1.4534e+000 23767 111168,111430,111358
 1.0000e+000 111985 -2.6007e+002 -1.0726e+002 -2.3081e+001 23477 111688,111844,111818
 1.0000e+000 111962 -2.3230e+002 -3.9573e+001 -1.5359e+001 23477 111662,111844,111688
 1.0000e+000 111939 -6.0648e+001  9.5816e+001  6.5450e+001 23477 111766,111818,111792
 1.0000e+000 111916 -3.8388e+002  2.1845e+001  9.3499e+001 23477 111740,111818,111766
 1.0000e+000 111893 -4.2588e+002 -1.0037e+002 -5.2348e+001 23477 111688,111818,111740
 1.0000e+000 111870 -4.4633e+002 -7.0300e+001 -7.0666e+001 23477 111688,111740,111714
 1.0000e+000 112314 -2.7899e+002 -2.2511e+001 -2.3214e+001 23023 112141,112219,112193
 1.0000e+000 112291 -2.7791e+002 -9.1909e+001 -3.0574e+001 23023 112115,112219,112141
 1.0000e+000 112268 -2.5711e+002 -2.7540e+001 -2.2531e+000 23023 112141,112193,112167
 1.0000e+000 112245 -2.1268e+002 -5.8252e+001 -9.6921e-001 23023 112089,112219,112115
 1.0000e+000 112692 -2.8057e+002 -1.5113e+001 -4.6564e+001 22768 112444,112574,112548
 1.0000e+000 112669 -4.0392e+002  1.7228e+001 -8.8475e+001 22768 112418,112574,112444
 1.0000e+000 112646 -1.6799e+002 -4.0185e+001 -3.9900e+001 22768 112444,112522,112470
 1.0000e+000 112623 -2.9228e+002 -8.0219e+000 -3.5356e+000 22768 112444,112548,112522
 1.0000e+000 112600 -2.2446e+002 -7.4414e+001  3.7398e+001 22768 112470,112522,112496
 1.0000e+000 113011 -6.7535e+002  7.5404e+001 -1.3819e+002 22314 112763,112867,112789
 1.0000e+000 112988 -8.2815e+002 -1.1775e+002 -6.9428e+001 22314 112763,112893,112867
 1.0000e+000 112965 -9.2841e+002 -7.3017e+001  0.0000e+000 22314 112815,112867,112841
 1.0000e+000 112942 -1.0237e+003 -9.1623e+001 -7.9502e+001 22314 112789,112867,112815
 1.0000e+000 112919 -5.8644e+002 -7.0970e+001 -1.3705e+002 22314 112737,112893,112763
 1.0000e+000 113519 -1.0718e+002 -3.2197e+001  1.9000e+001 21924 113614,113542,113248
 1.0000e+000 113496 -6.3590e+001  4.6818e+000  9.4698e+000 21924 113542,113196,113378
 1.0000e+000 113473 -8.3412e+001 -4.6443e+001  2.4318e+001 21924 113614,113248,113222
 1.0000e+000 113450 -1.4679e+002  2.4441e+000  2.2705e+001 21924 113686,113274,113248
 1.0000e+000 113427 -1.7346e+002  2.0912e+000  2.4889e+001 21924 113274,113352,113326
 1.0000e+000 113404 -1.3015e+002 -2.7437e+001  6.0236e+001 21924 113274,113326,113300
 1.0000e+000 113568 -1.2398e+002 -2.6048e+000  4.5500e+001 21924 113686,113248,113542
 1.0000e+000 113591 -8.1316e+001  3.9536e+000  5.9990e+001 21924 113352,113542,113378
 1.0000e+000 113640 -8.4195e+001 -1.1466e+001  2.8785e+001 21924 113196,113542,113614
 1.0000e+000 113663 -7.0014e+001 -3.1038e+001  3.3136e+001 21924 113196,113614,113222
 1.0000e+000 113712 -1.7314e+002  2.4942e-001  2.4115e+001 21924 113352,113274,113686
 1.0000e+000 113735 -1.6531e+002 -1.4583e+001  4.7711e+001 21924 113352,113686,113542
 1.0000e+000 113885 -1.6441e+001 -1.3001e+001  2.8736e+000 21520 113980,113908,113784
 1.0000e+000 113862 -1.1048e+002 -1.0573e+002  4.2879e+000 21520 114238,113908,113758
 1.0000e+000 113934 -9.7033e+001 -9.4846e+000  1.6914e+001 21520 114110,113908,113810
 1.0000e+000 113957 -1.0769e+002 -3.9883e+000  3.4648e+001 21520 113810,113908,113836
 1.0000e+000 114006 -7.1346e+001 -1.4394e+001  5.7343e+000 21520 113758,113908,113980
 1.0000e+000 114136 -6.6831e+001 -1.0557e+001  2.9756e+001 21520 113784,113908,114110
 1.0000e+000 114264 -1.2312e+002 -1.0603e+001  2.9329e+001 21520 113836,113908,114238
 1.0000e+000 114662 -3.0966e+002 -4.2107e+001  9.4791e+000 21030 114414,114518,114492
 1.0000e+000 114639 -4.3628e+002 -1.0397e+002  6.0211e+001 21030 114414,114544,114518
 1.0000e+000 114616 -1.0730e+002  2.9264e+001  8.7952e-001 21030 114440,114492,114466
 1.0000e+000 114593 -3.1944e+002 -6.3339e+001  1.4300e+001 21030 114414,114492,114440
 1.0000e+000 114570 -3.4445e+002 -5.1685e+001  1.0488e+002 21030 114388,114544,114414
 1.0000e+000 114959 -4.7209e+002 -1.7906e+001 -2.3483e+001 20512 114982,114711,114685
 1.0000e+000 114936 -4.6651e+002 -2.6289e+001 -5.1678e+001 20512 115054,114982,114685
 1.0000e+000 114913 -4.5536e+002 -9.3966e+000 -5.6541e+001 20512 115054,114685,114841
 1.0000e+000 114890 -6.0604e+001  6.5017e+001  2.5889e+001 20512 114711,114763,114737
 1.0000e+000 114867 -3.3295e+002  1.9566e+001 -6.7439e+000 20512 114763,114815,114789
 1.0000e+000 115008 -4.4435e+002  6.6241e-002 -9.8162e+000 20512 114763,114711,114982
 1.0000e+000 115031 -4.4804e+002 -4.9211e+001 -3.5455e+001 20512 114763,114982,114815
 1.0000e+000 115080 -4.6183e+002 -3.2675e+001 -4.9761e+001 20512 114815,114982,115054
 1.0000e+000 115103 -4.6307e+002 -2.9262e+001 -4.9594e+001 20512 114815,115054,114841
 1.0000e+000 115507 -1.8185e+002 -4.8597e+001 -9.5574e+001 20143 115285,115389,115363
 1.0000e+000 115484 -3.4402e+002 -2.0193e+001  1.3739e+001 20143 115259,115389,115285
 1.0000e+000 115461 -5.1919e+002  1.4816e+001 -1.9427e+002 20143 115233,115389,115259
 1.0000e+000 115438 -2.0973e+002 -5.6943e+001  3.2481e+001 20143 115285,115337,115311
 1.0000e+000 115415 -1.0780e+002 -1.7840e+001  4.6808e+001 20143 115285,115363,115337
 1.0000e+000 115875 -5.8173e+001 -9.0372e+000  2.8402e+000 19632 115656,115734,115682
 1.0000e+000 115852 -3.2044e+001  1.2760e+000  1.6105e+001 19632 115552,115734,115656
 1.0000e+000 115829 -3.5147e+001  2.1655e+000 -2.8018e+001 19632 115552,115656,115578
 1.0000e+000 115806 -9.5602e+001  4.0175e+000 -4.0205e+000 19632 115578,115656,115630
 1.0000e+000 115783 -2.5284e+001  1.0302e+001 -2.2449e+001 19632 115682,115734,115708
 1.0000e+000 115760 -7.8117e+001 -6.1259e+000  2.1249e+001 19632 115578,115630,115604
 1.0000e+000 116025 -2.5939e+002 -2.5438e+001  2.6229e+001 19178 115898,115950,115924
 1.0000e+000 116002 -2.5691e+002 -1.5683e+001  2.7410e+001 19178 115898,115976,115950
 1.0000e+000 116633 -1.7271e+002  2.7076e+001  6.0909e-001 18738 116800,116656,116342
 1.0000e+000 116610 -1.5533e+002  6.0762e+001 -6.6218e+001 18738 116656,116238,116446
 1.0000e+000 116587 -1.4568e+002 -1.1711e+001  1.4395e+001 18738 116728,116368,116342
 1.0000e+000 116564 -1.8496e+002  2.5596e+000  1.3948e+001 18738 116800,116342,116264
 1.0000e+000 116541 -1.1317e+002  6.2635e+002 -2.1867e+002 18738 116212,116446,116238
 1.0000e+000 116518 -1.0194e+002  1.0362e+001 -1.0116e+002 18738 116394,116446,116420
 1.0000e+000 116495 -4.7436e+002 -1.1731e+002  1.4058e+001 18738 116264,116342,116316
 1.0000e+000 116472 -1.3446e+002  2.0453e+001  4.1100e+000 18738 116264,116316,116290
 1.0000e+000 116682 -1.4376e+002  2.8006e+000 -1.8052e+001 18738 116728,116342,116656
 1.0000e+000 116705 -1.6499e+002 -2.9080e+001 -7.2659e+001 18738 116394,116656,116446
 1.0000e+000 116754 -1.0124e+002  1.0850e+001 -8.1473e+000 18738 116394,116368,116728
 1.0000e+000 116777 -9.2367e+001  3.0782e+001 -4.1395e+001 18738 116394,116728,116656
 1.0000e+000 116826 -1.8872e+002  8.1365e+001 -2.5915e+001 18738 116238,116656,116800
 1.0000e+000 116849 -2.1624e+002  4.8369e+001 -7.9934e+000 18738 116238,116800,116264
 1.0000e+000 116999  2.5055e+001  2.5677e+001 -3.8979e+001 18184 116872,116924,116898
 1.0000e+000 116976 -4.6928e+000  2.4977e+001 -3.0854e+001 18184 116872,116950,116924
 1.0000e+000 117330 -1.4767e+002  2.2150e+001  9.6970e+000 17694 117157,117235,117183
 1.0000e+000 117307 -9.6941e+001  9.4498e+000  3.2999e+000 17694 117131,117235,117157
 1.0000e+000 117284 -1.0572e+002  1.3968e+001  6.1992e+000 17694 117105,117235,117131
 1.0000e+000 117261 -2.2620e+002 -2.4142e+001  3.9287e+001 17694 117183,117235,117209
 1.0000e+000 117480 -1.6774e+002 -6.8365e+001  5.0031e+001 17290 117353,117405,117379
 1.0000e+000 117457 -1.1526e+002 -8.1905e+000  2.7028e+001 17290 117353,117431,117405
 1.0000e+000 117679 -3.0826e+002 -1.6013e+002  1.0441e+001 16718 117555,117607,117581
 1.0000e+000 117656 -1.5526e+002 -7.6672e+001 -2.3001e+001 16718 117529,117607,117555
 1.0000e+000 117633 -1.9513e+002 -5.0612e+001 -5.8387e+000 16718 117503,117607,117529
 1.0000e+000 117782 -2.3622e+002 -1.0811e+001 -1.4435e+001 16520 117704,117756,117730
 1.0000e+000 117983 -3.9748e+002 -2.4146e+002  1.4966e+001 16208 117859,117911,117885
 1.0000e+000 117960 -3.3384e+002 -1.6466e+002 -4.0198e+001 16208 117833,117911,117859
 1.0000e+000 117937 -1.5579e+002 -6.8914e+001  6.1572e-001 16208 117807,117911,117833
 1.0000e+000 118135 -3.1974e+001  2.8281e+001 -7.5708e+000 15674 118034,118086,118060
 1.0000e+000 118112 -2.0351e+002 -3.8738e+001 -1.3242e+001 15674 118008,118086,118034
 1.0000e+000 118238 -3.4978e+002  3.2289e+000 -2.7001e-001 15355 118160,118212,118186
 1.0000e+000 118341  3.3320e-001 -5.2574e+000 -9.3121e-001 421 118263,118315,118289
 1.1000e+000 68152  8.3401e+000 -3.8510e-001 -7.1610e-001 67838 68074,68126,68100
 1.1000e+000 68550 -2.4685e+002 -2.2310e+001  4.3654e+000 67526 68276,68380,68302
 1.1000e+000 68527 -4.4297e+001  5.9856e+000 -1.0425e+001 67526 68276,68406,68380
 1.1000e+000 68504 -3.1779e+002 -6.7799e+001  7.8944e+000 67526 68328,68380,68354
 1.1000e+000 68481 -2.5796e+002 -4.8227e+001  4.7367e+000 67526 68302,68380,68328
 1.1000e+000 68458 -5.5846e+001 -3.5953e+000  5.8924e+000 67526 68276,68432,68406
 1.1000e+000 68651  1.0010e+000 -1.5929e+000  2.8252e-001 67328 68573,68625,68599
 1.1000e+000 68970 -2.5300e+002 -7.8319e+001  1.0261e+000 67016 68722,68800,68774
 1.1000e+000 68947 -2.7557e+002 -8.1029e+001 -3.1706e+001 67016 68722,68826,68800
 1.1000e+000 68924 -3.5724e+002 -1.1750e+001 -2.3059e+001 67016 68696,68826,68722
 1.1000e+000 68901 -1.8090e+002 -4.0839e+001  1.4974e+001 67016 68722,68774,68748
 1.1000e+000 68878 -2.6444e+002 -2.6036e+001  8.3334e+001 67016 68696,68852,68826
 1.1000e+000 69291 -1.4491e+002 -5.6131e+000 -2.0214e+001 66654 69069,69147,69095
 1.1000e+000 69268 -7.6239e+001 -9.6549e-001  7.3767e+000 66654 69069,69173,69147
 1.1000e+000 69245 -4.6497e+001 -7.0664e+000 -2.0315e+001 66654 69043,69173,69069
 1.1000e+000 69222 -1.6317e+002  6.7728e+000  1.1685e+001 66654 69095,69147,69121
 1.1000e+000 69199 -3.1200e+001 -4.9028e-001  2.5780e+000 66654 69017,69173,69043
 1.1000e+000 69695 -1.9819e+002 -4.4711e+001 -1.0055e+001 66456 69447,69577,69551
 1.1000e+000 69672 -2.5612e+002 -3.9784e+001 -1.9714e+001 66456 69421,69577,69447
 1.1000e+000 69649 -1.9745e+002 -7.2107e+001  7.9600e+000 66456 69473,69551,69525
 1.1000e+000 69626 -2.0453e+002 -5.1264e+001  7.8050e-001 66456 69447,69551,69473
 1.1000e+000 69603 -2.1453e+002 -6.5887e+001  5.4977e+001 66456 69473,69525,69499
 1.1000e+000 70024  5.4419e+001  1.5325e+001 -1.8350e+001 66258 70047,69851,69825
 1.1000e+000 70001  2.2893e+001 -2.0310e+001  1.5598e+001 66258 70047,69825,69903
 1.1000e+000 69978 -2.5215e+001 -1.2377e+001  2.6206e+001 66258 69799,69903,69825
 1.1000e+000 69955 -2.4611e+001 -7.7729e+001  3.3473e+001 66258 69799,69929,69903
 1.1000e+000 70073  2.7563e+001 -1.4515e+001  2.1796e+001 66258 69877,69851,70047
 1.1000e+000 70096 -1.7577e+001 -6.6935e+001  5.8131e+001 66258 69877,70047,69903
 1.1000e+000 70602 -5.8361e+002 -8.3800e+001  8.5020e+001 66060 70305,70435,70331
 1.1000e+000 70579 -9.8858e+001 -1.2519e+002 -7.4562e+001 66060 70279,70435,70305
 1.1000e+000 70556 -2.5297e+002  8.8459e+001  2.2737e+001 66060 70331,70435,70409
 1.1000e+000 70533 -4.1127e+001  7.3752e+000 -6.7287e+001 66060 70279,70461,70435
 1.1000e+000 70510 -3.9430e+002 -7.2049e+001  8.9976e+001 66060 70331,70409,70357
 1.1000e+000 70487 -2.1980e+002 -4.6205e+000  9.1568e+001 66060 70357,70409,70383
 1.1000e+000 70703  5.8722e+000 -2.6573e+001 -2.3470e+001 65862 70625,70677,70651
 1.1000e+000 71083 -2.9331e+001  7.8011e+000  9.5065e+000 65664 70887,70965,70939
 1.1000e+000 71060 -2.4317e+002 -6.9376e+001  7.7508e+001 65664 70861,70965,70887
 1.1000e+000 71037 -2.8148e+002  9.7271e+001  2.2231e+000 65664 70809,70965,70861
 1.1000e+000 71014 -3.4256e+002  4.8464e+001  6.1101e+001 65664 70809,70861,70835
 1.1000e+000 70991 -2.7953e+001 -2.6029e+000 -4.7767e+000 65664 70887,70939,70913
 1.1000e+000 71611 -7.1311e+000 -8.5145e+001 -7.1925e+000 65260 71288,71444,71314
 1.1000e+000 71588 -3.9802e+001 -6.4044e+001  1.0882e+001 65260 71288,71470,71444
 1.1000e+000 71565 -8.7077e+001 -5.2564e+001 -4.4114e+001 65260 71314,71418,71392
 1.1000e+000 71542  9.4278e+000 -5.5212e+001 -1.5780e+001 65260 71314,71444,71418
 1.1000e+000 71519 -6.5978e+001 -3.6326e+001 -3.2341e+001 65260 71314,71392,71340
 1.1000e+000 71496 -1.2258e+002 -1.3954e+002 -1.7430e+002 65260 71340,71392,71366
 1.1000e+000 72060 -1.6389e+002  2.3500e+001  7.2830e+000 64870 71737,71893,71789
 1.1000e+000 72037 -1.7458e+002  1.7203e+001 -3.0628e-001 64870 71737,71919,71893
 1.1000e+000 72014 -1.6495e+002 -4.4740e+001 -9.7025e+001 64870 71789,71841,71815
 1.1000e+000 71991 -1.9399e+002  4.9907e+001 -2.0459e+001 64870 71789,71893,71841
 1.1000e+000 71968 -1.2595e+002  4.0091e+000 -5.1595e+001 64870 71737,71789,71763
 1.1000e+000 71945 -3.0049e+002  3.9343e+001  0.0000e+000 64870 71841,71893,71867
 1.1000e+000 72517 -1.3920e+002 -3.2416e+001  1.1949e+001 64466 72321,72399,72347
 1.1000e+000 72494 -1.3511e+002 -5.5533e+001  7.5223e+000 64466 72269,72399,72321
 1.1000e+000 72471 -1.3958e+002 -1.0472e+001 -2.9028e+001 64466 72347,72399,72373
 1.1000e+000 72448 -1.4317e+002 -4.6892e+001  3.2669e+001 64466 72243,72399,72269
 1.1000e+000 72425 -1.1175e+002 -9.1692e+000 -2.1580e+000 64466 72269,72321,72295
 1.1000e+000 72944 -2.0295e+002 -3.7490e+001  6.5013e+000 64062 73111,73039,72699
 1.1000e+000 72921 -2.0765e+002 -3.9073e+001  9.2324e+000 64062 73183,72967,72647
 1.1000e+000 72898 -2.1324e+002 -5.1079e+001  5.6168e+000 64062 72967,72803,72751
 1.1000e+000 72875 -2.1630e+002 -4.3087e+001  8.3120e-001 64062 73111,72699,72673
 1.1000e+000 72852 -2.1457e+002 -2.9020e+001  4.1999e+000 64062 73183,72647,72621
 1.1000e+000 72829 -2.0739e+002 -6.0291e+001  1.7200e+001 64062 72751,72803,72777
 1.1000e+000 72993 -2.2060e+002 -4.8585e+001  4.9666e+000 64062 73039,72647,72967
 1.1000e+000 73016 -1.9400e+002 -3.3004e+001  1.5624e+001 64062 72725,72967,72751
 1.1000e+000 73065 -2.8398e+002 -3.9567e+001 -2.7725e+001 64062 72725,72699,73039
 1.1000e+000 73088 -2.1434e+002 -2.5679e+001  1.3757e+001 64062 72725,73039,72967
 1.1000e+000 73137 -2.3014e+002 -5.3470e+001 -6.6608e-001 64062 72647,73039,73111
 1.1000e+000 73160 -2.3464e+002 -5.3638e+001 -4.9548e+000 64062 72647,73111,72673
 1.1000e+000 73209 -2.0356e+002 -2.9593e+001  2.9373e+000 64062 72803,72967,73183
 1.1000e+000 73232 -2.0489e+002 -1.0128e+001 -1.9982e+000 64062 72803,73183,72621
 1.1000e+000 73333 -8.0160e+001  1.4485e+001  4.2175e-001 63814 73356,73281,73255
 1.1000e+000 73382 -2.9160e+002 -4.0791e+001 -2.3273e+000 63814 73486,73356,73307
 1.1000e+000 73512 -1.1941e+002  3.3019e+001 -6.7447e+000 63814 73281,73356,73486
 1.1000e+000 73839 -1.1105e+002 -1.3127e+001  1.2554e+001 63616 73862,73692,73666
 1.1000e+000 73816 -1.4838e+002 -1.7607e+001  9.5896e+000 63616 73934,73862,73666
 1.1000e+000 73793 -1.6446e+002 -9.7876e+000 -6.5387e+000 63616 73934,73666,73640
 1.1000e+000 73770 -1.3763e+002  9.3495e+000 -6.9146e+000 63616 73614,73744,73640
 1.1000e+000 73888 -4.9762e+001 -9.3821e+000 -5.7448e+000 63616 73718,73692,73862
 1.1000e+000 73911 -1.2530e+002 -4.0878e+001 -9.5817e+000 63616 73718,73862,73744
 1.1000e+000 73960 -1.1978e+002 -5.4516e+000  6.8015e+000 63616 73744,73862,73934
 1.1000e+000 73983 -1.3239e+002  3.9424e+000 -7.2569e+000 63616 73744,73934,73640
 1.1000e+000 74363 -2.3192e+002 -4.8998e+001 -3.4979e+001 63390 74386,74115,74089
 1.1000e+000 74340 -2.3413e+002 -1.4790e+001 -4.4131e+001 63390 74458,74386,74089
 1.1000e+000 74317 -2.4283e+002 -4.1719e+000 -7.5411e+001 63390 74458,74089,74245
 1.1000e+000 74294 -2.2137e+002 -9.9001e+001  1.5497e+000 63390 74530,74167,74141
 1.1000e+000 74271 -2.0658e+002 -4.9453e+001  2.6634e+001 63390 74167,74219,74193
 1.1000e+000 74412 -2.4911e+002 -7.3485e+001 -5.1653e+001 63390 74141,74115,74386
 1.1000e+000 74435 -2.6397e+002 -7.2763e+001 -3.3006e+001 63390 74530,74141,74386
 1.1000e+000 74484 -2.5696e+002 -6.5019e+001 -4.9328e+001 63390 74219,74386,74458
 1.1000e+000 74507 -2.7147e+002 -6.3478e+001 -8.4215e+001 63390 74219,74458,74245
 1.1000e+000 74556 -1.7305e+002 -7.8015e+001 -3.9324e+000 63390 74219,74167,74530
 1.1000e+000 74579 -2.0203e+002 -4.4205e+001 -4.2207e+001 63390 74219,74530,74386
 1.1000e+000 74680 -3.2660e-001  4.1531e+000 -1.0389e+001 63100 75089,74833,74703
 1.1000e+000 74729  2.9789e+000 -2.1872e+000  2.6989e+000 63100 74961,74703,74654
 1.1000e+000 74859 -3.1585e+001  4.2446e+000 -1.0656e+001 63100 74602,74703,74833
 1.1000e+000 74987  6.6038e+000  1.7219e+000 -5.4471e+000 63100 75089,74703,74961
 1.1000e+000 75115 -1.6185e+001  2.6177e+000 -1.1479e+001 63100 74628,74833,75089
 1.1000e+000 75138 -9.2422e+000  1.8692e-001 -6.5340e+000 63100 74628,75089,74961
 1.1000e+000 75723 -6.3323e+001 -1.9258e+001 -6.0921e+000 62532 75746,75504,75426
 1.1000e+000 75700 -1.3124e+002  3.0436e+001  3.9111e+001 62532 75746,75426,75556
 1.1000e+000 75677 -5.6721e+001  1.3836e+001 -1.6221e+001 62532 75426,75504,75452
 1.1000e+000 75654 -1.7044e+002 -2.2812e+001  7.8901e+001 62532 75400,75556,75426
 1.1000e+000 75631 -2.0841e+002 -1.8536e+002 -3.7061e+001 62532 75400,75582,75556
 1.1000e+000 75608  1.5054e+001 -1.7490e+001 -2.1480e+001 62532 75452,75504,75478
 1.1000e+000 75772 -1.4003e+002 -1.7678e+001 -1.2250e+001 62532 75530,75504,75746
 1.1000e+000 75795 -2.4113e+002  7.7527e+000  3.2458e+001 62532 75530,75746,75556
 1.1000e+000 76301 -1.1181e+002 -2.2598e+001 -9.8365e+000 62192 76324,76082,76030
 1.1000e+000 76278 -7.6590e+001  1.4572e+001  5.8471e+000 62192 76324,76030,76004
 1.1000e+000 76255 -9.7331e+001 -1.8639e+001 -4.5906e+000 62192 76030,76082,76056
 1.1000e+000 76232 -1.7653e+002  1.1197e+000 -1.9538e+001 62192 76082,76134,76108
 1.1000e+000 76209 -3.1335e+002 -1.4698e+001 -6.5505e+001 62192 76004,76160,76134
 1.1000e+000 76186 -1.1382e+002 -2.0551e+002 -7.0962e+000 62192 75978,76160,76004
 1.1000e+000 76350 -1.6739e+002  3.1132e+001 -8.4056e+000 62192 76134,76082,76324
 1.1000e+000 76373 -1.2725e+002  8.1334e+001  9.0425e+000 62192 76134,76324,76004
 1.1000e+000 76879  1.4395e+001  3.1427e+000  5.2668e+000 61788 76902,76660,76582
 1.1000e+000 76856  9.8727e+000  1.0531e+001  9.9347e+000 61788 76902,76582,76556
 1.1000e+000 76833  1.3013e+001  1.2686e+001 -1.0004e+001 61788 76582,76660,76634
 1.1000e+000 76810  1.3009e+001  1.1327e+001 -9.6585e+000 61788 76582,76634,76608
 1.1000e+000 76787 -7.3457e+000  1.2984e+001  6.5730e+000 61788 76556,76738,76686
 1.1000e+000 76764  2.2401e+000 -5.4502e+000  8.8183e+000 61788 76686,76738,76712
 1.1000e+000 76928  1.2595e+001  9.6066e+000  4.2171e+000 61788 76686,76660,76902
 1.1000e+000 76951  1.0272e+001  1.9965e+001  7.7999e+000 61788 76686,76902,76556
 1.1000e+000 77408 -2.2760e+002 -1.6084e+001  7.1213e+001 61498 77212,77264,77238
 1.1000e+000 77385 -2.7705e+002  4.0843e+000 -7.3672e+001 61498 77160,77264,77212
 1.1000e+000 77362 -2.1368e+002 -2.0855e+001 -9.2488e+001 61498 77160,77290,77264
 1.1000e+000 77339 -3.2277e+002 -5.4101e+001 -5.1413e+001 61498 77160,77212,77186
 1.1000e+000 77316 -1.6846e+002 -4.1460e+001  5.6228e+001 61498 77134,77290,77160
 1.1000e+000 77678 -7.6373e+002  9.2149e+001  1.5513e+001 61129 77479,77557,77505
 1.1000e+000 77655 -7.6689e+002 -1.1571e+002  7.2972e+000 61129 77479,77583,77557
 1.1000e+000 77632 -6.9213e+002 -3.0118e+002  5.8969e+001 61129 77453,77583,77479
 1.1000e+000 77609 -6.7188e+002  2.4600e+002  1.5128e+002 61129 77505,77557,77531
 1.1000e+000 77828 -1.1023e+002 -2.6533e+001 -5.0236e+001 60931 77851,77727,77701
 1.1000e+000 77805 -6.5485e+001 -5.6164e+001 -3.5920e+001 60931 77851,77701,77779
 1.1000e+000 77877 -6.8538e+001 -2.0769e+001 -4.9399e+001 60931 77923,77851,77753
 1.1000e+000 77900  1.2205e+001  2.0040e+000 -7.8836e+000 60931 77753,77851,77779
 1.1000e+000 77949 -7.5542e+001 -3.4295e+001 -4.5862e+001 60931 77727,77851,77923
 1.1000e+000 78133 -4.3361e+002 -1.5956e+002  2.9490e+001 60377 78055,78107,78081
 1.1000e+000 78535 -2.1199e+002  6.6433e+001 -4.5407e+001 60015 78287,78391,78313
 1.1000e+000 78512 -3.5831e+002 -5.3522e+001  6.6181e+000 60015 78287,78417,78391
 1.1000e+000 78489 -2.3251e+002 -2.2456e+001 -1.0513e+001 60015 78261,78417,78287
 1.1000e+000 78466 -5.3968e+002 -1.5052e+002  1.9111e+001 60015 78339,78391,78365
 1.1000e+000 78443 -5.4535e+002 -6.4477e+001 -2.8067e+001 60015 78313,78391,78339
 1.1000e+000 78913 -1.3228e+002 -2.5404e+001  2.5643e+001 59725 78936,78743,78691
 1.1000e+000 78890 -1.2906e+002 -1.2884e+001  2.7960e+001 59725 79008,78936,78691
 1.1000e+000 78867 -1.2832e+002 -1.7916e+001  3.6971e+001 59725 79008,78691,78665
 1.1000e+000 78844 -1.7510e+002 -1.9058e+001 -1.3701e+001 59725 78691,78743,78717
 1.1000e+000 78821 -1.7973e+002 -9.0556e+001  5.6240e+001 59725 78639,78795,78769
 1.1000e+000 78962 -1.2141e+002 -2.0550e+001  1.9609e+001 59725 78769,78743,78936
 1.1000e+000 78985 -1.4335e+002 -1.9432e+001  1.7395e+001 59725 78769,78936,78639
 1.1000e+000 79034 -1.4719e+002 -2.0910e+001  2.9489e+001 59725 78639,78936,79008
 1.1000e+000 79057 -1.3720e+002 -2.1355e+001  3.7067e+001 59725 78639,79008,78665
 1.1000e+000 79386 -1.5495e+002  2.8696e+001  1.6475e+001 59221 79187,79239,79213
 1.1000e+000 79363 -1.6067e+002 -1.5687e+001  3.4329e+001 59221 79187,79265,79239
 1.1000e+000 79340 -1.0486e+002 -3.3195e+001 -2.3752e+001 59221 79187,79291,79265
 1.1000e+000 79317 -1.4782e+002 -1.2263e+002  1.3493e+001 59221 79161,79291,79187
 1.1000e+000 79813 -1.8706e+002  1.7983e+001  6.2277e+000 58831 79836,79542,79516
 1.1000e+000 79790 -1.2161e+002  2.0003e+001  2.7871e+001 58831 79980,79836,79516
 1.1000e+000 79767 -3.2062e+001  1.9031e+001 -2.4996e+001 58831 79908,79646,79568
 1.1000e+000 79744 -2.3330e+002 -1.6283e+001  2.2947e+001 58831 79980,79516,79490
 1.1000e+000 79721 -1.5753e+001  3.5895e+001 -1.5834e+001 58831 79568,79646,79594
 1.1000e+000 79698  4.0843e+000  1.6851e+000 -2.6633e+000 58831 79594,79646,79620
 1.1000e+000 79862 -9.4223e+001  7.0263e+001  2.8346e+001 58831 79568,79542,79836
 1.1000e+000 79885 -2.8605e+001  7.2460e+000 -1.8004e+001 58831 79908,79568,79836
 1.1000e+000 79934 -3.4966e+001  1.2477e+001 -1.5571e+001 58831 79672,79646,79908
 1.1000e+000 79957 -3.9768e+001 -1.7134e+000 -6.8388e+000 58831 79672,79908,79836
 1.1000e+000 80006 -8.1960e+001 -1.6586e+001 -1.8402e+001 58831 79672,79836,79980
 1.1000e+000 80029 -1.2040e+002 -1.8559e+001 -2.5779e+000 58831 79672,79980,79490
 1.1000e+000 80358 -2.4269e+002 -4.1478e+000  1.5134e+001 58377 80381,80185,80159
 1.1000e+000 80335 -3.1305e+002  7.8619e+000  2.2024e+001 58377 80381,80159,80133
 1.1000e+000 80312 -2.3185e+002 -6.0093e+001  3.9263e+001 58377 80133,80263,80237
 1.1000e+000 80289 -1.4112e+002 -8.5771e+000  3.7600e+000 58377 80185,80237,80211
 1.1000e+000 80407 -1.3838e+002  1.9245e+000 -6.4575e+000 58377 80237,80185,80381
 1.1000e+000 80430 -2.5436e+002 -1.9218e+001 -6.1215e-001 58377 80237,80381,80133
 1.1000e+000 80759 -2.7415e+002  4.8033e+001 -5.5900e+001 57873 80782,80586,80560
 1.1000e+000 80736 -2.9351e+002  1.3366e+000 -7.3801e+001 57873 80782,80560,80534
 1.1000e+000 80713 -1.7440e+002  4.0281e+000 -2.9313e+001 57873 80586,80638,80612
 1.1000e+000 80690 -2.2476e+002 -4.8982e+001 -1.4245e+001 57873 80534,80664,80638
 1.1000e+000 80808 -2.9437e+002  4.3656e+000 -6.5289e+001 57873 80638,80586,80782
 1.1000e+000 80831 -2.8797e+002 -9.9366e+000 -7.8432e+001 57873 80638,80782,80534
 1.1000e+000 81337 -8.6048e+001 -1.5187e+001 -3.3541e+001 57262 81360,81144,81092
 1.1000e+000 81314 -8.9696e+001 -2.9677e+001 -5.2385e+001 57262 81360,81092,81066
 1.1000e+000 81291 -6.6665e+001 -8.1501e+000 -3.8888e+001 57262 81014,81196,81066
 1.1000e+000 81268 -1.0435e+002 -1.6244e+001 -4.1167e+001 57262 81092,81144,81118
 1.1000e+000 81245 -2.5507e+001 -3.1075e+001 -1.1072e+001 57262 81144,81196,81170
 1.1000e+000 81222 -5.5957e+001  1.2290e-001  2.1359e+000 57262 81014,81066,81040
 1.1000e+000 81386 -6.6671e+001  3.2019e+000 -2.2997e+001 57262 81196,81144,81360
 1.1000e+000 81409 -7.7834e+001 -1.5091e+001 -4.3144e+001 57262 81196,81360,81066
 1.1000e+000 81608 -8.3762e+002 -3.2639e+002 -1.0143e+002 57007 81458,81536,81510
 1.1000e+000 81585 -7.7662e+002 -2.3600e+002 -7.3242e+001 57007 81432,81536,81458
 1.1000e+000 81562 -4.2971e+002 -4.0326e+002 -2.8902e+002 57007 81458,81510,81484
 1.1000e+000 82086 -7.1433e+001 -1.4952e+000 -1.4856e+000 56339 81792,81922,81818
 1.1000e+000 82063 -1.7365e+000  7.3749e+000 -6.6952e+000 56339 81714,81922,81792
 1.1000e+000 82040 -1.3386e+002  5.4381e+000  2.3272e+000 56339 82109,81844,81818
 1.1000e+000 82017 -7.8795e+001 -1.8990e+001  1.0386e+001 56339 82109,81818,81922
 1.1000e+000 81994 -1.5587e+002 -1.1202e+001 -3.9694e+001 56339 81844,81896,81870
 1.1000e+000 81971 -3.2777e+000  1.5761e-002  9.1237e-001 56339 81714,81792,81766
 1.1000e+000 81948 -6.6597e-001 -2.7277e+000  1.9035e+000 56339 81714,81766,81740
 1.1000e+000 82135 -1.9120e+002 -4.2184e+000  5.2059e+000 56339 81896,81844,82109
 1.1000e+000 82158 -1.2283e+002 -1.8749e+001  1.8811e+001 56339 81896,82109,81922
 1.1000e+000 82536 -3.0948e+002 -4.8940e+001 -3.7486e+001 55699 82288,82392,82314
 1.1000e+000 82513 -3.6113e+002 -6.2951e+001 -9.1255e+000 55699 82288,82418,82392
 1.1000e+000 82490 -1.7903e+002 -5.4904e+001  1.8953e+001 55699 82314,82392,82340
 1.1000e+000 82467 -1.9997e+002 -2.7319e+001  2.5214e+001 55699 82340,82392,82366
 1.1000e+000 82444 -4.8767e+002 -2.1795e+000 -1.5599e+001 55699 82262,82418,82288
 1.1000e+000 83091 -4.7719e+000  1.0519e+001 -1.1190e+001 55409 82745,82901,82875
 1.1000e+000 83068  7.9417e+000  7.1518e+000 -7.7232e+000 55409 82719,82901,82745
 1.1000e+000 83045  8.7705e+000 -7.4819e+000  6.5387e+000 55409 82771,82849,82823
 1.1000e+000 83022  1.4253e+001 -8.7715e+000 -3.2090e+000 55409 82745,82849,82771
 1.1000e+000 82999 -1.4478e+001  5.2077e+000 -2.1332e-001 55409 82745,82875,82849
 1.1000e+000 82976  4.1591e+000  4.8556e+000  4.7387e+000 55409 82771,82823,82797
 1.1000e+000 82953 -3.9163e+000 -5.4303e+000 -2.9643e+000 55409 82719,82927,82901
 1.1000e+000 83388 -1.3465e+002  1.6954e+001  1.1784e+001 54905 83411,83218,83166
 1.1000e+000 83365 -1.8242e+002  3.2391e+000  8.0674e+000 54905 83411,83166,83114
 1.1000e+000 83342 -1.0945e+002  8.4001e+000  6.2130e-001 54905 83483,83270,83244
 1.1000e+000 83319 -3.7458e+002 -1.2637e+001 -4.4179e+000 54905 83166,83218,83192
 1.1000e+000 83296 -1.7182e+002  1.7194e+001  2.1068e+001 54905 83114,83166,83140
 1.1000e+000 83437 -1.3177e+002 -4.1731e+000  3.7748e+000 54905 83244,83218,83411
 1.1000e+000 83460 -1.3238e+002 -3.4298e+000  4.9863e+000 54905 83483,83244,83411
 1.1000e+000 83509 -1.4139e+002  1.1010e+001 -4.6627e+000 54905 83114,83270,83483
 1.1000e+000 83532 -1.4093e+002  1.1779e+001 -5.1525e+000 54905 83114,83483,83411
 1.1000e+000 83961 -3.1111e+002 -6.1375e+000 -4.3133e+001 54593 83638,83768,83690
 1.1000e+000 83938 -4.2419e+001  2.4571e+001  4.8746e+000 54593 83638,83794,83768
 1.1000e+000 83915 -1.8580e+002  1.0772e+002  1.3978e+001 54593 83690,83768,83742
 1.1000e+000 83892 -1.9017e+002  6.3002e+001 -1.1192e+002 54593 83638,83820,83794
 1.1000e+000 83869 -1.3844e+002  5.9923e+002 -1.2452e+002 54593 83638,83690,83664
 1.1000e+000 83846 -6.9834e+001 -2.0752e+000  1.6653e+002 54593 83690,83742,83716
 1.1000e+000 84209 -2.0524e+002 -1.3694e+001  4.0174e+000 54132 84232,84062,83984
 1.1000e+000 84186 -2.2200e+002  6.4334e+000  2.2674e+000 54132 84232,83984,84114
 1.1000e+000 84163 -2.1068e+002 -1.8062e+001 -2.2314e+001 54132 83984,84062,84036
 1.1000e+000 84140 -1.6765e+002 -7.6503e+001  5.5231e+000 54132 83984,84036,84010
 1.1000e+000 84258 -2.1500e+002 -2.4943e+001 -3.1815e-001 54132 84088,84062,84232
 1.1000e+000 84281 -2.3949e+002 -1.0869e+001 -5.1267e+000 54132 84088,84232,84114
 1.1000e+000 84382 -6.3299e+002 -1.9785e+001  1.1003e+001 53521 84304,84356,84330
 1.1000e+000 84632 -1.9930e+002 -1.4414e+001  3.3017e+001 53067 84655,84485,84459
 1.1000e+000 84609 -2.0709e+002 -1.9412e+001  3.0224e+001 53067 84655,84459,84407
 1.1000e+000 84586 -2.0108e+002 -3.9934e+001  3.5754e+001 53067 84485,84537,84511
 1.1000e+000 84563 -1.8744e+002 -2.4483e+000 -1.8059e+001 53067 84407,84459,84433
 1.1000e+000 84681 -1.9290e+002 -2.0985e+001  3.4196e+001 53067 84537,84485,84655
 1.1000e+000 84704 -1.9743e+002 -2.3968e+001  3.1516e+001 53067 84537,84655,84407
 1.1000e+000 85214 -9.1794e+001 -5.4894e+001 -5.9354e+001 52513 85021,85073,85047
 1.1000e+000 85191 -1.9847e+002  3.0943e+001 -5.0194e+001 52513 84943,85073,85021
 1.1000e+000 85168 -3.6241e+002 -4.6223e+001 -9.7766e+001 52513 84943,85021,84995
 1.1000e+000 85145 -2.2128e+002 -3.3878e+001 -4.3290e+001 52513 84917,85073,84943
 1.1000e+000 85122 -1.0051e+002 -1.1322e+002 -1.1149e+002 52513 84943,84995,84969
 1.1000e+000 85099 -1.2583e+002 -5.6468e+001 -5.7314e+001 52513 84891,85073,84917
 1.1000e+000 85582 -2.5899e+002 -1.7193e+001 -2.1617e+001 52037 85605,85311,85285
 1.1000e+000 85559 -3.0097e+002 -4.3203e+001  1.1788e+001 52037 85749,85605,85285
 1.1000e+000 85536 -3.1411e+002 -2.4303e+001 -8.4517e+000 52037 85893,85677,85389
 1.1000e+000 85513 -3.4655e+002 -8.1644e+001  2.8915e+001 52037 85749,85285,85259
 1.1000e+000 85490 -2.9500e+002 -2.1595e+001 -4.6525e+001 52037 85893,85389,85363
 1.1000e+000 85467 -3.8143e+002  3.2015e+001  2.6949e+001 52037 85259,85441,85415
 1.1000e+000 85631 -2.8425e+002  2.0747e+001  3.5654e+001 52037 85337,85311,85605
 1.1000e+000 85654 -3.1942e+002 -4.9439e+001  2.3886e+001 52037 85677,85337,85605
 1.1000e+000 85703 -3.9265e+002 -2.6318e+001 -9.8252e+000 52037 85415,85389,85677
 1.1000e+000 85726 -3.5077e+002  1.3345e+000  8.2785e+000 52037 85821,85677,85605
 1.1000e+000 85775 -3.5910e+002 -3.4125e+000  4.9785e+000 52037 85821,85605,85749
 1.1000e+000 85798 -3.9058e+002 -2.8095e+001  6.7722e+000 52037 85415,85749,85259
 1.1000e+000 85847 -3.5481e+002 -5.1242e+000  6.0353e-001 52037 85415,85677,85821
 1.1000e+000 85870 -3.5727e+002 -7.3768e+000 -2.1034e+000 52037 85415,85821,85749
 1.1000e+000 85919 -3.3606e+002 -8.5649e+001  8.1531e+000 52037 85337,85677,85893
 1.1000e+000 85942 -3.2894e+002 -9.3148e+001 -2.7163e+001 52037 85337,85893,85363
 1.1000e+000 86224 -7.5872e+001 -1.2227e+001 -1.3769e+001 51368 86375,86100,86074
 1.1000e+000 86201 -4.4904e+001  4.3056e+000 -7.0017e+000 51368 86375,86074,86247
 1.1000e+000 86178 -2.1892e+001  4.2072e-002 -4.6838e+000 51368 86048,86152,86126
 1.1000e+000 86273 -1.0762e+002  4.6510e+000  2.1725e+001 51368 86048,86126,86247
 1.1000e+000 86401 -9.3203e+001  1.1044e+001  4.0762e+000 51368 86126,86100,86375
 1.1000e+000 86424 -7.7667e+001  2.1461e+001  8.6173e+000 51368 86126,86375,86247
 1.1000e+000 86802 -3.2577e+002 -8.3167e+001  2.0882e+001 51028 86528,86632,86580
 1.1000e+000 86779 -1.7097e+002 -1.6534e+001 -2.3230e+001 51028 86528,86684,86632
 1.1000e+000 86756 -2.7594e+002  3.9442e+001  2.7494e+000 51028 86528,86580,86554
 1.1000e+000 86733 -1.5151e+002 -9.6770e+000 -4.3126e+000 51028 86632,86684,86658
 1.1000e+000 86710 -1.0819e+002 -5.8882e+001 -3.1177e+001 51028 86580,86632,86606
 1.1000e+000 87131 -5.0450e+001  5.2852e+000  9.9230e+000 50624 86958,87036,87010
 1.1000e+000 87108 -2.4344e+001 -4.7692e+000  1.6103e+001 50624 86932,87036,86958
 1.1000e+000 87085 -8.4210e+001 -9.4266e+000  1.1527e+001 50624 86958,87010,86984
 1.1000e+000 87062  5.3459e+000  2.8210e+000  7.9357e+000 50624 86906,87036,86932
 1.1000e+000 87330 -1.7424e+002  7.1211e+000 -9.1248e+000 50234 87353,87180,87154
 1.1000e+000 87307 -1.5820e+002  1.8423e+000 -6.2239e+000 50234 87353,87154,87258
 1.1000e+000 87284 -1.4340e+002  6.9139e-001 -7.5268e-001 50234 87206,87258,87232
 1.1000e+000 87379 -1.6148e+002  8.1481e+000 -2.3393e+000 50234 87206,87180,87353
 1.1000e+000 87402 -1.4207e+002  3.5345e+000 -1.7551e+000 50234 87206,87353,87258
 1.1000e+000 87650 -2.4072e+002 -6.3864e+000  8.2449e+000 49730 87673,87503,87451
 1.1000e+000 87627 -2.9292e+002 -2.3886e+001  4.4412e+001 49730 87673,87451,87425
 1.1000e+000 87604 -1.4569e+002 -7.9932e+001  8.4251e+001 49730 87503,87555,87529
 1.1000e+000 87581 -6.2556e+002 -6.2279e+001  1.0167e+002 49730 87451,87503,87477
 1.1000e+000 87699 -2.3304e+002  6.7419e+000  4.6538e+000 49730 87555,87503,87673
 1.1000e+000 87722 -2.4758e+002  3.7482e+001  2.3643e+001 49730 87555,87673,87425
 1.1000e+000 88232 -2.8948e+002 -1.4777e+002  9.1407e+001 49176 88255,87935,87909
 1.1000e+000 88209 -1.7380e+002 -8.1845e+001 -7.0374e+001 49176 88255,87909,88065
 1.1000e+000 88186 -3.9374e+002  3.2802e+001 -6.6132e+000 49176 87935,88039,87961
 1.1000e+000 88163 -8.5961e+001 -9.6032e+001 -6.4495e+001 49176 87909,88091,88065
 1.1000e+000 88140 -3.9405e+002  3.3660e+001 -5.2302e+001 49176 87961,88039,88013
 1.1000e+000 88117 -4.1569e+002 -1.0867e+002 -9.9675e+001 49176 87961,88013,87987
 1.1000e+000 88281 -1.3613e+002 -8.0222e+001  1.6907e+001 49176 88039,87935,88255
 1.1000e+000 88304 -3.0782e+001 -2.8280e+001 -1.4173e+002 49176 88039,88255,88065
 1.1000e+000 88503 -2.1809e+002 -1.3457e+002 -5.2990e+001 48772 88526,88379,88353
 1.1000e+000 88480 -2.4370e+002 -4.9893e+001 -3.3597e+001 48772 88526,88353,88327
 1.1000e+000 88457 -1.4677e+002 -1.6355e+001 -1.1469e+001 48772 88379,88431,88405
 1.1000e+000 88552 -1.9620e+002 -6.5610e+001 -6.3363e+001 48772 88431,88379,88526
 1.1000e+000 88575 -2.3943e+002 -9.6829e+000 -5.2505e+001 48772 88431,88526,88327
 1.1000e+000 89083 -2.9415e+000  4.6312e+000 -3.3500e-001 48368 88786,88916,88864
 1.1000e+000 89060 -9.5869e+000 -1.8613e+000  3.0838e+000 48368 88786,88942,88916
 1.1000e+000 89037 -2.9656e+000 -7.5410e-001 -2.5753e+000 48368 88786,88864,88812
 1.1000e+000 89014 -1.1278e+001 -7.3457e+000 -4.6505e+000 48368 88864,88916,88890
 1.1000e+000 88991  8.7181e-001 -3.3116e+000 -3.2215e-001 48368 88812,88864,88838
 1.1000e+000 88968  1.7898e+000 -1.1691e+000 -2.9536e+000 48368 88760,88942,88786
 1.1000e+000 89331 -1.6236e+002 -7.3674e+001 -8.3454e+001 47928 89158,89236,89210
 1.1000e+000 89308 -1.8618e+002 -4.8110e+001 -4.0045e+001 47928 89132,89236,89158
 1.1000e+000 89285 -1.8499e+002  4.3900e+000 -8.8841e+001 47928 89158,89210,89184
 1.1000e+000 89262 -3.0630e+002 -5.9804e+001 -6.5661e+001 47928 89106,89236,89132
 1.1000e+000 89662 -1.7722e+002 -7.2633e+001  1.5148e+001 47588 89463,89541,89515
 1.1000e+000 89639 -1.3404e+002 -5.1910e+001 -1.6412e+001 47588 89463,89567,89541
 1.1000e+000 89616 -2.3545e+002 -4.7383e+001 -5.5795e+001 47588 89463,89515,89489
 1.1000e+000 89593 -1.0285e+002 -1.0524e+002  2.9736e+001 47588 89437,89567,89463
 1.1000e+000 89763 -1.0001e+003 -1.1696e+002 -3.4457e+001 47390 89685,89737,89711
 1.1000e+000 89913 -6.7514e+002 -2.0139e+002 -6.8259e+001 47078 89786,89838,89812
 1.1000e+000 89890 -3.2384e+002 -2.2956e+002 -8.4506e+001 47078 89786,89864,89838
 1.1000e+000 90163 -1.9824e+002 -4.7032e+000  3.3404e+001 46474 89964,90042,89990
 1.1000e+000 90140 -1.8152e+002 -6.3394e+000  6.4957e+001 46474 89938,90042,89964
 1.1000e+000 90117 -3.7395e+001 -4.3728e+001  4.2438e+001 46474 89990,90042,90016
 1.1000e+000 90094 -3.6118e+001  4.9781e+000  3.0293e+001 46474 89938,90068,90042
 1.1000e+000 90364 -2.1150e+001  4.4476e+000  2.4014e+000 46184 90240,90292,90266
 1.1000e+000 90341 -1.1996e+000 -7.4272e+000 -5.6665e+000 46184 90188,90292,90240
 1.1000e+000 90318  6.7421e+000  5.8518e+000 -2.0878e+000 46184 90188,90240,90214
 1.1000e+000 90565 -3.0840e+002  1.5071e+001 -5.6398e+001 45780 90588,90415,90389
 1.1000e+000 90542 -1.8226e+002  7.7242e+000 -4.2498e+001 45780 90588,90389,90493
 1.1000e+000 90519 -2.0029e+002 -8.1776e+001 -1.2649e+001 45780 90415,90467,90441
 1.1000e+000 90614 -2.0717e+002 -2.4973e+001  1.8032e+001 45780 90467,90415,90588
 1.1000e+000 90637 -4.3900e+001  1.7106e+001  5.0906e+001 45780 90467,90588,90493
 1.1000e+000 91196 -1.3536e+002 -2.7072e+001 -2.1930e+001 45226 91219,90876,90850
 1.1000e+000 91173 -1.5118e+002 -3.8242e+001 -1.1783e+001 45226 91219,90850,91032
 1.1000e+000 91150 -1.6981e+002 -4.1179e+001 -9.1309e+000 45226 90824,91032,90850
 1.1000e+000 91127 -1.9805e+002 -4.7592e+001 -5.2176e+000 45226 90876,90980,90902
 1.1000e+000 91104 -1.7220e+002 -1.5642e+001 -2.9170e+001 45226 90876,91006,90980
 1.1000e+000 91081 -1.9740e+002 -1.7618e+001  2.9992e+001 45226 90902,90980,90954
 1.1000e+000 91058 -7.3544e+002 -1.4890e+002  7.1575e+000 45226 90902,90954,90928
 1.1000e+000 91245 -1.5692e+002 -6.2511e+000 -2.4857e+001 45226 91006,90876,91219
 1.1000e+000 91268 -1.7575e+002 -2.1305e+001 -1.4305e+001 45226 91006,91219,91032
 1.1000e+000 91516 -1.1896e+002  7.9082e+001 -2.2482e+001 44836 91539,91421,91395
 1.1000e+000 91493 -2.9651e+002  7.5467e+001 -6.0272e+001 44836 91317,91421,91343
 1.1000e+000 91470 -1.1874e+002 -9.0684e+001  7.2671e+001 44836 91539,91395,91369
 1.1000e+000 91447 -8.3495e+001 -3.8772e+001 -1.5393e+002 44836 91291,91421,91317
 1.1000e+000 91565 -9.4737e+001  1.5630e+002 -2.7032e+001 44836 91343,91421,91539
 1.1000e+000 91588 -3.0846e+001  1.1543e+002  7.0819e+001 44836 91343,91539,91369
 1.1000e+000 91787 -1.3820e+002  1.3732e+001 -2.7527e+000 44432 91810,91637,91611
 1.1000e+000 91764 -2.6092e+001  7.4451e+000 -2.4305e+001 44432 91810,91611,91715
 1.1000e+000 91741 -9.4530e+001 -7.2593e+000 -5.1938e+000 44432 91637,91689,91663
 1.1000e+000 91836 -4.2644e+001  1.3992e+001  1.3678e+001 44432 91689,91637,91810
 1.1000e+000 91859  3.3399e+001 -1.4736e+001  1.1751e+001 44432 91689,91810,91715
 1.1000e+000 92207 -3.1863e+002 -3.4724e+001 -7.7055e+001 43864 92230,91936,91910
 1.1000e+000 92184 -2.1171e+002 -5.4773e+001 -9.5497e+001 43864 92230,91910,92040
 1.1000e+000 92161 -6.3510e+001  2.5142e+001 -1.5204e+001 43864 91884,92040,91910
 1.1000e+000 92138 -2.3613e+002 -3.1396e+001 -2.5685e+001 43864 91936,92014,91988
 1.1000e+000 92115 -2.4911e+002 -2.3231e+001 -3.3724e+001 43864 91936,91988,91962
 1.1000e+000 92092 -1.5264e+001 -1.4115e+001 -1.6006e+001 43864 91884,92066,92040
 1.1000e+000 92256 -2.2149e+002 -2.0000e+001 -5.4531e+001 43864 92014,91936,92230
 1.1000e+000 92279 -1.5133e+002 -6.7563e+001 -9.0847e+001 43864 92014,92230,92040
 1.1000e+000 92529 -3.1054e+002 -7.4176e+001  5.9205e+001 43410 92552,92330,92304
 1.1000e+000 92506 -2.9163e+002 -3.5267e+001  7.8106e+001 43410 92552,92304,92408
 1.1000e+000 92483 -2.9219e+002 -1.0371e+001  7.8508e+001 43410 92304,92434,92408
 1.1000e+000 92460 -3.4864e+002 -5.4247e+001  5.6914e+000 43410 92330,92382,92356
 1.1000e+000 92578 -3.4158e+002 -7.7220e+001  1.2578e+001 43410 92382,92330,92552
 1.1000e+000 92601 -3.1197e+002  6.1264e+000  3.2683e+001 43410 92382,92552,92408
 1.1000e+000 92802 -7.3253e+001  1.5101e+001 -1.9662e+000 43162 92825,92704,92652
 1.1000e+000 92779 -7.7297e+001  9.2135e+000 -6.4608e+000 43162 92825,92652,92626
 1.1000e+000 92756  1.0671e+001 -4.1095e+000  7.9574e-001 43162 92652,92704,92678
 1.1000e+000 92851 -6.4845e+001  1.5381e+001  6.9899e+000 43162 92730,92704,92825
 1.1000e+000 92874 -7.0439e+001 -1.5164e+001  1.4601e+000 43162 92730,92825,92626
 1.1000e+000 93463 -3.3863e+002 -6.5699e+001  8.0533e+001 42758 93140,93270,93166
 1.1000e+000 93440 -2.9936e+002 -8.8157e+001  3.5143e+001 42758 93140,93296,93270
 1.1000e+000 93417 -2.2372e+002  6.5256e+000  4.9354e+001 42758 93166,93270,93218
 1.1000e+000 93394 -4.7971e+002 -1.6708e+001  8.8037e+001 42758 93218,93270,93244
 1.1000e+000 93371 -2.8652e+002 -8.7074e+001  3.3429e+001 42758 93140,93322,93296
 1.1000e+000 93348 -2.1776e+002 -1.5111e+000 -1.1957e+001 42758 93166,93218,93192
 1.1000e+000 93920 -1.8140e+002  1.5801e+000  3.4769e+001 42304 93943,93672,93646
 1.1000e+000 93897 -1.6150e+002  8.9078e+000  1.0480e+001 42304 93943,93646,93802
 1.1000e+000 93874 -1.3276e+002  1.1364e+001 -5.8378e+000 42304 93724,93802,93776
 1.1000e+000 93851 -1.5103e+002  7.2116e+000  2.1296e+001 42304 93672,93724,93698
 1.1000e+000 93828 -5.1703e+001 -1.1540e+001  1.4277e+001 42304 93724,93776,93750
 1.1000e+000 93969 -1.5112e+002  1.6033e-001  2.6459e+001 42304 93724,93672,93943
 1.1000e+000 93992 -1.2951e+002 -2.1673e+000  9.7073e+000 42304 93724,93943,93802
 1.1000e+000 94321  1.8261e+001 -1.7268e+001 -2.7494e+001 41478 94096,94148,94122
 1.1000e+000 94298 -2.8167e+001  1.0151e+001  1.6997e+001 41478 94096,94226,94148
 1.1000e+000 94275 -1.6426e+001 -1.0386e+001  1.6389e+001 41478 94148,94226,94174
 1.1000e+000 94252  3.0974e-001 -2.3292e-001  4.8794e-001 41478 94174,94226,94200
 1.1000e+000 94618 -1.2853e+002 -4.2184e+000 -4.9136e+000 40910 94344,94422,94396
 1.1000e+000 94595 -1.5220e+002 -5.9687e+000 -1.0720e+001 40910 94344,94448,94422
 1.1000e+000 94572 -1.4398e+002  1.3854e+001  7.2945e+001 40910 94344,94474,94448
 1.1000e+000 94549 -1.1966e+002 -2.6219e+000 -5.5081e+000 40910 94344,94396,94370
 1.1000e+000 94526 -2.2180e+002  4.4984e+000  9.7411e+001 40910 94344,94500,94474
 1.1000e+000 94866 -1.6788e+002 -1.6478e+000 -2.6362e+000 40306 94667,94719,94693
 1.1000e+000 94843 -1.8087e+002 -4.3338e+001  1.0652e+001 40306 94641,94719,94667
 1.1000e+000 94820 -1.6129e+002 -3.1268e+000  4.5914e+000 40306 94641,94745,94719
 1.1000e+000 94797 -1.6104e+002 -2.6002e+001  1.2267e+001 40306 94641,94771,94745
 1.1000e+000 95089 -3.3898e+002 -1.3802e+002 -2.2624e+001 39702 94913,94991,94939
 1.1000e+000 95066 -4.4503e+002 -1.6598e+002 -1.9683e+001 39702 94913,95017,94991
 1.1000e+000 95043 -5.1431e+002 -2.1488e+002 -3.7824e+001 39702 94939,94991,94965
 1.1000e+000 95339 -2.8134e+002  1.0443e+001  4.7325e+001 39248 95140,95218,95166
 1.1000e+000 95316 -3.8172e+002 -4.4766e+001  6.9417e+001 39248 95140,95244,95218
 1.1000e+000 95293 -1.8638e+002 -1.4547e+001  6.0207e+001 39248 95114,95244,95140
 1.1000e+000 95270 -4.4492e+002 -1.2121e+001  7.5588e+001 39248 95166,95218,95192
 1.1000e+000 95770 -9.0734e+000 -1.5697e-001 -6.5941e+000 38694 95551,95629,95577
 1.1000e+000 95747 -4.3159e+001 -1.0521e+000 -1.5207e+001 38694 95447,95629,95551
 1.1000e+000 95724 -4.8155e+001 -4.6788e-001  7.3070e+000 38694 95447,95551,95473
 1.1000e+000 95701 -1.5651e+001 -5.4040e-001  5.0655e-001 38694 95473,95551,95499
 1.1000e+000 95678 -1.8188e+001 -5.6851e-001 -1.6881e+000 38694 95499,95551,95525
 1.1000e+000 95655 -5.5927e+000  1.8849e+000  6.8502e-001 38694 95577,95629,95603
 1.1000e+000 96325 -3.0501e+002 -5.0644e+001 -5.7149e+001 38240 95953,96031,96005
 1.1000e+000 96302 -2.6444e+002 -8.8760e+001 -1.0376e+002 38240 95953,96161,96031
 1.1000e+000 96279 -2.5209e+002 -6.3859e+001 -1.0768e+002 38240 96031,96161,96135
 1.1000e+000 96256 -4.2957e+002 -1.0132e+002  3.6229e+001 38240 96348,96109,96057
 1.1000e+000 96233 -4.1142e+002 -2.7326e+002 -1.4901e+002 38240 96348,96057,96031
 1.1000e+000 96210 -4.2294e+002 -4.5908e+001  3.0125e+001 38240 96057,96109,96083
 1.1000e+000 96187 -1.1382e+002 -2.9498e+001  4.9524e+001 38240 95953,96005,95979
 1.1000e+000 96374 -2.7654e+002  3.7610e+001  9.5532e+001 38240 96135,96109,96348
 1.1000e+000 96397 -2.3146e+002 -1.3327e+002 -8.5621e+001 38240 96135,96348,96031
 1.1000e+000 96618 -2.8886e+002  5.9226e+001  1.4684e+001 37821 96494,96546,96520
 1.1000e+000 96595 -3.8526e+002 -7.2357e+001 -4.5236e+001 37821 96468,96546,96494
 1.1000e+000 96572 -4.5527e+002 -1.0229e+002 -4.0117e+001 37821 96442,96546,96468
 1.1000e+000 97126 -2.1315e+002 -1.9164e+001  1.5866e+001 37367 97149,96855,96829
 1.1000e+000 97103 -1.5371e+002  9.2543e+000  5.0287e+000 37367 97149,96829,96985
 1.1000e+000 97080 -1.6672e+002  1.3995e+001  8.3129e+000 37367 96803,96985,96829
 1.1000e+000 97057 -7.0679e+001 -2.1330e+001  4.5886e+001 37367 96855,96907,96881
 1.1000e+000 97034 -4.6322e+001  3.8552e+000 -7.1162e+000 37367 96907,96985,96959
 1.1000e+000 97011 -2.4158e+001 -1.1281e+000  9.0016e+000 37367 96907,96959,96933
 1.1000e+000 97175 -1.5283e+002 -4.8367e+001  4.3437e+001 37367 96907,96855,97149
 1.1000e+000 97198 -1.1060e+002 -2.6107e+001  3.4368e+001 37367 96907,97149,96985
 1.1000e+000 97704 -1.1739e+002 -3.4216e+001 -3.1015e+001 36863 97727,97511,97485
 1.1000e+000 97681 -1.1593e+002 -9.8485e+001 -8.8425e+001 36863 97727,97485,97433
 1.1000e+000 97658 -9.6080e+001 -8.1393e+001 -8.2832e+001 36863 97381,97563,97433
 1.1000e+000 97635 -9.9968e-001  1.4571e+001  6.2664e+000 36863 97511,97563,97537
 1.1000e+000 97612 -1.7018e+002 -7.3798e+001 -1.0776e+002 36863 97433,97485,97459
 1.1000e+000 97589 -9.0556e+001 -6.2684e+001 -8.2699e+001 36863 97381,97433,97407
 1.1000e+000 97753 -7.8727e+001  8.7103e+000 -8.7956e+000 36863 97563,97511,97727
 1.1000e+000 97776 -5.6631e+001 -4.3403e+001 -6.1394e+001 36863 97563,97727,97433
 1.1000e+000 98331 -7.8600e+001  1.7920e+001 -2.8705e+001 36287 98354,98089,98063
 1.1000e+000 98308 -3.8938e+001  1.6595e+000  3.3838e+001 36287 98354,98063,98011
 1.1000e+000 98285 -1.0520e+002  9.3265e+000 -1.2512e+001 36287 98426,97985,98115
 1.1000e+000 98262  8.9968e+000 -2.2116e+000  9.2080e+000 36287 98011,98063,98037
 1.1000e+000 98239 -2.2154e+002 -3.1996e+001 -2.5750e+000 36287 97985,98141,98115
 1.1000e+000 98216 -3.0954e+002 -9.3186e+000  3.1104e+001 36287 97959,98141,97985
 1.1000e+000 98193 -2.6085e+002 -8.2539e+000  2.5709e+001 36287 97959,98167,98141
 1.1000e+000 98380 -2.7484e+002 -1.9248e+001 -3.1792e+001 36287 98115,98089,98354
 1.1000e+000 98403 -1.0835e+002  9.3939e+000 -6.6169e+000 36287 98426,98115,98354
 1.1000e+000 98452 -1.0073e+002  1.8705e+001 -1.3871e+001 36287 98011,97985,98426
 1.1000e+000 98475 -1.0293e+002  2.0696e+001 -8.3043e+000 36287 98011,98426,98354
 1.1000e+000 99030 -8.8813e+001 -9.7559e+000 -5.9644e+000 35726 99053,98736,98710
 1.1000e+000 99007 -1.3484e+002 -4.6622e+000 -1.8046e+000 35726 99053,98710,98684
 1.1000e+000 98984 -7.9607e+001 -7.0631e+000 -1.5368e+001 35726 99125,98814,98736
 1.1000e+000 98961 -6.0916e+001 -1.5524e+001 -1.8259e+001 35726 98736,98814,98788
 1.1000e+000 98938 -1.9036e+002 -2.6088e+001 -2.1903e+001 35726 98684,98866,98840
 1.1000e+000 98915 -1.0461e+002 -2.7209e+001 -3.9511e+001 35726 98736,98788,98762
 1.1000e+000 98892 -1.4026e+002 -4.9757e+000 -1.4162e+001 35726 98658,98866,98684
 1.1000e+000 99079 -8.3457e+001 -9.0675e+000 -1.7422e+001 35726 99125,98736,99053
 1.1000e+000 99102 -1.0145e+002  8.0678e+000 -1.1291e+001 35726 98840,99053,98684
 1.1000e+000 99151 -7.5675e+001 -4.7014e+000 -1.1539e+001 35726 98840,98814,99125
 1.1000e+000 99174 -7.9018e+001 -8.5211e+000 -1.4009e+001 35726 98840,99125,99053
 1.1000e+000 99454 -6.7755e+001 -3.6374e+000 -2.2089e+001 35222 99278,99330,99304
 1.1000e+000 99431 -1.1990e+002 -1.7151e+001  4.0316e+001 35222 99278,99382,99330
 1.1000e+000 99408 -2.0593e+002  6.0965e+000  2.1861e+001 35222 99330,99382,99356
 1.1000e+000 99653 -3.5450e+002 -6.9462e+001 -2.8265e+001 34867 99477,99529,99503
 1.1000e+000 99630 -2.7536e+002 -1.0343e+002 -2.8036e+001 34867 99477,99581,99529
 1.1000e+000 99607 -2.2597e+002 -1.3825e+001 -5.0225e+001 34867 99529,99581,99555
 1.1000e+000 100104 -2.0173e+002  4.0701e+001 -2.2055e+001 34363 99781,99885,99807
 1.1000e+000 100081 -1.8070e+002  3.2450e+001  2.4708e+001 34363 99781,99963,99885
 1.1000e+000 100058 -3.1435e+002  3.1180e+001  4.0391e+001 34363 99885,99963,99911
 1.1000e+000 100035 -3.2811e+002  5.5399e+001 -4.4654e+001 34363 99807,99885,99859
 1.1000e+000 100012 -2.3185e+002  5.4530e+001  1.0644e+002 34363 99911,99963,99937
 1.1000e+000 99989 -2.7629e+002  3.5031e+001 -1.8902e+002 34363 99807,99859,99833
 1.1000e+000 100303 -1.3400e+002  9.6767e-001 -2.9833e+000 33909 100127,100205,100179
 1.1000e+000 100280 -1.6529e+002  2.1920e-001 -6.0342e+000 33909 100127,100231,100205
 1.1000e+000 100257 -1.3468e+002 -1.0023e+000 -4.6564e+000 33909 100127,100179,100153
 1.1000e+000 100890 -1.5478e+002 -8.0672e+001 -5.9068e+000 33412 100645,100749,100697
 1.1000e+000 100867 -1.7388e+002 -9.3747e+001 -1.7393e+001 33412 100567,100749,100645
 1.1000e+000 100844 -1.4595e+002 -4.1860e+001 -2.8104e+001 33412 100567,100645,100619
 1.1000e+000 100821 -2.3719e+002 -7.6452e+001  9.1560e+000 33412 100645,100697,100671
 1.1000e+000 100798 -2.0730e+002 -6.2191e+001 -8.7703e+001 33412 100567,100619,100593
 1.1000e+000 100775 -1.7653e+002 -5.9360e+001 -6.1898e-001 33412 100697,100749,100723
 1.1000e+000 101268 -2.6760e+002 -2.8567e+000 -2.7866e+001 32908 101435,101291,101098
 1.1000e+000 101245 -2.1919e+002 -1.1154e+001  6.3552e+000 32908 101291,101072,101020
 1.1000e+000 101222 -3.8945e+002 -5.6519e+001 -2.1772e+001 32908 101363,101150,101124
 1.1000e+000 101199 -2.2147e+002 -6.1039e+001 -6.4862e+001 32908 101020,101072,101046
 1.1000e+000 101176 -2.3415e+002 -7.5961e+001  4.1496e+001 32908 100994,101150,101020
 1.1000e+000 101317 -1.9309e+002  2.5935e+001 -3.9225e+001 32908 101124,101098,101291
 1.1000e+000 101340 -2.9484e+002 -3.5355e+000 -4.5014e+001 32908 101363,101124,101291
 1.1000e+000 101389 -3.3631e+002 -8.7237e+001  4.7030e+001 32908 101020,101150,101363
 1.1000e+000 101412 -3.0921e+002 -7.1261e+001  3.3739e+001 32908 101020,101363,101291
 1.1000e+000 101461 -2.8592e+002 -4.1174e+001 -9.5758e+000 32908 101072,101291,101435
 1.1000e+000 101918 -2.2965e+002 -7.9491e+001 -8.7114e+001 32618 101941,101670,101644
 1.1000e+000 101895 -1.2156e+002 -2.7413e+001 -2.3911e+001 32618 101941,101644,101774
 1.1000e+000 101872 -4.2989e+002 -6.7694e+000 -2.6124e+001 32618 102013,101696,101670
 1.1000e+000 101849 -2.1863e+002  2.0324e+001 -1.4413e+001 32618 101696,101748,101722
 1.1000e+000 101826 -1.0426e+002 -1.5364e+001 -3.5341e+001 32618 101644,101800,101774
 1.1000e+000 101967 -4.0372e+002 -3.8721e+001 -8.3831e+001 32618 102013,101670,101941
 1.1000e+000 101990 -2.2199e+002  3.0365e+001 -8.3658e+001 32618 101748,101941,101774
 1.1000e+000 102039 -3.6500e+002 -2.2686e+001 -4.8671e+001 32618 101748,101696,102013
 1.1000e+000 102062 -2.3540e+002  2.0863e+000 -9.1991e+001 32618 101748,102013,101941
 1.1000e+000 102440 -4.3061e+001 -6.8156e+000 -2.2636e-001 32306 102463,102270,102244
 1.1000e+000 102417 -4.3637e+001 -4.4332e+000 -1.1658e+001 32306 102463,102244,102192
 1.1000e+000 102394 -5.1862e+001 -3.0406e+000 -8.4404e+000 32306 102192,102244,102218
 1.1000e+000 102371 -1.1463e+001 -7.3097e-002 -5.7895e+000 32306 102270,102322,102296
 1.1000e+000 102348 -4.7075e+001  3.6818e+000 -9.5478e+000 32306 102166,102322,102192
 1.1000e+000 102489 -3.2733e+001 -2.4001e+000 -6.9137e-001 32306 102322,102270,102463
 1.1000e+000 102512 -3.2344e+001  3.9752e-001 -1.2710e+001 32306 102322,102463,102192
 1.1000e+000 102662 -1.4710e+002 -1.1112e+002  9.5915e+001 31852 102943,102587,102561
 1.1000e+000 102639 -3.2802e+002  2.6207e+000  3.5533e+001 31852 102815,102685,102561
 1.1000e+000 102711 -2.1620e+002 -2.8666e+001  1.2810e+002 31852 102943,102561,102685
 1.1000e+000 102841 -1.2925e+002  2.2062e+001  4.2883e+001 31852 102535,102685,102815
 1.1000e+000 102969 -9.9179e+001 -3.7798e+001  5.4044e+001 31852 102613,102587,102943
 1.1000e+000 102992 -1.7904e+002  2.2986e+001  9.0479e+001 31852 102613,102943,102685
 1.1000e+000 103370 -1.2933e+002 -6.3088e+001  6.8422e+001 31134 103096,103200,103122
 1.1000e+000 103347 -1.5887e+002 -4.0612e+001 -6.7032e+001 31134 103096,103226,103200
 1.1000e+000 103324 -2.6105e+002 -1.9288e+001  2.6330e+001 31134 103122,103200,103174
 1.1000e+000 103301 -2.8094e+002 -2.4987e+001 -2.8192e+001 31134 103096,103252,103226
 1.1000e+000 103278 -3.5130e+002 -7.5807e+000  1.4442e+002 31134 103122,103174,103148
 1.1000e+000 103520 -5.7811e+002 -9.9641e+001 -2.3306e+001 30822 103393,103445,103419
 1.1000e+000 103497 -5.8266e+002 -1.2866e+002 -2.5268e+001 30822 103393,103471,103445
 1.1000e+000 103719 -2.3515e+002  2.7557e+001 -3.3349e+000 30182 103742,103621,103569
 1.1000e+000 103696 -3.2859e+002  5.3718e+001 -1.9260e+001 30182 103742,103569,103543
 1.1000e+000 103673 -1.7963e+002  7.6525e+001  9.1560e+001 30182 103569,103621,103595
 1.1000e+000 103768 -1.9026e+002  3.8183e+001 -6.6489e+000 30182 103647,103621,103742
 1.1000e+000 103791 -2.3220e+002  1.0027e+002 -3.9606e+001 30182 103647,103742,103543
 1.1000e+000 104252 -8.0119e+001 -2.9797e+001  1.4500e+001 29728 104030,104108,104056
 1.1000e+000 104229 -8.9424e+001 -1.8329e+001 -5.8083e+000 29728 104004,104108,104030
 1.1000e+000 104206 -5.3245e+001 -6.8129e+000  9.1837e-001 29728 104004,104134,104108
 1.1000e+000 104183 -4.6694e+001  1.4135e+001 -2.8420e+000 29728 103978,104134,104004
 1.1000e+000 104160 -6.2605e+001 -9.7434e+000  6.9177e+000 29728 104056,104108,104082
 1.1000e+000 104630 -3.6954e+002 -8.0986e+001  1.6032e+002 29217 104653,104382,104356
 1.1000e+000 104607 -3.6444e+002 -2.8978e+001  8.8401e+000 29217 104653,104356,104512
 1.1000e+000 104584 -1.1211e+002 -2.2797e+001  3.1344e+001 29217 104434,104512,104486
 1.1000e+000 104561 -2.7855e+002  6.5260e+001  9.2512e+001 29217 104382,104434,104408
 1.1000e+000 104538 -5.2627e+001 -2.4477e+001  2.1616e+001 29217 104434,104486,104460
 1.1000e+000 104679 -2.6293e+002 -3.6807e+001  1.1695e+002 29217 104434,104382,104653
 1.1000e+000 104702 -2.2273e+002 -1.3344e+001 -1.8001e+001 29217 104434,104653,104512
 1.1000e+000 105178 -2.1345e+002  7.1811e-002 -2.3834e+000 28649 105201,104962,104936
 1.1000e+000 105155 -1.7663e+002 -1.5855e+001 -2.5905e+001 28649 105201,104936,104884
 1.1000e+000 105132 -1.6424e+002 -2.3056e+001 -6.7626e+000 28649 105273,104858,105014
 1.1000e+000 105109 -1.6475e+002  1.1483e+000  2.9511e+001 28649 104962,105014,104988
 1.1000e+000 105086 -3.1593e+002 -6.7093e+001 -3.0571e+001 28649 104884,104936,104910
 1.1000e+000 105063 -9.7321e+001 -2.1999e+001 -1.4297e+001 28649 104806,105014,104858
 1.1000e+000 105040 -1.3888e+002 -6.5089e+001 -3.2748e+001 28649 104806,104858,104832
 1.1000e+000 105227 -1.6374e+002  3.2679e+001  1.4304e+001 28649 105014,104962,105201
 1.1000e+000 105250 -1.7174e+002 -1.4818e+001 -1.2507e+001 28649 105273,105014,105201
 1.1000e+000 105299 -1.5884e+002 -1.5380e+001 -1.3012e+001 28649 104884,104858,105273
 1.1000e+000 105322 -1.5982e+002 -2.5759e+000 -2.0131e+001 28649 104884,105273,105201
 1.1000e+000 105673 -6.2182e+002 -4.9777e+000 -1.2282e+000 28351 105474,105578,105552
 1.1000e+000 105650 -5.9670e+002  2.7976e+001  1.2610e+001 28351 105448,105578,105474
 1.1000e+000 105627 -6.4140e+002  4.7002e+000 -5.2144e+001 28351 105500,105552,105526
 1.1000e+000 105604 -5.9563e+002  7.2220e+000 -4.4604e+000 28351 105474,105552,105500
 1.1000e+000 106130 -1.3480e+002  2.7152e+000 -1.2541e+001 28004 106153,105882,105856
 1.1000e+000 106107 -1.9157e+002 -1.3493e+001 -4.9159e+001 28004 106153,105856,105986
 1.1000e+000 106084 -1.4467e+002 -2.0015e+001 -2.9181e+000 28004 105934,105986,105960
 1.1000e+000 106061 -1.5630e+002 -6.3649e+001 -6.5752e+001 28004 105856,106012,105986
 1.1000e+000 106038 -3.5692e+001  6.0825e-001  9.6187e-001 28004 105882,105934,105908
 1.1000e+000 106179 -3.7959e+001 -3.7023e+000  8.2590e+000 28004 105934,105882,106153
 1.1000e+000 106202 -1.2244e+002 -2.1064e+001 -1.5691e+001 28004 105934,106153,105986
 1.1000e+000 106885 -1.2961e+002  1.0248e+001 -7.3740e+000 27564 106908,106620,106516
 1.1000e+000 106862 -3.5641e+002 -6.7562e+000 -1.5683e+000 27564 106908,106516,106490
 1.1000e+000 106839 -3.2802e+002 -9.1855e+001  3.8088e+001 27564 106516,106620,106542
 1.1000e+000 106816 -1.2049e+002 -9.5542e+000  1.2467e+002 27564 106620,106672,106646
 1.1000e+000 106793 -2.7008e+002 -1.2166e+002  1.6281e+001 27564 106542,106620,106594
 1.1000e+000 106770 -2.9065e+002  2.6382e+001  6.3995e+000 27564 106490,106698,106672
 1.1000e+000 106747 -2.1832e+002 -8.6328e+001  8.8165e+001 27564 106464,106698,106490
 1.1000e+000 106724 -4.1535e+002 -2.9495e+002  1.4286e+002 27564 106542,106594,106568
 1.1000e+000 106934 -4.3105e+001 -8.4776e+000 -8.2140e+000 27564 106672,106620,106908
 1.1000e+000 106957 -1.4648e+002  6.4187e+001 -2.6183e+001 27564 106672,106908,106490
 1.1000e+000 107463 -4.7745e+001 -2.9027e+001 -6.4301e+000 27053 107218,107322,107296
 1.1000e+000 107440 -3.6005e+001 -1.0701e-001  2.4467e-001 27053 107166,107322,107218
 1.1000e+000 107417 -4.2292e+001 -2.3313e+000 -3.3937e+000 27053 107218,107296,107244
 1.1000e+000 107394 -2.1489e+001 -3.9940e+000  1.2677e+000 27053 107140,107322,107166
 1.1000e+000 107371 -9.1179e+000 -4.2361e+000  1.5064e-001 27053 107166,107218,107192
 1.1000e+000 107348 -5.0850e+001 -1.0395e+001  2.9792e+000 27053 107244,107296,107270
 1.1000e+000 108097 -2.1441e+002 -2.6840e+001 -5.0596e+001 26549 108192,108120,107803
 1.1000e+000 108074 -2.8238e+002 -1.5589e+001 -5.2906e+001 26549 108120,107725,107933
 1.1000e+000 108051 -1.1736e+002 -6.4926e+001 -1.6753e+001 26549 107751,107803,107777
 1.1000e+000 108028 -2.2782e+002 -2.1952e+001 -3.8688e+001 26549 108192,107803,107751
 1.1000e+000 108005 -3.4174e+002 -1.3113e+002 -1.0260e+002 26549 108264,107855,107803
 1.1000e+000 107982 -2.3463e+002 -6.0638e+001 -2.2107e+001 26549 107881,107933,107907
 1.1000e+000 107959 -2.7640e+002 -1.0055e+002 -1.1087e+002 26549 107803,107855,107829
 1.1000e+000 108146 -2.5194e+002 -8.2344e+001 -8.0035e+001 26549 108264,107803,108120
 1.1000e+000 108169 -2.5797e+002  2.8263e+001 -2.9883e+001 26549 107881,108120,107933
 1.1000e+000 108218 -2.4153e+002 -3.3734e+001 -5.0177e+001 26549 107725,108120,108192
 1.1000e+000 108241 -2.5206e+002 -2.6408e+001 -3.8880e+001 26549 107725,108192,107751
 1.1000e+000 108290 -4.1457e+002 -4.9841e+001 -7.4867e+001 26549 107881,107855,108264
 1.1000e+000 108313 -3.5056e+002 -1.5752e+001 -5.2794e+001 26549 107881,108264,108120
 1.1000e+000 108512 -2.7120e+002 -8.6920e+000  4.9812e+001 26137 108388,108440,108414
 1.1000e+000 108489 -3.0301e+002 -5.6538e+001  2.5275e+001 26137 108362,108440,108388
 1.1000e+000 108466 -3.9530e+002 -9.8090e+001  3.7666e+000 26137 108336,108440,108362
 1.1000e+000 108662 -2.4001e+002  1.5206e+001  1.8471e-001 25733 108817,108685,108535
 1.1000e+000 108639 -2.6822e+002  3.4062e+001 -1.1706e+001 25733 109017,108817,108535
 1.1000e+000 108711 -2.1581e+002  2.7985e+001 -1.9704e+001 25733 108561,108535,108685
 1.1000e+000 108843 -2.7662e+002  1.5872e+001 -1.7704e+001 25733 108587,108685,108817
 1.1000e+000 108866 -2.6269e+002  2.2053e+001 -1.3795e+001 25733 108889,108817,108613
 1.1000e+000 108915 -3.0905e+002 -2.7637e+000 -2.3926e+000 25733 108587,108817,108889
 1.1000e+000 109043 -2.7570e+002 -1.5371e+001 -2.2048e+001 25733 108613,108817,109017
 1.1000e+000 109500 -6.2559e+001 -5.9690e+000 -9.4337e+000 25229 109523,109356,109330
 1.1000e+000 109477 -6.5141e+001 -6.8950e+000 -7.3914e+000 25229 109595,109523,109330
 1.1000e+000 109454 -6.7660e+001 -2.3483e+001  6.4553e+000 25229 109595,109330,109278
 1.1000e+000 109431 -6.7820e+001  3.2751e+001 -1.9330e+001 25229 109667,109226,109382
 1.1000e+000 109408 -1.1141e+002 -1.4151e+001  2.0322e+001 25229 109278,109330,109304
 1.1000e+000 109549 -2.1365e+001  7.6085e+000 -1.1580e+000 25229 109382,109356,109523
 1.1000e+000 109572 -5.1345e+001  4.3658e+000 -2.5409e+001 25229 109667,109382,109523
 1.1000e+000 109621 -6.9328e+001  1.2401e+001 -6.0920e+000 25229 109252,109523,109595
 1.1000e+000 109644 -6.8442e+001  1.8071e+000  2.6567e+000 25229 109739,109595,109278
 1.1000e+000 109693 -1.6379e+002 -5.7627e+000  2.3773e+000 25229 109252,109226,109667
 1.1000e+000 109716 -9.5882e+001  2.7895e-001 -3.1478e+000 25229 109252,109667,109523
 1.1000e+000 109765 -6.9607e+001 -3.9058e+000 -6.1558e+000 25229 109252,109595,109739
 1.1000e+000 110478 -9.0031e+001 -8.2880e+000 -6.9377e-001 24917 110158,110236,110184
 1.1000e+000 110455 -3.6857e+001  1.3957e+001 -3.9912e-001 24917 110158,110288,110236
 1.1000e+000 110432 -6.5317e+001  4.3732e+000  5.9619e+000 24917 110236,110288,110262
 1.1000e+000 110409 -3.7262e+001 -8.9214e+000  1.7995e+001 24917 110184,110236,110210
 1.1000e+000 110386 -3.5220e+001 -1.6687e+000  5.1529e+000 24917 110132,110288,110158
 1.1000e+000 110363 -8.2139e+000  7.6478e+000  1.6175e+000 24917 110132,110314,110288
 1.1000e+000 110340 -1.2437e+001 -1.5645e+000  9.2923e-001 24917 110106,110314,110132
 1.1000e+000 110829 -4.8347e+002 -2.0080e+002  6.0165e+001 24307 110604,110682,110630
 1.1000e+000 110806 -3.9277e+002 -1.0166e+002  1.5337e+001 24307 110604,110708,110682
 1.1000e+000 110783 -3.3191e+002 -6.0568e+001 -2.5411e+001 24307 110604,110734,110708
 1.1000e+000 110760 -7.1887e+002 -3.0188e+002  6.9947e+001 24307 110630,110682,110656
 1.1000e+000 111335 -7.4894e+001 -8.8997e+000  2.2549e+000 23767 111012,111168,111038
 1.1000e+000 111312 -7.3349e+001 -1.5265e+000  2.5244e+000 23767 111012,111194,111168
 1.1000e+000 111289 -3.1634e+001  2.1883e+001 -4.3932e+001 23767 111358,111064,111038
 1.1000e+000 111266 -7.1412e+001  5.4988e+000 -6.4560e+000 23767 111358,111038,111168
 1.1000e+000 111243 -1.0218e+002 -2.4644e+001 -9.5179e+000 23767 111430,111142,111090
 1.1000e+000 111220 -9.1070e+001 -1.9224e+001  2.3131e+000 23767 111090,111142,111116
 1.1000e+000 111384 -6.3542e+001  1.8701e+000 -1.5651e+001 23767 111090,111064,111358
 1.1000e+000 111407 -6.0597e+001 -1.5560e+001 -3.0021e+000 23767 111430,111090,111358
 1.1000e+000 111456 -1.4278e+002 -2.0274e+000  2.7719e-001 23767 111168,111142,111430
 1.1000e+000 111479 -1.1889e+002 -6.7559e+000  2.8976e+000 23767 111168,111430,111358
 1.1000e+000 111985 -2.0438e+002 -6.9353e+001  5.6063e+000 23477 111688,111844,111818
 1.1000e+000 111962 -1.9117e+002 -3.9835e+001  1.9141e+000 23477 111662,111844,111688
 1.1000e+000 111939 -7.8649e+001  2.0868e+001  4.7589e+001 23477 111766,111818,111792
 1.1000e+000 111916 -3.0565e+002 -2.2881e+001  6.2135e+001 23477 111740,111818,111766
 1.1000e+000 111893 -3.2960e+002 -9.8720e+001 -2.4709e+001 23477 111688,111818,111740
 1.1000e+000 111870 -3.3665e+002 -5.9778e+001 -4.7331e+001 23477 111688,111740,111714
 1.1000e+000 112314 -2.6970e+002 -1.7092e+001 -2.1121e+001 23023 112141,112219,112193
 1.1000e+000 112291 -2.5555e+002 -8.8936e+001 -3.6535e+001 23023 112115,112219,112141
 1.1000e+000 112268 -2.3876e+002 -2.3571e+001  7.9969e+000 23023 112141,112193,112167
 1.1000e+000 112245 -1.8768e+002 -5.4231e+001 -5.8315e+000 23023 112089,112219,112115
 1.1000e+000 112692 -2.4057e+002 -1.0407e+001 -5.9165e+001 22768 112444,112574,112548
 1.1000e+000 112669 -3.6710e+002  6.1841e+000 -1.0215e+002 22768 112418,112574,112444
 1.1000e+000 112646 -1.1904e+002 -3.5271e+001 -5.4291e+001 22768 112444,112522,112470
 1.1000e+000 112623 -2.7602e+002 -1.1310e+001 -6.0701e+000 22768 112444,112548,112522
 1.1000e+000 112600 -1.8306e+002 -7.4802e+001  3.4614e+001 22768 112470,112522,112496
 1.1000e+000 113011 -6.2609e+002  8.0844e+001 -1.3234e+002 22314 112763,112867,112789
 1.1000e+000 112988 -7.6918e+002 -9.9753e+001 -6.7996e+001 22314 112763,112893,112867
 1.1000e+000 112965 -8.6904e+002 -7.0446e+001  0.0000e+000 22314 112815,112867,112841
 1.1000e+000 112942 -9.5701e+002 -7.8044e+001 -7.6043e+001 22314 112789,112867,112815
 1.1000e+000 112919 -5.2114e+002 -4.0126e+001 -1.1997e+002 22314 112737,112893,112763
 1.1000e+000 113519 -8.5786e+001 -1.4654e+001  1.0116e+001 21924 113614,113542,113248
 1.1000e+000 113496 -4.2612e+001  2.0255e+001 -7.0585e+000 21924 113542,113196,113378
 1.1000e+000 113473 -6.3688e+001 -2.4427e+001  1.3636e+001 21924 113614,113248,113222
 1.1000e+000 113450 -1.2303e+002 -8.8412e-002  1.7917e+001 21924 113686,113274,113248
 1.1000e+000 113427 -1.4592e+002 -2.4284e+000  1.6194e+001 21924 113274,113352,113326
 1.1000e+000 113404 -1.0528e+002 -2.3925e+001  4.8323e+001 21924 113274,113326,113300
 1.1000e+000 113568 -1.0453e+002  2.5042e+000  3.4411e+001 21924 113686,113248,113542
 1.1000e+000 113591 -6.6753e+001 -8.6485e-001  3.7606e+001 21924 113352,113542,113378
 1.1000e+000 113640 -6.4282e+001  8.9326e-001  1.9176e+001 21924 113196,113542,113614
 1.1000e+000 113663 -5.2176e+001 -1.4689e+001  2.2543e+001 21924 113196,113614,113222
 1.1000e+000 113712 -1.4366e+002  5.0326e+000  1.6231e+001 21924 113352,113274,113686
 1.1000e+000 113735 -1.3663e+002 -1.2137e+000  3.2579e+001 21924 113352,113686,113542
 1.1000e+000 113885 -5.5825e+001 -2.6323e+001  3.5541e+001 21520 113980,113908,113784
 1.1000e+000 113862 -8.8978e+001 -9.4885e+001  3.0240e+001 21520 114238,113908,113758
 1.1000e+000 113934 -7.4796e+001 -1.6910e+001  5.6388e+001 21520 114110,113908,113810
 1.1000e+000 113957 -5.5159e+001 -9.9491e+000  3.3142e+001 21520 113810,113908,113836
 1.1000e+000 114006 -6.3660e+001 -3.9046e+001  4.0768e+001 21520 113758,113908,113980
 1.1000e+000 114136 -8.6612e+001 -2.5022e+001  5.1272e+001 21520 113784,113908,114110
 1.1000e+000 114264 -1.0350e+002 -3.0411e+001  4.5690e+001 21520 113836,113908,114238
 1.1000e+000 114662 -3.0264e+002 -5.9295e+001  2.9249e+000 21030 114414,114518,114492
 1.1000e+000 114639 -4.7353e+002 -1.2095e+002  7.0809e+001 21030 114414,114544,114518
 1.1000e+000 114616 -1.0198e+002  1.6085e+001  5.6673e+000 21030 114440,114492,114466
 1.1000e+000 114593 -3.0861e+002 -7.1711e+001  7.5155e+000 21030 114414,114492,114440
 1.1000e+000 114570 -2.5948e+002 -3.1060e+001  7.1447e+001 21030 114388,114544,114414
 1.1000e+000 114959 -3.6008e+002 -4.2003e+000 -2.1246e+001 20512 114982,114711,114685
 1.1000e+000 114936 -3.5408e+002 -1.2038e+001 -4.9404e+001 20512 115054,114982,114685
 1.1000e+000 114913 -3.3251e+002  2.5921e+000 -5.8705e+001 20512 115054,114685,114841
 1.1000e+000 114890 -2.6902e+001  6.0459e+001  2.1023e+001 20512 114711,114763,114737
 1.1000e+000 114867 -2.5266e+002  1.7493e+001 -1.1474e+001 20512 114763,114815,114789
 1.1000e+000 115008 -3.3176e+002  1.2576e+001 -1.0588e+001 20512 114763,114711,114982
 1.1000e+000 115031 -3.3593e+002 -3.0934e+001 -3.1485e+001 20512 114763,114982,114815
 1.1000e+000 115080 -3.4085e+002 -1.5082e+001 -4.3791e+001 20512 114815,114982,115054
 1.1000e+000 115103 -3.3915e+002 -1.6422e+001 -4.4253e+001 20512 114815,115054,114841
 1.1000e+000 115507 -1.3961e+002 -9.8898e+001 -2.2888e+001 20143 115285,115389,115363
 1.1000e+000 115484 -1.1014e+002 -2.1152e+001 -3.0729e+001 20143 115259,115389,115285
 1.1000e+000 115461 -1.6921e+002 -9.7202e+001 -6.4603e+001 20143 115233,115389,115259
 1.1000e+000 115438 -1.5024e+002 -1.4818e+001  8.5727e+000 20143 115285,115337,115311
 1.1000e+000 115415 -1.0780e+002 -3.9042e+001 -6.9384e+000 20143 115285,115363,115337
 1.1000e+000 115875 -5.2254e+001 -2.0278e+000  3.3752e+000 19632 115656,115734,115682
 1.1000e+000 115852 -3.5489e+001  1.5509e+001  1.1155e+001 19632 115552,115734,115656
 1.1000e+000 115829 -4.4522e+001  9.1664e-002 -2.0164e+001 19632 115552,115656,115578
 1.1000e+000 115806 -9.1683e+001  8.5170e+000 -1.6420e+000 19632 115578,115656,115630
 1.1000e+000 115783 -2.2204e+001  1.1286e+001 -2.1063e+001 19632 115682,115734,115708
 1.1000e+000 115760 -7.7344e+001 -5.3501e+000  2.1511e+001 19632 115578,115630,115604
 1.1000e+000 116025 -2.3098e+002 -2.5745e+001  1.5212e+001 19178 115898,115950,115924
 1.1000e+000 116002 -2.3727e+002 -2.1466e+001  2.4376e+001 19178 115898,115976,115950
 1.1000e+000 116633 -1.7170e+002  2.6239e+001  4.5179e-001 18738 116800,116656,116342
 1.1000e+000 116610 -1.5494e+002  6.0065e+001 -6.5620e+001 18738 116656,116238,116446
 1.1000e+000 116587 -1.4441e+002 -1.1645e+001  1.4155e+001 18738 116728,116368,116342
 1.1000e+000 116564 -1.8413e+002  1.9293e+000  1.3648e+001 18738 116800,116342,116264
 1.1000e+000 116541 -1.1378e+002  6.1852e+002 -2.1659e+002 18738 116212,116446,116238
 1.1000e+000 116518 -1.0199e+002  9.8100e+000 -9.9938e+001 18738 116394,116446,116420
 1.1000e+000 116495 -4.7173e+002 -1.1737e+002  1.3308e+001 18738 116264,116342,116316
 1.1000e+000 116472 -1.3228e+002  2.0440e+001  2.9486e+000 18738 116264,116316,116290
 1.1000e+000 116682 -1.4263e+002  2.4997e+000 -1.8223e+001 18738 116728,116342,116656
 1.1000e+000 116705 -1.6406e+002 -2.8813e+001 -7.2270e+001 18738 116394,116656,116446
 1.1000e+000 116754 -9.9975e+001  1.0813e+001 -7.7739e+000 18738 116394,116368,116728
 1.1000e+000 116777 -9.1287e+001  3.0293e+001 -4.0949e+001 18738 116394,116728,116656
 1.1000e+000 116826 -1.8787e+002  8.0191e+001 -2.6125e+001 18738 116238,116656,116800
 1.1000e+000 116849 -2.1559e+002  4.7386e+001 -8.3628e+000 18738 116238,116800,116264
 1.1000e+000 116999  3.3880e+001  2.4060e+001 -4.1571e+001 18184 116872,116924,116898
 1.1000e+000 116976 -4.2002e-001  3.6066e+001 -3.3879e+001 18184 116872,116950,116924
 1.1000e+000 117330 -1.3002e+002  2.1379e+001  1.0239e+001 17694 117157,117235,117183
 1.1000e+000 117307 -8.0409e+001  8.2598e+000  3.6714e+000 17694 117131,117235,117157
 1.1000e+000 117284 -8.7462e+001  1.2481e+001  6.3098e+000 17694 117105,117235,117131
 1.1000e+000 117261 -1.9467e+002 -4.7306e+000  3.3586e+001 17694 117183,117235,117209
 1.1000e+000 117480 -1.1657e+002 -5.2011e+001  3.6538e+001 17290 117353,117405,117379
 1.1000e+000 117457 -6.9180e+001 -5.4967e+000  1.7693e+001 17290 117353,117431,117405
 1.1000e+000 117679 -2.6946e+002 -1.3715e+002  4.9912e+000 16718 117555,117607,117581
 1.1000e+000 117656 -6.5191e+001 -5.7695e+001 -2.1070e+001 16718 117529,117607,117555
 1.1000e+000 117633 -1.0222e+002 -2.4542e+001 -2.9484e-001 16718 117503,117607,117529
 1.1000e+000 117782 -2.3599e+002 -1.2984e+001 -1.4311e+001 16520 117704,117756,117730
 1.1000e+000 117983 -3.6787e+002 -2.2727e+002  1.4479e+001 16208 117859,117911,117885
 1.1000e+000 117960 -3.1818e+002 -1.5472e+002 -4.1073e+001 16208 117833,117911,117859
 1.1000e+000 117937 -1.2941e+002 -5.0260e+001  3.5731e+000 16208 117807,117911,117833
 1.1000e+000 118135 -3.3284e+001  2.7559e+001 -7.5656e+000 15674 118034,118086,118060
 1.1000e+000 118112 -2.0371e+002 -3.8990e+001 -1.3157e+001 15674 118008,118086,118034
 1.1000e+000 118238 -2.7691e+002  4.8768e+000 -6.3530e-001 15355 118160,118212,118186
 1.1000e+000 118341  2.3781e-001  9.4209e-001  2.4618e-001 421 118263,118315,118289
 1.2000e+000 68152  1.4532e+000  6.4487e-001  2.1082e-001 67838 68074,68126,68100
 1.2000e+000 68550 -2.2961e+002 -3.1813e+001  1.4094e+000 67526 68276,68380,68302
 1.2000e+000 68527 -4.0890e+001 -2.0722e+000 -9.9602e+000 67526 68276,68406,68380
 1.2000e+000 68504 -2.8728e+002 -5.3884e+001  7.3951e+000 67526 68328,68380,68354
 1.2000e+000 68481 -2.2922e+002 -3.0908e+001  1.3972e+000 67526 68302,68380,68328
 1.2000e+000 68458 -4.6165e+001 -1.4420e+000 -1.0177e+000 67526 68276,68432,68406
 1.2000e+000 68651 -4.2755e+000 -5.4691e+000 -3.3910e-001 67328 68573,68625,68599
 1.2000e+000 68970 -1.6964e+002 -5.8132e+001  7.4957e+000 67016 68722,68800,68774
 1.2000e+000 68947 -1.9637e+002 -6.0575e+001 -3.1774e+001 67016 68722,68826,68800
 1.2000e+000 68924 -2.9461e+002 -9.4650e+000 -1.6336e+001 67016 68696,68826,68722
 1.2000e+000 68901 -1.2566e+002 -3.5572e+001  1.5801e+001 67016 68722,68774,68748
 1.2000e+000 68878 -2.2099e+002 -2.2471e+001  6.9365e+001 67016 68696,68852,68826
 1.2000e+000 69291 -1.0927e+002 -4.1324e+000 -1.4210e+001 66654 69069,69147,69095
 1.2000e+000 69268 -6.1314e+001  5.3363e-001  5.0431e+000 66654 69069,69173,69147
 1.2000e+000 69245 -3.7354e+001 -5.8589e+000 -1.7724e+001 66654 69043,69173,69069
 1.2000e+000 69222 -1.2156e+002  4.8489e+000  7.7014e+000 66654 69095,69147,69121
 1.2000e+000 69199 -2.3070e+001 -1.4808e+000  4.8286e+000 66654 69017,69173,69043
 1.2000e+000 69695 -1.2742e+002 -2.4967e+001 -3.5727e+000 66456 69447,69577,69551
 1.2000e+000 69672 -1.5704e+002 -1.9556e+001 -1.0293e+001 66456 69421,69577,69447
 1.2000e+000 69649 -1.3071e+002 -4.3264e+001  9.6419e+000 66456 69473,69551,69525
 1.2000e+000 69626 -1.2828e+002 -2.2613e+001  2.0035e+000 66456 69447,69551,69473
 1.2000e+000 69603 -1.2854e+002 -2.3575e+001  2.3614e+001 66456 69473,69525,69499
 1.2000e+000 70024  3.0960e+001  7.5979e+000 -6.5124e+000 66258 70047,69851,69825
 1.2000e+000 70001  8.9044e+000 -2.1124e+001  1.4481e+001 66258 70047,69825,69903
 1.2000e+000 69978 -2.3587e+001 -2.1956e+001  2.2643e+001 66258 69799,69903,69825
 1.2000e+000 69955 -2.6207e+001 -7.5667e+001  2.6799e+001 66258 69799,69929,69903
 1.2000e+000 70073  1.5573e+001 -1.3686e+001  2.4693e+001 66258 69877,69851,70047
 1.2000e+000 70096 -1.5593e+001 -5.4800e+001  4.7321e+001 66258 69877,70047,69903
 1.2000e+000 70602 -4.0224e+002 -4.3126e+001  6.9639e+001 66060 70305,70435,70331
 1.2000e+000 70579 -3.1142e+001 -9.6629e+001 -4.7881e+001 66060 70279,70435,70305
 1.2000e+000 70556 -1.9256e+002  8.1748e+001  1.2636e+001 66060 70331,70435,70409
 1.2000e+000 70533  5.2602e+000  1.3506e+000 -6.0525e+001 66060 70279,70461,70435
 1.2000e+000 70510 -2.7513e+002 -4.5708e+001  4.8180e+001 66060 70331,70409,70357
 1.2000e+000 70487 -1.8071e+002 -1.1609e+001  5.3756e+001 66060 70357,70409,70383
 1.2000e+000 70703 -8.6522e+000 -1.8655e+001 -1.5282e+001 65862 70625,70677,70651
 1.2000e+000 71083 -2.2175e+001  1.1528e+001  1.1988e+001 65664 70887,70965,70939
 1.2000e+000 71060 -2.2884e+002 -5.5314e+001  7.6553e+001 65664 70861,70965,70887
 1.2000e+000 71037 -2.6686e+002  1.0415e+002  3.1735e+000 65664 70809,70965,70861
 1.2000e+000 71014 -3.2376e+002  7.6804e+001  6.7533e+001 65664 70809,70861,70835
 1.2000e+000 70991 -2.2328e+001  6.3915e-001  1.0136e+000 65664 70887,70939,70913
 1.2000e+000 71611  1.3078e+001 -7.2742e+001 -4.5490e+000 65260 71288,71444,71314
 1.2000e+000 71588 -3.9986e+001 -6.1515e+001  9.9690e+000 65260 71288,71470,71444
 1.2000e+000 71565 -5.7874e+001 -3.2001e+001 -3.9225e+001 65260 71314,71418,71392
 1.2000e+000 71542  2.8363e+001 -4.9142e+001 -1.5523e+001 65260 71314,71444,71418
 1.2000e+000 71519 -4.7418e+001 -1.5233e+001 -2.0905e+001 65260 71314,71392,71340
 1.2000e+000 71496 -9.2568e+001 -9.7862e+001 -1.2877e+002 65260 71340,71392,71366
 1.2000e+000 72060 -1.3350e+002  1.1040e+001 -2.5105e+000 64870 71737,71893,71789
 1.2000e+000 72037 -1.7103e+002 -4.4255e+000  2.6579e-001 64870 71737,71919,71893
 1.2000e+000 72014 -1.4656e+002 -2.6835e+001 -8.8747e+001 64870 71789,71841,71815
 1.2000e+000 71991 -1.5157e+002  5.7022e+001 -2.4982e+001 64870 71789,71893,71841
 1.2000e+000 71968 -1.2009e+002 -6.9799e+000 -2.9123e+001 64870 71737,71789,71763
 1.2000e+000 71945 -2.5585e+002  2.5486e+001  0.0000e+000 64870 71841,71893,71867
 1.2000e+000 72517 -1.0526e+002 -1.7941e+001  4.4796e+000 64466 72321,72399,72347
 1.2000e+000 72494 -5.2980e+001 -2.1287e+001  1.3419e+001 64466 72269,72399,72321
 1.2000e+000 72471 -1.0161e+002 -3.4668e+000 -6.1151e+000 64466 72347,72399,72373
 1.2000e+000 72448 -8.9306e+001 -4.0162e+001  4.9346e+000 64466 72243,72399,72269
 1.2000e+000 72425 -3.5748e+001 -2.8515e+000 -6.7311e+000 64466 72269,72321,72295
 1.2000e+000 72944 -1.2734e+002 -5.0728e+000  1.2581e+001 64062 73111,73039,72699
 1.2000e+000 72921 -1.4444e+002 -1.9584e+001  1.1392e+001 64062 73183,72967,72647
 1.2000e+000 72898 -1.3485e+002 -3.0620e+001  1.0552e+001 64062 72967,72803,72751
 1.2000e+000 72875 -1.4713e+002 -1.3253e+001  1.7969e+000 64062 73111,72699,72673
 1.2000e+000 72852 -1.5264e+002 -1.3387e+001  6.0337e+000 64062 73183,72647,72621
 1.2000e+000 72829 -1.3607e+002 -4.4615e+001  2.4573e+001 64062 72751,72803,72777
 1.2000e+000 72993 -1.4463e+002 -2.3254e+001  9.2610e+000 64062 73039,72647,72967
 1.2000e+000 73016 -1.0824e+002 -1.5085e+001  1.6944e+001 64062 72725,72967,72751
 1.2000e+000 73065 -1.4509e+002 -8.1330e+000  8.0975e+000 64062 72725,72699,73039
 1.2000e+000 73088 -1.4146e+002 -9.4165e+000  1.6332e+001 64062 72725,73039,72967
 1.2000e+000 73137 -1.6615e+002 -3.3705e+001  8.3349e-002 64062 72647,73039,73111
 1.2000e+000 73160 -1.7374e+002 -3.3741e+001 -7.6113e+000 64062 72647,73111,72673
 1.2000e+000 73209 -1.3069e+002 -1.5535e+001  1.1068e+001 64062 72803,72967,73183
 1.2000e+000 73232 -1.3963e+002 -1.0464e+001  3.3209e+000 64062 72803,73183,72621
 1.2000e+000 73333 -7.0456e+001  6.2464e+000  4.8589e+000 63814 73356,73281,73255
 1.2000e+000 73382 -2.3015e+002 -3.4298e+001  9.8317e+000 63814 73486,73356,73307
 1.2000e+000 73512 -8.8168e+001  2.6567e+001 -3.4021e+000 63814 73281,73356,73486
 1.2000e+000 73839 -8.1921e+001 -1.2526e+001  1.8038e+001 63616 73862,73692,73666
 1.2000e+000 73816 -1.1997e+002 -1.6422e+001  1.5335e+001 63616 73934,73862,73666
 1.2000e+000 73793 -1.3776e+002 -8.9401e+000 -2.0901e+000 63616 73934,73666,73640
 1.2000e+000 73770 -1.0734e+002  1.8877e+000 -3.5221e+000 63616 73614,73744,73640
 1.2000e+000 73888 -2.3523e+001 -7.8222e+000  3.6127e-001 63616 73718,73692,73862
 1.2000e+000 73911 -9.4547e+001 -3.6201e+001 -1.3968e+000 63616 73718,73862,73744
 1.2000e+000 73960 -8.9375e+001 -4.2890e+000  1.3150e+001 63616 73744,73862,73934
 1.2000e+000 73983 -1.0304e+002  5.6895e+000 -1.9415e+000 63616 73744,73934,73640
 1.2000e+000 74363 -1.6828e+002 -1.7931e+001 -2.8812e+001 63390 74386,74115,74089
 1.2000e+000 74340 -2.0556e+002  5.7988e+000 -3.0793e+001 63390 74458,74386,74089
 1.2000e+000 74317 -2.1345e+002  9.6953e+000 -4.6938e+001 63390 74458,74089,74245
 1.2000e+000 74294 -1.8083e+002 -8.0714e+001  1.7264e+001 63390 74530,74167,74141
 1.2000e+000 74271 -1.6313e+002 -3.5210e+001  3.6426e+001 63390 74167,74219,74193
 1.2000e+000 74412 -2.1394e+002 -5.5476e+001 -4.9153e+001 63390 74141,74115,74386
 1.2000e+000 74435 -2.3026e+002 -4.4134e+001 -2.4363e+001 63390 74530,74141,74386
 1.2000e+000 74484 -2.1981e+002 -1.7165e+001 -4.2411e+001 63390 74219,74386,74458
 1.2000e+000 74507 -2.3626e+002 -2.0500e+001 -6.0122e+001 63390 74219,74458,74245
 1.2000e+000 74556 -1.2614e+002 -5.1094e+001  5.9840e+000 63390 74219,74167,74530
 1.2000e+000 74579 -1.5846e+002 -4.2406e+000 -4.0021e+001 63390 74219,74530,74386
 1.2000e+000 74680  1.8159e+001  5.2315e+000 -1.3403e+001 63100 75089,74833,74703
 1.2000e+000 74729  1.7380e+001  9.3066e-001  2.0326e+000 63100 74961,74703,74654
 1.2000e+000 74859 -1.5353e+001  1.2564e+001 -1.0597e+001 63100 74602,74703,74833
 1.2000e+000 74987  2.3028e+001  7.2200e+000 -1.0482e+001 63100 75089,74703,74961
 1.2000e+000 75115  7.2911e+000  9.1294e+000 -1.7260e+001 63100 74628,74833,75089
 1.2000e+000 75138  1.2161e+001  1.1111e+001 -1.4338e+001 63100 74628,75089,74961
 1.2000e+000 75723 -4.4498e+001 -2.2489e+001  9.0746e-001 62532 75746,75504,75426
 1.2000e+000 75700 -1.0430e+002  6.4615e+000  3.9115e+001 62532 75746,75426,75556
 1.2000e+000 75677 -3.0875e+001  2.1796e+001 -4.9406e+000 62532 75426,75504,75452
 1.2000e+000 75654 -1.4554e+002 -1.0071e+001  4.1974e+001 62532 75400,75556,75426
 1.2000e+000 75631 -1.7307e+002 -1.0682e+002 -1.2926e+001 62532 75400,75582,75556
 1.2000e+000 75608  3.1163e+001 -1.1645e+001 -8.1204e+000 62532 75452,75504,75478
 1.2000e+000 75772 -1.1471e+002 -5.6992e+000  2.4752e-001 62532 75530,75504,75746
 1.2000e+000 75795 -2.0440e+002 -4.3183e-001  3.9713e+001 62532 75530,75746,75556
 1.2000e+000 76301 -7.2461e+001  3.3279e+000 -1.4836e+001 62192 76324,76082,76030
 1.2000e+000 76278 -4.3368e+001  1.9387e+001 -7.4776e+000 62192 76324,76030,76004
 1.2000e+000 76255 -8.1642e+001 -4.5080e+000 -3.5714e+000 62192 76030,76082,76056
 1.2000e+000 76232 -1.1768e+002  1.1577e+000 -1.6866e+001 62192 76082,76134,76108
 1.2000e+000 76209 -2.0745e+002 -1.4903e+001 -3.8127e+001 62192 76004,76160,76134
 1.2000e+000 76186 -3.2582e+001 -1.4338e+002  2.1577e+001 62192 75978,76160,76004
 1.2000e+000 76350 -1.0687e+002  2.9944e+001 -1.3361e+001 62192 76134,76082,76324
 1.2000e+000 76373 -7.9599e+001  4.8447e+001 -3.1259e+000 62192 76134,76324,76004
 1.2000e+000 76879  1.0696e+001  2.4994e+000  3.8481e+000 61788 76902,76660,76582
 1.2000e+000 76856 -1.8824e+000  8.5863e+000  8.5698e+000 61788 76902,76582,76556
 1.2000e+000 76833  1.2395e+001  1.2674e+001 -1.0435e+001 61788 76582,76660,76634
 1.2000e+000 76810  9.8834e+000  1.0521e+001 -9.5591e+000 61788 76582,76634,76608
 1.2000e+000 76787 -7.7825e+000  1.0491e+001  9.0531e+000 61788 76556,76738,76686
 1.2000e+000 76764  3.0154e+000 -8.8459e+000  1.1247e+001 61788 76686,76738,76712
 1.2000e+000 76928  1.4888e+001  7.3882e+000  2.0239e+000 61788 76686,76660,76902
 1.2000e+000 76951  5.9442e+000  1.7571e+001  5.1888e+000 61788 76686,76902,76556
 1.2000e+000 77408 -1.2029e+002 -1.7239e+001  6.3975e+001 61498 77212,77264,77238
 1.2000e+000 77385 -1.5495e+002  1.1350e+001 -6.2204e+001 61498 77160,77264,77212
 1.2000e+000 77362 -1.6252e+002 -2.6454e+001 -8.1919e+001 61498 77160,77290,77264
 1.2000e+000 77339 -2.7196e+002 -3.5455e+001 -3.5945e+001 61498 77160,77212,77186
 1.2000e+000 77316 -1.2309e+002 -3.0834e+001  4.5723e+001 61498 77134,77290,77160
 1.2000e+000 77678 -7.4559e+002  8.7546e+001  1.7218e+001 61129 77479,77557,77505
 1.2000e+000 77655 -7.3996e+002 -1.1308e+002  4.9146e+000 61129 77479,77583,77557
 1.2000e+000 77632 -6.7084e+002 -2.9718e+002  5.3609e+001 61129 77453,77583,77479
 1.2000e+000 77609 -6.6692e+002  2.3504e+002  1.5121e+002 61129 77505,77557,77531
 1.2000e+000 77828 -7.8842e+001 -1.9772e+001 -3.2425e+001 60931 77851,77727,77701
 1.2000e+000 77805 -5.1161e+001 -3.3798e+001 -2.5407e+001 60931 77851,77701,77779
 1.2000e+000 77877 -4.8472e+001 -1.0947e+001 -3.5247e+001 60931 77923,77851,77753
 1.2000e+000 77900 -7.0679e+000 -2.0231e-001 -9.3693e+000 60931 77753,77851,77779
 1.2000e+000 77949 -5.8270e+001 -3.0526e+001 -3.1062e+001 60931 77727,77851,77923
 1.2000e+000 78133 -3.8394e+002 -1.3776e+002  2.9243e+001 60377 78055,78107,78081
 1.2000e+000 78535 -1.9074e+002  7.3876e+001 -4.1947e+001 60015 78287,78391,78313
 1.2000e+000 78512 -3.3484e+002 -4.0644e+001  8.3427e+000 60015 78287,78417,78391
 1.2000e+000 78489 -2.0789e+002 -1.0400e+001 -1.0313e+001 60015 78261,78417,78287
 1.2000e+000 78466 -5.0699e+002 -1.4393e+002  2.4604e+001 60015 78339,78391,78365
 1.2000e+000 78443 -5.1311e+002 -5.2817e+001 -2.5403e+001 60015 78313,78391,78339
 1.2000e+000 78913 -7.5549e+001 -1.1052e+001  1.4053e+001 59725 78936,78743,78691
 1.2000e+000 78890 -7.7238e+001 -4.0395e-001  1.4738e+001 59725 79008,78936,78691
 1.2000e+000 78867 -7.7383e+001 -5.0646e+000  2.0326e+001 59725 79008,78691,78665
 1.2000e+000 78844 -1.0045e+002 -1.0526e+001 -3.2961e+000 59725 78691,78743,78717
 1.2000e+000 78821 -1.0516e+002 -6.0608e+001  3.6347e+001 59725 78639,78795,78769
 1.2000e+000 78962 -6.3460e+001 -7.0502e+000  7.1247e+000 59725 78769,78743,78936
 1.2000e+000 78985 -8.5981e+001 -4.9383e+000  5.2013e+000 59725 78769,78936,78639
 1.2000e+000 79034 -8.9456e+001 -6.0673e+000  1.6840e+001 59725 78639,78936,79008
 1.2000e+000 79057 -8.3434e+001 -6.7862e+000  2.1460e+001 59725 78639,79008,78665
 1.2000e+000 79386 -1.5230e+002  3.2526e+001  2.4745e+001 59221 79187,79239,79213
 1.2000e+000 79363 -1.1531e+002 -6.0006e+000  3.9194e+001 59221 79187,79265,79239
 1.2000e+000 79340 -8.7282e+001 -1.5275e+001  9.9701e+000 59221 79187,79291,79265
 1.2000e+000 79317 -9.0623e+001 -2.7077e+001 -5.0973e+000 59221 79161,79291,79187
 1.2000e+000 79813 -1.7348e+002  1.2786e+001  6.1686e+000 58831 79836,79542,79516
 1.2000e+000 79790 -1.0902e+002  1.7021e+001  2.4966e+001 58831 79980,79836,79516
 1.2000e+000 79767 -2.3359e+001  1.2362e+001  5.3494e-001 58831 79908,79646,79568
 1.2000e+000 79744 -2.0356e+002 -5.1151e+000  2.7352e+001 58831 79980,79516,79490
 1.2000e+000 79721  9.6872e+000  1.0069e+001 -5.5877e+000 58831 79568,79646,79594
 1.2000e+000 79698  1.7287e+001 -1.1365e+000  2.9756e-001 58831 79594,79646,79620
 1.2000e+000 79862 -8.6458e+001  5.1261e+001  2.1713e+001 58831 79568,79542,79836
 1.2000e+000 79885 -4.0256e+001  1.0652e+000 -1.1972e+001 58831 79908,79568,79836
 1.2000e+000 79934 -1.2462e+001  1.0909e+001  1.0230e+001 58831 79672,79646,79908
 1.2000e+000 79957 -1.6015e+001  7.0938e+000 -2.0455e+000 58831 79672,79908,79836
 1.2000e+000 80006 -7.1009e+001  4.8675e-002 -1.4564e+001 58831 79672,79836,79980
 1.2000e+000 80029 -1.0832e+002  6.8297e-001  4.3493e+000 58831 79672,79980,79490
 1.2000e+000 80358 -1.6359e+002  2.5155e+000  7.3670e+000 58377 80381,80185,80159
 1.2000e+000 80335 -2.2068e+002  8.8596e+000  1.1585e+001 58377 80381,80159,80133
 1.2000e+000 80312 -1.2615e+002 -2.4341e+001  9.3001e+000 58377 80133,80263,80237
 1.2000e+000 80289 -7.4637e+001  1.4856e+000  5.5472e+000 58377 80185,80237,80211
 1.2000e+000 80407 -7.6657e+001  3.5572e+000 -1.0044e+001 58377 80237,80185,80381
 1.2000e+000 80430 -1.7190e+002 -1.7295e+001 -7.4736e+000 58377 80237,80381,80133
 1.2000e+000 80759 -2.2558e+002  6.1594e+001 -4.5878e+001 57873 80782,80586,80560
 1.2000e+000 80736 -2.4920e+002  1.1803e+001 -6.5127e+001 57873 80782,80560,80534
 1.2000e+000 80713 -1.2956e+002  9.1491e+000 -2.2587e+001 57873 80586,80638,80612
 1.2000e+000 80690 -1.6363e+002 -3.3997e+001 -6.4017e+000 57873 80534,80664,80638
 1.2000e+000 80808 -2.4736e+002  1.5079e+001 -5.7371e+001 57873 80638,80586,80782
 1.2000e+000 80831 -2.4186e+002  1.4596e-002 -7.0901e+001 57873 80638,80782,80534
 1.2000e+000 81337 -5.6017e+001 -1.1375e+001 -2.7456e+001 57262 81360,81144,81092
 1.2000e+000 81314 -5.7967e+001 -1.8495e+001 -3.4725e+001 57262 81360,81092,81066
 1.2000e+000 81291 -4.1539e+001 -1.7058e+000 -2.5310e+001 57262 81014,81196,81066
 1.2000e+000 81268 -9.3448e+001 -1.2329e+001 -4.3402e+001 57262 81092,81144,81118
 1.2000e+000 81245 -2.4521e+001 -2.3511e+001 -1.4953e+001 57262 81144,81196,81170
 1.2000e+000 81222 -3.6884e+001  1.7120e-002 -2.3444e-001 57262 81014,81066,81040
 1.2000e+000 81386 -4.8768e+001 -2.9879e+000 -2.2328e+001 57262 81196,81144,81360
 1.2000e+000 81409 -5.3677e+001 -1.1682e+001 -3.0159e+001 57262 81196,81360,81066
 1.2000e+000 81608 -8.2228e+002 -3.2262e+002 -9.5812e+001 57007 81458,81536,81510
 1.2000e+000 81585 -7.6612e+002 -2.3383e+002 -7.1123e+001 57007 81432,81536,81458
 1.2000e+000 81562 -4.2212e+002 -4.0965e+002 -2.9106e+002 57007 81458,81510,81484
 1.2000e+000 82086 -4.5123e+001  3.0146e+000  5.1419e+000 56339 81792,81922,81818
 1.2000e+000 82063  2.0504e+001  6.0561e+000 -3.5608e+000 56339 81714,81922,81792
 1.2000e+000 82040 -8.4801e+001  9.3813e+000  7.0524e+000 56339 82109,81844,81818
 1.2000e+000 82017 -4.7230e+001 -2.2076e+000  1.3333e+001 56339 82109,81818,81922
 1.2000e+000 81994 -1.0245e+002 -3.3943e+000 -3.0158e+001 56339 81844,81896,81870
 1.2000e+000 81971  1.7249e+001 -1.6755e+000 -2.9642e+000 56339 81714,81792,81766
 1.2000e+000 81948  7.7987e+000  4.0358e+000 -5.4233e+000 56339 81714,81766,81740
 1.2000e+000 82135 -1.2940e+002  7.1689e+000  6.8766e+000 56339 81896,81844,82109
 1.2000e+000 82158 -8.0037e+001  5.6099e+000  1.8075e+001 56339 81896,82109,81922
 1.2000e+000 82536 -2.3817e+002 -2.4921e+001 -3.4974e+001 55699 82288,82392,82314
 1.2000e+000 82513 -2.0906e+002 -2.6971e+000  8.0953e-001 55699 82288,82418,82392
 1.2000e+000 82490 -8.9716e+001 -4.1612e+001  2.9426e+001 55699 82314,82392,82340
 1.2000e+000 82467 -1.0825e+002  2.6451e+000  3.3973e+001 55699 82340,82392,82366
 1.2000e+000 82444 -3.7385e+002  1.2940e+001 -2.2938e+001 55699 82262,82418,82288
 1.2000e+000 83091 -2.4578e+000  9.3420e+000 -1.1322e+001 55409 82745,82901,82875
 1.2000e+000 83068  1.0669e+001  8.6572e+000 -7.4920e+000 55409 82719,82901,82745
 1.2000e+000 83045  9.2391e+000 -1.3839e+001  8.3951e+000 55409 82771,82849,82823
 1.2000e+000 83022  1.1947e+001 -1.7173e+001 -4.1011e+000 55409 82745,82849,82771
 1.2000e+000 82999 -1.6345e+001  2.3430e+000 -2.1298e+000 55409 82745,82875,82849
 1.2000e+000 82976  4.8896e+000  4.5992e+000  5.3290e+000 55409 82771,82823,82797
 1.2000e+000 82953 -6.6907e-001 -3.8604e+000 -2.8082e+000 55409 82719,82927,82901
 1.2000e+000 83388 -1.0322e+002  1.0796e+001  4.1048e+000 54905 83411,83218,83166
 1.2000e+000 83365 -1.6133e+002 -1.0425e+000  2.3585e+000 54905 83411,83166,83114
 1.2000e+000 83342 -5.7132e+001  1.2660e+001  4.6563e+000 54905 83483,83270,83244
 1.2000e+000 83319 -2.8833e+002 -1.4259e+001 -6.7495e+000 54905 83166,83218,83192
 1.2000e+000 83296 -1.5517e+002 -2.6437e+000  2.0290e+001 54905 83114,83166,83140
 1.2000e+000 83437 -9.8607e+001 -6.9141e+000 -4.5981e+000 54905 83244,83218,83411
 1.2000e+000 83460 -9.5524e+001 -2.7411e-003  2.6761e+000 54905 83483,83244,83411
 1.2000e+000 83509 -1.0844e+002  1.1131e+000 -7.2285e+000 54905 83114,83270,83483
 1.2000e+000 83532 -1.1323e+002  7.0922e+000 -1.2833e+001 54905 83114,83483,83411
 1.2000e+000 83961 -3.1132e+002 -2.1202e+001 -3.4329e+001 54593 83638,83768,83690
 1.2000e+000 83938 -4.3186e+001  2.2291e+001  1.2835e+000 54593 83638,83794,83768
 1.2000e+000 83915 -1.7967e+002  8.2246e+001  1.4991e+001 54593 83690,83768,83742
 1.2000e+000 83892 -1.8104e+002  5.6104e+001 -1.0402e+002 54593 83638,83820,83794
 1.2000e+000 83869 -1.3721e+002  6.0193e+002 -1.2265e+002 54593 83638,83690,83664
 1.2000e+000 83846 -1.3654e+002 -1.9017e+001  1.3107e+002 54593 83690,83742,83716
 1.2000e+000 84209 -1.4511e+002 -9.1906e+000 -1.6017e+000 54132 84232,84062,83984
 1.2000e+000 84186 -1.5483e+002  1.4573e-001 -2.0296e+000 54132 84232,83984,84114
 1.2000e+000 84163 -1.4466e+002 -6.2150e+000 -6.7447e+000 54132 83984,84062,84036
 1.2000e+000 84140 -1.0263e+002 -3.5187e+001  1.7953e+001 54132 83984,84036,84010
 1.2000e+000 84258 -1.5152e+002 -1.3640e+001 -3.6506e+000 54132 84088,84062,84232
 1.2000e+000 84281 -1.6574e+002 -7.7790e+000 -5.4771e+000 54132 84088,84232,84114
 1.2000e+000 84382 -6.2997e+002 -1.1855e+001  9.1221e+000 53521 84304,84356,84330
 1.2000e+000 84632 -1.2301e+002 -1.6690e+001  2.0058e+001 53067 84655,84485,84459
 1.2000e+000 84609 -1.5104e+002 -1.2497e+001  1.2589e+001 53067 84655,84459,84407
 1.2000e+000 84586 -1.2749e+002 -2.6588e+001  3.7084e+001 53067 84485,84537,84511
 1.2000e+000 84563 -1.3883e+002 -1.3371e-001 -1.3201e+001 53067 84407,84459,84433
 1.2000e+000 84681 -1.0928e+002 -1.8250e+001  1.9004e+001 53067 84537,84485,84655
 1.2000e+000 84704 -1.2105e+002 -2.7496e+000  7.6914e+000 53067 84537,84655,84407
 1.2000e+000 85214 -1.6621e+002 -5.6404e+001 -1.0641e+001 52513 85021,85073,85047
 1.2000e+000 85191 -1.8017e+002  2.0550e+001 -2.1264e+001 52513 84943,85073,85021
 1.2000e+000 85168 -4.3419e+002 -9.2080e+001 -4.6886e+001 52513 84943,85021,84995
 1.2000e+000 85145 -1.9694e+002 -1.3110e+001 -2.7742e+001 52513 84917,85073,84943
 1.2000e+000 85122 -1.1716e+002 -1.8896e+002 -5.4104e+001 52513 84943,84995,84969
 1.2000e+000 85099 -1.0356e+002 -1.6514e+001 -3.1313e+001 52513 84891,85073,84917
 1.2000e+000 85582 -2.1463e+002 -1.5368e+001 -1.3825e+001 52037 85605,85311,85285
 1.2000e+000 85559 -2.6038e+002 -4.4677e+001  2.2216e+001 52037 85749,85605,85285
 1.2000e+000 85536 -2.4836e+002 -1.1678e+001 -1.1457e+001 52037 85893,85677,85389
 1.2000e+000 85513 -2.9305e+002 -7.2114e+001  3.4436e+001 52037 85749,85285,85259
 1.2000e+000 85490 -2.1319e+002 -2.9167e+000 -5.6866e+001 52037 85893,85389,85363
 1.2000e+000 85467 -3.2241e+002  3.5763e+001  2.6683e+001 52037 85259,85441,85415
 1.2000e+000 85631 -2.7073e+002 -6.7450e-001  2.8817e+001 52037 85337,85311,85605
 1.2000e+000 85654 -2.7975e+002 -5.2390e+001  3.6790e+001 52037 85677,85337,85605
 1.2000e+000 85703 -3.2607e+002 -2.7849e+001 -5.9865e+000 52037 85415,85389,85677
 1.2000e+000 85726 -2.8434e+002 -1.8617e+000  1.9598e+001 52037 85821,85677,85605
 1.2000e+000 85775 -3.0198e+002 -9.5930e+000  1.8479e+001 52037 85821,85605,85749
 1.2000e+000 85798 -3.3834e+002 -3.2157e+001  1.2063e+001 52037 85415,85749,85259
 1.2000e+000 85847 -2.8916e+002 -7.0691e+000  4.2127e+000 52037 85415,85677,85821
 1.2000e+000 85870 -2.9485e+002 -9.5953e+000  3.7580e+000 52037 85415,85821,85749
 1.2000e+000 85919 -2.6980e+002 -8.2860e+001  2.3441e+001 52037 85337,85677,85893
 1.2000e+000 85942 -2.5652e+002 -8.9341e+001 -1.8793e+001 52037 85337,85893,85363
 1.2000e+000 86224 -1.0093e+001 -2.6919e+000 -5.0113e+000 51368 86375,86100,86074
 1.2000e+000 86201 -1.4182e+001 -5.7961e-001  4.2944e-001 51368 86375,86074,86247
 1.2000e+000 86178  7.5355e+000 -6.4466e+000 -1.8815e+000 51368 86048,86152,86126
 1.2000e+000 86273 -1.9063e+001  3.3688e+000  5.7946e+000 51368 86048,86126,86247
 1.2000e+000 86401 -8.6125e+000  2.9191e+000 -4.9536e+000 51368 86126,86100,86375
 1.2000e+000 86424 -1.0536e+001  9.2627e+000 -1.0200e+000 51368 86126,86375,86247
 1.2000e+000 86802 -2.1733e+002 -4.9945e+001  2.6787e+000 51028 86528,86632,86580
 1.2000e+000 86779 -1.0733e+002 -2.4682e+001 -2.4294e+001 51028 86528,86684,86632
 1.2000e+000 86756 -1.9687e+002 -4.9860e+000  1.2086e+001 51028 86528,86580,86554
 1.2000e+000 86733 -7.5163e+001 -8.7683e+000  5.0135e+000 51028 86632,86684,86658
 1.2000e+000 86710 -8.7373e+001 -3.9693e+001 -3.2623e+001 51028 86580,86632,86606
 1.2000e+000 87131 -2.8482e+001  8.0412e+000  7.2481e+000 50624 86958,87036,87010
 1.2000e+000 87108 -8.1074e+000 -1.8452e+000  1.1717e+001 50624 86932,87036,86958
 1.2000e+000 87085 -7.0832e+001 -1.1160e+001  1.2580e+001 50624 86958,87010,86984
 1.2000e+000 87062  1.1897e+001  2.3418e+000  4.2913e+000 50624 86906,87036,86932
 1.2000e+000 87330 -1.2640e+002  8.0501e+000 -7.5302e-001 50234 87353,87180,87154
 1.2000e+000 87307 -9.8168e+001  3.1414e+000  2.1716e+000 50234 87353,87154,87258
 1.2000e+000 87284 -6.6170e+001 -3.1951e-001  3.2295e+000 50234 87206,87258,87232
 1.2000e+000 87379 -1.0276e+002  1.2517e+000  1.2235e+001 50234 87206,87180,87353
 1.2000e+000 87402 -6.5642e+001  6.1760e-001  1.0226e+001 50234 87206,87353,87258
 1.2000e+000 87650 -1.7162e+002 -8.1418e+000  1.9309e+001 49730 87673,87503,87451
 1.2000e+000 87627 -1.9435e+002 -1.6077e+001  3.0923e+001 49730 87673,87451,87425
 1.2000e+000 87604 -1.1344e+002 -5.6044e+001  6.8165e+001 49730 87503,87555,87529
 1.2000e+000 87581 -4.6051e+002 -3.7388e+001  8.4439e+001 49730 87451,87503,87477
 1.2000e+000 87699 -1.6850e+002 -5.5407e+000  1.6653e+001 49730 87555,87503,87673
 1.2000e+000 87722 -1.7441e+002  4.5632e+000  2.2828e+001 49730 87555,87673,87425
 1.2000e+000 88232 -1.9845e+002 -1.1213e+002  7.3037e+001 49176 88255,87935,87909
 1.2000e+000 88209 -1.1027e+002 -5.0242e+001 -4.5612e+001 49176 88255,87909,88065
 1.2000e+000 88186 -3.3132e+002  2.7417e+001 -7.2431e+000 49176 87935,88039,87961
 1.2000e+000 88163 -6.1440e+001 -6.2141e+001 -4.1219e+001 49176 87909,88091,88065
 1.2000e+000 88140 -3.1960e+002  3.3481e+001 -5.2997e+001 49176 87961,88039,88013
 1.2000e+000 88117 -3.4366e+002 -7.1335e+001 -7.6628e+001 49176 87961,88013,87987
 1.2000e+000 88281 -8.5560e+001 -6.1598e+001  8.0641e+000 49176 88039,87935,88255
 1.2000e+000 88304 -4.5716e+000 -1.0294e+001 -1.0848e+002 49176 88039,88255,88065
 1.2000e+000 88503 -1.7423e+002 -1.0517e+002 -5.0530e+001 48772 88526,88379,88353
 1.2000e+000 88480 -1.6077e+002 -3.0649e+001 -2.8681e+001 48772 88526,88353,88327
 1.2000e+000 88457 -1.1717e+002 -5.9991e+000  1.6553e+001 48772 88379,88431,88405
 1.2000e+000 88552 -1.7100e+002 -4.0155e+001 -5.3294e+001 48772 88431,88379,88526
 1.2000e+000 88575 -1.8658e+002 -1.8279e-001 -4.3693e+001 48772 88431,88526,88327
 1.2000e+000 89083 -6.4173e+000 -8.1512e+001  3.6100e+001 48368 88786,88916,88864
 1.2000e+000 89060 -2.4565e+001 -2.2019e+001 -1.2400e+001 48368 88786,88942,88916
 1.2000e+000 89037  1.7468e+001 -1.1079e+002  5.4351e-002 48368 88786,88864,88812
 1.2000e+000 89014 -9.3246e+001 -7.1354e+001  2.5566e+001 48368 88864,88916,88890
 1.2000e+000 88991 -1.4563e+001 -7.5207e+001 -3.2249e+001 48368 88812,88864,88838
 1.2000e+000 88968  1.6056e+001 -1.7798e+001 -2.9405e+001 48368 88760,88942,88786
 1.2000e+000 89331 -1.7163e+002 -7.2413e+001 -1.0738e+002 47928 89158,89236,89210
 1.2000e+000 89308 -2.1348e+002 -6.1566e+001 -4.9594e+001 47928 89132,89236,89158
 1.2000e+000 89285 -7.8208e+001 -5.3688e+000 -6.8683e+001 47928 89158,89210,89184
 1.2000e+000 89262 -2.5450e+002 -5.1307e+001 -5.5581e+001 47928 89106,89236,89132
 1.2000e+000 89662 -1.1699e+002 -4.8049e+001  2.1976e+001 47588 89463,89541,89515
 1.2000e+000 89639 -6.9880e+001 -4.0559e+001 -1.6152e+001 47588 89463,89567,89541
 1.2000e+000 89616 -1.8243e+002 -3.5477e+001 -5.2269e+001 47588 89463,89515,89489
 1.2000e+000 89593 -5.2401e+001 -7.6459e+001  1.4304e+001 47588 89437,89567,89463
 1.2000e+000 89763 -8.8440e+002 -2.3704e+002 -3.4108e+001 47390 89685,89737,89711
 1.2000e+000 89913 -6.2625e+002 -2.1581e+002 -4.7166e+001 47078 89786,89838,89812
 1.2000e+000 89890 -3.6220e+002 -2.3337e+002 -6.1941e+001 47078 89786,89864,89838
 1.2000e+000 90163 -9.7738e+001  4.9090e-001  2.4653e+001 46474 89964,90042,89990
 1.2000e+000 90140 -9.7241e+001 -1.7084e+000  3.2691e+001 46474 89938,90042,89964
 1.2000e+000 90117 -1.3352e+001 -8.0172e+000  3.2380e+001 46474 89990,90042,90016
 1.2000e+000 90094 -2.5522e+001  2.6473e+000  1.4973e+001 46474 89938,90068,90042
 1.2000e+000 90364 -2.7056e+001  9.2295e+000 -3.1405e+000 46184 90240,90292,90266
 1.2000e+000 90341  1.2197e+001 -8.9406e+000 -1.6377e+001 46184 90188,90292,90240
 1.2000e+000 90318  3.0711e+001  1.5782e+001 -8.2853e+000 46184 90188,90240,90214
 1.2000e+000 90565 -2.2424e+002  2.6372e+001 -4.6665e+001 45780 90588,90415,90389
 1.2000e+000 90542 -1.1115e+002  1.0260e+001 -2.9698e+001 45780 90588,90389,90493
 1.2000e+000 90519 -1.4798e+002 -5.1634e+001 -6.4856e+000 45780 90415,90467,90441
 1.2000e+000 90614 -1.3354e+002 -3.7605e+000  1.8182e+001 45780 90467,90415,90588
 1.2000e+000 90637  1.6588e+001  3.1031e+001  5.3561e+001 45780 90467,90588,90493
 1.2000e+000 91196 -8.5152e+001 -1.2633e+001 -7.9401e+000 45226 91219,90876,90850
 1.2000e+000 91173 -1.1126e+002 -2.4230e+001 -5.8704e+000 45226 91219,90850,91032
 1.2000e+000 91150 -1.1471e+002 -3.1434e+001 -1.1369e+001 45226 90824,91032,90850
 1.2000e+000 91127 -1.4191e+002 -2.6901e+001 -2.6588e+000 45226 90876,90980,90902
 1.2000e+000 91104 -1.2766e+002 -7.8248e+000 -1.7583e+001 45226 90876,91006,90980
 1.2000e+000 91081 -1.4109e+002 -8.8526e+000  1.8091e+001 45226 90902,90980,90954
 1.2000e+000 91058 -5.3595e+002 -1.0327e+002 -1.9657e+000 45226 90902,90954,90928
 1.2000e+000 91245 -1.1484e+002 -3.8541e-001 -1.4421e+001 45226 91006,90876,91219
 1.2000e+000 91268 -1.4243e+002 -1.3213e+001 -1.1082e+001 45226 91006,91219,91032
 1.2000e+000 91516 -1.1990e+002  3.4096e+001 -3.4432e+001 44836 91539,91421,91395
 1.2000e+000 91493 -2.8227e+002  6.6252e+001 -6.4162e+001 44836 91317,91421,91343
 1.2000e+000 91470 -1.5098e+002 -9.6838e+001  3.5229e+001 44836 91539,91395,91369
 1.2000e+000 91447 -9.3966e+001 -4.8091e+001 -1.5460e+002 44836 91291,91421,91317
 1.2000e+000 91565 -1.1660e+002  9.2566e+001 -5.5724e+001 44836 91343,91421,91539
 1.2000e+000 91588 -8.8076e+001  5.7741e+001  1.1451e+001 44836 91343,91539,91369
 1.2000e+000 91787 -1.0921e+002  1.1672e+001  4.4111e-001 44432 91810,91637,91611
 1.2000e+000 91764 -1.2812e+001  5.8817e+000 -1.8246e+001 44432 91810,91611,91715
 1.2000e+000 91741 -7.3221e+001 -6.8335e+000  3.1462e-002 44432 91637,91689,91663
 1.2000e+000 91836 -2.7092e+001  1.2154e+001  1.4505e+001 44432 91689,91637,91810
 1.2000e+000 91859  3.8742e+001 -1.2636e+001  1.2683e+001 44432 91689,91810,91715
 1.2000e+000 92207 -2.9063e+002 -4.2726e+001 -8.9020e+001 43864 92230,91936,91910
 1.2000e+000 92184 -1.8382e+002 -6.3256e+001 -1.0712e+002 43864 92230,91910,92040
 1.2000e+000 92161 -1.1516e+001  3.1396e+001 -8.9252e+000 43864 91884,92040,91910
 1.2000e+000 92138 -1.7578e+002 -2.5577e+001 -3.0817e+001 43864 91936,92014,91988
 1.2000e+000 92115 -1.8951e+002 -1.6027e+001 -4.0061e+001 43864 91936,91988,91962
 1.2000e+000 92092 -4.9952e+000 -3.0799e+000 -2.8036e+000 43864 91884,92066,92040
 1.2000e+000 92256 -1.9380e+002 -2.7152e+001 -6.6243e+001 43864 92014,91936,92230
 1.2000e+000 92279 -1.2379e+002 -7.5451e+001 -1.0223e+002 43864 92014,92230,92040
 1.2000e+000 92529 -2.1376e+002 -4.2148e+001  5.2730e+001 43410 92552,92330,92304
 1.2000e+000 92506 -1.9792e+002 -1.3674e+001  8.0258e+001 43410 92552,92304,92408
 1.2000e+000 92483 -1.9487e+002  6.7965e+000  7.9093e+001 43410 92304,92434,92408
 1.2000e+000 92460 -2.6782e+002 -1.4020e+001  8.2230e+000 43410 92330,92382,92356
 1.2000e+000 92578 -2.4726e+002 -4.8320e+001  1.7427e+001 43410 92382,92330,92552
 1.2000e+000 92601 -2.3010e+002  1.1157e+001  4.7502e+001 43410 92382,92552,92408
 1.2000e+000 92802 -1.0443e+002  1.3023e+001 -1.4223e+000 43162 92825,92704,92652
 1.2000e+000 92779 -1.0873e+002  7.9291e+000 -7.9292e+000 43162 92825,92652,92626
 1.2000e+000 92756  2.7101e+001 -1.7614e+001  3.5816e+000 43162 92652,92704,92678
 1.2000e+000 92851 -9.5872e+001  1.3904e+001  6.5060e+000 43162 92730,92704,92825
 1.2000e+000 92874 -9.6050e+001 -1.0451e+001 -2.2473e+000 43162 92730,92825,92626
 1.2000e+000 93463 -3.0459e+002 -5.0786e+001  6.3404e+001 42758 93140,93270,93166
 1.2000e+000 93440 -2.6384e+002 -2.0422e+001  3.2651e+001 42758 93140,93296,93270
 1.2000e+000 93417 -1.6093e+002  1.7541e+001  4.0122e+001 42758 93166,93270,93218
 1.2000e+000 93394 -4.3381e+002 -1.8100e+001  7.4404e+001 42758 93218,93270,93244
 1.2000e+000 93371 -1.9716e+002 -4.5625e+001  3.2258e+001 42758 93140,93322,93296
 1.2000e+000 93348 -1.6241e+002 -1.2290e+000 -7.9966e+000 42758 93166,93218,93192
 1.2000e+000 93920 -1.4861e+002  1.2433e+001  2.0806e+001 42304 93943,93672,93646
 1.2000e+000 93897 -1.2830e+002  8.5454e+000 -1.0453e+001 42304 93943,93646,93802
 1.2000e+000 93874 -8.5116e+001  5.9794e+000 -3.4002e+000 42304 93724,93802,93776
 1.2000e+000 93851 -9.4396e+001  1.5648e+001  1.7724e+001 42304 93672,93724,93698
 1.2000e+000 93828 -3.8815e+001 -4.9320e+000  8.1847e+000 42304 93724,93776,93750
 1.2000e+000 93969 -1.1445e+002  1.4867e+001  1.4607e+001 42304 93724,93672,93943
 1.2000e+000 93992 -8.7393e+001  6.2782e+000 -7.6740e+000 42304 93724,93943,93802
 1.2000e+000 94321  4.3146e+001 -1.0968e+001 -2.2115e+001 41478 94096,94148,94122
 1.2000e+000 94298 -8.6407e+000  2.2574e+001  2.8145e+001 41478 94096,94226,94148
 1.2000e+000 94275 -1.2052e+001 -1.6768e+001  2.0854e+001 41478 94148,94226,94174
 1.2000e+000 94252  8.5640e+000  9.1730e-001  3.4964e+000 41478 94174,94226,94200
 1.2000e+000 94618 -7.7626e+001  1.1217e+001 -1.4957e+001 40910 94344,94422,94396
 1.2000e+000 94595 -1.1115e+002 -7.1328e+000 -2.5802e+001 40910 94344,94448,94422
 1.2000e+000 94572 -9.5546e+001  2.8101e+001  6.3390e+001 40910 94344,94474,94448
 1.2000e+000 94549 -8.3371e+001  1.8746e+001 -7.7670e+000 40910 94344,94396,94370
 1.2000e+000 94526 -1.4354e+002  2.2617e+001  7.8538e+001 40910 94344,94500,94474
 1.2000e+000 94866 -6.0693e+001  3.8832e-001  8.8571e+000 40306 94667,94719,94693
 1.2000e+000 94843 -6.9749e+001 -1.8690e+001  1.5275e+001 40306 94641,94719,94667
 1.2000e+000 94820 -5.8625e+001  1.2768e-001  9.9414e+000 40306 94641,94745,94719
 1.2000e+000 94797 -8.3295e+001  6.1645e-001  1.1628e+001 40306 94641,94771,94745
 1.2000e+000 95089 -2.6609e+002 -8.3607e+001 -3.0578e+001 39702 94913,94991,94939
 1.2000e+000 95066 -3.7972e+002 -1.2390e+002 -2.0595e+001 39702 94913,95017,94991
 1.2000e+000 95043 -4.5613e+002 -1.6589e+002 -3.9354e+001 39702 94939,94991,94965
 1.2000e+000 95339 -2.1954e+002  1.1977e+001  3.2826e+001 39248 95140,95218,95166
 1.2000e+000 95316 -3.1961e+002 -4.6631e+001  5.8527e+001 39248 95140,95244,95218
 1.2000e+000 95293 -1.2731e+002 -7.1776e+000  5.5142e+001 39248 95114,95244,95140
 1.2000e+000 95270 -3.8735e+002 -1.0509e+001  6.3708e+001 39248 95166,95218,95192
 1.2000e+000 95770 -2.3637e+001 -9.0206e+000 -2.8650e+001 38694 95551,95629,95577
 1.2000e+000 95747 -8.2912e+001 -1.8001e+001 -4.4691e+001 38694 95447,95629,95551
 1.2000e+000 95724 -1.0013e+002 -4.2989e+001 -1.5764e+001 38694 95447,95551,95473
 1.2000e+000 95701 -6.6121e+001 -1.2686e+001 -2.8675e+001 38694 95473,95551,95499
 1.2000e+000 95678 -3.5938e+001 -6.6596e+000 -1.5517e+001 38694 95499,95551,95525
 1.2000e+000 95655 -9.4483e+000 -2.5955e+000  2.2310e+000 38694 95577,95629,95603
 1.2000e+000 96325 -2.4904e+002 -4.7783e+001 -5.0274e+001 38240 95953,96031,96005
 1.2000e+000 96302 -1.7124e+002 -1.0278e+002 -1.3581e+002 38240 95953,96161,96031
 1.2000e+000 96279 -1.8320e+002 -4.2609e+001 -9.0149e+001 38240 96031,96161,96135
 1.2000e+000 96256 -3.5414e+002 -8.7202e+001  3.7779e+001 38240 96348,96109,96057
 1.2000e+000 96233 -3.3780e+002 -2.3659e+002 -1.2995e+002 38240 96348,96057,96031
 1.2000e+000 96210 -3.5191e+002 -4.0367e+001  3.0302e+001 38240 96057,96109,96083
 1.2000e+000 96187 -8.8133e+001 -2.3562e+001  3.7726e+001 38240 95953,96005,95979
 1.2000e+000 96374 -2.1374e+002  3.3518e+001  8.9668e+001 38240 96135,96109,96348
 1.2000e+000 96397 -1.7284e+002 -1.1421e+002 -7.5030e+001 38240 96135,96348,96031
 1.2000e+000 96618 -2.4173e+002  3.6934e+001  1.8580e+001 37821 96494,96546,96520
 1.2000e+000 96595 -3.0127e+002 -7.2655e+001 -3.2040e+001 37821 96468,96546,96494
 1.2000e+000 96572 -3.4949e+002 -9.3287e+001 -2.8476e+001 37821 96442,96546,96468
 1.2000e+000 97126 -1.4753e+002 -1.6724e+001  2.3841e+001 37367 97149,96855,96829
 1.2000e+000 97103 -1.1168e+002  4.9672e+000  3.4250e+000 37367 97149,96829,96985
 1.2000e+000 97080 -1.0677e+002  8.4107e+000  4.9418e+000 37367 96803,96985,96829
 1.2000e+000 97057  3.3336e+000 -7.6267e+000  5.1640e+001 37367 96855,96907,96881
 1.2000e+000 97034 -3.9469e+001 -1.1080e+000 -3.5310e+000 37367 96907,96985,96959
 1.2000e+000 97011 -2.2575e+001 -7.6005e+000  9.1990e+000 37367 96907,96959,96933
 1.2000e+000 97175 -1.0994e+002 -5.3001e+001  4.1412e+001 37367 96907,96855,97149
 1.2000e+000 97198 -8.4351e+001 -3.1582e+001  2.3595e+001 37367 96907,97149,96985
 1.2000e+000 97704 -8.6447e+001 -3.1987e+001 -2.9760e+001 36863 97727,97511,97485
 1.2000e+000 97681 -9.0665e+001 -1.0198e+002 -8.0433e+001 36863 97727,97485,97433
 1.2000e+000 97658 -9.2095e+001 -7.8933e+001 -7.6806e+001 36863 97381,97563,97433
 1.2000e+000 97635  5.3497e+000  2.1784e+001  9.7247e+000 36863 97511,97563,97537
 1.2000e+000 97612 -1.7436e+002 -6.4435e+001 -1.0958e+002 36863 97433,97485,97459
 1.2000e+000 97589 -7.3896e+001 -8.4835e+001 -9.4103e+001 36863 97381,97433,97407
 1.2000e+000 97753 -5.7969e+001  1.6860e+001 -2.4421e+000 36863 97563,97511,97727
 1.2000e+000 97776 -4.3242e+001 -4.1496e+001 -4.8499e+001 36863 97563,97727,97433
 1.2000e+000 98331 -5.1395e+001  2.7484e+001 -3.1130e+001 36287 98354,98089,98063
 1.2000e+000 98308 -6.9898e+000  1.1737e+001  3.9822e+001 36287 98354,98063,98011
 1.2000e+000 98285 -8.3890e+001  8.3256e-001 -2.1024e+001 36287 98426,97985,98115
 1.2000e+000 98262  2.2631e+001 -2.3674e+000  2.4353e+001 36287 98011,98063,98037
 1.2000e+000 98239 -1.8223e+002 -3.7520e+001 -1.0619e+001 36287 97985,98141,98115
 1.2000e+000 98216 -2.0366e+002 -8.4999e+000  1.4408e+001 36287 97959,98141,97985
 1.2000e+000 98193 -3.0100e+002  4.0637e-001  2.1279e+001 36287 97959,98167,98141
 1.2000e+000 98380 -2.4391e+002 -1.3128e+001 -3.2611e+001 36287 98115,98089,98354
 1.2000e+000 98403 -8.1701e+001  4.5230e+000 -1.0270e+001 36287 98426,98115,98354
 1.2000e+000 98452 -8.4827e+001  2.0553e+001 -1.4055e+001 36287 98011,97985,98426
 1.2000e+000 98475 -8.1728e+001  2.7285e+001 -3.7634e+000 36287 98011,98426,98354
 1.2000e+000 99030 -7.5820e+001 -2.4608e+001 -1.6477e+001 35726 99053,98736,98710
 1.2000e+000 99007 -8.3962e+001 -6.0496e+000 -7.3168e+000 35726 99053,98710,98684
 1.2000e+000 98984 -6.5681e+001 -8.8096e+000 -1.2506e+001 35726 99125,98814,98736
 1.2000e+000 98961 -5.0841e+001 -2.5880e+001 -1.8807e+001 35726 98736,98814,98788
 1.2000e+000 98938 -1.4586e+002 -1.8887e+001 -2.3078e+001 35726 98684,98866,98840
 1.2000e+000 98915 -9.4870e+001 -3.4830e+001 -5.0271e+001 35726 98736,98788,98762
 1.2000e+000 98892 -9.0746e+001 -2.5405e+000 -1.8255e+001 35726 98658,98866,98684
 1.2000e+000 99079 -7.0206e+001 -9.3509e+000 -1.5133e+001 35726 99125,98736,99053
 1.2000e+000 99102 -7.7774e+001  6.2330e+000 -1.0961e+001 35726 98840,99053,98684
 1.2000e+000 99151 -6.1535e+001 -6.6591e+000 -1.0461e+001 35726 98840,98814,99125
 1.2000e+000 99174 -6.4250e+001 -7.4359e+000 -1.3613e+001 35726 98840,99125,99053
 1.2000e+000 99454 -2.7390e+001 -2.0456e+001 -2.4137e+001 35222 99278,99330,99304
 1.2000e+000 99431 -6.9003e+001 -6.7942e+000  3.8222e+001 35222 99278,99382,99330
 1.2000e+000 99408 -1.4629e+002 -6.7155e+000  1.8792e+001 35222 99330,99382,99356
 1.2000e+000 99653 -2.9014e+002 -5.7531e+001 -2.2845e+001 34867 99477,99529,99503
 1.2000e+000 99630 -2.2834e+002 -8.5589e+001 -2.2336e+001 34867 99477,99581,99529
 1.2000e+000 99607 -1.8521e+002 -9.4004e+000 -4.2995e+001 34867 99529,99581,99555
 1.2000e+000 100104 -1.5482e+002  3.0174e+001 -2.7865e+001 34363 99781,99885,99807
 1.2000e+000 100081 -1.4320e+002  1.8676e+001  1.7208e+001 34363 99781,99963,99885
 1.2000e+000 100058 -2.4289e+002  2.5891e+001  2.6440e+001 34363 99885,99963,99911
 1.2000e+000 100035 -2.6837e+002  5.1944e+001 -4.6519e+001 34363 99807,99885,99859
 1.2000e+000 100012 -1.3255e+002  5.6715e+001  1.2216e+002 34363 99911,99963,99937
 1.2000e+000 99989 -2.5117e+002  2.1446e+001 -1.7410e+002 34363 99807,99859,99833
 1.2000e+000 100303 -6.4084e+001 -5.6559e+000  1.1089e+001 33909 100127,100205,100179
 1.2000e+000 100280 -5.4540e+001  1.0942e+000  8.0753e+000 33909 100127,100231,100205
 1.2000e+000 100257 -6.1799e+001 -2.8586e+000 -5.2837e-001 33909 100127,100179,100153
 1.2000e+000 100890 -1.0415e+002 -6.9023e+001 -1.0085e+001 33412 100645,100749,100697
 1.2000e+000 100867 -1.2577e+002 -7.5868e+001 -2.4485e+001 33412 100567,100749,100645
 1.2000e+000 100844 -1.0717e+002 -2.9387e+001 -2.7226e+001 33412 100567,100645,100619
 1.2000e+000 100821 -1.6679e+002 -6.6187e+001  1.3836e+000 33412 100645,100697,100671
 1.2000e+000 100798 -1.4640e+002 -4.8432e+001 -6.2470e+001 33412 100567,100619,100593
 1.2000e+000 100775 -1.3370e+002 -3.6144e+001 -3.0285e+000 33412 100697,100749,100723
 1.2000e+000 101268 -2.2994e+002 -2.7587e+000 -1.8610e+001 32908 101435,101291,101098
 1.2000e+000 101245 -1.6532e+002 -1.2158e+001  6.8647e+000 32908 101291,101072,101020
 1.2000e+000 101222 -3.3385e+002 -5.5789e+001 -2.0819e+001 32908 101363,101150,101124
 1.2000e+000 101199 -1.6691e+002 -5.1124e+001 -5.1872e+001 32908 101020,101072,101046
 1.2000e+000 101176 -1.6338e+002 -6.6261e+001  3.1960e+001 32908 100994,101150,101020
 1.2000e+000 101317 -1.7847e+002  1.8656e+001 -2.7246e+001 32908 101124,101098,101291
 1.2000e+000 101340 -2.4952e+002 -1.1736e+001 -3.7308e+001 32908 101363,101124,101291
 1.2000e+000 101389 -2.8420e+002 -7.8157e+001  3.9953e+001 32908 101020,101150,101363
 1.2000e+000 101412 -2.5844e+002 -6.4629e+001  3.2193e+001 32908 101020,101363,101291
 1.2000e+000 101461 -2.4309e+002 -3.0669e+001 -6.5085e+000 32908 101072,101291,101435
 1.2000e+000 101918 -1.7669e+002 -6.2431e+001 -7.9259e+001 32618 101941,101670,101644
 1.2000e+000 101895 -7.2511e+001 -1.3600e+001 -1.8470e+001 32618 101941,101644,101774
 1.2000e+000 101872 -3.6172e+002  4.5462e+000 -2.4263e+001 32618 102013,101696,101670
 1.2000e+000 101849 -1.5799e+002  3.8571e+001 -2.6559e+001 32618 101696,101748,101722
 1.2000e+000 101826 -6.1915e+001 -8.6908e+000 -2.6122e+001 32618 101644,101800,101774
 1.2000e+000 101967 -3.3776e+002 -2.2959e+001 -7.6398e+001 32618 102013,101670,101941
 1.2000e+000 101990 -1.7162e+002  3.9048e+001 -7.3851e+001 32618 101748,101941,101774
 1.2000e+000 102039 -3.0201e+002 -1.0685e+001 -4.5502e+001 32618 101748,101696,102013
 1.2000e+000 102062 -1.8456e+002  1.3051e+001 -8.4973e+001 32618 101748,102013,101941
 1.2000e+000 102440 -7.2478e+001 -3.2758e+001 -1.8068e+001 32306 102463,102270,102244
 1.2000e+000 102417 -6.7567e+001 -1.9876e+001 -2.2322e+001 32306 102463,102244,102192
 1.2000e+000 102394 -7.9310e+001 -6.5562e+000 -1.8049e+001 32306 102192,102244,102218
 1.2000e+000 102371 -6.3678e+001 -1.7122e+001 -3.4770e+001 32306 102270,102322,102296
 1.2000e+000 102348 -8.7236e+001 -1.1827e+001 -3.5801e+001 32306 102166,102322,102192
 1.2000e+000 102489 -7.3573e+001 -2.7150e+001 -3.0783e+001 32306 102322,102270,102463
 1.2000e+000 102512 -6.5118e+001 -6.7220e+000 -3.4906e+001 32306 102322,102463,102192
 1.2000e+000 102662 -1.0271e+002 -7.3017e+001  7.2157e+001 31852 102943,102587,102561
 1.2000e+000 102639 -2.3231e+002  2.6572e+000  2.9448e+001 31852 102815,102685,102561
 1.2000e+000 102711 -1.5044e+002 -1.7021e+001  9.4620e+001 31852 102943,102561,102685
 1.2000e+000 102841 -9.3366e+001  1.5587e+001  3.3202e+001 31852 102535,102685,102815
 1.2000e+000 102969 -6.9899e+001 -2.2611e+001  4.2907e+001 31852 102613,102587,102943
 1.2000e+000 102992 -1.2527e+002  1.8366e+001  6.8355e+001 31852 102613,102943,102685
 1.2000e+000 103370 -5.6083e+001 -5.4260e+001  8.2633e+001 31134 103096,103200,103122
 1.2000e+000 103347 -8.4943e+001 -1.0480e+001 -7.6873e+001 31134 103096,103226,103200
 1.2000e+000 103324 -1.7736e+002  1.5590e+001  2.7207e+001 31134 103122,103200,103174
 1.2000e+000 103301 -1.7093e+002 -3.9747e+001 -4.6225e+001 31134 103096,103252,103226
 1.2000e+000 103278 -2.4103e+002 -7.2720e-001  1.0010e+002 31134 103122,103174,103148
 1.2000e+000 103520 -5.0447e+002 -8.7051e+001 -3.4648e+001 30822 103393,103445,103419
 1.2000e+000 103497 -5.1526e+002 -1.1305e+002 -3.1586e+001 30822 103393,103471,103445
 1.2000e+000 103719 -1.9535e+002  2.3563e+001 -3.0487e+000 30182 103742,103621,103569
 1.2000e+000 103696 -2.7095e+002  4.4458e+001 -1.6009e+001 30182 103742,103569,103543
 1.2000e+000 103673 -1.4841e+002  6.4222e+001  7.4477e+001 30182 103569,103621,103595
 1.2000e+000 103768 -1.5870e+002  3.1916e+001 -5.5738e+000 30182 103647,103621,103742
 1.2000e+000 103791 -1.9282e+002  8.1713e+001 -3.2307e+001 30182 103647,103742,103543
 1.2000e+000 104252 -8.2007e+001 -3.3520e+001  3.6839e+000 29728 104030,104108,104056
 1.2000e+000 104229 -1.0483e+002 -3.2707e+001 -3.0946e+001 29728 104004,104108,104030
 1.2000e+000 104206 -8.4709e+001 -3.2699e+001 -2.9274e+001 29728 104004,104134,104108
 1.2000e+000 104183 -6.0004e+001  1.2547e+001 -1.6381e+001 29728 103978,104134,104004
 1.2000e+000 104160 -4.9197e+001 -2.4395e+001 -9.9187e+000 29728 104056,104108,104082
 1.2000e+000 104630 -2.7482e+002 -3.8552e+001  1.1557e+002 29217 104653,104382,104356
 1.2000e+000 104607 -2.7641e+002 -1.2540e+001 -1.3188e+000 29217 104653,104356,104512
 1.2000e+000 104584 -8.6064e+001  2.3439e+000  1.9675e+001 29217 104434,104512,104486
 1.2000e+000 104561 -2.0340e+002  7.7718e+001  6.7187e+001 29217 104382,104434,104408
 1.2000e+000 104538 -3.1459e+001 -2.0391e+000  9.2019e+000 29217 104434,104486,104460
 1.2000e+000 104679 -1.9467e+002 -5.4963e+000  8.8253e+001 29217 104434,104382,104653
 1.2000e+000 104702 -1.6510e+002  6.6946e+000 -1.5921e+001 29217 104434,104653,104512
 1.2000e+000 105178 -1.9169e+002  1.1668e+000 -1.2784e+001 28649 105201,104962,104936
 1.2000e+000 105155 -1.4047e+002 -3.4277e+001 -4.7459e+001 28649 105201,104936,104884
 1.2000e+000 105132 -1.1654e+002 -2.5909e+001 -1.5929e+001 28649 105273,104858,105014
 1.2000e+000 105109 -1.0125e+002  9.5740e+000  2.6270e+001 28649 104962,105014,104988
 1.2000e+000 105086 -2.5849e+002 -9.0589e+001 -3.1316e+001 28649 104884,104936,104910
 1.2000e+000 105063 -6.9236e+001 -2.3832e+001 -2.0631e+001 28649 104806,105014,104858
 1.2000e+000 105040 -1.3065e+002 -7.1642e+001 -4.8199e+001 28649 104806,104858,104832
 1.2000e+000 105227 -1.2596e+002  4.3954e+001  9.1311e+000 28649 105014,104962,105201
 1.2000e+000 105250 -1.3557e+002 -1.7656e+001 -2.8717e+001 28649 105273,105014,105201
 1.2000e+000 105299 -9.7951e+001 -1.7024e+001 -1.8576e+001 28649 104884,104858,105273
 1.2000e+000 105322 -1.0504e+002 -2.2480e+000 -3.4020e+001 28649 104884,105273,105201
 1.2000e+000 105673 -5.7495e+002 -8.4657e+000  4.6761e-001 28351 105474,105578,105552
 1.2000e+000 105650 -5.3507e+002  7.1416e+001  1.3734e+001 28351 105448,105578,105474
 1.2000e+000 105627 -5.8319e+002  4.7726e+000 -4.3371e+001 28351 105500,105552,105526
 1.2000e+000 105604 -5.4473e+002  5.3882e+000 -2.8208e+000 28351 105474,105552,105500
 1.2000e+000 106130 -9.3426e+001 -9.7802e+000  2.3346e+001 28004 106153,105882,105856
 1.2000e+000 106107 -1.5888e+002  1.0349e+001 -2.5813e+001 28004 106153,105856,105986
 1.2000e+000 106084 -1.1154e+002  2.0351e+001  2.2533e+001 28004 105934,105986,105960
 1.2000e+000 106061 -9.1064e+001 -3.9993e+001 -5.6328e+001 28004 105856,106012,105986
 1.2000e+000 106038  3.2205e+001  6.1845e-001  6.4243e-001 28004 105882,105934,105908
 1.2000e+000 106179  3.5832e+001  1.3376e+001  2.9126e+001 28004 105934,105882,106153
 1.2000e+000 106202 -8.1716e+001  1.4001e+001 -7.7561e-001 28004 105934,106153,105986
 1.2000e+000 106885 -7.2472e+001  3.8764e+000 -1.0803e+001 27564 106908,106620,106516
 1.2000e+000 106862 -2.8343e+002 -4.7994e+000 -3.3975e+000 27564 106908,106516,106490
 1.2000e+000 106839 -2.4229e+002 -8.6541e+001  3.6343e+001 27564 106516,106620,106542
 1.2000e+000 106816 -8.1089e+001 -2.4452e+000  1.3291e+002 27564 106620,106672,106646
 1.2000e+000 106793 -1.4524e+002 -9.3875e+001  2.4889e+001 27564 106542,106620,106594
 1.2000e+000 106770 -2.0513e+002  6.2869e+001  3.4541e+001 27564 106490,106698,106672
 1.2000e+000 106747 -1.7923e+002  9.9296e+000  6.8739e+001 27564 106464,106698,106490
 1.2000e+000 106724 -2.0934e+002 -1.4138e+002  5.0698e+001 27564 106542,106594,106568
 1.2000e+000 106934  4.5299e+000 -7.0968e+000 -1.2739e+001 27564 106672,106620,106908
 1.2000e+000 106957 -9.0753e+001  6.8303e+001 -2.9465e+001 27564 106672,106908,106490
 1.2000e+000 107463 -6.1296e+001 -3.2464e+001 -1.2695e+001 27053 107218,107322,107296
 1.2000e+000 107440 -4.8449e+001  1.0219e+000  2.3271e+000 27053 107166,107322,107218
 1.2000e+000 107417 -4.3646e+001  8.1391e+000 -4.4498e+000 27053 107218,107296,107244
 1.2000e+000 107394 -2.9549e+001 -6.3175e+000  3.0702e+000 27053 107140,107322,107166
 1.2000e+000 107371 -1.6668e+001  2.1903e+000  6.7781e-002 27053 107166,107218,107192
 1.2000e+000 107348 -3.9226e+001 -3.1730e+000 -1.3685e+001 27053 107244,107296,107270
 1.2000e+000 108097 -1.6681e+002 -1.6462e+001 -4.6115e+001 26549 108192,108120,107803
 1.2000e+000 108074 -2.1900e+002  9.1242e+000 -5.3115e+001 26549 108120,107725,107933
 1.2000e+000 108051 -5.7499e+001 -4.3941e+001 -2.7931e+001 26549 107751,107803,107777
 1.2000e+000 108028 -1.6846e+002 -1.3757e+001 -4.4177e+001 26549 108192,107803,107751
 1.2000e+000 108005 -2.8458e+002 -1.0112e+002 -8.8366e+001 26549 108264,107855,107803
 1.2000e+000 107982 -1.7783e+002 -2.1171e+001 -3.7854e+001 26549 107881,107933,107907
 1.2000e+000 107959 -2.3304e+002 -8.2097e+001 -8.8217e+001 26549 107803,107855,107829
 1.2000e+000 108146 -1.9753e+002 -6.2596e+001 -6.9711e+001 26549 108264,107803,108120
 1.2000e+000 108169 -2.0806e+002  2.5375e+001 -3.7323e+001 26549 107881,108120,107933
 1.2000e+000 108218 -1.7026e+002 -1.9380e+001 -4.7642e+001 26549 107725,108120,108192
 1.2000e+000 108241 -1.7172e+002 -1.6860e+001 -4.5665e+001 26549 107725,108192,107751
 1.2000e+000 108290 -3.5173e+002 -3.2799e+001 -6.2836e+001 26549 107881,107855,108264
 1.2000e+000 108313 -2.9086e+002 -1.0962e+001 -4.3122e+001 26549 107881,108264,108120
 1.2000e+000 108512 -2.2515e+002 -6.8752e+000  4.1312e+001 26137 108388,108440,108414
 1.2000e+000 108489 -2.5239e+002 -4.9874e+001  2.1560e+001 26137 108362,108440,108388
 1.2000e+000 108466 -3.3349e+002 -8.3481e+001  3.5966e+000 26137 108336,108440,108362
 1.2000e+000 108662 -1.8234e+002  2.5038e+001  9.7142e+000 25733 108817,108685,108535
 1.2000e+000 108639 -2.2852e+002  6.3306e+001 -1.3590e+001 25733 109017,108817,108535
 1.2000e+000 108711 -1.6077e+002  4.9094e+000 -1.8326e+001 25733 108561,108535,108685
 1.2000e+000 108843 -2.3056e+002 -1.6293e+000 -1.2850e+001 25733 108587,108685,108817
 1.2000e+000 108866 -2.3426e+002  3.0795e+001 -2.1956e+001 25733 108889,108817,108613
 1.2000e+000 108915 -2.7277e+002 -1.5366e+000  8.1604e+000 25733 108587,108817,108889
 1.2000e+000 109043 -2.3192e+002  3.4217e+001 -2.0867e+001 25733 108613,108817,109017
 1.2000e+000 109500 -6.6388e+001 -2.0781e+001 -1.9261e+001 25229 109523,109356,109330
 1.2000e+000 109477 -7.2336e+001 -6.9116e+000 -1.0156e+001 25229 109595,109523,109330
 1.2000e+000 109454 -7.1056e+001 -2.3019e+001  4.3041e+000 25229 109595,109330,109278
 1.2000e+000 109431 -7.5854e+001  1.7148e+001 -3.5007e+001 25229 109667,109226,109382
 1.2000e+000 109408 -1.1298e+002 -1.3475e+001  1.7984e+001 25229 109278,109330,109304
 1.2000e+000 109549 -2.7097e+001 -5.6394e+000 -1.6653e+001 25229 109382,109356,109523
 1.2000e+000 109572 -5.8734e+001 -1.2748e+001 -4.1397e+001 25229 109667,109382,109523
 1.2000e+000 109621 -7.3819e+001  1.3240e+001 -8.0024e+000 25229 109252,109523,109595
 1.2000e+000 109644 -6.9071e+001  3.2215e+000  2.1263e+000 25229 109739,109595,109278
 1.2000e+000 109693 -2.0119e+002 -1.8462e+001 -1.1119e+001 25229 109252,109226,109667
 1.2000e+000 109716 -1.1497e+002 -2.0518e+000 -1.2529e+001 25229 109252,109667,109523
 1.2000e+000 109765 -7.4880e+001 -4.9489e+000 -7.7320e+000 25229 109252,109595,109739
 1.2000e+000 110478 -9.5597e+001 -8.6986e+000 -6.6543e+000 24917 110158,110236,110184
 1.2000e+000 110455 -4.3895e+001  1.3594e+001 -4.4708e+000 24917 110158,110288,110236
 1.2000e+000 110432 -5.7144e+001  3.9806e+000 -1.1402e-001 24917 110236,110288,110262
 1.2000e+000 110409 -3.7305e+001 -1.0174e+001  1.3949e+001 24917 110184,110236,110210
 1.2000e+000 110386 -4.2233e+001 -2.9904e+000  1.3724e+000 24917 110132,110288,110158
 1.2000e+000 110363 -1.4789e+001  6.3126e+000 -2.5614e+000 24917 110132,110314,110288
 1.2000e+000 110340 -1.6685e+001  3.0309e-001  1.2462e+000 24917 110106,110314,110132
 1.2000e+000 110829 -4.0501e+002 -1.6820e+002  5.0819e+001 24307 110604,110682,110630
 1.2000e+000 110806 -3.2985e+002 -8.4094e+001  1.3976e+001 24307 110604,110708,110682
 1.2000e+000 110783 -2.7932e+002 -4.9112e+001 -2.2304e+001 24307 110604,110734,110708
 1.2000e+000 110760 -6.1083e+002 -2.5655e+002  5.9246e+001 24307 110630,110682,110656
 1.2000e+000 111335 -3.0934e+001 -3.3781e+000 -1.0308e+001 23767 111012,111168,111038
 1.2000e+000 111312 -6.0746e+001 -1.4484e+001  9.5987e+000 23767 111012,111194,111168
 1.2000e+000 111289 -1.0220e+001  2.7851e+001 -4.8966e+001 23767 111358,111064,111038
 1.2000e+000 111266 -5.3623e+001 -3.5178e+000 -1.3222e+001 23767 111358,111038,111168
 1.2000e+000 111243 -8.0024e+001 -2.4317e+001 -7.3972e+000 23767 111430,111142,111090
 1.2000e+000 111220 -6.8603e+001 -1.9374e+001 -4.9098e+000 23767 111090,111142,111116
 1.2000e+000 111384 -4.5381e+001  4.8520e+000 -1.3784e+001 23767 111090,111064,111358
 1.2000e+000 111407 -4.4270e+001 -1.6285e+001 -1.7224e+000 23767 111430,111090,111358
 1.2000e+000 111456 -1.1505e+002 -4.6329e+000  1.0234e+000 23767 111168,111142,111430
 1.2000e+000 111479 -9.4594e+001 -8.5489e+000  3.3118e+000 23767 111168,111430,111358
 1.2000e+000 111985 -1.3357e+002 -3.4400e+001  6.8061e+000 23477 111688,111844,111818
 1.2000e+000 111962 -1.2398e+002 -1.6462e+001 -3.3113e+000 23477 111662,111844,111688
 1.2000e+000 111939 -5.5675e+001  1.4780e+001  3.5342e+001 23477 111766,111818,111792
 1.2000e+000 111916 -2.1896e+002 -1.8134e+001  4.5831e+001 23477 111740,111818,111766
 1.2000e+000 111893 -2.2854e+002 -5.7799e+001 -1.6861e+001 23477 111688,111818,111740
 1.2000e+000 111870 -2.6074e+002 -4.1099e+001 -2.9498e+001 23477 111688,111740,111714
 1.2000e+000 112314 -2.2763e+002 -1.3005e+001 -1.8262e+001 23023 112141,112219,112193
 1.2000e+000 112291 -2.0976e+002 -7.9698e+001 -3.5383e+001 23023 112115,112219,112141
 1.2000e+000 112268 -2.1127e+002 -2.0679e+001 -1.6805e+000 23023 112141,112193,112167
 1.2000e+000 112245 -1.5599e+002 -3.6790e+001 -1.1326e+001 23023 112089,112219,112115
 1.2000e+000 112692 -1.9413e+002 -3.6106e+000 -4.5895e+001 22768 112444,112574,112548
 1.2000e+000 112669 -2.8010e+002  2.0801e+001 -7.4715e+001 22768 112418,112574,112444
 1.2000e+000 112646 -9.2632e+001 -2.8109e+001 -4.5620e+001 22768 112444,112522,112470
 1.2000e+000 112623 -2.2473e+002 -5.3725e+000 -5.7488e+000 22768 112444,112548,112522
 1.2000e+000 112600 -1.5060e+002 -6.2813e+001  2.8687e+001 22768 112470,112522,112496
 1.2000e+000 113011 -5.4211e+002  8.1797e+001 -1.1564e+002 22314 112763,112867,112789
 1.2000e+000 112988 -6.7825e+002 -7.4765e+001 -5.7352e+001 22314 112763,112893,112867
 1.2000e+000 112965 -7.6639e+002 -6.2165e+001  0.0000e+000 22314 112815,112867,112841
 1.2000e+000 112942 -8.4163e+002 -6.1115e+001 -6.7041e+001 22314 112789,112867,112815
 1.2000e+000 112919 -4.5522e+002 -1.7433e+001 -9.8704e+001 22314 112737,112893,112763
 1.2000e+000 113519 -5.6607e+001  3.3851e-001  3.2881e+000 21924 113614,113542,113248
 1.2000e+000 113496 -1.4739e+001  3.2030e+001 -1.6838e+001 21924 113542,113196,113378
 1.2000e+000 113473 -3.8339e+001 -5.8070e+000  5.4193e+000 21924 113614,113248,113222
 1.2000e+000 113450 -9.3733e+001  2.0534e-001  1.6599e+001 21924 113686,113274,113248
 1.2000e+000 113427 -1.1223e+002 -2.3197e+000  1.1253e+001 21924 113274,113352,113326
 1.2000e+000 113404 -8.0017e+001 -1.6880e+001  3.6368e+001 21924 113274,113326,113300
 1.2000e+000 113568 -7.8788e+001  8.6860e+000  2.8027e+001 21924 113686,113248,113542
 1.2000e+000 113591 -3.9835e+001  7.6267e+000  2.6415e+001 21924 113352,113542,113378
 1.2000e+000 113640 -3.8779e+001  1.1191e+001  1.0759e+001 21924 113196,113542,113614
 1.2000e+000 113663 -2.9331e+001 -1.9818e-001  1.3164e+001 21924 113196,113614,113222
 1.2000e+000 113712 -1.0972e+002  1.0757e+001  1.2599e+001 21924 113352,113274,113686
 1.2000e+000 113735 -1.0339e+002  1.1260e+001  2.3163e+001 21924 113352,113686,113542
 1.2000e+000 113885 -4.5122e+001 -2.4713e+001  3.6422e+001 21520 113980,113908,113784
 1.2000e+000 113862 -1.5683e+001 -5.1985e+001  3.2076e+001 21520 114238,113908,113758
 1.2000e+000 113934 -1.5376e+001  1.3158e+001  5.4370e+001 21520 114110,113908,113810
 1.2000e+000 113957  3.0733e+000 -4.6842e+000  2.0740e+001 21520 113810,113908,113836
 1.2000e+000 114006 -6.4572e+000 -3.2150e+001  3.8253e+001 21520 113758,113908,113980
 1.2000e+000 114136 -4.1157e+001 -1.7803e+001  4.3125e+001 21520 113784,113908,114110
 1.2000e+000 114264 -4.6981e+001 -2.5627e+001  3.4633e+001 21520 113836,113908,114238
 1.2000e+000 114662 -2.4858e+002 -4.1337e+001 -4.1604e+000 21030 114414,114518,114492
 1.2000e+000 114639 -3.8482e+002 -7.7329e+001  4.9484e+001 21030 114414,114544,114518
 1.2000e+000 114616 -6.0916e+001  3.6932e+001  2.6534e+000 21030 114440,114492,114466
 1.2000e+000 114593 -2.4955e+002 -4.2217e+001 -1.1744e-001 21030 114414,114492,114440
 1.2000e+000 114570 -2.2726e+002 -1.1511e+001  4.8980e+001 21030 114388,114544,114414
 1.2000e+000 114959 -2.5464e+002  1.4730e+001 -1.7613e+001 20512 114982,114711,114685
 1.2000e+000 114936 -2.4892e+002  3.7719e+000 -4.8212e+001 20512 115054,114982,114685
 1.2000e+000 114913 -2.2116e+002  1.0755e+001 -6.0027e+001 20512 115054,114685,114841
 1.2000e+000 114890  1.6325e+001  6.1858e+001  2.4110e+001 20512 114711,114763,114737
 1.2000e+000 114867 -1.5829e+002  2.6353e+001 -1.4419e+001 20512 114763,114815,114789
 1.2000e+000 115008 -2.2423e+002  3.2066e+001 -7.6116e+000 20512 114763,114711,114982
 1.2000e+000 115031 -2.2745e+002 -9.1027e+000 -2.8294e+001 20512 114763,114982,114815
 1.2000e+000 115080 -2.2886e+002  6.1165e+000 -3.9586e+001 20512 114815,114982,115054
 1.2000e+000 115103 -2.2431e+002 -9.4830e-001 -4.0530e+001 20512 114815,115054,114841
 1.2000e+000 115507 -8.1941e+001 -4.3405e+001 -1.1561e+001 20143 115285,115389,115363
 1.2000e+000 115484 -8.2388e+001 -6.6489e+000 -5.7129e+000 20143 115259,115389,115285
 1.2000e+000 115461 -1.1687e+002 -4.7253e+001 -2.6636e+001 20143 115233,115389,115259
 1.2000e+000 115438 -4.6561e+001 -1.3272e+000  1.1539e+000 20143 115285,115337,115311
 1.2000e+000 115415 -6.1984e+001 -6.6439e+000 -6.8808e-001 20143 115285,115363,115337
 1.2000e+000 115875 -5.0428e+001 -5.5160e+000  3.4096e+000 19632 115656,115734,115682
 1.2000e+000 115852 -3.7864e+001  1.3171e+001  8.8627e+000 19632 115552,115734,115656
 1.2000e+000 115829 -4.8383e+001 -6.0996e+000 -2.0659e+001 19632 115552,115656,115578
 1.2000e+000 115806 -9.5640e+001  7.1475e+000 -2.2400e+000 19632 115578,115656,115630
 1.2000e+000 115783 -2.8701e+001  2.6060e+000 -1.4741e+001 19632 115682,115734,115708
 1.2000e+000 115760 -7.9932e+001 -5.6317e+000  2.2068e+001 19632 115578,115630,115604
 1.2000e+000 116025 -1.8103e+002 -1.1609e+001  8.6499e+000 19178 115898,115950,115924
 1.2000e+000 116002 -1.8873e+002 -2.8676e+000  2.1380e+001 19178 115898,115976,115950
 1.2000e+000 116633 -1.4530e+002  2.2280e+001  5.1643e-001 18738 116800,116656,116342
 1.2000e+000 116610 -1.3058e+002  5.0579e+001 -5.5607e+001 18738 116656,116238,116446
 1.2000e+000 116587 -1.2243e+002 -9.8096e+000  1.2053e+001 18738 116728,116368,116342
 1.2000e+000 116564 -1.5586e+002  1.8052e+000  1.1644e+001 18738 116800,116342,116264
 1.2000e+000 116541 -9.5542e+001  5.2747e+002 -1.8373e+002 18738 116212,116446,116238
 1.2000e+000 116518 -8.5425e+001  8.4805e+000 -8.4775e+001 18738 116394,116446,116420
 1.2000e+000 116495 -3.9912e+002 -9.9388e+001  1.0716e+001 18738 116264,116342,116316
 1.2000e+000 116472 -1.1147e+002  1.6998e+001  2.0715e+000 18738 116264,116316,116290
 1.2000e+000 116682 -1.2084e+002  2.1667e+000 -1.5166e+001 18738 116728,116342,116656
 1.2000e+000 116705 -1.3870e+002 -2.4680e+001 -6.0924e+001 18738 116394,116656,116446
 1.2000e+000 116754 -8.5009e+001  9.0792e+000 -6.6723e+000 18738 116394,116368,116728
 1.2000e+000 116777 -7.7539e+001  2.5638e+001 -3.4578e+001 18738 116394,116728,116656
 1.2000e+000 116826 -1.5894e+002  6.7707e+001 -2.1954e+001 18738 116238,116656,116800
 1.2000e+000 116849 -1.8243e+002  4.0023e+001 -6.9722e+000 18738 116238,116800,116264
 1.2000e+000 116999  3.9157e+001  2.3782e+001 -4.1035e+001 18184 116872,116924,116898
 1.2000e+000 116976  3.7634e+000  4.3542e+001 -3.4068e+001 18184 116872,116950,116924
 1.2000e+000 117330 -9.8723e+001  2.3005e+001  9.1838e+000 17694 117157,117235,117183
 1.2000e+000 117307 -6.5276e+001  1.1008e+001  3.3438e+000 17694 117131,117235,117157
 1.2000e+000 117284 -7.1094e+001  1.6659e+001  6.6443e+000 17694 117105,117235,117131
 1.2000e+000 117261 -1.5293e+002  1.2567e+001  2.7801e+001 17694 117183,117235,117209
 1.2000e+000 117480 -7.3054e+001 -3.0352e+001  2.3246e+001 17290 117353,117405,117379
 1.2000e+000 117457 -3.2971e+001 -7.9816e-001  9.6926e+000 17290 117353,117431,117405
 1.2000e+000 117679 -2.2178e+002 -1.1491e+002  4.2328e+000 16718 117555,117607,117581
 1.2000e+000 117656 -4.9296e+001 -4.6982e+001 -1.8208e+001 16718 117529,117607,117555
 1.2000e+000 117633 -8.5623e+001 -2.2382e+001 -2.1331e+000 16718 117503,117607,117529
 1.2000e+000 117782 -1.9946e+002 -1.0915e+001 -1.2063e+001 16520 117704,117756,117730
 1.2000e+000 117983 -3.0595e+002 -1.9158e+002  1.1828e+001 16208 117859,117911,117885
 1.2000e+000 117960 -2.5655e+002 -1.2614e+002 -3.6760e+001 16208 117833,117911,117859
 1.2000e+000 117937 -9.0868e+001 -3.5252e+001  2.0786e+000 16208 117807,117911,117833
 1.2000e+000 118135 -2.7995e+001  2.3670e+001 -6.4692e+000 15674 118034,118086,118060
 1.2000e+000 118112 -1.7212e+002 -3.2425e+001 -1.1115e+001 15674 118008,118086,118034
 1.2000e+000 118238 -1.8156e+002  2.4277e-001  1.0093e-002 15355 118160,118212,118186
 1.2000e+000 118341  8.1955e-001  1.1838e+000 -4.2496e-001 421 118263,118315,118289
 1.3000e+000 68152  4.5135e+000 -3.9682e+000  4.6391e+000 67838 68074,68126,68100
 1.3000e+000 68550 -1.7873e+002 -1.4011e+001  2.9807e-001 67526 68276,68380,68302
 1.3000e+000 68527 -2.1031e+001  1.3434e+001 -7.2653e+000 67526 68276,68406,68380
 1.3000e+000 68504 -2.1529e+002 -2.7540e+001  4.7091e+000 67526 68328,68380,68354
 1.3000e+000 68481 -1.7787e+002 -1.2020e+001  2.7054e-001 67526 68302,68380,68328
 1.3000e+000 68458 -3.2747e+001  1.5054e-001  2.8319e+000 67526 68276,68432,68406
 1.3000e+000 68651  1.2077e-004  3.0821e-005  1.7095e-006 67328 68573,68625,68599
 1.3000e+000 68970 -1.0770e+002 -4.5187e+001  1.5243e+001 67016 68722,68800,68774
 1.3000e+000 68947 -1.4272e+002 -5.2606e+001 -3.3966e+001 67016 68722,68826,68800
 1.3000e+000 68924 -2.6469e+002 -4.7709e+000 -1.2461e+001 67016 68696,68826,68722
 1.3000e+000 68901 -7.9078e+001 -3.6368e+001  1.6471e+001 67016 68722,68774,68748
 1.3000e+000 68878 -2.0134e+002 -1.9395e+001  6.2915e+001 67016 68696,68852,68826
 1.3000e+000 69291 -1.4281e+002 -8.7485e+000 -2.5191e+001 66654 69069,69147,69095
 1.3000e+000 69268 -5.5891e+001 -4.1640e+000  9.7904e+000 66654 69069,69173,69147
 1.3000e+000 69245 -3.0181e+001 -4.2699e+000 -1.2793e+001 66654 69043,69173,69069
 1.3000e+000 69222 -1.6793e+002  3.1379e+000  1.5796e+001 66654 69095,69147,69121
 1.3000e+000 69199 -1.8719e+001  5.0678e-001  4.8163e+000 66654 69017,69173,69043
 1.3000e+000 69695 -7.9561e+001 -9.7574e+000 -5.8893e-001 66456 69447,69577,69551
 1.3000e+000 69672 -9.3160e+001 -7.8465e+000 -3.3389e+000 66456 69421,69577,69447
 1.3000e+000 69649 -8.9932e+001 -2.7300e+001  1.0060e+001 66456 69473,69551,69525
 1.3000e+000 69626 -7.8942e+001 -6.3883e+000  1.8515e+000 66456 69447,69551,69473
 1.3000e+000 69603 -7.9379e+001 -7.2577e+000  4.4933e+000 66456 69473,69525,69499
 1.3000e+000 70024  2.1525e+001  1.4699e+001 -2.0868e+001 66258 70047,69851,69825
 1.3000e+000 70001 -1.5843e+001 -2.3438e+001  2.2770e+001 66258 70047,69825,69903
 1.3000e+000 69978 -4.2672e+001 -1.7026e+001  2.8391e+001 66258 69799,69903,69825
 1.3000e+000 69955 -4.2643e+001 -1.0286e+002  3.7427e+001 66258 69799,69929,69903
 1.3000e+000 70073 -1.3976e+001 -2.0438e+001  2.3103e+001 66258 69877,69851,70047
 1.3000e+000 70096 -6.7977e+001 -7.7735e+001  6.9603e+001 66258 69877,70047,69903
 1.3000e+000 70602 -3.1925e+002 -3.3434e+001  6.0578e+001 66060 70305,70435,70331
 1.3000e+000 70579 -8.5926e+000 -8.0293e+001 -3.6299e+001 66060 70279,70435,70305
 1.3000e+000 70556 -1.4232e+002  7.9361e+001  3.6931e+000 66060 70331,70435,70409
 1.3000e+000 70533  1.7796e+001 -2.1489e+000 -5.4256e+001 66060 70279,70461,70435
 1.3000e+000 70510 -2.2951e+002 -3.1933e+001  4.3426e+001 66060 70331,70409,70357
 1.3000e+000 70487 -1.4208e+002  5.7282e+000  3.8039e+001 66060 70357,70409,70383
 1.3000e+000 70703 -8.5562e+000 -1.2062e+001 -1.1206e+001 65862 70625,70677,70651
 1.3000e+000 71083 -1.7829e+001  1.4396e+001  1.2384e+001 65664 70887,70965,70939
 1.3000e+000 71060 -1.8217e+002 -4.9364e+001  6.4899e+001 65664 70861,70965,70887
 1.3000e+000 71037 -2.0443e+002  9.4795e+001  8.2746e+000 65664 70809,70965,70861
 1.3000e+000 71014 -2.2621e+002  1.6238e+002  7.3597e+001 65664 70809,70861,70835
 1.3000e+000 70991 -1.9841e+001  2.5316e+000  5.0141e+000 65664 70887,70939,70913
 1.3000e+000 71611  6.8288e+000 -6.0490e+001 -5.3062e+000 65260 71288,71444,71314
 1.3000e+000 71588  2.9518e+000 -3.7554e+001  1.0008e+001 65260 71288,71470,71444
 1.3000e+000 71565 -4.9089e+001 -2.8378e+001 -2.7775e+001 65260 71314,71418,71392
 1.3000e+000 71542  1.8038e+001 -3.7216e+001 -8.8384e+000 65260 71314,71444,71418
 1.3000e+000 71519 -3.8903e+001 -1.4697e+001 -1.3667e+001 65260 71314,71392,71340
 1.3000e+000 71496 -7.1309e+001 -7.0515e+001 -9.9855e+001 65260 71340,71392,71366
 1.3000e+000 72060 -8.9014e+001  1.2847e+001 -6.1820e+000 64870 71737,71893,71789
 1.3000e+000 72037 -1.2379e+002 -5.7638e-001  7.3018e-001 64870 71737,71919,71893
 1.3000e+000 72014 -1.1860e+002 -1.5481e+001 -8.8829e+001 64870 71789,71841,71815
 1.3000e+000 71991 -1.0569e+002  6.7570e+001 -2.9303e+001 64870 71789,71893,71841
 1.3000e+000 71968 -8.2786e+001 -5.0845e+000 -2.3348e+001 64870 71737,71789,71763
 1.3000e+000 71945 -2.2060e+002  2.5142e+001  0.0000e+000 64870 71841,71893,71867
 1.3000e+000 72517 -7.9901e+001 -1.6410e+000  5.6393e+000 64466 72321,72399,72347
 1.3000e+000 72494 -2.3660e+001 -3.1808e+000  1.5839e+001 64466 72269,72399,72321
 1.3000e+000 72471 -8.0735e+001 -9.9470e-001  1.4760e+000 64466 72347,72399,72373
 1.3000e+000 72448 -6.3474e+001 -3.0336e+001 -6.4748e+000 64466 72243,72399,72269
 1.3000e+000 72425 -1.2853e+001  2.5330e-001 -3.3161e+000 64466 72269,72321,72295
 1.3000e+000 72944 -7.7943e+001  3.2448e-001  1.6674e+001 64062 73111,73039,72699
 1.3000e+000 72921 -1.0122e+002 -6.3112e+000  9.5098e+000 64062 73183,72967,72647
 1.3000e+000 72898 -9.1313e+001 -1.8363e+001  1.1581e+001 64062 72967,72803,72751
 1.3000e+000 72875 -1.0789e+002 -1.2208e+001  7.1589e+000 64062 73111,72699,72673
 1.3000e+000 72852 -1.0743e+002 -3.9551e+000  5.7001e+000 64062 73183,72647,72621
 1.3000e+000 72829 -9.3403e+001 -3.2882e+001  2.5813e+001 64062 72751,72803,72777
 1.3000e+000 72993 -9.9059e+001 -9.2733e+000  7.5509e+000 64062 73039,72647,72967
 1.3000e+000 73016 -5.4787e+001 -3.9714e+000  1.4867e+001 64062 72725,72967,72751
 1.3000e+000 73065 -5.9447e+001  1.1559e+001  1.0897e+001 64062 72725,72699,73039
 1.3000e+000 73088 -1.0337e+002 -9.5131e+000  1.9212e+001 64062 72725,73039,72967
 1.3000e+000 73137 -1.3841e+002 -2.6534e+001  4.1855e+000 64062 72647,73039,73111
 1.3000e+000 73160 -1.4782e+002 -2.7213e+001 -3.7704e+000 64062 72647,73111,72673
 1.3000e+000 73209 -8.7824e+001 -6.0308e+000  1.1920e+001 64062 72803,72967,73183
 1.3000e+000 73232 -9.7287e+001 -9.0706e+000  5.4154e+000 64062 72803,73183,72621
 1.3000e+000 73333 -5.5989e+001  5.2523e+000  4.8232e+000 63814 73356,73281,73255
 1.3000e+000 73382 -1.7690e+002 -2.7699e+001  9.8434e+000 63814 73486,73356,73307
 1.3000e+000 73512 -6.5918e+001  1.9850e+001 -1.1586e+000 63814 73281,73356,73486
 1.3000e+000 73839 -1.1398e+002 -1.2862e+001  3.2069e+001 63616 73862,73692,73666
 1.3000e+000 73816 -1.4046e+002 -2.7486e+001  2.5431e+001 63616 73934,73862,73666
 1.3000e+000 73793 -1.5338e+002 -8.1481e+000  8.6681e+000 63616 73934,73666,73640
 1.3000e+000 73770 -1.0802e+002  7.9871e+000  1.8489e+000 63616 73614,73744,73640
 1.3000e+000 73888 -7.0931e+001 -1.9598e+001  2.0579e+001 63616 73718,73692,73862
 1.3000e+000 73911 -1.2278e+002 -5.2145e+001  2.3868e+000 63616 73718,73862,73744
 1.3000e+000 73960 -1.1100e+002 -6.3913e+000  1.4434e+001 63616 73744,73862,73934
 1.3000e+000 73983 -1.2415e+002  6.5547e+000 -1.3499e+000 63616 73744,73934,73640
 1.3000e+000 74363 -9.8174e+001  8.6123e+000 -2.6529e+001 63390 74386,74115,74089
 1.3000e+000 74340 -1.7519e+002  1.4186e+001 -1.8783e+001 63390 74458,74386,74089
 1.3000e+000 74317 -1.8764e+002  1.2719e+001 -2.7270e+001 63390 74458,74089,74245
 1.3000e+000 74294 -1.2895e+002 -6.4457e+001  2.7513e+001 63390 74530,74167,74141
 1.3000e+000 74271 -1.0349e+002 -9.9228e+000  5.0329e+001 63390 74167,74219,74193
 1.3000e+000 74412 -1.7885e+002 -4.4807e+001 -5.1330e+001 63390 74141,74115,74386
 1.3000e+000 74435 -1.9139e+002 -1.9555e+001 -2.5561e+001 63390 74530,74141,74386
 1.3000e+000 74484 -1.8766e+002  1.2005e+001 -4.7753e+001 63390 74219,74386,74458
 1.3000e+000 74507 -2.1881e+002  3.6976e-001 -5.6312e+001 63390 74219,74458,74245
 1.3000e+000 74556 -5.8822e+001 -2.7735e+001  1.4154e+001 63390 74219,74167,74530
 1.3000e+000 74579 -9.9654e+001  2.9851e+001 -4.4371e+001 63390 74219,74530,74386
 1.3000e+000 74680  9.8556e+000  4.2343e+000 -1.6647e+000 63100 75089,74833,74703
 1.3000e+000 74729  4.4522e+000 -3.9402e+000  2.1691e+000 63100 74961,74703,74654
 1.3000e+000 74859  9.8002e+000  5.2686e+000 -1.2330e+000 63100 74602,74703,74833
 1.3000e+000 74987  7.8957e+000  1.3002e+000 -2.5332e+000 63100 75089,74703,74961
 1.3000e+000 75115  1.4772e+001 -4.3493e-001  2.0252e+000 63100 74628,74833,75089
 1.3000e+000 75138  1.2798e+001 -3.3865e+000  1.1565e+000 63100 74628,75089,74961
 1.3000e+000 75723 -2.5211e+001 -1.9504e+001 -8.1838e-001 62532 75746,75504,75426
 1.3000e+000 75700 -8.1531e+001  7.3794e+000  3.4835e+001 62532 75746,75426,75556
 1.3000e+000 75677 -1.3452e+001  2.6439e+001 -1.0860e+001 62532 75426,75504,75452
 1.3000e+000 75654 -1.2044e+002  5.7274e+000  2.3694e+001 62532 75400,75556,75426
 1.3000e+000 75631 -1.4048e+002 -5.9925e+001 -8.3651e+000 62532 75400,75582,75556
 1.3000e+000 75608  3.8587e+001 -9.9926e+000 -1.1424e+001 62532 75452,75504,75478
 1.3000e+000 75772 -9.1324e+001 -3.2915e+000 -1.4623e+000 62532 75530,75504,75746
 1.3000e+000 75795 -1.7565e+002  1.3300e+000  3.5411e+001 62532 75530,75746,75556
 1.3000e+000 76301 -5.8325e+001  1.5460e+000 -2.1124e+000 62192 76324,76082,76030
 1.3000e+000 76278 -5.6847e+001  1.2155e+001  1.8437e+000 62192 76324,76030,76004
 1.3000e+000 76255 -6.9408e+001 -1.3057e+000 -7.4556e+000 62192 76030,76082,76056
 1.3000e+000 76232 -6.7866e+001  4.4790e+000 -1.2476e+001 62192 76082,76134,76108
 1.3000e+000 76209 -1.4679e+002 -1.1232e+001 -2.1225e+001 62192 76004,76160,76134
 1.3000e+000 76186 -2.9081e+001 -8.6860e+001  2.2908e+001 62192 75978,76160,76004
 1.3000e+000 76350 -6.7159e+001  1.4543e+001 -3.1661e+000 62192 76134,76082,76324
 1.3000e+000 76373 -6.2004e+001  3.0794e+001 -3.4098e-002 62192 76134,76324,76004
 1.3000e+000 76879 -5.5973e-001  1.2204e+000  3.0669e+000 61788 76902,76660,76582
 1.3000e+000 76856  7.6071e+000  2.8053e+000  3.2711e+000 61788 76902,76582,76556
 1.3000e+000 76833 -1.4317e+000  1.1896e+000  2.5494e+000 61788 76582,76660,76634
 1.3000e+000 76810  4.6881e-001 -1.6203e+000  3.1080e+000 61788 76582,76634,76608
 1.3000e+000 76787 -3.1712e+000  3.7627e+000  9.9495e-001 61788 76556,76738,76686
 1.3000e+000 76764 -2.9149e+000  1.5257e+000  1.4458e+000 61788 76686,76738,76712
 1.3000e+000 76928 -6.5852e+000  3.6115e+000  3.6090e+000 61788 76686,76660,76902
 1.3000e+000 76951  2.0191e-001  4.1835e+000  4.2571e+000 61788 76686,76902,76556
 1.3000e+000 77408 -7.8888e+001 -2.1443e+001  6.2973e+001 61498 77212,77264,77238
 1.3000e+000 77385 -1.1088e+002  1.4606e+000 -5.2185e+001 61498 77160,77264,77212
 1.3000e+000 77362 -1.3118e+002 -7.0947e+000 -5.5409e+001 61498 77160,77290,77264
 1.3000e+000 77339 -2.3025e+002 -3.2001e+001 -2.9888e+001 61498 77160,77212,77186
 1.3000e+000 77316 -1.1119e+002 -9.4262e+000  1.4661e+001 61498 77134,77290,77160
 1.3000e+000 77678 -7.1328e+002  7.9149e+000  1.2310e+001 61129 77479,77557,77505
 1.3000e+000 77655 -7.0708e+002 -1.4033e+002  2.0706e+000 61129 77479,77583,77557
 1.3000e+000 77632 -6.1691e+002 -2.5988e+002  5.7381e+001 61129 77453,77583,77479
 1.3000e+000 77609 -6.5225e+002  1.5941e+002  1.5701e+002 61129 77505,77557,77531
 1.3000e+000 77828 -1.7001e+001 -1.1561e+001  1.4148e+001 60931 77851,77727,77701
 1.3000e+000 77805 -2.5900e+001  1.5270e+001  1.0186e+000 60931 77851,77701,77779
 1.3000e+000 77877 -1.2365e+001 -9.1584e+000  1.3627e+001 60931 77923,77851,77753
 1.3000e+000 77900 -8.6191e+000 -4.8563e+000  2.3129e+000 60931 77753,77851,77779
 1.3000e+000 77949 -2.5262e+001 -5.1514e+001  4.3103e+000 60931 77727,77851,77923
 1.3000e+000 78133 -3.3314e+002 -1.1572e+002  2.3379e+001 60377 78055,78107,78081
 1.3000e+000 78535 -1.7465e+002  7.4803e+001 -3.9106e+001 60015 78287,78391,78313
 1.3000e+000 78512 -3.0402e+002 -2.0794e+001  4.1354e+000 60015 78287,78417,78391
 1.3000e+000 78489 -1.7773e+002  5.8924e+000 -1.8454e+001 60015 78261,78417,78287
 1.3000e+000 78466 -4.6157e+002 -1.3386e+002  2.7397e+001 60015 78339,78391,78365
 1.3000e+000 78443 -4.7048e+002 -4.2348e+001 -2.6297e+001 60015 78313,78391,78339
 1.3000e+000 78913 -4.2176e+001 -6.4642e+000  1.1999e+001 59725 78936,78743,78691
 1.3000e+000 78890 -4.4444e+001 -2.5448e+000  1.1749e+001 59725 79008,78936,78691
 1.3000e+000 78867 -4.4340e+001 -2.6575e+000  1.2264e+001 59725 79008,78691,78665
 1.3000e+000 78844 -4.9517e+001 -4.7161e+000  4.0381e+000 59725 78691,78743,78717
 1.3000e+000 78821 -6.2620e+001 -2.8640e+001  2.0514e+001 59725 78639,78795,78769
 1.3000e+000 78962 -3.7295e+001 -4.5480e+000  9.2518e+000 59725 78769,78743,78936
 1.3000e+000 78985 -4.5367e+001 -4.7109e+000  8.2814e+000 59725 78769,78936,78639
 1.3000e+000 79034 -4.5540e+001 -3.0005e+000  1.1707e+001 59725 78639,78936,79008
 1.3000e+000 79057 -4.4968e+001 -2.9743e+000  1.2137e+001 59725 78639,79008,78665
 1.3000e+000 79386 -1.1625e+002  3.6548e+001  2.2204e+001 59221 79187,79239,79213
 1.3000e+000 79363 -7.9939e+001  1.6255e+000  3.5576e+001 59221 79187,79265,79239
 1.3000e+000 79340 -5.3921e+001 -2.5307e+000  1.5480e+001 59221 79187,79291,79265
 1.3000e+000 79317 -4.2289e+001  1.6822e+001 -8.9391e+000 59221 79161,79291,79187
 1.3000e+000 79813 -2.5708e+002 -1.1476e+001  3.8390e+001 58831 79836,79542,79516
 1.3000e+000 79790 -1.4342e+002  1.7824e+001  4.9382e+001 58831 79980,79836,79516
 1.3000e+000 79767 -3.4932e+001 -1.3107e+001  2.5980e+001 58831 79908,79646,79568
 1.3000e+000 79744 -2.4683e+002  4.6973e-001  5.6391e+001 58831 79980,79516,79490
 1.3000e+000 79721  2.2473e+001 -2.6680e+001  8.9724e+000 58831 79568,79646,79594
 1.3000e+000 79698  7.6692e+000 -2.1739e+001  3.4561e+000 58831 79594,79646,79620
 1.3000e+000 79862 -1.1370e+002  2.4895e+001  5.1304e+001 58831 79568,79542,79836
 1.3000e+000 79885 -5.3805e+001 -2.1673e+001  1.0532e+001 58831 79908,79568,79836
 1.3000e+000 79934 -2.2320e+001 -1.2390e+001  3.3380e+001 58831 79672,79646,79908
 1.3000e+000 79957 -2.4533e+001 -1.2315e+001  1.7692e+001 58831 79672,79908,79836
 1.3000e+000 80006 -9.7788e+001  9.6802e+000  6.6117e+000 58831 79672,79836,79980
 1.3000e+000 80029 -1.4290e+002  1.2536e+001  3.1111e+001 58831 79672,79980,79490
 1.3000e+000 80358 -1.2367e+002 -1.4624e-001  4.0781e+000 58377 80381,80185,80159
 1.3000e+000 80335 -1.8205e+002  8.7525e+000  9.6577e+000 58377 80381,80159,80133
 1.3000e+000 80312 -7.3737e+001 -6.0774e+000 -2.6391e+000 58377 80133,80263,80237
 1.3000e+000 80289 -3.4852e+001 -9.8506e-001  5.3869e+000 58377 80185,80237,80211
 1.3000e+000 80407 -3.6533e+001  4.0592e+000 -1.4190e+001 58377 80237,80185,80381
 1.3000e+000 80430 -1.3322e+002 -1.4695e+001 -9.6446e+000 58377 80237,80381,80133
 1.3000e+000 80759 -1.7797e+002  6.6197e+001 -3.7002e+001 57873 80782,80586,80560
 1.3000e+000 80736 -2.0036e+002  1.7203e+001 -5.5836e+001 57873 80782,80560,80534
 1.3000e+000 80713 -7.3089e+001  1.1027e+001 -1.0913e+001 57873 80586,80638,80612
 1.3000e+000 80690 -9.2408e+001 -1.9217e+001  2.2579e+000 57873 80534,80664,80638
 1.3000e+000 80808 -1.9924e+002  2.0576e+001 -4.7984e+001 57873 80638,80586,80782
 1.3000e+000 80831 -1.9328e+002  5.7309e+000 -6.1372e+001 57873 80638,80782,80534
 1.3000e+000 81337 -3.4288e+001 -3.9236e+000 -4.8853e+000 57262 81360,81144,81092
 1.3000e+000 81314 -3.4316e+001 -8.6296e+000 -1.5619e+001 57262 81360,81092,81066
 1.3000e+000 81291 -2.1320e+001  1.6278e+000 -1.1132e+001 57262 81014,81196,81066
 1.3000e+000 81268 -2.4565e+001 -9.7590e+000 -5.2684e-001 57262 81092,81144,81118
 1.3000e+000 81245 -7.1015e+000 -1.5875e+000  1.9374e-001 57262 81144,81196,81170
 1.3000e+000 81222 -1.9124e+001  4.3669e+000 -1.1562e+000 57262 81014,81066,81040
 1.3000e+000 81386 -2.1680e+001  3.6860e+000 -1.6648e+000 57262 81196,81144,81360
 1.3000e+000 81409 -2.5926e+001 -3.0412e+000 -1.3066e+001 57262 81196,81360,81066
 1.3000e+000 81608 -7.8573e+002 -3.0998e+002 -9.7977e+001 57007 81458,81536,81510
 1.3000e+000 81585 -7.2615e+002 -2.2857e+002 -6.8938e+001 57007 81432,81536,81458
 1.3000e+000 81562 -4.1403e+002 -3.9500e+002 -2.8132e+002 57007 81458,81510,81484
 1.3000e+000 82086 -2.7527e+001  6.2345e+000  6.2837e+000 56339 81792,81922,81818
 1.3000e+000 82063  2.7447e+001  4.7164e+000 -3.6388e+000 56339 81714,81922,81792
 1.3000e+000 82040 -7.3325e+001  4.2786e+000  1.0098e+001 56339 82109,81844,81818
 1.3000e+000 82017 -3.4539e+001 -1.0349e+001  1.6229e+001 56339 82109,81818,81922
 1.3000e+000 81994 -9.0618e+001 -7.0344e+000 -2.3113e+001 56339 81844,81896,81870
 1.3000e+000 81971  2.4796e+001 -1.3378e+000 -3.4846e+000 56339 81714,81792,81766
 1.3000e+000 81948  6.6995e+000  7.5466e+000 -8.7184e+000 56339 81714,81766,81740
 1.3000e+000 82135 -1.1675e+002 -2.5798e-001  1.0964e+001 56339 81896,81844,82109
 1.3000e+000 82158 -6.7199e+001 -6.1832e+000  2.1613e+001 56339 81896,82109,81922
 1.3000e+000 82536 -2.0240e+002 -1.7292e+001 -3.3336e+001 55699 82288,82392,82314
 1.3000e+000 82513 -1.5380e+002  1.3514e+001  3.0303e+000 55699 82288,82418,82392
 1.3000e+000 82490 -5.3518e+001 -3.1299e+001  3.1748e+001 55699 82314,82392,82340
 1.3000e+000 82467 -4.9939e+001  4.2423e+000  2.8472e+001 55699 82340,82392,82366
 1.3000e+000 82444 -3.0088e+002  1.5244e+001 -2.1208e+001 55699 82262,82418,82288
 1.3000e+000 83091 -7.2130e+000  1.5269e+001 -1.5558e+001 55409 82745,82901,82875
 1.3000e+000 83068  1.2204e+001  9.0897e+000 -1.0439e+001 55409 82719,82901,82745
 1.3000e+000 83045  1.2479e+001 -8.1638e+000  9.9920e+000 55409 82771,82849,82823
 1.3000e+000 83022  1.8909e+001 -9.9362e+000 -2.1533e+000 55409 82745,82849,82771
 1.3000e+000 82999 -1.7342e+001  9.0834e+000  1.3888e+000 55409 82745,82875,82849
 1.3000e+000 82976  7.1618e+000  9.0490e+000  7.2981e+000 55409 82771,82823,82797
 1.3000e+000 82953 -3.9459e+000 -5.7323e+000 -4.6103e+000 55409 82719,82927,82901
 1.3000e+000 83388 -7.2122e+001  7.3293e+000 -2.6239e+000 54905 83411,83218,83166
 1.3000e+000 83365 -1.3026e+002 -2.3734e+000 -3.3705e+000 54905 83411,83166,83114
 1.3000e+000 83342 -1.5702e+001  1.5849e+001  1.8528e+000 54905 83483,83270,83244
 1.3000e+000 83319 -2.1087e+002 -1.3157e+001 -1.0295e+001 54905 83166,83218,83192
 1.3000e+000 83296 -1.2323e+002 -2.0793e+000  1.5438e+001 54905 83114,83166,83140
 1.3000e+000 83437 -7.1834e+001 -9.5931e+000 -7.2496e+000 54905 83244,83218,83411
 1.3000e+000 83460 -6.1209e+001  2.4852e-001  1.3782e-001 54905 83483,83244,83411
 1.3000e+000 83509 -7.7945e+001  3.5140e+000 -1.2384e+001 54905 83114,83270,83483
 1.3000e+000 83532 -8.2166e+001  1.0757e+001 -1.8941e+001 54905 83114,83483,83411
 1.3000e+000 83961 -2.9304e+002 -9.5926e+001 -3.9863e+001 54593 83638,83768,83690
 1.3000e+000 83938 -6.7837e+001 -4.3765e+001 -2.4130e+001 54593 83638,83794,83768
 1.3000e+000 83915 -1.6588e+002  8.1379e+000  1.0438e+001 54593 83690,83768,83742
 1.3000e+000 83892 -1.9019e+002 -4.5106e+000 -1.2832e+002 54593 83638,83820,83794
 1.3000e+000 83869 -1.2845e+002  4.5578e+002 -1.0321e+002 54593 83638,83690,83664
 1.3000e+000 83846 -1.5611e+002 -7.3293e+001  9.5387e+001 54593 83690,83742,83716
 1.3000e+000 84209 -1.0726e+002 -2.9610e+000 -1.5150e+000 54132 84232,84062,83984
 1.3000e+000 84186 -1.0983e+002  2.0569e+000 -2.1894e+000 54132 84232,83984,84114
 1.3000e+000 84163 -1.0756e+002 -1.2359e+000 -7.8231e+000 54132 83984,84062,84036
 1.3000e+000 84140 -6.3756e+001 -1.9658e+001  1.6933e+001 54132 83984,84036,84010
 1.3000e+000 84258 -1.0775e+002 -6.7512e+000 -2.6168e+000 54132 84088,84062,84232
 1.3000e+000 84281 -1.1137e+002 -2.5867e+000 -4.1056e+000 54132 84088,84232,84114
 1.3000e+000 84382 -5.3772e+002 -4.4360e+001 -4.8193e+000 53521 84304,84356,84330
 1.3000e+000 84632 -8.3582e+001 -1.5714e+001  1.5307e+001 53067 84655,84485,84459
 1.3000e+000 84609 -1.2339e+002 -1.3100e+001  4.1381e+000 53067 84655,84459,84407
 1.3000e+000 84586 -8.1425e+001 -2.0475e+001  3.7392e+001 53067 84485,84537,84511
 1.3000e+000 84563 -1.1356e+002 -6.6703e-001 -1.2415e+001 53067 84407,84459,84433
 1.3000e+000 84681 -6.2087e+001 -2.0847e+001  1.4542e+001 53067 84537,84485,84655
 1.3000e+000 84704 -7.9290e+001 -2.7130e+000 -1.4270e+000 53067 84537,84655,84407
 1.3000e+000 85214 -1.9844e+002 -8.7363e+001  2.8503e+001 52513 85021,85073,85047
 1.3000e+000 85191 -1.7325e+002 -1.9736e+001  1.0586e+001 52513 84943,85073,85021
 1.3000e+000 85168 -4.3573e+002 -1.3864e+002 -2.6806e+001 52513 84943,85021,84995
 1.3000e+000 85145 -2.0305e+002 -8.5224e+001  3.8908e+000 52513 84917,85073,84943
 1.3000e+000 85122 -9.1118e+001 -2.0954e+002 -4.2018e+001 52513 84943,84995,84969
 1.3000e+000 85099 -1.0251e+002 -6.5165e+001  1.2015e+001 52513 84891,85073,84917
 1.3000e+000 85582 -1.6817e+002 -1.1367e+001 -8.8156e+000 52037 85605,85311,85285
 1.3000e+000 85559 -2.1125e+002 -3.8037e+001  2.5436e+001 52037 85749,85605,85285
 1.3000e+000 85536 -1.9122e+002  1.3568e+001 -1.8337e+001 52037 85893,85677,85389
 1.3000e+000 85513 -2.4045e+002 -6.1944e+001  3.6055e+001 52037 85749,85285,85259
 1.3000e+000 85490 -1.5021e+002  2.3970e+001 -7.1082e+001 52037 85893,85389,85363
 1.3000e+000 85467 -2.6779e+002  4.4433e+001  2.7144e+001 52037 85259,85441,85415
 1.3000e+000 85631 -2.2888e+002 -8.0350e+000  2.2161e+001 52037 85337,85311,85605
 1.3000e+000 85654 -2.2773e+002 -4.2031e+001  3.4294e+001 52037 85677,85337,85605
 1.3000e+000 85703 -2.7387e+002 -1.5433e+001 -6.8828e+000 52037 85415,85389,85677
 1.3000e+000 85726 -2.2799e+002  8.2941e-001  1.9516e+001 52037 85821,85677,85605
 1.3000e+000 85775 -2.4898e+002 -6.9063e+000  2.1935e+001 52037 85821,85605,85749
 1.3000e+000 85798 -2.8552e+002 -2.5782e+001  1.3886e+001 52037 85415,85749,85259
 1.3000e+000 85847 -2.3130e+002 -2.1913e-002  2.3165e+000 52037 85415,85677,85821
 1.3000e+000 85870 -2.3877e+002 -1.7732e+000  5.1354e+000 52037 85415,85821,85749
 1.3000e+000 85919 -2.1588e+002 -6.8986e+001  2.2415e+001 52037 85337,85677,85893
 1.3000e+000 85942 -2.0027e+002 -7.6200e+001 -2.6695e+001 52037 85337,85893,85363
 1.3000e+000 86224  4.5936e-001 -2.5670e+000 -7.0258e+000 51368 86375,86100,86074
 1.3000e+000 86201 -1.1909e+001 -2.2908e+000  2.7195e-001 51368 86375,86074,86247
 1.3000e+000 86178  1.5337e+001 -1.7369e+000  3.0763e+000 51368 86048,86152,86126
 1.3000e+000 86273  1.1134e+000  6.9118e+000  6.7862e+000 51368 86048,86126,86247
 1.3000e+000 86401  5.8026e+000  2.1653e+000 -1.0128e+001 51368 86126,86100,86375
 1.3000e+000 86424 -3.4714e-001  1.0175e+001 -4.8524e+000 51368 86126,86375,86247
 1.3000e+000 86802 -1.7130e+002 -2.3883e+001 -5.5954e+000 51028 86528,86632,86580
 1.3000e+000 86779 -7.4659e+001 -1.8990e+001 -2.5660e+001 51028 86528,86684,86632
 1.3000e+000 86756 -1.6051e+002 -3.2312e+000  9.1163e+000 51028 86528,86580,86554
 1.3000e+000 86733 -3.0254e+001  1.3677e+000  1.5596e+001 51028 86632,86684,86658
 1.3000e+000 86710 -8.1183e+001 -2.1582e+001 -3.4674e+001 51028 86580,86632,86606
 1.3000e+000 87131 -2.1545e+001  1.0362e+001  9.5256e+000 50624 86958,87036,87010
 1.3000e+000 87108  3.9344e+000 -1.2580e+000  1.5325e+001 50624 86932,87036,86958
 1.3000e+000 87085 -5.1366e+001 -4.9776e+000  2.1680e+001 50624 86958,87010,86984
 1.3000e+000 87062  1.9824e+001 -2.8416e+000  2.1225e-001 50624 86906,87036,86932
 1.3000e+000 87330 -1.0457e+002  6.8591e+000  2.7357e+000 50234 87353,87180,87154
 1.3000e+000 87307 -8.6192e+001  6.2997e+000  3.4597e+000 50234 87353,87154,87258
 1.3000e+000 87284 -6.2498e+001  1.2263e+000 -1.1325e-002 50234 87206,87258,87232
 1.3000e+000 87379 -8.8469e+001 -2.6654e+000  1.2019e+001 50234 87206,87180,87353
 1.3000e+000 87402 -6.2316e+001  1.4991e+000  9.0223e+000 50234 87206,87353,87258
 1.3000e+000 87650 -1.2946e+002 -4.5066e+000  1.1742e+001 49730 87673,87503,87451
 1.3000e+000 87627 -1.3995e+002 -7.4967e+000  2.0979e+001 49730 87673,87451,87425
 1.3000e+000 87604 -8.7157e+001 -3.1845e+001  4.8970e+001 49730 87503,87555,87529
 1.3000e+000 87581 -3.4963e+002 -2.1292e+001  5.9264e+001 49730 87451,87503,87477
 1.3000e+000 87699 -1.2773e+002 -3.0548e-001  1.1515e+001 49730 87555,87503,87673
 1.3000e+000 87722 -1.3077e+002  7.8010e+000  1.6271e+001 49730 87555,87673,87425
 1.3000e+000 88232 -1.3940e+002 -9.2317e+001  6.6176e+001 49176 88255,87935,87909
 1.3000e+000 88209 -6.6054e+001 -3.8934e+001 -3.3162e+001 49176 88255,87909,88065
 1.3000e+000 88186 -2.8776e+002  3.0431e+001 -1.3467e+000 49176 87935,88039,87961
 1.3000e+000 88163 -4.7486e+001 -4.5300e+001 -3.0884e+001 49176 87909,88091,88065
 1.3000e+000 88140 -2.6851e+002  4.0278e+001 -5.8799e+001 49176 87961,88039,88013
 1.3000e+000 88117 -2.9653e+002 -3.4784e+001 -6.0334e+001 49176 87961,88013,87987
 1.3000e+000 88281 -4.5223e+001 -4.9752e+001  1.0588e+001 49176 88039,87935,88255
 1.3000e+000 88304  2.2621e+001 -4.8255e+000 -8.7102e+001 49176 88039,88255,88065
 1.3000e+000 88503 -1.3605e+002 -1.0414e+002 -4.5337e+001 48772 88526,88379,88353
 1.3000e+000 88480 -1.0550e+002 -1.5159e+001 -1.7272e+001 48772 88526,88353,88327
 1.3000e+000 88457 -8.4415e+001  6.6485e+000  2.5952e+001 48772 88379,88431,88405
 1.3000e+000 88552 -1.3865e+002 -2.4650e+001 -4.5982e+001 48772 88431,88379,88526
 1.3000e+000 88575 -1.4831e+002  1.9231e+001 -3.4471e+001 48772 88431,88526,88327
 1.3000e+000 89083 -5.9158e+001 -1.0701e+002  3.1415e+001 48368 88786,88916,88864
 1.3000e+000 89060 -8.0561e+001 -6.8171e+001 -2.5753e+000 48368 88786,88942,88916
 1.3000e+000 89037 -4.7924e+001 -1.5409e+002  2.5955e+000 48368 88786,88864,88812
 1.3000e+000 89014 -1.3896e+002 -1.1099e+002  1.8303e+001 48368 88864,88916,88890
 1.3000e+000 88991 -8.2718e+001 -9.8265e+001 -4.5264e+001 48368 88812,88864,88838
 1.3000e+000 88968 -5.8908e+001 -7.9675e+001 -3.1610e+001 48368 88760,88942,88786
 1.3000e+000 89331 -1.8351e+002 -8.4190e+001 -1.1231e+002 47928 89158,89236,89210
 1.3000e+000 89308 -2.2610e+002 -7.6487e+001 -5.4833e+001 47928 89132,89236,89158
 1.3000e+000 89285 -6.6569e+001 -3.8463e+001 -6.5511e+001 47928 89158,89210,89184
 1.3000e+000 89262 -1.6579e+002 -3.1503e+001 -3.3629e+001 47928 89106,89236,89132
 1.3000e+000 89662 -8.1768e+001 -3.7841e+001  2.9001e+001 47588 89463,89541,89515
 1.3000e+000 89639 -3.2351e+001 -3.0783e+001 -1.1113e+001 47588 89463,89567,89541
 1.3000e+000 89616 -1.5699e+002 -3.1283e+001 -5.3761e+001 47588 89463,89515,89489
 1.3000e+000 89593  5.4096e-001 -5.3873e+001  1.2852e+001 47588 89437,89567,89463
 1.3000e+000 89763 -7.3163e+002 -2.4862e+002 -2.8567e+001 47390 89685,89737,89711
 1.3000e+000 89913 -5.4765e+002 -1.9380e+002 -2.8745e+001 47078 89786,89838,89812
 1.3000e+000 89890 -3.4110e+002 -2.1508e+002 -3.8573e+001 47078 89786,89864,89838
 1.3000e+000 90163 -7.4060e+001 -2.6602e+000  1.6982e+001 46474 89964,90042,89990
 1.3000e+000 90140 -7.2952e+001 -3.3844e+000  2.0818e+001 46474 89938,90042,89964
 1.3000e+000 90117 -7.6019e+000 -8.9796e-001  2.5332e+001 46474 89990,90042,90016
 1.3000e+000 90094 -2.2680e+001  2.9770e-001  8.0698e+000 46474 89938,90068,90042
 1.3000e+000 90364 -3.1530e+001  1.4539e+001  4.9405e+000 46184 90240,90292,90266
 1.3000e+000 90341  9.6081e+000 -1.1105e+001 -1.2287e+001 46184 90188,90292,90240
 1.3000e+000 90318  3.1353e+001  1.5404e+001 -2.8867e+000 46184 90188,90240,90214
 1.3000e+000 90565 -1.9358e+002  2.5260e+001 -3.9484e+001 45780 90588,90415,90389
 1.3000e+000 90542 -9.8256e+001  1.5125e+001 -2.6469e+001 45780 90588,90389,90493
 1.3000e+000 90519 -1.3417e+002 -4.1687e+001 -3.3025e+000 45780 90415,90467,90441
 1.3000e+000 90614 -1.1738e+002 -1.9874e+000  1.6481e+001 45780 90467,90415,90588
 1.3000e+000 90637  8.3761e+000  2.9014e+001  4.4598e+001 45780 90467,90588,90493
 1.3000e+000 91196 -6.5698e+001 -1.1520e+001 -3.4823e+000 45226 91219,90876,90850
 1.3000e+000 91173 -7.0893e+001 -1.6119e+001  1.9665e+000 45226 91219,90850,91032
 1.3000e+000 91150 -6.9593e+001 -1.4092e+001  3.4282e+000 45226 90824,91032,90850
 1.3000e+000 91127 -1.0334e+002 -1.4369e+001 -1.5772e+000 45226 90876,90980,90902
 1.3000e+000 91104 -6.8615e+001  7.0266e-002 -4.3007e+000 45226 90876,91006,90980
 1.3000e+000 91081 -9.9816e+001 -3.5896e+000  9.7708e+000 45226 90902,90980,90954
 1.3000e+000 91058 -3.8216e+002 -6.6849e+001 -7.2745e+000 45226 90902,90954,90928
 1.3000e+000 91245 -7.3538e+001 -1.5504e+000 -4.2769e+000 45226 91006,90876,91219
 1.3000e+000 91268 -8.0241e+001 -8.2046e+000  1.2215e+000 45226 91006,91219,91032
 1.3000e+000 91516 -1.3996e+002  3.2453e+000 -2.7400e+001 44836 91539,91421,91395
 1.3000e+000 91493 -2.7240e+002  4.2563e+001 -4.9207e+001 44836 91317,91421,91343
 1.3000e+000 91470 -1.7599e+002 -9.2001e+001  2.1877e+001 44836 91539,91395,91369
 1.3000e+000 91447 -1.1707e+002 -4.9272e+001 -1.2219e+002 44836 91291,91421,91317
 1.3000e+000 91565 -1.4427e+002  4.5959e+001 -5.0826e+001 44836 91343,91421,91539
 1.3000e+000 91588 -1.3246e+002  1.9158e+001 -5.4397e+000 44836 91343,91539,91369
 1.3000e+000 91787 -7.2364e+001  9.6427e+000  5.0939e+000 44432 91810,91637,91611
 1.3000e+000 91764  1.7573e+000  7.2098e+000 -9.3054e+000 44432 91810,91611,91715
 1.3000e+000 91741 -5.0173e+001 -8.3583e+000  5.5355e+000 44432 91637,91689,91663
 1.3000e+000 91836 -8.9197e+000  8.9675e+000  1.6088e+001 44432 91689,91637,91810
 1.3000e+000 91859  4.0999e+001 -8.7694e+000  1.4800e+001 44432 91689,91810,91715
 1.3000e+000 92207 -2.6844e+002 -5.2676e+001 -9.0506e+001 43864 92230,91936,91910
 1.3000e+000 92184 -1.7812e+002 -7.8208e+001 -1.0426e+002 43864 92230,91910,92040
 1.3000e+000 92161 -1.8120e+001  6.6301e+000 -2.5466e+001 43864 91884,92040,91910
 1.3000e+000 92138 -1.7538e+002 -2.9417e+001 -2.8753e+001 43864 91936,92014,91988
 1.3000e+000 92115 -1.5375e+002 -1.6596e+001 -3.4158e+001 43864 91936,91988,91962
 1.3000e+000 92092 -2.0001e+001 -2.0188e+001 -1.9504e+001 43864 91884,92066,92040
 1.3000e+000 92256 -1.8844e+002 -2.8208e+001 -6.9366e+001 43864 92014,91936,92230
 1.3000e+000 92279 -1.3193e+002 -8.1147e+001 -9.8765e+001 43864 92014,92230,92040
 1.3000e+000 92529 -1.5994e+002 -2.4390e+001  3.1246e+001 43410 92552,92330,92304
 1.3000e+000 92506 -1.4570e+002 -1.6957e+000  6.9018e+001 43410 92552,92304,92408
 1.3000e+000 92483 -1.3931e+002  1.2686e+001  6.6234e+001 43410 92304,92434,92408
 1.3000e+000 92460 -2.0547e+002 -5.2762e+000 -6.7200e+000 43410 92330,92382,92356
 1.3000e+000 92578 -1.9812e+002 -3.4501e+001  2.3010e+000 43410 92382,92330,92552
 1.3000e+000 92601 -1.9088e+002  1.0282e+001  4.3818e+001 43410 92382,92552,92408
 1.3000e+000 92802 -1.2428e+002  6.1743e+000  6.5552e+000 43162 92825,92704,92652
 1.3000e+000 92779 -1.3009e+002  2.4630e+000 -6.1440e+000 43162 92825,92652,92626
 1.3000e+000 92756  2.1033e+001 -2.6099e+001  1.2328e+001 43162 92652,92704,92678
 1.3000e+000 92851 -1.1353e+002  8.4148e+000  1.3101e+001 43162 92730,92704,92825
 1.3000e+000 92874 -1.0027e+002 -4.1916e+000 -5.6931e+000 43162 92730,92825,92626
 1.3000e+000 93463 -2.5126e+002 -2.4724e+001  4.6207e+001 42758 93140,93270,93166
 1.3000e+000 93440 -2.0859e+002  1.2267e+001  1.5394e+001 42758 93140,93296,93270
 1.3000e+000 93417 -1.0179e+002  3.0929e+001  3.2716e+001 42758 93166,93270,93218
 1.3000e+000 93394 -3.5006e+002 -9.1955e+000  5.8562e+001 42758 93218,93270,93244
 1.3000e+000 93371 -1.2020e+002 -2.5123e+001  1.5634e+001 42758 93140,93322,93296
 1.3000e+000 93348 -1.1055e+002 -8.1611e-001 -4.9700e+000 42758 93166,93218,93192
 1.3000e+000 93920 -1.3560e+002  8.9585e+000  2.4048e+001 42304 93943,93672,93646
 1.3000e+000 93897 -1.1044e+002 -9.2717e+000 -2.2474e+001 42304 93943,93646,93802
 1.3000e+000 93874 -3.9577e+001  3.2013e+000  4.9695e-001 42304 93724,93802,93776
 1.3000e+000 93851 -8.8401e+001  1.2606e+001  2.2531e+001 42304 93672,93724,93698
 1.3000e+000 93828 -1.5422e+001 -1.7970e+000  6.5735e+000 42304 93724,93776,93750
 1.3000e+000 93969 -8.9243e+001  1.6907e+001  1.9318e+001 42304 93724,93672,93943
 1.3000e+000 93992 -4.9727e+001 -7.8838e-001 -1.4554e+001 42304 93724,93943,93802
 1.3000e+000 94321  4.4009e+001 -1.0572e+001 -3.2824e+001 41478 94096,94148,94122
 1.3000e+000 94298 -1.3669e+001 -3.2733e+000  1.5639e+001 41478 94096,94226,94148
 1.3000e+000 94275 -2.0802e+001 -1.3399e+001  1.2313e+001 41478 94148,94226,94174
 1.3000e+000 94252 -4.1314e+000  5.2737e-001 -1.7286e+000 41478 94174,94226,94200
 1.3000e+000 94618 -5.4713e+001  1.6154e+001 -1.0941e+001 40910 94344,94422,94396
 1.3000e+000 94595 -9.4749e+001 -6.4026e+000 -2.4135e+001 40910 94344,94448,94422
 1.3000e+000 94572 -7.9433e+001  3.2315e+001  5.9816e+001 40910 94344,94474,94448
 1.3000e+000 94549 -5.8407e+001  2.5321e+001 -3.1116e+000 40910 94344,94396,94370
 1.3000e+000 94526 -1.2871e+002  2.4975e+001  7.5182e+001 40910 94344,94500,94474
 1.3000e+000 94866 -5.3208e+001 -2.9371e-001  1.1377e+001 40306 94667,94719,94693
 1.3000e+000 94843 -4.4346e+001 -1.3607e+001  1.4028e+001 40306 94641,94719,94667
 1.3000e+000 94820 -3.6054e+001 -2.9714e-001  9.7721e+000 40306 94641,94745,94719
 1.3000e+000 94797 -6.1541e+001  5.6154e+000  9.5314e+000 40306 94641,94771,94745
 1.3000e+000 95089 -2.3248e+002 -5.9724e+001 -3.4377e+001 39702 94913,94991,94939
 1.3000e+000 95066 -3.4080e+002 -1.0304e+002 -2.1613e+001 39702 94913,95017,94991
 1.3000e+000 95043 -4.2071e+002 -1.4072e+002 -3.9253e+001 39702 94939,94991,94965
 1.3000e+000 95339 -1.5768e+002  1.3252e+001  2.0101e+001 39248 95140,95218,95166
 1.3000e+000 95316 -2.5250e+002 -4.0007e+001  4.2166e+001 39248 95140,95244,95218
 1.3000e+000 95293 -8.3555e+001  4.4442e-001  4.3887e+001 39248 95114,95244,95140
 1.3000e+000 95270 -3.1749e+002 -8.8786e+000  4.7675e+001 39248 95166,95218,95192
 1.3000e+000 95770 -3.8628e+001 -1.6268e+001 -4.1118e+001 38694 95551,95629,95577
 1.3000e+000 95747 -1.1047e+002 -2.6142e+001 -6.0086e+001 38694 95447,95629,95551
 1.3000e+000 95724 -1.3490e+002 -6.6237e+001 -2.5634e+001 38694 95447,95551,95473
 1.3000e+000 95701 -9.8412e+001 -2.3320e+001 -4.1415e+001 38694 95473,95551,95499
 1.3000e+000 95678 -5.7193e+001 -2.0641e+001 -1.2666e+001 38694 95499,95551,95525
 1.3000e+000 95655 -1.5972e+001 -1.7860e+000  1.5616e+000 38694 95577,95629,95603
 1.3000e+000 96325 -1.8962e+002 -4.0267e+001 -4.2785e+001 38240 95953,96031,96005
 1.3000e+000 96302 -1.1781e+002 -8.0832e+001 -1.2066e+002 38240 95953,96161,96031
 1.3000e+000 96279 -1.2516e+002 -1.6624e+001 -7.7607e+001 38240 96031,96161,96135
 1.3000e+000 96256 -2.8141e+002 -6.5656e+001  3.5980e+001 38240 96348,96109,96057
 1.3000e+000 96233 -2.6822e+002 -1.9801e+002 -1.1500e+002 38240 96348,96057,96031
 1.3000e+000 96210 -2.7149e+002 -3.3572e+001  3.7179e+001 38240 96057,96109,96083
 1.3000e+000 96187 -5.5088e+001 -1.6704e+001  2.9632e+001 38240 95953,96005,95979
 1.3000e+000 96374 -1.5443e+002  4.2747e+001  8.2664e+001 38240 96135,96109,96348
 1.3000e+000 96397 -1.1936e+002 -8.8578e+001 -6.5857e+001 38240 96135,96348,96031
 1.3000e+000 96618 -2.2880e+002  1.7781e+001  2.7425e+001 37821 96494,96546,96520
 1.3000e+000 96595 -2.6764e+002 -8.5119e+001 -2.0711e+001 37821 96468,96546,96494
 1.3000e+000 96572 -2.9949e+002 -9.8754e+001 -1.8336e+001 37821 96442,96546,96468
 1.3000e+000 97126 -1.5440e+002 -9.1173e+000  2.9286e+000 37367 97149,96855,96829
 1.3000e+000 97103 -8.9884e+001  1.3826e+001  1.4356e+001 37367 97149,96829,96985
 1.3000e+000 97080 -1.0720e+002  7.4000e+000  1.2083e+001 37367 96803,96985,96829
 1.3000e+000 97057 -1.6669e+001 -1.0241e+001  1.1313e+001 37367 96855,96907,96881
 1.3000e+000 97034  7.2815e+000 -2.7223e+001 -2.4568e+000 37367 96907,96985,96959
 1.3000e+000 97011 -1.4089e+001 -1.7069e+001 -1.8873e+001 37367 96907,96959,96933
 1.3000e+000 97175 -9.1098e+001 -9.1840e+000  3.1036e+001 37367 96907,96855,97149
 1.3000e+000 97198 -4.5371e+001  1.2933e+000  4.1820e+001 37367 96907,97149,96985
 1.3000e+000 97704 -8.6179e+001 -3.5850e+001 -2.9518e+001 36863 97727,97511,97485
 1.3000e+000 97681 -8.7387e+001 -9.3559e+001 -7.4381e+001 36863 97727,97485,97433
 1.3000e+000 97658 -8.6608e+001 -8.7410e+001 -7.2239e+001 36863 97381,97563,97433
 1.3000e+000 97635 -4.0435e+000  9.0564e+000  1.8137e+000 36863 97511,97563,97537
 1.3000e+000 97612 -1.5238e+002 -5.9360e+001 -1.0062e+002 36863 97433,97485,97459
 1.3000e+000 97589 -6.9501e+001 -8.0088e+001 -8.5023e+001 36863 97381,97433,97407
 1.3000e+000 97753 -5.8862e+001  3.7601e+000 -8.1543e+000 36863 97563,97511,97727
 1.3000e+000 97776 -4.3585e+001 -4.4009e+001 -4.9039e+001 36863 97563,97727,97433
 1.3000e+000 98331 -2.4571e+001  1.5006e+001 -1.7853e+001 36287 98354,98089,98063
 1.3000e+000 98308 -1.4491e+001 -1.6666e+001  1.4455e+001 36287 98354,98063,98011
 1.3000e+000 98285 -3.2282e+001  9.3589e+000  9.8363e+000 36287 98426,97985,98115
 1.3000e+000 98262 -1.0529e+001 -6.3390e+000  1.2869e+001 36287 98011,98063,98037
 1.3000e+000 98239 -1.4661e+002  4.9138e+000 -6.8804e+000 36287 97985,98141,98115
 1.3000e+000 98216 -1.5172e+002 -2.9170e+000 -1.1488e+001 36287 97959,98141,97985
 1.3000e+000 98193 -2.1447e+002 -1.5131e+001 -1.7848e+000 36287 97959,98167,98141
 1.3000e+000 98380 -1.7200e+002 -2.5401e+001 -1.3441e+001 36287 98115,98089,98354
 1.3000e+000 98403 -4.5406e+001  3.7219e+000  9.4068e+000 36287 98426,98115,98354
 1.3000e+000 98452 -1.8256e+001  1.3573e+000 -5.2249e+000 36287 98011,97985,98426
 1.3000e+000 98475 -3.0127e+001 -3.7198e+000 -5.8904e+000 36287 98011,98426,98354
 1.3000e+000 99030 -7.4649e+001 -3.9026e+001 -1.7541e+001 35726 99053,98736,98710
 1.3000e+000 99007 -7.7653e+001 -8.9671e+000 -3.1995e+000 35726 99053,98710,98684
 1.3000e+000 98984 -5.9313e+001 -1.1412e+001 -9.3648e+000 35726 99125,98814,98736
 1.3000e+000 98961 -4.1640e+001 -3.3053e+001 -1.7265e+001 35726 98736,98814,98788
 1.3000e+000 98938 -1.3774e+002 -1.6458e+001 -1.7021e+001 35726 98684,98866,98840
 1.3000e+000 98915 -8.9881e+001 -4.0141e+001 -6.1527e+001 35726 98736,98788,98762
 1.3000e+000 98892 -7.5792e+001 -3.8606e+000 -1.4589e+001 35726 98658,98866,98684
 1.3000e+000 99079 -6.5946e+001 -1.2667e+001 -1.3198e+001 35726 99125,98736,99053
 1.3000e+000 99102 -7.4927e+001  7.1808e+000 -6.9138e+000 35726 98840,99053,98684
 1.3000e+000 99151 -5.3189e+001 -8.0494e+000 -5.5569e+000 35726 98840,98814,99125
 1.3000e+000 99174 -5.7493e+001 -1.0242e+001 -1.0146e+001 35726 98840,99125,99053
 1.3000e+000 99454 -1.9220e+001 -1.5980e+001 -2.9553e+001 35222 99278,99330,99304
 1.3000e+000 99431 -6.4025e+001 -9.3595e+000  3.1884e+001 35222 99278,99382,99330
 1.3000e+000 99408 -1.3242e+002 -8.4426e+000  1.4387e+001 35222 99330,99382,99356
 1.3000e+000 99653 -2.6190e+002 -6.2105e+001 -1.7737e+001 34867 99477,99529,99503
 1.3000e+000 99630 -2.0950e+002 -8.1627e+001 -1.8596e+001 34867 99477,99581,99529
 1.3000e+000 99607 -1.8275e+002 -3.0984e+001 -2.9569e+001 34867 99529,99581,99555
 1.3000e+000 100104 -1.3510e+002  2.6215e+001 -2.3210e+001 34363 99781,99885,99807
 1.3000e+000 100081 -1.2265e+002  1.7208e+001  1.6046e+001 34363 99781,99963,99885
 1.3000e+000 100058 -2.0883e+002  2.9236e+001  2.2310e+001 34363 99885,99963,99911
 1.3000e+000 100035 -2.2945e+002  4.0942e+001 -3.9370e+001 34363 99807,99885,99859
 1.3000e+000 100012 -9.0223e+001  6.2423e+001  1.2659e+002 34363 99911,99963,99937
 1.3000e+000 99989 -2.1336e+002  1.5462e+001 -1.4804e+002 34363 99807,99859,99833
 1.3000e+000 100303 -6.5358e+001 -7.2935e+000  1.5065e+001 33909 100127,100205,100179
 1.3000e+000 100280 -3.0134e+001  5.1930e+000  1.1462e+001 33909 100127,100231,100205
 1.3000e+000 100257 -6.1154e+001 -1.5002e+000 -9.9366e-001 33909 100127,100179,100153
 1.3000e+000 100890 -9.4362e+001 -6.4019e+001 -9.1447e+000 33412 100645,100749,100697
 1.3000e+000 100867 -1.1512e+002 -7.2253e+001 -2.2921e+001 33412 100567,100749,100645
 1.3000e+000 100844 -9.3113e+001 -2.6877e+001 -2.9748e+001 33412 100567,100645,100619
 1.3000e+000 100821 -1.7750e+002 -6.3524e+001  3.1212e+000 33412 100645,100697,100671
 1.3000e+000 100798 -1.1831e+002 -3.9748e+001 -5.2643e+001 33412 100567,100619,100593
 1.3000e+000 100775 -1.3279e+002 -3.4582e+001  6.3838e-001 33412 100697,100749,100723
 1.3000e+000 101268 -1.8474e+002 -3.9921e+000 -1.2645e+001 32908 101435,101291,101098
 1.3000e+000 101245 -1.1758e+002 -1.9225e+001  5.3393e+000 32908 101291,101072,101020
 1.3000e+000 101222 -2.6883e+002 -6.0830e+001 -2.4321e+001 32908 101363,101150,101124
 1.3000e+000 101199 -1.1806e+002 -5.0153e+001 -4.1475e+001 32908 101020,101072,101046
 1.3000e+000 101176 -1.0464e+002 -5.5701e+001  2.0626e+001 32908 100994,101150,101020
 1.3000e+000 101317 -1.5467e+002  4.0785e+000 -1.5426e+001 32908 101124,101098,101291
 1.3000e+000 101340 -1.9835e+002 -2.9554e+001 -3.0963e+001 32908 101363,101124,101291
 1.3000e+000 101389 -2.2551e+002 -7.0797e+001  2.6038e+001 32908 101020,101150,101363
 1.3000e+000 101412 -2.0132e+002 -6.0752e+001  2.6143e+001 32908 101020,101363,101291
 1.3000e+000 101461 -1.9545e+002 -2.6979e+001 -5.1127e+000 32908 101072,101291,101435
 1.3000e+000 101918 -1.4256e+002 -5.1529e+001 -5.9865e+001 32618 101941,101670,101644
 1.3000e+000 101895 -4.9718e+001 -7.9333e+000 -6.0362e+000 32618 101941,101644,101774
 1.3000e+000 101872 -2.8906e+002  7.9289e+000 -1.8925e+001 32618 102013,101696,101670
 1.3000e+000 101849 -1.2487e+002  3.1964e+001 -8.1087e+000 32618 101696,101748,101722
 1.3000e+000 101826 -4.0720e+001 -6.2931e+000 -1.3205e+001 32618 101644,101800,101774
 1.3000e+000 101967 -2.7098e+002 -1.4144e+001 -5.9119e+001 32618 102013,101670,101941
 1.3000e+000 101990 -1.4335e+002  2.9676e+001 -4.9423e+001 32618 101748,101941,101774
 1.3000e+000 102039 -2.4308e+002 -3.2668e+000 -3.4831e+001 32618 101748,101696,102013
 1.3000e+000 102062 -1.5248e+002  1.4461e+001 -6.5159e+001 32618 101748,102013,101941
 1.3000e+000 102440 -9.0852e+001 -5.5514e+001 -3.0760e+001 32306 102463,102270,102244
 1.3000e+000 102417 -8.0526e+001 -3.2216e+001 -2.8129e+001 32306 102463,102244,102192
 1.3000e+000 102394 -8.5813e+001 -1.0833e+001 -2.6550e+001 32306 102192,102244,102218
 1.3000e+000 102371 -1.0481e+002 -2.8877e+001 -5.8533e+001 32306 102270,102322,102296
 1.3000e+000 102348 -1.0642e+002 -1.8724e+001 -5.4769e+001 32306 102166,102322,102192
 1.3000e+000 102489 -1.0319e+002 -4.8459e+001 -5.5484e+001 32306 102322,102270,102463
 1.3000e+000 102512 -8.6658e+001 -1.0517e+001 -5.1962e+001 32306 102322,102463,102192
 1.3000e+000 102662 -6.2970e+001 -5.1770e+001  5.9933e+001 31852 102943,102587,102561
 1.3000e+000 102639 -1.6685e+002  1.6840e+000  2.5186e+001 31852 102815,102685,102561
 1.3000e+000 102711 -9.9827e+001 -1.1331e+001  7.6626e+001 31852 102943,102561,102685
 1.3000e+000 102841 -5.8885e+001  1.3087e+001  2.8019e+001 31852 102535,102685,102815
 1.3000e+000 102969 -3.8545e+001 -1.5015e+001  3.6625e+001 31852 102613,102587,102943
 1.3000e+000 102992 -8.1188e+001  1.4226e+001  5.5570e+001 31852 102613,102943,102685
 1.3000e+000 103370 -5.6799e+001 -4.1358e+001  4.8801e+001 31134 103096,103200,103122
 1.3000e+000 103347 -6.3730e+001  2.2816e+000 -3.5510e+001 31134 103096,103226,103200
 1.3000e+000 103324 -1.4188e+002 -4.5176e-001  1.3892e+001 31134 103122,103200,103174
 1.3000e+000 103301 -9.7868e+001 -3.4704e+001 -2.1207e+001 31134 103096,103252,103226
 1.3000e+000 103278 -1.7817e+002  8.1046e-001  5.8628e+001 31134 103122,103174,103148
 1.3000e+000 103520 -4.2408e+002 -7.3625e+001 -3.6151e+001 30822 103393,103445,103419
 1.3000e+000 103497 -4.3969e+002 -9.4016e+001 -2.8648e+001 30822 103393,103471,103445
 1.3000e+000 103719 -1.7787e+002  1.9358e+001 -1.8864e+000 30182 103742,103621,103569
 1.3000e+000 103696 -2.4661e+002  3.8721e+001 -1.3606e+001 30182 103742,103569,103543
 1.3000e+000 103673 -1.3473e+002  5.6515e+001  6.8714e+001 30182 103569,103621,103595
 1.3000e+000 103768 -1.4494e+002  2.7497e+001 -4.4708e+000 30182 103647,103621,103742
 1.3000e+000 103791 -1.7585e+002  7.3333e+001 -2.8753e+001 30182 103647,103742,103543
 1.3000e+000 104252 -9.2068e+001 -3.1556e+001 -7.1269e+000 29728 104030,104108,104056
 1.3000e+000 104229 -1.2422e+002 -4.1838e+001 -4.9377e+001 29728 104004,104108,104030
 1.3000e+000 104206 -1.2465e+002 -5.6494e+001 -5.4223e+001 29728 104004,104134,104108
 1.3000e+000 104183 -7.9525e+001  1.1116e+001 -1.8564e+001 29728 103978,104134,104004
 1.3000e+000 104160 -5.2251e+001 -2.3689e+001 -2.3562e+001 29728 104056,104108,104082
 1.3000e+000 104630 -1.9971e+002 -3.4721e+001  8.5970e+001 29217 104653,104382,104356
 1.3000e+000 104607 -1.9688e+002 -6.0938e+000 -1.4673e-001 29217 104653,104356,104512
 1.3000e+000 104584 -5.2042e+001 -2.1180e+000  1.2805e+001 29217 104434,104512,104486
 1.3000e+000 104561 -1.3295e+002  4.8641e+001  4.4861e+001 29217 104382,104434,104408
 1.3000e+000 104538 -2.2946e+001 -7.0095e+000  5.5884e+000 29217 104434,104486,104460
 1.3000e+000 104679 -1.3846e+002 -9.7490e+000  6.1392e+001 29217 104434,104382,104653
 1.3000e+000 104702 -1.1487e+002  3.2983e+000 -1.5448e+001 29217 104434,104653,104512
 1.3000e+000 105178 -1.7343e+002 -5.6994e+000 -5.5346e+000 28649 105201,104962,104936
 1.3000e+000 105155 -1.2572e+002 -2.6671e+001 -3.5457e+001 28649 105201,104936,104884
 1.3000e+000 105132 -1.0388e+002 -2.7205e+001 -1.1075e+001 28649 105273,104858,105014
 1.3000e+000 105109 -1.1783e+002 -4.5598e+000  2.3372e+001 28649 104962,105014,104988
 1.3000e+000 105086 -2.0326e+002 -4.8766e+001 -4.8851e+001 28649 104884,104936,104910
 1.3000e+000 105063 -5.3401e+001 -3.0636e+001 -1.9103e+001 28649 104806,105014,104858
 1.3000e+000 105040 -1.2050e+002 -7.3902e+001 -4.9870e+001 28649 104806,104858,104832
 1.3000e+000 105227 -1.1425e+002  2.7282e+001  7.9161e+000 28649 105014,104962,105201
 1.3000e+000 105250 -1.2043e+002 -2.0601e+001 -2.2457e+001 28649 105273,105014,105201
 1.3000e+000 105299 -8.7252e+001 -1.9894e+001 -1.2728e+001 28649 104884,104858,105273
 1.3000e+000 105322 -9.3436e+001 -7.7974e+000 -2.6382e+001 28649 104884,105273,105201
 1.3000e+000 105673 -4.9833e+002 -1.0613e+001  1.8183e+000 28351 105474,105578,105552
 1.3000e+000 105650 -4.4725e+002  1.0061e+002  1.6004e+001 28351 105448,105578,105474
 1.3000e+000 105627 -4.9956e+002  4.3541e+000 -3.7328e+001 28351 105500,105552,105526
 1.3000e+000 105604 -4.6573e+002  4.1929e+000 -1.4513e+000 28351 105474,105552,105500
 1.3000e+000 106130 -6.4363e+001 -2.2042e+001  2.1072e+001 28004 106153,105882,105856
 1.3000e+000 106107 -8.5982e+001 -1.3555e+000  1.3079e+000 28004 106153,105856,105986
 1.3000e+000 106084 -8.0533e+001 -7.1012e-001  8.2525e+000 28004 105934,105986,105960
 1.3000e+000 106061 -4.9245e+001 -2.2444e+001 -1.4391e+001 28004 105856,106012,105986
 1.3000e+000 106038 -1.0303e+001 -2.0754e-001 -4.2236e-001 28004 105882,105934,105908
 1.3000e+000 106179 -1.3227e+001 -3.0198e+000  1.6812e+001 28004 105934,105882,106153
 1.3000e+000 106202 -6.0635e+001  4.2257e+000  5.1339e+000 28004 105934,106153,105986
 1.3000e+000 106885 -7.1126e+001  5.9812e+000 -2.3108e+000 27564 106908,106620,106516
 1.3000e+000 106862 -2.1945e+002 -2.4634e+000  1.9174e+000 27564 106908,106516,106490
 1.3000e+000 106839 -2.0767e+002 -6.6448e+001  3.4915e+001 27564 106516,106620,106542
 1.3000e+000 106816 -7.3127e+001  8.4616e+000  1.0079e+002 27564 106620,106672,106646
 1.3000e+000 106793 -1.3309e+002 -7.4698e+001  2.4669e+001 27564 106542,106620,106594
 1.3000e+000 106770 -1.5758e+002  4.3972e+001  3.0326e+001 27564 106490,106698,106672
 1.3000e+000 106747 -1.3719e+002  1.6941e+001  5.3176e+001 27564 106464,106698,106490
 1.3000e+000 106724 -2.0265e+002 -1.2686e+002  5.3408e+001 27564 106542,106594,106568
 1.3000e+000 106934 -1.5238e+001 -3.9340e+000 -3.0928e+000 27564 106672,106620,106908
 1.3000e+000 106957 -8.2991e+001  4.6168e+001 -1.5112e+001 27564 106672,106908,106490
 1.3000e+000 107463 -7.1506e+001 -3.8297e+001 -1.4484e+001 27053 107218,107322,107296
 1.3000e+000 107440 -5.5885e+001  2.3898e+000  4.3337e+000 27053 107166,107322,107218
 1.3000e+000 107417 -5.0325e+001  1.7381e+001 -4.3457e+000 27053 107218,107296,107244
 1.3000e+000 107394 -2.0359e+001 -7.8888e+000  6.5497e+000 27053 107140,107322,107166
 1.3000e+000 107371 -1.6016e+001  7.8207e+000  2.9649e-002 27053 107166,107218,107192
 1.3000e+000 107348 -3.4708e+001  2.3979e+000 -2.7300e+001 27053 107244,107296,107270
 1.3000e+000 108097 -1.2745e+002 -1.4404e+001 -4.4552e+001 26549 108192,108120,107803
 1.3000e+000 108074 -1.6418e+002  3.0721e+001 -5.5490e+001 26549 108120,107725,107933
 1.3000e+000 108051 -1.0748e+001 -4.5927e+001 -3.2569e+001 26549 107751,107803,107777
 1.3000e+000 108028 -1.2196e+002 -1.5838e+001 -4.9221e+001 26549 108192,107803,107751
 1.3000e+000 108005 -2.3789e+002 -8.2565e+001 -7.7318e+001 26549 108264,107855,107803
 1.3000e+000 107982 -1.3829e+002  1.5411e+001 -4.6085e+001 26549 107881,107933,107907
 1.3000e+000 107959 -1.9580e+002 -6.9491e+001 -7.3899e+001 26549 107803,107855,107829
 1.3000e+000 108146 -1.5101e+002 -5.1572e+001 -6.1373e+001 26549 108264,107803,108120
 1.3000e+000 108169 -1.6445e+002  2.0858e+001 -4.0333e+001 26549 107881,108120,107933
 1.3000e+000 108218 -1.1634e+002 -1.2088e+001 -4.5097e+001 26549 107725,108120,108192
 1.3000e+000 108241 -1.1211e+002 -1.4657e+001 -4.9477e+001 26549 107725,108192,107751
 1.3000e+000 108290 -3.0208e+002 -2.3222e+001 -5.3067e+001 26549 107881,107855,108264
 1.3000e+000 108313 -2.4235e+002 -1.1010e+001 -3.4766e+001 26549 107881,108264,108120
 1.3000e+000 108512 -2.0068e+002 -7.6938e+000  3.6476e+001 26137 108388,108440,108414
 1.3000e+000 108489 -2.2383e+002 -4.3688e+001  1.9046e+001 26137 108362,108440,108388
 1.3000e+000 108466 -2.9530e+002 -7.2876e+001  3.3495e+000 26137 108336,108440,108362
 1.3000e+000 108662 -1.5106e+002  1.8385e+001  1.1407e+001 25733 108817,108685,108535
 1.3000e+000 108639 -1.8698e+002  5.2136e+001 -9.4446e+000 25733 109017,108817,108535
 1.3000e+000 108711 -1.2133e+002 -6.9934e+000 -2.5452e+001 25733 108561,108535,108685
 1.3000e+000 108843 -1.8837e+002 -1.7618e+001 -5.5925e+000 25733 108587,108685,108817
 1.3000e+000 108866 -1.9240e+002  1.8790e+001 -1.4284e+001 25733 108889,108817,108613
 1.3000e+000 108915 -2.1472e+002 -2.2846e+000  7.8973e+000 25733 108587,108817,108889
 1.3000e+000 109043 -1.9182e+002  2.8363e+001 -1.2965e+001 25733 108613,108817,109017
 1.3000e+000 109500 -7.8009e+001 -3.4003e+001 -2.5950e+001 25229 109523,109356,109330
 1.3000e+000 109477 -8.5909e+001 -7.1019e+000 -1.1481e+001 25229 109595,109523,109330
 1.3000e+000 109454 -8.1737e+001 -2.5835e+001  6.0044e+000 25229 109595,109330,109278
 1.3000e+000 109431 -9.0400e+001  6.8226e+000 -4.8426e+001 25229 109667,109226,109382
 1.3000e+000 109408 -1.2685e+002 -1.1406e+001  2.3647e+001 25229 109278,109330,109304
 1.3000e+000 109549 -3.9954e+001 -1.6638e+001 -3.0047e+001 25229 109382,109356,109523
 1.3000e+000 109572 -7.2527e+001 -2.4796e+001 -5.5250e+001 25229 109667,109382,109523
 1.3000e+000 109621 -8.4321e+001  1.5112e+001 -8.1937e+000 25229 109252,109523,109595
 1.3000e+000 109644 -7.8657e+001  4.5469e+000  3.9965e+000 25229 109739,109595,109278
 1.3000e+000 109693 -2.4064e+002 -2.7238e+001 -2.2270e+001 25229 109252,109226,109667
 1.3000e+000 109716 -1.3870e+002 -2.5240e+000 -2.0641e+001 25229 109252,109667,109523
 1.3000e+000 109765 -8.3004e+001 -4.9265e+000 -9.0435e+000 25229 109252,109595,109739
 1.3000e+000 110478 -9.6542e+001 -7.7783e+000 -8.2831e+000 24917 110158,110236,110184
 1.3000e+000 110455 -4.7835e+001  1.3171e+001 -6.3848e+000 24917 110158,110288,110236
 1.3000e+000 110432 -5.6385e+001  4.3470e+000 -2.8613e+000 24917 110236,110288,110262
 1.3000e+000 110409 -3.8958e+001 -1.0628e+001  1.1922e+001 24917 110184,110236,110210
 1.3000e+000 110386 -4.3333e+001 -3.6024e+000  1.9390e+000 24917 110132,110288,110158
 1.3000e+000 110363 -1.4962e+001  5.2134e+000 -3.9366e+000 24917 110132,110314,110288
 1.3000e+000 110340 -1.5719e+001  1.2653e+000  1.0053e+000 24917 110106,110314,110132
 1.3000e+000 110829 -3.6168e+002 -1.5047e+002  4.5597e+001 24307 110604,110682,110630
 1.3000e+000 110806 -2.9351e+002 -7.3353e+001  1.2318e+001 24307 110604,110708,110682
 1.3000e+000 110783 -2.4520e+002 -4.0935e+001 -1.9898e+001 24307 110604,110734,110708
 1.3000e+000 110760 -5.4191e+002 -2.2782e+002  5.2914e+001 24307 110630,110682,110656
 1.3000e+000 111335 -5.1697e+001 -1.7500e+000 -1.1710e+001 23767 111012,111168,111038
 1.3000e+000 111312 -3.6986e+001 -9.5875e+000 -2.3965e+001 23767 111012,111194,111168
 1.3000e+000 111289 -2.3683e+001  3.4444e+001 -5.1393e+001 23767 111358,111064,111038
 1.3000e+000 111266 -6.0040e+001  1.0465e+001 -2.0631e+001 23767 111358,111038,111168
 1.3000e+000 111243 -7.8458e+001 -2.2127e+001 -1.6293e+001 23767 111430,111142,111090
 1.3000e+000 111220 -8.6358e+001 -2.5807e+001 -1.9512e+001 23767 111090,111142,111116
 1.3000e+000 111384 -5.4142e+001  1.4602e+001 -2.1220e+001 23767 111090,111064,111358
 1.3000e+000 111407 -5.4421e+001 -8.7869e+000 -9.9000e+000 23767 111430,111090,111358
 1.3000e+000 111456 -1.0358e+002  2.6630e+000 -1.1349e+001 23767 111168,111142,111430
 1.3000e+000 111479 -9.1601e+001  6.1532e+000 -8.6045e+000 23767 111168,111430,111358
 1.3000e+000 111985 -8.2816e+001 -1.8623e+001  1.0874e+001 23477 111688,111844,111818
 1.3000e+000 111962 -7.6594e+001 -8.5625e+000  1.2216e+000 23477 111662,111844,111688
 1.3000e+000 111939 -4.4383e+001  1.1259e+001  2.9082e+001 23477 111766,111818,111792
 1.3000e+000 111916 -1.5170e+002 -1.4697e+001  3.8136e+001 23477 111740,111818,111766
 1.3000e+000 111893 -1.5670e+002 -3.9957e+001 -8.2761e+000 23477 111688,111818,111740
 1.3000e+000 111870 -1.8098e+002 -2.6803e+001 -1.8229e+001 23477 111688,111740,111714
 1.3000e+000 112314 -1.8478e+002  1.0643e-001 -1.7249e+001 23023 112141,112219,112193
 1.3000e+000 112291 -1.7829e+002 -7.9866e+001 -2.8637e+001 23023 112115,112219,112141
 1.3000e+000 112268 -1.6483e+002 -1.5453e+001  4.9783e+000 23023 112141,112193,112167
 1.3000e+000 112245 -1.5568e+002 -2.2069e+001 -1.9394e+001 23023 112089,112219,112115
 1.3000e+000 112692 -1.6784e+002 -4.1885e+000 -2.0000e+001 22768 112444,112574,112548
 1.3000e+000 112669 -2.5982e+002 -6.3051e+000 -5.3743e+001 22768 112418,112574,112444
 1.3000e+000 112646 -1.1047e+002 -2.5728e+001 -2.5221e+001 22768 112444,112522,112470
 1.3000e+000 112623 -1.8144e+002 -5.3711e+000 -5.1514e+000 22768 112444,112548,112522
 1.3000e+000 112600 -1.3627e+002 -4.2697e+001  2.1716e+001 22768 112470,112522,112496
 1.3000e+000 113011 -4.6848e+002  7.0493e+001 -9.9000e+001 22314 112763,112867,112789
 1.3000e+000 112988 -5.8413e+002 -6.1444e+001 -4.9688e+001 22314 112763,112893,112867
 1.3000e+000 112965 -6.6168e+002 -5.2832e+001  0.0000e+000 22314 112815,112867,112841
 1.3000e+000 112942 -7.2685e+002 -5.2539e+001 -5.7811e+001 22314 112789,112867,112815
 1.3000e+000 112919 -3.8772e+002 -8.4995e+000 -8.2514e+001 22314 112737,112893,112763
 1.3000e+000 113519 -3.2440e+001  4.9334e+000  1.3467e+000 21924 113614,113542,113248
 1.3000e+000 113496  3.5569e+000  3.3687e+001 -1.9109e+001 21924 113542,113196,113378
 1.3000e+000 113473 -2.1220e+001 -6.7793e-001  3.4148e+000 21924 113614,113248,113222
 1.3000e+000 113450 -6.6915e+001 -2.2738e+000  1.4524e+001 21924 113686,113274,113248
 1.3000e+000 113427 -8.0329e+001 -3.3673e+000  5.2731e+000 21924 113274,113352,113326
 1.3000e+000 113404 -5.4518e+001 -1.1571e+001  2.4918e+001 21924 113274,113326,113300
 1.3000e+000 113568 -5.3663e+001  8.8546e+000  2.3601e+001 21924 113686,113248,113542
 1.3000e+000 113591 -1.8727e+001  1.4079e+001  2.1283e+001 21924 113352,113542,113378
 1.3000e+000 113640 -2.1574e+001  1.3484e+001  5.9506e+000 21924 113196,113542,113614
 1.3000e+000 113663 -1.5221e+001  5.0715e+000  7.8080e+000 21924 113196,113614,113222
 1.3000e+000 113712 -8.0702e+001  1.0774e+001  9.4355e+000 21924 113352,113274,113686
 1.3000e+000 113735 -7.4745e+001  1.4317e+001  1.7324e+001 21924 113352,113686,113542
 1.3000e+000 113885 -3.7257e+001 -1.8335e+001  2.9272e+001 21520 113980,113908,113784
 1.3000e+000 113862 -1.4328e+001 -4.3533e+001  1.9934e+001 21520 114238,113908,113758
 1.3000e+000 113934 -7.7757e+000  1.4261e+001  4.3724e+001 21520 114110,113908,113810
 1.3000e+000 113957  1.0470e+001 -1.0188e+000  1.1549e+001 21520 113810,113908,113836
 1.3000e+000 114006 -5.5015e+000 -2.6179e+001  3.1446e+001 21520 113758,113908,113980
 1.3000e+000 114136 -2.9600e+001 -1.1526e+001  3.4207e+001 21520 113784,113908,114110
 1.3000e+000 114264 -3.0140e+001 -1.7982e+001  2.4464e+001 21520 113836,113908,114238
 1.3000e+000 114662 -2.1206e+002 -3.4736e+001  6.2153e-001 21030 114414,114518,114492
 1.3000e+000 114639 -3.2102e+002 -6.6200e+001  4.3496e+001 21030 114414,114544,114518
 1.3000e+000 114616 -6.3146e+001  2.3534e+001  1.8485e+000 21030 114440,114492,114466
 1.3000e+000 114593 -2.1530e+002 -4.1188e+001  3.9534e+000 21030 114414,114492,114440
 1.3000e+000 114570 -1.8774e+002 -1.0263e+001  4.4205e+001 21030 114388,114544,114414
 1.3000e+000 114959 -1.8038e+002  1.0696e+001 -1.1188e+001 20512 114982,114711,114685
 1.3000e+000 114936 -1.7340e+002  5.7828e+000 -3.7435e+001 20512 115054,114982,114685
 1.3000e+000 114913 -1.4340e+002  1.9748e+001 -5.0199e+001 20512 115054,114685,114841
 1.3000e+000 114890  1.2708e+001  4.3904e+001  1.6873e+001 20512 114711,114763,114737
 1.3000e+000 114867 -1.0507e+002  1.8954e+001 -1.1419e+001 20512 114763,114815,114789
 1.3000e+000 115008 -1.5370e+002  2.4151e+001 -5.9109e+000 20512 114763,114711,114982
 1.3000e+000 115031 -1.5599e+002 -6.2375e+000 -2.1131e+001 20512 114763,114982,114815
 1.3000e+000 115080 -1.5350e+002  4.9589e+000 -2.8829e+001 20512 114815,114982,115054
 1.3000e+000 115103 -1.4989e+002  3.1713e-001 -2.9634e+001 20512 114815,115054,114841
 1.3000e+000 115507 -6.4070e+001 -3.4278e+001 -1.1078e+001 20143 115285,115389,115363
 1.3000e+000 115484 -6.8440e+001 -4.8257e+000 -3.7222e+000 20143 115259,115389,115285
 1.3000e+000 115461 -9.7106e+001 -3.6591e+001 -2.1716e+001 20143 115233,115389,115259
 1.3000e+000 115438 -2.1879e+001 -8.6320e-001 -5.2603e-001 20143 115285,115337,115311
 1.3000e+000 115415 -4.9150e+001 -7.4857e+000 -2.3191e+000 20143 115285,115363,115337
 1.3000e+000 115875 -5.7636e+001 -2.2341e+000  3.2366e+000 19632 115656,115734,115682
 1.3000e+000 115852 -4.4229e+001  1.3768e+001  9.3241e+000 19632 115552,115734,115656
 1.3000e+000 115829 -5.4868e+001 -5.9641e+000 -1.8892e+001 19632 115552,115656,115578
 1.3000e+000 115806 -9.6817e+001  7.7771e+000 -2.5854e+000 19632 115578,115656,115630
 1.3000e+000 115783 -3.2534e+001  4.0865e+000 -1.8659e+001 19632 115682,115734,115708
 1.3000e+000 115760 -8.0219e+001 -5.1538e+000  2.2843e+001 19632 115578,115630,115604
 1.3000e+000 116025 -1.6431e+002 -1.0243e+001  1.2923e+001 19178 115898,115950,115924
 1.3000e+000 116002 -1.5437e+002  1.3020e+001  1.1036e+001 19178 115898,115976,115950
 1.3000e+000 116633 -1.2786e+002  2.0012e+001  5.1577e-001 18738 116800,116656,116342
 1.3000e+000 116610 -1.1472e+002  4.4535e+001 -4.9067e+001 18738 116656,116238,116446
 1.3000e+000 116587 -1.0802e+002 -8.7407e+000  1.0680e+001 18738 116728,116368,116342
 1.3000e+000 116564 -1.3687e+002  1.8584e+000  1.0433e+001 18738 116800,116342,116264
 1.3000e+000 116541 -8.2693e+001  4.6995e+002 -1.6202e+002 18738 116212,116446,116238
 1.3000e+000 116518 -7.4953e+001  7.9545e+000 -7.5808e+001 18738 116394,116446,116420
 1.3000e+000 116495 -3.5159e+002 -8.7098e+001  1.0573e+001 18738 116264,116342,116316
 1.3000e+000 116472 -9.8540e+001  1.5088e+001  2.8984e+000 18738 116264,116316,116290
 1.3000e+000 116682 -1.0651e+002  1.9634e+000 -1.3188e+001 18738 116728,116342,116656
 1.3000e+000 116705 -1.2195e+002 -2.1807e+001 -5.3676e+001 18738 116394,116656,116446
 1.3000e+000 116754 -7.5199e+001  7.8538e+000 -6.1490e+000 18738 116394,116368,116728
 1.3000e+000 116777 -6.8474e+001  2.2665e+001 -3.0630e+001 18738 116394,116728,116656
 1.3000e+000 116826 -1.3955e+002  6.0029e+001 -1.9049e+001 18738 116238,116656,116800
 1.3000e+000 116849 -1.5984e+002  3.5580e+001 -5.7461e+000 18738 116238,116800,116264
 1.3000e+000 116999  3.4615e+001  1.9002e+001 -3.4407e+001 18184 116872,116924,116898
 1.3000e+000 116976  4.2570e+000  3.7798e+001 -2.8721e+001 18184 116872,116950,116924
 1.3000e+000 117330 -6.8909e+001  1.7459e+001  8.0031e+000 17694 117157,117235,117183
 1.3000e+000 117307 -4.1832e+001  6.7445e+000  2.8249e+000 17694 117131,117235,117157
 1.3000e+000 117284 -4.5226e+001  1.0190e+001  4.8258e+000 17694 117105,117235,117131
 1.3000e+000 117261 -1.0863e+002  1.9485e+001  2.0830e+001 17694 117183,117235,117209
 1.3000e+000 117480 -6.4488e+001 -3.7076e+001  1.7581e+001 17290 117353,117405,117379
 1.3000e+000 117457 -7.2385e+000 -4.4944e+000  5.7971e-001 17290 117353,117431,117405
 1.3000e+000 117679 -1.8520e+002 -9.9043e+001  5.8038e+000 16718 117555,117607,117581
 1.3000e+000 117656 -8.5086e+001 -5.0183e+001 -1.2669e+001 16718 117529,117607,117555
 1.3000e+000 117633 -1.3357e+002 -4.2139e+001 -4.7201e+000 16718 117503,117607,117529
 1.3000e+000 117782 -1.7433e+002 -8.4268e+000 -1.0563e+001 16520 117704,117756,117730
 1.3000e+000 117983 -2.4109e+002 -1.4980e+002  9.7859e+000 16208 117859,117911,117885
 1.3000e+000 117960 -2.1188e+002 -1.0280e+002 -2.7220e+001 16208 117833,117911,117859
 1.3000e+000 117937 -8.3423e+001 -4.0501e+001 -8.8342e-001 16208 117807,117911,117833
 1.3000e+000 118135 -2.3962e+001  2.1180e+001 -5.5450e+000 15674 118034,118086,118060
 1.3000e+000 118112 -1.5037e+002 -2.8013e+001 -9.7348e+000 15674 118008,118086,118034
 1.3000e+000 118238 -1.2339e+002  7.4648e-001 -7.6734e-002 15355 118160,118212,118186
 1.3000e+000 118341  1.1534e+000 -9.2408e-001 -7.0376e-001 421 118263,118315,118289
 1.4000e+000 68152 -7.8480e+000 -8.2481e-001  9.7295e+000 67838 68074,68126,68100
 1.4000e+000 68550 -1.4212e+002 -3.5787e+001  8.2891e-001 67526 68276,68380,68302
 1.4000e+000 68527 -5.4123e+001 -1.7400e+001 -1.0553e+000 67526 68276,68406,68380
 1.4000e+000 68504 -1.3877e+002 -4.1808e+001 -9.2765e-001 67526 68328,68380,68354
 1.4000e+000 68481 -1.4678e+002 -4.6670e+001  9.8286e-001 67526 68302,68380,68328
 1.4000e+000 68458 -5.8456e+001 -2.1980e+001 -3.5076e+000 67526 68276,68432,68406
 1.4000e+000 68651  1.0420e-009  2.1590e-010 -2.2709e-012 67328 68573,68625,68599
 1.4000e+000 68970 -4.7351e+001 -2.6311e+001  1.8099e+001 67016 68722,68800,68774
 1.4000e+000 68947 -8.2808e+001 -3.2678e+001 -3.2407e+001 67016 68722,68826,68800
 1.4000e+000 68924 -2.1044e+002  5.7521e-003 -7.1563e+000 67016 68696,68826,68722
 1.4000e+000 68901 -3.4372e+001 -2.8634e+001  1.4154e+001 67016 68722,68774,68748
 1.4000e+000 68878 -1.6389e+002 -1.5214e+001  5.0344e+001 67016 68696,68852,68826
 1.4000e+000 69291 -1.3373e+002 -2.4490e+001 -2.7387e+001 66654 69069,69147,69095
 1.4000e+000 69268 -4.1197e+001 -3.0749e+001  9.6201e+000 66654 69069,69173,69147
 1.4000e+000 69245 -5.1688e+001 -3.9811e+001  1.6285e+001 66654 69043,69173,69069
 1.4000e+000 69222 -1.6179e+002 -1.0640e+001  1.8559e+001 66654 69095,69147,69121
 1.4000e+000 69199 -3.8601e+001  1.1433e+001  6.0657e+000 66654 69017,69173,69043
 1.4000e+000 69695 -3.4478e+001  5.3564e+000 -2.1804e-001 66456 69447,69577,69551
 1.4000e+000 69672 -3.5590e+001  3.8762e+000  5.3801e-001 66456 69421,69577,69447
 1.4000e+000 69649 -4.3219e+001 -1.0569e+001  5.1894e+000 66456 69473,69551,69525
 1.4000e+000 69626 -3.5622e+001  2.6789e+000 -5.0822e-002 66456 69447,69551,69473
 1.4000e+000 69603 -3.1397e+001  1.7373e+000 -1.0884e+001 66456 69473,69525,69499
 1.4000e+000 70024 -4.3166e+000  1.7025e+001 -2.1886e+001 66258 70047,69851,69825
 1.4000e+000 70001 -4.8462e+001 -2.7927e+001  2.9814e+001 66258 70047,69825,69903
 1.4000e+000 69978 -5.9926e+001 -2.5018e+001  3.2191e+001 66258 69799,69903,69825
 1.4000e+000 69955 -5.3859e+001 -1.2331e+002  4.6072e+001 66258 69799,69929,69903
 1.4000e+000 70073 -4.6253e+001 -2.4436e+001  3.0146e+001 66258 69877,69851,70047
 1.4000e+000 70096 -1.1034e+002 -9.2310e+001  8.5272e+001 66258 69877,70047,69903
 1.4000e+000 70602 -2.4884e+002 -2.1375e+001  5.0514e+001 66060 70305,70435,70331
 1.4000e+000 70579  1.1017e+001 -6.3487e+001 -2.9444e+001 66060 70279,70435,70305
 1.4000e+000 70556 -1.0656e+002  7.6747e+001 -4.1130e+000 66060 70331,70435,70409
 1.4000e+000 70533  3.1332e+001 -2.4600e-001 -4.7122e+001 66060 70279,70461,70435
 1.4000e+000 70510 -1.8337e+002 -1.6887e+001  3.1202e+001 66060 70331,70409,70357
 1.4000e+000 70487 -1.1096e+002  1.6196e+001  2.3362e+001 66060 70357,70409,70383
 1.4000e+000 70703  9.1933e+000 -6.0637e+000 -6.1204e+000 65862 70625,70677,70651
 1.4000e+000 71083 -5.6016e+001 -2.6392e+001  1.3649e+001 65664 70887,70965,70939
 1.4000e+000 71060 -1.4435e+002 -5.9205e+001  4.1445e+001 65664 70861,70965,70887
 1.4000e+000 71037 -1.5881e+002  2.3354e+001  7.0236e+000 65664 70809,70965,70861
 1.4000e+000 71014 -1.5355e+002  1.4467e+002  6.2663e+001 65664 70809,70861,70835
 1.4000e+000 70991 -4.4591e+001 -6.6436e+000  5.3514e+000 65664 70887,70939,70913
 1.4000e+000 71611 -1.4931e+001 -6.2016e+001 -6.3475e+000 65260 71288,71444,71314
 1.4000e+000 71588  9.3977e+000 -3.1512e+001  9.9990e+000 65260 71288,71470,71444
 1.4000e+000 71565 -5.1834e+001 -3.8337e+001 -1.9652e+001 65260 71314,71418,71392
 1.4000e+000 71542 -5.3030e+000 -3.7172e+001 -5.7529e+000 65260 71314,71444,71418
 1.4000e+000 71519 -3.7801e+001 -2.9332e+001 -1.4364e+001 65260 71314,71392,71340
 1.4000e+000 71496 -6.5293e+001 -7.2687e+001 -9.8439e+001 65260 71340,71392,71366
 1.4000e+000 72060 -6.7557e+001  1.2355e+001 -8.7702e+000 64870 71737,71893,71789
 1.4000e+000 72037 -1.0182e+002 -4.7827e-001 -8.0397e-002 64870 71737,71919,71893
 1.4000e+000 72014 -9.9880e+001 -4.6922e+000 -7.9367e+001 64870 71789,71841,71815
 1.4000e+000 71991 -7.9593e+001  6.8500e+001 -2.8668e+001 64870 71789,71893,71841
 1.4000e+000 71968 -6.4739e+001 -3.4834e+000 -2.0418e+001 64870 71737,71789,71763
 1.4000e+000 71945 -1.8593e+002  2.2585e+001  0.0000e+000 64870 71841,71893,71867
 1.4000e+000 72517 -4.9801e+001  1.1638e+001  4.5527e+000 64466 72321,72399,72347
 1.4000e+000 72494 -5.8451e-001  6.3831e+000  1.2640e+001 64466 72269,72399,72321
 1.4000e+000 72471 -5.5467e+001 -1.4042e-001  2.5872e+000 64466 72347,72399,72373
 1.4000e+000 72448 -3.2654e+001 -1.8193e+001 -1.0811e+001 64466 72243,72399,72269
 1.4000e+000 72425  2.5042e+000 -1.8964e-001  9.0728e-001 64466 72269,72321,72295
 1.4000e+000 72944 -2.9180e+001 -6.4296e+000  1.7056e+001 64062 73111,73039,72699
 1.4000e+000 72921 -5.3682e+001  5.1977e+000 -1.7937e-001 64062 73183,72967,72647
 1.4000e+000 72898 -4.7924e+001 -6.3844e+000  8.6012e+000 64062 72967,72803,72751
 1.4000e+000 72875 -6.4875e+001 -2.1652e+001  1.5048e+001 64062 73111,72699,72673
 1.4000e+000 72852 -5.4928e+001  1.4229e+000 -5.2445e-001 64062 73183,72647,72621
 1.4000e+000 72829 -5.4489e+001 -2.3311e+001  2.3716e+001 64062 72751,72803,72777
 1.4000e+000 72993 -5.1187e+001  5.4369e+000 -2.9590e-001 64062 73039,72647,72967
 1.4000e+000 73016 -7.7994e+000  3.3985e+000  7.4060e+000 64062 72725,72967,72751
 1.4000e+000 73065  6.5552e+000  1.8710e+001  1.9432e+000 64062 72725,72699,73039
 1.4000e+000 73088 -6.7490e+001 -1.7820e+001  1.8172e+001 64062 72725,73039,72967
 1.4000e+000 73137 -1.0871e+002 -1.7694e+001  1.0082e+001 64062 72647,73039,73111
 1.4000e+000 73160 -1.1566e+002 -1.8763e+001  5.5469e+000 64062 72647,73111,72673
 1.4000e+000 73209 -4.3114e+001 -2.8410e-001  5.9569e+000 64062 72803,72967,73183
 1.4000e+000 73232 -5.1050e+001 -1.5105e+001  2.9616e+000 64062 72803,73183,72621
 1.4000e+000 73333 -4.2393e+001  3.3323e+000  9.8279e-001 63814 73356,73281,73255
 1.4000e+000 73382 -1.4984e+002 -2.4842e+001  1.1630e+000 63814 73486,73356,73307
 1.4000e+000 73512 -6.1632e+001  1.2953e+001 -2.7793e+000 63814 73281,73356,73486
 1.4000e+000 73839 -1.2117e+002 -1.3629e+001  4.4860e+001 63616 73862,73692,73666
 1.4000e+000 73816 -1.2667e+002 -3.9354e+001  3.4872e+001 63616 73934,73862,73666
 1.4000e+000 73793 -1.2825e+002 -4.9169e+000  2.3722e+001 63616 73934,73666,73640
 1.4000e+000 73770 -7.3223e+001 -7.3421e+000  3.9674e+000 63616 73614,73744,73640
 1.4000e+000 73888 -1.0264e+002 -3.3072e+001  4.2142e+001 63616 73718,73692,73862
 1.4000e+000 73911 -1.2620e+002 -7.0061e+001  3.2014e+000 63616 73718,73862,73744
 1.4000e+000 73960 -1.0670e+002 -9.0998e+000  1.1933e+001 63616 73744,73862,73934
 1.4000e+000 73983 -1.1559e+002  5.8594e+000 -7.0481e-001 63616 73744,73934,73640
 1.4000e+000 74363 -4.6313e+001  1.7581e+001 -2.0020e+001 63390 74386,74115,74089
 1.4000e+000 74340 -1.3814e+002  2.4792e+001 -1.1064e+001 63390 74458,74386,74089
 1.4000e+000 74317 -1.4886e+002  2.1512e+001 -1.3714e+001 63390 74458,74089,74245
 1.4000e+000 74294 -9.1551e+001 -5.0693e+001  3.0803e+001 63390 74530,74167,74141
 1.4000e+000 74271 -6.4264e+001 -3.0958e+000  4.7502e+001 63390 74167,74219,74193
 1.4000e+000 74412 -1.3868e+002 -4.5747e+001 -5.0181e+001 63390 74141,74115,74386
 1.4000e+000 74435 -1.5047e+002 -7.0067e+000 -1.9654e+001 63390 74530,74141,74386
 1.4000e+000 74484 -1.4610e+002  3.1524e+001 -3.8133e+001 63390 74219,74386,74458
 1.4000e+000 74507 -1.7376e+002  2.0145e+001 -4.0243e+001 63390 74219,74458,74245
 1.4000e+000 74556 -2.5502e+001 -1.4691e+001  1.6972e+001 63390 74219,74167,74530
 1.4000e+000 74579 -6.3766e+001  4.1314e+001 -3.8658e+001 63390 74219,74530,74386
 1.4000e+000 74680 -9.2629e-001 -1.9389e+000  7.0700e+000 63100 75089,74833,74703
 1.4000e+000 74729 -5.9726e+000 -5.4927e+000  9.0236e-001 63100 74961,74703,74654
 1.4000e+000 74859  1.7910e+001 -6.3791e-001  7.9442e+000 63100 74602,74703,74833
 1.4000e+000 74987 -5.3225e+000 -1.9413e+000  4.0694e+000 63100 75089,74703,74961
 1.4000e+000 75115  7.4312e+000 -3.2451e+000  9.1114e+000 63100 74628,74833,75089
 1.4000e+000 75138  3.0305e+000 -3.2570e+000  6.1112e+000 63100 74628,75089,74961
 1.4000e+000 75723 -1.8572e+001 -2.5502e+001 -3.1237e+000 62532 75746,75504,75426
 1.4000e+000 75700 -7.8727e+001  1.0525e+001  3.4567e+001 62532 75746,75426,75556
 1.4000e+000 75677 -1.1664e+001  2.0700e+001 -2.2228e+001 62532 75426,75504,75452
 1.4000e+000 75654 -1.1525e+002  1.5060e+001  1.7482e+001 62532 75400,75556,75426
 1.4000e+000 75631 -1.3510e+002 -5.0816e+001 -1.3133e+001 62532 75400,75582,75556
 1.4000e+000 75608  2.6842e+001 -1.3376e+001 -2.0395e+001 62532 75452,75504,75478
 1.4000e+000 75772 -8.6840e+001 -1.5859e+001 -6.6690e+000 62532 75530,75504,75746
 1.4000e+000 75795 -1.7623e+002 -2.2053e+000  3.1422e+001 62532 75530,75746,75556
 1.4000e+000 76301 -4.6145e+001 -1.7253e+000 -3.4723e+000 62192 76324,76082,76030
 1.4000e+000 76278 -4.2362e+001  8.3769e+000  4.1967e-001 62192 76324,76030,76004
 1.4000e+000 76255 -5.2948e+001 -4.1714e+000 -4.7033e+000 62192 76030,76082,76056
 1.4000e+000 76232 -5.9041e+001  1.7107e+000 -9.5519e+000 62192 76082,76134,76108
 1.4000e+000 76209 -1.2404e+002 -1.0211e+001 -1.9450e+001 62192 76004,76160,76134
 1.4000e+000 76186 -3.1853e+001 -6.7527e+001  1.5444e+001 62192 75978,76160,76004
 1.4000e+000 76350 -5.6975e+001  1.1464e+001 -4.1944e+000 62192 76134,76082,76324
 1.4000e+000 76373 -5.0325e+001  2.6432e+001 -7.0529e-001 62192 76134,76324,76004
 1.4000e+000 76879 -5.3779e+000 -9.5564e+000  2.1642e+000 61788 76902,76660,76582
 1.4000e+000 76856 -1.1254e+001 -9.8152e+000  2.4996e+000 61788 76902,76582,76556
 1.4000e+000 76833 -6.1578e+000 -1.1740e+001  5.1618e+000 61788 76582,76660,76634
 1.4000e+000 76810 -1.0589e+001 -1.4880e+001  6.5215e+000 61788 76582,76634,76608
 1.4000e+000 76787  4.8194e+000 -4.4712e+000 -2.3387e+000 61788 76556,76738,76686
 1.4000e+000 76764 -5.6953e+000  9.1803e+000 -3.6443e+000 61788 76686,76738,76712
 1.4000e+000 76928 -4.9078e-001 -1.0517e+001  1.5338e+000 61788 76686,76660,76902
 1.4000e+000 76951 -5.1800e+000 -9.7647e+000  1.4609e+000 61788 76686,76902,76556
 1.4000e+000 77408 -5.4909e+001 -2.3521e+001  5.5234e+001 61498 77212,77264,77238
 1.4000e+000 77385 -8.1421e+001  2.3013e+000 -4.7015e+001 61498 77160,77264,77212
 1.4000e+000 77362 -1.0198e+002  7.7440e-001 -4.6469e+001 61498 77160,77290,77264
 1.4000e+000 77339 -1.7616e+002 -2.8122e+001 -2.8062e+001 61498 77160,77212,77186
 1.4000e+000 77316 -8.6468e+001 -2.3472e-001  6.5508e+000 61498 77134,77290,77160
 1.4000e+000 77678 -5.9145e+002 -4.5526e+001  9.6302e+000 61129 77479,77557,77505
 1.4000e+000 77655 -5.9470e+002 -1.3899e+002  6.6725e+000 61129 77479,77583,77557
 1.4000e+000 77632 -4.9479e+002 -1.9248e+002  6.2519e+001 61129 77453,77583,77479
 1.4000e+000 77609 -5.5957e+002  8.9601e+001  1.4754e+002 61129 77505,77557,77531
 1.4000e+000 77828  1.9694e+001 -2.7535e+001  2.3850e+001 60931 77851,77727,77701
 1.4000e+000 77805 -2.8040e+001  1.6605e+001  1.1786e-001 60931 77851,77701,77779
 1.4000e+000 77877 -8.4177e+000 -1.5415e+001  1.6526e+001 60931 77923,77851,77753
 1.4000e+000 77900 -7.7646e+001 -3.7306e+001 -2.0467e+001 60931 77753,77851,77779
 1.4000e+000 77949 -2.4206e+001 -6.6026e+001  7.4314e+000 60931 77727,77851,77923
 1.4000e+000 78133 -2.9371e+002 -9.6400e+001  1.6132e+001 60377 78055,78107,78081
 1.4000e+000 78535 -1.5181e+002  7.1267e+001 -3.8107e+001 60015 78287,78391,78313
 1.4000e+000 78512 -2.5630e+002 -1.0405e+001 -2.0092e+000 60015 78287,78417,78391
 1.4000e+000 78489 -1.4104e+002  1.7571e+001 -1.8143e+001 60015 78261,78417,78287
 1.4000e+000 78466 -4.0014e+002 -1.1870e+002  2.7639e+001 60015 78339,78391,78365
 1.4000e+000 78443 -4.0953e+002 -3.0136e+001 -2.5287e+001 60015 78313,78391,78339
 1.4000e+000 78913 -6.7477e+000 -5.8944e+000  4.0191e+000 59725 78936,78743,78691
 1.4000e+000 78890 -7.5291e+000 -3.6078e+000  4.0258e+000 59725 79008,78936,78691
 1.4000e+000 78867 -6.7806e+000 -3.4929e-001  2.0618e+000 59725 79008,78691,78665
 1.4000e+000 78844 -1.0947e+001 -3.5844e+000 -2.9189e+000 59725 78691,78743,78717
 1.4000e+000 78821 -4.1696e+000 -5.9062e-001  4.2202e+000 59725 78639,78795,78769
 1.4000e+000 78962 -7.5558e+000 -2.7300e+000  4.8537e+000 59725 78769,78743,78936
 1.4000e+000 78985 -4.0445e+000 -2.1358e+000  5.4379e+000 59725 78769,78936,78639
 1.4000e+000 79034 -2.7404e+000 -1.1664e+000  2.1445e+000 59725 78639,78936,79008
 1.4000e+000 79057 -4.6308e+000 -4.0112e-001  5.6633e-001 59725 78639,79008,78665
 1.4000e+000 79386 -7.4542e+001  3.7889e+001  1.9596e+001 59221 79187,79239,79213
 1.4000e+000 79363 -4.4115e+001  6.1757e+000  3.1780e+001 59221 79187,79265,79239
 1.4000e+000 79340 -2.7239e+001  5.6436e+000  2.1852e+001 59221 79187,79291,79265
 1.4000e+000 79317 -1.5228e+001  2.3409e+001 -8.7975e+000 59221 79161,79291,79187
 1.4000e+000 79813 -2.6546e+002 -2.4922e+001  4.5990e+001 58831 79836,79542,79516
 1.4000e+000 79790 -1.5624e+002  1.5236e+001  4.3919e+001 58831 79980,79836,79516
 1.4000e+000 79767 -4.9916e+001 -4.8174e+001  3.6531e+001 58831 79908,79646,79568
 1.4000e+000 79744 -2.6223e+002 -2.2067e+001  3.6484e+001 58831 79980,79516,79490
 1.4000e+000 79721 -1.0736e+001 -6.8568e+001  1.8309e+001 58831 79568,79646,79594
 1.4000e+000 79698 -2.1334e+001 -3.2650e+001  1.3566e+001 58831 79594,79646,79620
 1.4000e+000 79862 -1.2939e+002  1.2991e+000  5.4922e+001 58831 79568,79542,79836
 1.4000e+000 79885 -7.1811e+001 -5.1077e+001  1.5974e+001 58831 79908,79568,79836
 1.4000e+000 79934 -3.4792e+001 -4.3428e+001  3.8802e+001 58831 79672,79646,79908
 1.4000e+000 79957 -3.4354e+001 -3.5939e+001  1.7111e+001 58831 79672,79908,79836
 1.4000e+000 80006 -1.1915e+002 -2.4558e+001  1.0176e+000 58831 79672,79836,79980
 1.4000e+000 80029 -1.5490e+002 -2.7131e+001  1.3937e+001 58831 79672,79980,79490
 1.4000e+000 80358 -7.2744e+001  3.5057e-001  1.2051e+000 58377 80381,80185,80159
 1.4000e+000 80335 -1.2760e+002  9.9778e+000  7.0559e+000 58377 80381,80159,80133
 1.4000e+000 80312 -1.4735e+001  1.0977e+001 -1.2680e+001 58377 80133,80263,80237
 1.4000e+000 80289  8.5849e+000 -1.2283e+000  3.3226e-001 58377 80185,80237,80211
 1.4000e+000 80407  8.4179e+000  5.7939e+000 -1.6140e+001 58377 80237,80185,80381
 1.4000e+000 80430 -8.2213e+001 -1.0580e+001 -1.0948e+001 58377 80237,80381,80133
 1.4000e+000 80759 -1.3571e+002  5.6218e+001 -3.2094e+001 57873 80782,80586,80560
 1.4000e+000 80736 -1.6073e+002  1.6661e+001 -4.7706e+001 57873 80782,80560,80534
 1.4000e+000 80713 -3.5081e+001 -1.5359e+000 -1.0858e+001 57873 80586,80638,80612
 1.4000e+000 80690 -4.6848e+001 -1.3029e+001  6.8835e+000 57873 80534,80664,80638
 1.4000e+000 80808 -1.5344e+002  1.9420e+001 -4.4363e+001 57873 80638,80586,80782
 1.4000e+000 80831 -1.5175e+002  7.8907e+000 -5.4071e+001 57873 80638,80782,80534
 1.4000e+000 81337 -4.8548e+001 -3.6415e+000  1.3481e+001 57262 81360,81144,81092
 1.4000e+000 81314 -4.5366e+001 -1.7574e+000  3.2312e+000 57262 81360,81092,81066
 1.4000e+000 81291 -2.0760e+001  3.3102e+000  6.8794e+000 57262 81014,81196,81066
 1.4000e+000 81268 -3.1998e+001 -1.3872e+001  2.1429e+001 57262 81092,81144,81118
 1.4000e+000 81245 -5.3537e+001 -2.8239e+001  2.3290e+001 57262 81144,81196,81170
 1.4000e+000 81222 -2.2818e+001  7.8959e-001 -1.3574e+000 57262 81014,81066,81040
 1.4000e+000 81386 -3.4740e+001 -2.0852e+000  1.1957e+001 57262 81196,81144,81360
 1.4000e+000 81409 -3.5400e+001 -1.7761e+000  1.2423e+000 57262 81196,81360,81066
 1.4000e+000 81608 -6.6547e+002 -2.6747e+002 -8.1540e+001 57007 81458,81536,81510
 1.4000e+000 81585 -6.1427e+002 -1.9467e+002 -5.7261e+001 57007 81432,81536,81458
 1.4000e+000 81562 -3.6320e+002 -3.5192e+002 -2.4342e+002 57007 81458,81510,81484
 1.4000e+000 82086 -3.1461e+001  8.3459e+000  2.4690e+000 56339 81792,81922,81818
 1.4000e+000 82063  2.3613e+001  1.1050e+001 -4.0108e+000 56339 81714,81922,81792
 1.4000e+000 82040 -7.4445e+001 -6.1881e+000  1.0083e+001 56339 82109,81844,81818
 1.4000e+000 82017 -4.0715e+001 -1.2761e+001  1.6816e+001 56339 82109,81818,81922
 1.4000e+000 81994 -9.1051e+001 -8.5702e+000 -2.5164e+001 56339 81844,81896,81870
 1.4000e+000 81971  1.8846e+001 -1.0443e+000 -1.4605e+000 56339 81714,81792,81766
 1.4000e+000 81948  5.3375e+000  4.1710e+000 -5.5651e+000 56339 81714,81766,81740
 1.4000e+000 82135 -1.1799e+002 -4.6596e+000  7.6984e+000 56339 81896,81844,82109
 1.4000e+000 82158 -7.1804e+001  3.3418e-001  1.9687e+001 56339 81896,82109,81922
 1.4000e+000 82536 -1.6371e+002 -1.0230e+001 -2.8077e+001 55699 82288,82392,82314
 1.4000e+000 82513 -1.1698e+002  1.8472e+001  3.0458e+000 55699 82288,82418,82392
 1.4000e+000 82490 -2.4278e+001 -3.1733e+001  3.3430e+001 55699 82314,82392,82340
 1.4000e+000 82467  9.3080e+000  6.7177e+000  1.9048e+001 55699 82340,82392,82366
 1.4000e+000 82444 -2.2097e+002  1.5066e+001 -1.5206e+001 55699 82262,82418,82288
 1.4000e+000 83091 -5.1506e+000  2.9131e+000 -1.2471e+001 55409 82745,82901,82875
 1.4000e+000 83068  6.6639e+000  8.2842e+000 -8.2608e+000 55409 82719,82901,82745
 1.4000e+000 83045 -6.9328e-001 -2.2944e+001  5.7641e-001 55409 82771,82849,82823
 1.4000e+000 83022  6.5565e+000 -1.8171e+001  5.0511e+000 55409 82745,82849,82771
 1.4000e+000 82999 -1.0485e+001 -7.5999e-001  4.7093e+000 55409 82745,82875,82849
 1.4000e+000 82976 -3.5481e+000 -5.7234e-001 -3.8498e+000 55409 82771,82823,82797
 1.4000e+000 82953 -8.1753e-002 -8.7388e+000 -2.2534e+000 55409 82719,82927,82901
 1.4000e+000 83388 -5.1081e+001  6.4980e+000 -1.6140e+000 54905 83411,83218,83166
 1.4000e+000 83365 -9.5380e+001 -2.6967e+000 -3.2197e+000 54905 83411,83166,83114
 1.4000e+000 83342 -1.1248e+001  9.3095e+000  2.4402e+000 54905 83483,83270,83244
 1.4000e+000 83319 -1.5111e+002 -4.7552e+000 -9.7524e+000 54905 83166,83218,83192
 1.4000e+000 83296 -8.9306e+001 -2.4786e+000  1.3389e+001 54905 83114,83166,83140
 1.4000e+000 83437 -4.7957e+001 -6.5268e+000 -7.6165e+000 54905 83244,83218,83411
 1.4000e+000 83460 -4.3584e+001  1.5146e-001 -1.3577e+000 54905 83483,83244,83411
 1.4000e+000 83509 -5.4292e+001 -3.9318e+000 -8.4550e+000 54905 83114,83270,83483
 1.4000e+000 83532 -5.9205e+001  2.2375e+000 -1.4338e+001 54905 83114,83483,83411
 1.4000e+000 83961 -2.5657e+002 -1.5328e+002 -2.9136e+001 54593 83638,83768,83690
 1.4000e+000 83938 -1.1129e+002 -1.1078e+002 -2.7387e+001 54593 83638,83794,83768
 1.4000e+000 83915 -1.7160e+002 -4.9520e+001  2.7111e+001 54593 83690,83768,83742
 1.4000e+000 83892 -1.8114e+002 -5.9969e+001 -1.2109e+002 54593 83638,83820,83794
 1.4000e+000 83869 -1.2299e+002  2.9075e+002 -7.7960e+001 54593 83638,83690,83664
 1.4000e+000 83846 -1.4708e+002 -9.4081e+001  8.0232e+001 54593 83690,83742,83716
 1.4000e+000 84209 -7.6921e+001 -8.7633e-001 -5.5583e+000 54132 84232,84062,83984
 1.4000e+000 84186 -7.3221e+001 -2.1342e+000 -5.9233e+000 54132 84232,83984,84114
 1.4000e+000 84163 -7.7622e+001 -3.2882e+000 -2.9224e+000 54132 83984,84062,84036
 1.4000e+000 84140 -4.8036e+001 -2.0923e+001  1.4130e+001 54132 83984,84036,84010
 1.4000e+000 84258 -7.3611e+001 -1.5983e+000 -5.3299e+000 54132 84088,84062,84232
 1.4000e+000 84281 -6.8127e+001 -1.5115e+000 -5.5529e+000 54132 84088,84232,84114
 1.4000e+000 84382 -4.1530e+002 -6.0577e+001 -1.4786e+001 53521 84304,84356,84330
 1.4000e+000 84632 -6.4402e+001 -1.7515e+001  9.9461e+000 53067 84655,84485,84459
 1.4000e+000 84609 -8.7676e+001 -1.0755e+001  3.9610e+000 53067 84655,84459,84407
 1.4000e+000 84586 -7.9776e+001 -2.2746e+001  3.5571e+001 53067 84485,84537,84511
 1.4000e+000 84563 -7.9774e+001 -1.1010e+000 -9.7149e+000 53067 84407,84459,84433
 1.4000e+000 84681 -5.3847e+001 -1.5664e+001  8.2776e+000 53067 84537,84485,84655
 1.4000e+000 84704 -6.2858e+001  1.1024e+000 -1.5027e+000 53067 84537,84655,84407
 1.4000e+000 85214 -1.8770e+002 -1.0091e+002  3.9534e+001 52513 85021,85073,85047
 1.4000e+000 85191 -1.6475e+002 -2.9084e+001  2.0970e+001 52513 84943,85073,85021
 1.4000e+000 85168 -4.0924e+002 -1.4418e+002 -3.1828e+001 52513 84943,85021,84995
 1.4000e+000 85145 -2.0060e+002 -1.1884e+002  2.3332e+001 52513 84917,85073,84943
 1.4000e+000 85122 -1.4941e+002 -1.9622e+002 -4.2885e+001 52513 84943,84995,84969
 1.4000e+000 85099 -9.6770e+001 -8.7780e+001  3.6934e+001 52513 84891,85073,84917
 1.4000e+000 85582 -1.2699e+002 -4.3793e+000 -3.4872e+000 52037 85605,85311,85285
 1.4000e+000 85559 -1.6506e+002 -3.0037e+001  2.6100e+001 52037 85749,85605,85285
 1.4000e+000 85536 -1.3873e+002  3.2956e+001 -2.1189e+001 52037 85893,85677,85389
 1.4000e+000 85513 -1.8873e+002 -5.0013e+001  3.5000e+001 52037 85749,85285,85259
 1.4000e+000 85490 -9.4246e+001  4.4742e+001 -7.5647e+001 52037 85893,85389,85363
 1.4000e+000 85467 -2.2047e+002  2.7704e+001  2.3590e+001 52037 85259,85441,85415
 1.4000e+000 85631 -1.8445e+002 -6.0412e+000  2.0082e+001 52037 85337,85311,85605
 1.4000e+000 85654 -1.7870e+002 -2.9675e+001  3.3289e+001 52037 85677,85337,85605
 1.4000e+000 85703 -2.1972e+002 -3.7374e+000 -6.0102e+000 52037 85415,85389,85677
 1.4000e+000 85726 -1.7303e+002  6.5365e+000  2.0428e+001 52037 85821,85677,85605
 1.4000e+000 85775 -1.9582e+002 -1.5907e+000  2.3775e+001 52037 85821,85605,85749
 1.4000e+000 85798 -2.3164e+002 -1.8940e+001  1.3998e+001 52037 85415,85749,85259
 1.4000e+000 85847 -1.7626e+002  6.5219e+000  1.7323e+000 52037 85415,85677,85821
 1.4000e+000 85870 -1.8433e+002  4.9359e+000  5.4485e+000 52037 85415,85821,85749
 1.4000e+000 85919 -1.6315e+002 -5.1693e+001  2.3514e+001 52037 85337,85677,85893
 1.4000e+000 85942 -1.4618e+002 -5.8603e+001 -2.7226e+001 52037 85337,85893,85363
 1.4000e+000 86224 -1.4146e+001 -3.4471e+000 -1.8295e+000 51368 86375,86100,86074
 1.4000e+000 86201 -4.7362e+000 -3.4197e-001 -2.4394e+000 51368 86375,86074,86247
 1.4000e+000 86178 -5.3716e+000 -3.9130e+000  2.7620e-001 51368 86048,86152,86126
 1.4000e+000 86273 -1.1150e+001  1.1887e+000  1.5596e+000 51368 86048,86126,86247
 1.4000e+000 86401 -1.8848e+001  4.6285e-003  2.3548e+000 51368 86126,86100,86375
 1.4000e+000 86424 -1.4075e+001 -1.3349e-001  1.8594e+000 51368 86126,86375,86247
 1.4000e+000 86802 -1.4365e+002 -8.1669e+000 -9.9828e+000 51028 86528,86632,86580
 1.4000e+000 86779 -5.0375e+001 -7.9686e+000 -2.8193e+001 51028 86528,86684,86632
 1.4000e+000 86756 -1.3822e+002  3.0748e-001  4.4041e+000 51028 86528,86580,86554
 1.4000e+000 86733  4.8380e+000  1.1598e+001  2.5695e+001 51028 86632,86684,86658
 1.4000e+000 86710 -7.3922e+001 -7.9433e+000 -3.3661e+001 51028 86580,86632,86606
 1.4000e+000 87131 -2.0387e+001  3.4210e+000  1.7359e+001 50624 86958,87036,87010
 1.4000e+000 87108 -4.1652e+000 -7.1797e+000  2.0921e+001 50624 86932,87036,86958
 1.4000e+000 87085 -5.0244e+001 -9.8745e+000  2.0231e+001 50624 86958,87010,86984
 1.4000e+000 87062  2.0598e+001 -5.2941e+000  6.5852e+000 50624 86906,87036,86932
 1.4000e+000 87330 -9.5713e+001  3.6267e+000 -3.2303e-001 50234 87353,87180,87154
 1.4000e+000 87307 -7.9902e+001  3.3667e+000  3.1612e-001 50234 87353,87154,87258
 1.4000e+000 87284 -5.8694e+001  1.6702e-001  1.4205e-001 50234 87206,87258,87232
 1.4000e+000 87379 -8.1828e+001 -4.6872e+000  7.9276e+000 50234 87206,87180,87353
 1.4000e+000 87402 -5.9117e+001 -7.8839e-001  5.3521e+000 50234 87206,87353,87258
 1.4000e+000 87650 -1.0039e+002 -2.9423e+000  1.3571e+001 49730 87673,87503,87451
 1.4000e+000 87627 -1.0307e+002 -3.4208e+000  1.7510e+001 49730 87673,87451,87425
 1.4000e+000 87604 -7.6889e+001 -1.2176e+001  3.4345e+001 49730 87503,87555,87529
 1.4000e+000 87581 -2.7023e+002 -6.9981e+000  4.7643e+001 49730 87451,87503,87477
 1.4000e+000 87699 -9.9919e+001 -6.5050e-001  1.4016e+001 49730 87555,87503,87673
 1.4000e+000 87722 -1.0097e+002  2.7608e+000  1.5974e+001 49730 87555,87673,87425
 1.4000e+000 88232 -9.2942e+001 -7.4854e+001  5.7154e+001 49176 88255,87935,87909
 1.4000e+000 88209 -3.6692e+001 -3.3732e+001 -1.9587e+001 49176 88255,87909,88065
 1.4000e+000 88186 -2.4619e+002  3.1270e+001  2.9698e+000 49176 87935,88039,87961
 1.4000e+000 88163 -3.6620e+001 -2.9450e+001 -2.1349e+001 49176 87909,88091,88065
 1.4000e+000 88140 -2.2748e+002  4.0621e+001 -5.7254e+001 49176 87961,88039,88013
 1.4000e+000 88117 -2.5720e+002 -1.4900e+001 -4.5174e+001 49176 87961,88013,87987
 1.4000e+000 88281 -2.0456e+001 -4.2109e+001  1.4107e+001 49176 88039,87935,88255
 1.4000e+000 88304  3.2097e+001 -7.0063e+000 -6.1474e+001 49176 88039,88255,88065
 1.4000e+000 88503 -1.0617e+002 -1.0491e+002 -4.1752e+001 48772 88526,88379,88353
 1.4000e+000 88480 -5.4940e+001 -5.3428e+000 -8.1462e+000 48772 88526,88353,88327
 1.4000e+000 88457 -6.3184e+001  1.3176e+001  3.3656e+001 48772 88379,88431,88405
 1.4000e+000 88552 -1.1646e+002 -1.3989e+001 -3.9634e+001 48772 88431,88379,88526
 1.4000e+000 88575 -1.1626e+002  3.0831e+001 -2.6714e+001 48772 88431,88526,88327
 1.4000e+000 89083 -6.8168e+001 -1.2278e+002  2.2921e+001 48368 88786,88916,88864
 1.4000e+000 89060 -8.5876e+001 -9.0718e+001 -5.5625e+000 48368 88786,88942,88916
 1.4000e+000 89037 -5.9598e+001 -1.3540e+002  9.4571e+000 48368 88786,88864,88812
 1.4000e+000 89014 -1.5548e+002 -1.0893e+002  1.2709e+001 48368 88864,88916,88890
 1.4000e+000 88991 -8.2779e+001 -9.8099e+001 -2.2854e+001 48368 88812,88864,88838
 1.4000e+000 88968 -8.2415e+001 -1.0239e+002 -2.4176e+001 48368 88760,88942,88786
 1.4000e+000 89331 -1.9566e+002 -1.1637e+002 -1.0302e+002 47928 89158,89236,89210
 1.4000e+000 89308 -2.2797e+002 -1.0115e+002 -5.4007e+001 47928 89132,89236,89158
 1.4000e+000 89285 -8.2675e+001 -7.6125e+001 -5.8493e+001 47928 89158,89210,89184
 1.4000e+000 89262 -1.8106e+002 -4.5144e+001 -3.3175e+001 47928 89106,89236,89132
 1.4000e+000 89662 -5.7159e+001 -2.6468e+001  2.8645e+001 47588 89463,89541,89515
 1.4000e+000 89639 -1.8953e+001 -2.9408e+001 -4.2042e+000 47588 89463,89567,89541
 1.4000e+000 89616 -1.2953e+002 -2.4027e+001 -5.0334e+001 47588 89463,89515,89489
 1.4000e+000 89593  3.1082e+001 -3.3416e+001  8.9702e+000 47588 89437,89567,89463
 1.4000e+000 89763 -6.6173e+002 -2.5706e+002 -2.7329e+001 47390 89685,89737,89711
 1.4000e+000 89913 -4.8741e+002 -1.9831e+002 -2.9652e+001 47078 89786,89838,89812
 1.4000e+000 89890 -3.1962e+002 -2.3392e+002 -3.1739e+001 47078 89786,89864,89838
 1.4000e+000 90163 -5.9703e+001 -9.7832e-001  1.8203e+001 46474 89964,90042,89990
 1.4000e+000 90140 -6.1913e+001 -1.7902e+000  1.7814e+001 46474 89938,90042,89964
 1.4000e+000 90117 -3.0555e+000  5.0021e+000  2.6799e+001 46474 89990,90042,90016
 1.4000e+000 90094 -2.1333e+001 -5.5168e-001  7.9051e+000 46474 89938,90068,90042
 1.4000e+000 90364 -2.7240e+001  1.1151e+000  1.0775e+001 46184 90240,90292,90266
 1.4000e+000 90341 -8.4360e-001 -1.1017e+001  2.4316e+000 46184 90188,90292,90240
 1.4000e+000 90318 -6.9011e+000  5.2649e-001  4.1113e-001 46184 90188,90240,90214
 1.4000e+000 90565 -1.7972e+002  2.0930e+001 -3.5846e+001 45780 90588,90415,90389
 1.4000e+000 90542 -9.0990e+001  1.6848e+001 -2.5784e+001 45780 90588,90389,90493
 1.4000e+000 90519 -1.2624e+002 -4.1892e+001  7.6235e-001 45780 90415,90467,90441
 1.4000e+000 90614 -1.0961e+002 -6.7998e+000  1.7773e+001 45780 90467,90415,90588
 1.4000e+000 90637  5.6304e+000  2.4172e+001  4.1158e+001 45780 90467,90588,90493
 1.4000e+000 91196 -4.1770e+001 -3.2796e+000  5.4827e+000 45226 91219,90876,90850
 1.4000e+000 91173 -4.2450e+001 -4.4484e+000  7.4695e+000 45226 91219,90850,91032
 1.4000e+000 91150 -3.0435e+001  1.1497e+000  9.1421e+000 45226 90824,91032,90850
 1.4000e+000 91127 -7.5570e+001  6.3434e-001  1.7337e+000 45226 90876,90980,90902
 1.4000e+000 91104 -2.9316e+001  8.8424e+000  9.6152e+000 45226 90876,91006,90980
 1.4000e+000 91081 -7.3138e+001  3.7532e+000  4.4307e+000 45226 90902,90980,90954
 1.4000e+000 91058 -2.8326e+002 -4.6083e+001 -6.2022e+000 45226 90902,90954,90928
 1.4000e+000 91245 -4.3280e+001  7.8578e-002  5.5111e+000 45226 91006,90876,91219
 1.4000e+000 91268 -4.4487e+001 -1.8364e+000  7.4571e+000 45226 91006,91219,91032
 1.4000e+000 91516 -1.2983e+002 -1.3941e+001 -2.2822e+001 44836 91539,91421,91395
 1.4000e+000 91493 -2.4952e+002  8.5335e+000 -4.6241e+001 44836 91317,91421,91343
 1.4000e+000 91470 -1.6900e+002 -7.3614e+001  6.7708e+000 44836 91539,91395,91369
 1.4000e+000 91447 -1.2513e+002 -6.5284e+001 -1.0448e+002 44836 91291,91421,91317
 1.4000e+000 91565 -1.4052e+002  1.2658e+001 -4.7017e+001 44836 91343,91421,91539
 1.4000e+000 91588 -1.4440e+002 -5.7947e+000 -2.2492e+001 44836 91343,91539,91369
 1.4000e+000 91787 -6.4741e+001  9.1829e+000  3.8682e+000 44432 91810,91637,91611
 1.4000e+000 91764  8.3565e+000  3.3953e+000 -9.0300e+000 44432 91810,91611,91715
 1.4000e+000 91741 -4.0426e+001 -5.4561e+000  4.2577e+000 44432 91637,91689,91663
 1.4000e+000 91836 -2.9569e+000  1.0487e+001  1.5492e+001 44432 91689,91637,91810
 1.4000e+000 91859  4.7201e+001 -8.7733e+000  1.5165e+001 44432 91689,91810,91715
 1.4000e+000 92207 -2.4212e+002 -5.3796e+001 -8.6489e+001 43864 92230,91936,91910
 1.4000e+000 92184 -1.6694e+002 -8.5329e+001 -9.6239e+001 43864 92230,91910,92040
 1.4000e+000 92161 -2.7493e+001 -1.4549e+001 -3.9389e+001 43864 91884,92040,91910
 1.4000e+000 92138 -1.8812e+002 -3.1988e+001 -1.8592e+001 43864 91936,92014,91988
 1.4000e+000 92115 -1.2154e+002 -6.3958e+000 -2.5114e+001 43864 91936,91988,91962
 1.4000e+000 92092 -3.2903e+001 -3.5905e+001 -3.4006e+001 43864 91884,92066,92040
 1.4000e+000 92256 -1.7725e+002 -1.9285e+001 -6.6529e+001 43864 92014,91936,92230
 1.4000e+000 92279 -1.3377e+002 -7.8549e+001 -8.9976e+001 43864 92014,92230,92040
 1.4000e+000 92529 -1.2634e+002 -1.4875e+001  1.8385e+001 43410 92552,92330,92304
 1.4000e+000 92506 -1.1302e+002  6.3931e+000  6.2042e+001 43410 92552,92304,92408
 1.4000e+000 92483 -9.5177e+001  1.4698e+001  5.4229e+001 43410 92304,92434,92408
 1.4000e+000 92460 -1.6193e+002 -9.2561e+000 -1.5461e+001 43410 92330,92382,92356
 1.4000e+000 92578 -1.6797e+002 -2.7538e+001 -8.7820e+000 43410 92382,92330,92552
 1.4000e+000 92601 -1.6575e+002  1.2510e+001  3.9161e+001 43410 92382,92552,92408
 1.4000e+000 92802 -1.2885e+002 -1.3128e+001  6.9230e+000 43162 92825,92704,92652
 1.4000e+000 92779 -1.3308e+002 -1.8091e+001  7.6891e-001 43162 92825,92652,92626
 1.4000e+000 92756 -5.1458e+000 -2.5882e+001  1.5756e+001 43162 92652,92704,92678
 1.4000e+000 92851 -1.2049e+002 -1.2410e+001  1.4643e+001 43162 92730,92704,92825
 1.4000e+000 92874 -1.2121e+002 -3.6464e+001  6.2901e+000 43162 92730,92825,92626
 1.4000e+000 93463 -2.0237e+002 -6.9292e+000  3.1719e+001 42758 93140,93270,93166
 1.4000e+000 93440 -1.6396e+002  2.5726e+001  3.5460e+000 42758 93140,93296,93270
 1.4000e+000 93417 -6.0378e+001  3.5995e+001  2.5711e+001 42758 93166,93270,93218
 1.4000e+000 93394 -2.8092e+002 -3.1882e+000  4.6310e+001 42758 93218,93270,93244
 1.4000e+000 93371 -6.8123e+001 -1.1623e+001  2.5656e+000 42758 93140,93322,93296
 1.4000e+000 93348 -7.2547e+001 -6.4059e-001 -3.0165e+000 42758 93166,93218,93192
 1.4000e+000 93920 -1.1503e+002  1.1269e+001  2.1300e+001 42304 93943,93672,93646
 1.4000e+000 93897 -9.3974e+001 -1.2436e+001 -2.1592e+001 42304 93943,93646,93802
 1.4000e+000 93874 -3.0555e+001  2.1203e+000  3.8857e-001 42304 93724,93802,93776
 1.4000e+000 93851 -6.5041e+001  1.3695e+001  2.6045e+001 42304 93672,93724,93698
 1.4000e+000 93828 -7.0364e+000 -3.3647e+000  6.3480e+000 42304 93724,93776,93750
 1.4000e+000 93969 -7.4434e+001  2.0620e+001  1.9280e+001 42304 93724,93672,93943
 1.4000e+000 93992 -3.7883e+001  1.3385e+000 -1.2207e+001 42304 93724,93943,93802
 1.4000e+000 94321 -1.2433e+001 -1.7701e+001 -1.0902e+001 41478 94096,94148,94122
 1.4000e+000 94298 -2.7594e+001 -2.7876e+001 -1.0055e+000 41478 94096,94226,94148
 1.4000e+000 94275 -2.4534e+001 -2.0105e+001  9.8712e-001 41478 94148,94226,94174
 1.4000e+000 94252 -1.5696e+001 -9.1366e+000 -5.0125e+000 41478 94174,94226,94200
 1.4000e+000 94618 -4.2152e+001  9.8599e+000 -7.2839e+000 40910 94344,94422,94396
 1.4000e+000 94595 -8.2130e+001 -6.7765e+000 -1.9705e+001 40910 94344,94448,94422
 1.4000e+000 94572 -6.9558e+001  2.9757e+001  5.5761e+001 40910 94344,94474,94448
 1.4000e+000 94549 -4.4908e+001  1.6275e+001 -1.9049e+000 40910 94344,94396,94370
 1.4000e+000 94526 -1.2305e+002  2.1678e+001  7.1979e+001 40910 94344,94500,94474
 1.4000e+000 94866 -5.1605e+001 -8.9331e+000  1.4528e+001 40306 94667,94719,94693
 1.4000e+000 94843 -2.9780e+001 -1.5652e+001  1.3962e+001 40306 94641,94719,94667
 1.4000e+000 94820 -2.1262e+001  7.6312e-001  1.0854e+001 40306 94641,94745,94719
 1.4000e+000 94797 -5.0515e+001  8.9682e+000  9.7975e+000 40306 94641,94771,94745
 1.4000e+000 95089 -1.9528e+002 -4.1770e+001 -3.3567e+001 39702 94913,94991,94939
 1.4000e+000 95066 -2.9921e+002 -8.3404e+001 -2.1271e+001 39702 94913,95017,94991
 1.4000e+000 95043 -3.7558e+002 -1.1935e+002 -3.8182e+001 39702 94939,94991,94965
 1.4000e+000 95339 -1.2796e+002  1.2013e+001  1.6214e+001 39248 95140,95218,95166
 1.4000e+000 95316 -2.1046e+002 -3.3911e+001  3.5127e+001 39248 95140,95244,95218
 1.4000e+000 95293 -6.5328e+001  1.7157e+000  3.8127e+001 39248 95114,95244,95140
 1.4000e+000 95270 -2.6530e+002 -5.5900e+000  3.9790e+001 39248 95166,95218,95192
 1.4000e+000 95770 -5.9085e+001 -4.2124e+001 -4.1173e+001 38694 95551,95629,95577
 1.4000e+000 95747 -1.1990e+002 -3.8284e+001 -5.5173e+001 38694 95447,95629,95551
 1.4000e+000 95724 -1.4832e+002 -8.8005e+001 -2.0404e+001 38694 95447,95551,95473
 1.4000e+000 95701 -1.1709e+002 -5.7478e+001 -3.2780e+001 38694 95473,95551,95499
 1.4000e+000 95678 -1.0292e+002 -7.9646e+001  2.4538e+001 38694 95499,95551,95525
 1.4000e+000 95655 -2.4846e+001 -2.9380e+000  4.4249e+000 38694 95577,95629,95603
 1.4000e+000 96325 -1.4568e+002 -2.3902e+001 -3.2752e+001 38240 95953,96031,96005
 1.4000e+000 96302 -9.0987e+001 -4.4858e+001 -9.0574e+001 38240 95953,96161,96031
 1.4000e+000 96279 -9.0101e+001  6.8956e+000 -6.4105e+001 38240 96031,96161,96135
 1.4000e+000 96256 -2.1759e+002 -4.6886e+001  3.4227e+001 38240 96348,96109,96057
 1.4000e+000 96233 -2.0860e+002 -1.6098e+002 -9.4931e+001 38240 96348,96057,96031
 1.4000e+000 96210 -2.0521e+002 -2.5560e+001  3.9254e+001 38240 96057,96109,96083
 1.4000e+000 96187 -3.6451e+001 -8.7543e+000  2.5686e+001 38240 95953,96005,95979
 1.4000e+000 96374 -1.0950e+002  4.8888e+001  7.5401e+001 38240 96135,96109,96348
 1.4000e+000 96397 -8.2372e+001 -6.5774e+001 -5.1669e+001 38240 96135,96348,96031
 1.4000e+000 96618 -2.0041e+002 -4.1026e+001  8.4689e+000 37821 96494,96546,96520
 1.4000e+000 96595 -2.3816e+002 -8.6985e+001 -1.2503e+001 37821 96468,96546,96494
 1.4000e+000 96572 -2.5491e+002 -9.4160e+001 -1.1245e+001 37821 96442,96546,96468
 1.4000e+000 97126 -1.4620e+002 -9.4652e+000  1.7321e+000 37367 97149,96855,96829
 1.4000e+000 97103 -7.8110e+001  1.3199e+001  1.9126e+001 37367 97149,96829,96985
 1.4000e+000 97080 -9.1549e+001  6.8969e+000  1.6647e+001 37367 96803,96985,96829
 1.4000e+000 97057 -1.7659e+001 -7.3818e+000  1.1653e+001 37367 96855,96907,96881
 1.4000e+000 97034  1.5996e+001 -2.9994e+001  6.0381e+000 37367 96907,96985,96959
 1.4000e+000 97011 -8.2469e+000 -3.3539e+001 -1.0324e+001 37367 96907,96959,96933
 1.4000e+000 97175 -8.0150e+001 -2.1629e+000  3.1383e+001 37367 96907,96855,97149
 1.4000e+000 97198 -3.1921e+001  6.0864e+000  4.7478e+001 37367 96907,97149,96985
 1.4000e+000 97704 -8.9271e+001 -3.3971e+001 -2.5810e+001 36863 97727,97511,97485
 1.4000e+000 97681 -8.6119e+001 -8.5931e+001 -7.2557e+001 36863 97727,97485,97433
 1.4000e+000 97658 -8.3992e+001 -8.1523e+001 -7.8546e+001 36863 97381,97563,97433
 1.4000e+000 97635 -1.5843e+001  9.3316e+000 -5.5031e+000 36863 97511,97563,97537
 1.4000e+000 97612 -1.4826e+002 -5.7281e+001 -9.6198e+001 36863 97433,97485,97459
 1.4000e+000 97589 -9.6351e+001 -4.6902e+001 -5.9500e+001 36863 97381,97433,97407
 1.4000e+000 97753 -5.7004e+001  1.6946e-001 -8.6696e+000 36863 97563,97511,97727
 1.4000e+000 97776 -3.7098e+001 -4.1941e+001 -5.1455e+001 36863 97563,97727,97433
 1.4000e+000 98331 -1.2139e+001  3.2626e+000 -3.1689e+000 36287 98354,98089,98063
 1.4000e+000 98308 -6.9713e+000 -1.9127e+001  1.7271e+001 36287 98354,98063,98011
 1.4000e+000 98285 -1.5139e+001  1.1411e+001  2.0309e+001 36287 98426,97985,98115
 1.4000e+000 98262 -1.6265e+001 -1.1559e+001  2.1961e+001 36287 98011,98063,98037
 1.4000e+000 98239 -1.1941e+002  1.6201e+001 -2.0014e+000 36287 97985,98141,98115
 1.4000e+000 98216 -1.2477e+002 -2.6660e+000 -1.4264e+001 36287 97959,98141,97985
 1.4000e+000 98193 -1.6539e+002 -1.6085e+001 -6.4384e+000 36287 97959,98167,98141
 1.4000e+000 98380 -1.2678e+002 -2.4341e+001 -2.6295e+000 36287 98115,98089,98354
 1.4000e+000 98403 -2.8285e+001  5.0180e+000  1.7403e+001 36287 98426,98115,98354
 1.4000e+000 98452 -1.2606e+000 -8.4208e-001  4.5333e+000 36287 98011,97985,98426
 1.4000e+000 98475 -1.3444e+001 -7.4317e+000  1.5053e+000 36287 98011,98426,98354
 1.4000e+000 99030 -8.0096e+001 -5.1958e+001 -2.0881e+001 35726 99053,98736,98710
 1.4000e+000 99007 -7.6864e+001 -9.4054e+000 -8.7604e-001 35726 99053,98710,98684
 1.4000e+000 98984 -6.1496e+001 -1.0528e+001 -1.0301e+001 35726 99125,98814,98736
 1.4000e+000 98961 -4.2336e+001 -4.0677e+001 -2.1450e+001 35726 98736,98814,98788
 1.4000e+000 98938 -1.4899e+002 -1.5725e+001 -1.4396e+001 35726 98684,98866,98840
 1.4000e+000 98915 -1.0569e+002 -4.9764e+001 -8.0019e+001 35726 98736,98788,98762
 1.4000e+000 98892 -5.9165e+001 -3.2955e+000 -1.3990e+001 35726 98658,98866,98684
 1.4000e+000 99079 -6.7546e+001 -1.2785e+001 -1.3685e+001 35726 99125,98736,99053
 1.4000e+000 99102 -7.8955e+001  1.1067e+001 -4.4873e+000 35726 98840,99053,98684
 1.4000e+000 99151 -5.5554e+001 -6.9198e+000 -4.9686e+000 35726 98840,98814,99125
 1.4000e+000 99174 -6.0305e+001 -1.1421e+001 -9.0321e+000 35726 98840,99125,99053
 1.4000e+000 99454 -1.5504e+001 -1.0685e+001 -2.9894e+001 35222 99278,99330,99304
 1.4000e+000 99431 -6.0361e+001 -8.4900e+000  2.7655e+001 35222 99278,99382,99330
 1.4000e+000 99408 -1.1648e+002 -3.6752e+000  1.3421e+001 35222 99330,99382,99356
 1.4000e+000 99653 -2.3666e+002 -1.1068e+002 -3.9725e+000 34867 99477,99529,99503
 1.4000e+000 99630 -1.9195e+002 -1.1398e+002 -8.5925e+000 34867 99477,99581,99529
 1.4000e+000 99607 -2.1463e+002 -1.3459e+002  1.3684e+001 34867 99529,99581,99555
 1.4000e+000 100104 -1.1611e+002  2.2510e+001 -2.0477e+001 34363 99781,99885,99807
 1.4000e+000 100081 -1.0613e+002  1.4216e+001  1.4000e+001 34363 99781,99963,99885
 1.4000e+000 100058 -1.7682e+002  2.9050e+001  1.7671e+001 34363 99885,99963,99911
 1.4000e+000 100035 -1.9313e+002  3.5403e+001 -3.3485e+001 34363 99807,99885,99859
 1.4000e+000 100012 -6.9312e+001  5.8200e+001  1.1830e+002 34363 99911,99963,99937
 1.4000e+000 99989 -1.8300e+002  1.1846e+001 -1.2699e+002 34363 99807,99859,99833
 1.4000e+000 100303 -5.5228e+001 -1.0859e+000  1.1673e+001 33909 100127,100205,100179
 1.4000e+000 100280 -1.1121e+001  1.3862e+001  7.7518e+000 33909 100127,100231,100205
 1.4000e+000 100257 -5.5033e+001 -4.8683e+000 -2.4733e+000 33909 100127,100179,100153
 1.4000e+000 100890 -8.5097e+001 -5.7617e+001 -9.2382e+000 33412 100645,100749,100697
 1.4000e+000 100867 -1.0684e+002 -6.5738e+001 -2.4047e+001 33412 100567,100749,100645
 1.4000e+000 100844 -8.5659e+001 -2.4253e+001 -3.1393e+001 33412 100567,100645,100619
 1.4000e+000 100821 -1.6539e+002 -6.2037e+001 -1.1787e+000 33412 100645,100697,100671
 1.4000e+000 100798 -1.1122e+002 -3.7971e+001 -5.4953e+001 33412 100567,100619,100593
 1.4000e+000 100775 -1.2292e+002 -3.2387e+001  2.5535e-001 33412 100697,100749,100723
 1.4000e+000 101268 -1.4918e+002 -7.1127e+000 -1.2825e+001 32908 101435,101291,101098
 1.4000e+000 101245 -9.7093e+001 -2.2570e+001  4.2907e+000 32908 101291,101072,101020
 1.4000e+000 101222 -2.2222e+002 -5.8503e+001 -2.4445e+001 32908 101363,101150,101124
 1.4000e+000 101199 -9.7605e+001 -5.2118e+001 -3.7611e+001 32908 101020,101072,101046
 1.4000e+000 101176 -8.5073e+001 -4.8762e+001  1.6217e+001 32908 100994,101150,101020
 1.4000e+000 101317 -1.2601e+002 -3.8006e+000 -1.3434e+001 32908 101124,101098,101291
 1.4000e+000 101340 -1.6238e+002 -3.3811e+001 -2.7542e+001 32908 101363,101124,101291
 1.4000e+000 101389 -1.8519e+002 -6.4033e+001  1.8402e+001 32908 101020,101150,101363
 1.4000e+000 101412 -1.6386e+002 -5.5913e+001  2.0799e+001 32908 101020,101363,101291
 1.4000e+000 101461 -1.5943e+002 -2.8460e+001 -4.2683e+000 32908 101072,101291,101435
 1.4000e+000 101918 -1.0712e+002 -3.9353e+001 -4.8678e+001 32618 101941,101670,101644
 1.4000e+000 101895 -2.2529e+001 -1.1661e+001  1.6912e+000 32618 101941,101644,101774
 1.4000e+000 101872 -2.3279e+002  5.9658e+000 -9.9875e+000 32618 102013,101696,101670
 1.4000e+000 101849 -1.0901e+002  1.6281e+001  9.8769e+000 32618 101696,101748,101722
 1.4000e+000 101826 -1.3761e+001 -1.6498e+000 -3.2295e+000 32618 101644,101800,101774
 1.4000e+000 101967 -2.1774e+002 -1.5386e+001 -4.5260e+001 32618 102013,101670,101941
 1.4000e+000 101990 -1.1189e+002  8.5218e+000 -2.8276e+001 32618 101748,101941,101774
 1.4000e+000 102039 -1.9318e+002 -2.3815e+000 -2.2761e+001 32618 101748,101696,102013
 1.4000e+000 102062 -1.1418e+002  1.1407e+001 -4.9030e+001 32618 101748,102013,101941
 1.4000e+000 102440 -9.6366e+001 -6.7969e+001 -3.8221e+001 32306 102463,102270,102244
 1.4000e+000 102417 -8.4775e+001 -4.2256e+001 -3.4124e+001 32306 102463,102244,102192
 1.4000e+000 102394 -8.9029e+001 -1.7208e+001 -3.2987e+001 32306 102192,102244,102218
 1.4000e+000 102371 -1.2642e+002 -5.7067e+001 -6.2825e+001 32306 102270,102322,102296
 1.4000e+000 102348 -1.1833e+002 -3.7033e+001 -6.8805e+001 32306 102166,102322,102192
 1.4000e+000 102489 -1.1125e+002 -6.0408e+001 -6.5712e+001 32306 102322,102270,102463
 1.4000e+000 102512 -9.2807e+001 -1.8387e+001 -6.0533e+001 32306 102322,102463,102192
 1.4000e+000 102662 -4.3799e+001 -3.6454e+001  4.8548e+001 31852 102943,102587,102561
 1.4000e+000 102639 -1.1934e+002  1.7421e+000  1.9097e+001 31852 102815,102685,102561
 1.4000e+000 102711 -6.5643e+001 -1.0288e+001  5.9664e+001 31852 102943,102561,102685
 1.4000e+000 102841 -4.2829e+001  8.2680e+000  1.9903e+001 31852 102535,102685,102815
 1.4000e+000 102969 -2.8567e+001 -1.2168e+001  3.5011e+001 31852 102613,102587,102943
 1.4000e+000 102992 -5.4119e+001  6.8401e+000  4.7537e+001 31852 102613,102943,102685
 1.4000e+000 103370 -5.1033e+001 -4.3827e+001  4.5503e+001 31134 103096,103200,103122
 1.4000e+000 103347 -5.4744e+001 -3.1204e+000 -2.8734e+001 31134 103096,103226,103200
 1.4000e+000 103324 -1.3319e+002 -4.7573e+000  1.0840e+001 31134 103122,103200,103174
 1.4000e+000 103301 -8.8250e+001 -3.2464e+001 -1.5318e+001 31134 103096,103252,103226
 1.4000e+000 103278 -1.5922e+002  1.9127e+000  4.4330e+001 31134 103122,103174,103148
 1.4000e+000 103520 -3.5889e+002 -6.2208e+001 -3.4731e+001 30822 103393,103445,103419
 1.4000e+000 103497 -3.7646e+002 -7.8701e+001 -2.5132e+001 30822 103393,103471,103445
 1.4000e+000 103719 -1.6751e+002  1.7487e+001 -2.1491e+000 30182 103742,103621,103569
 1.4000e+000 103696 -2.3022e+002  3.7494e+001 -1.2422e+001 30182 103742,103569,103543
 1.4000e+000 103673 -1.2752e+002  5.2950e+001  6.7015e+001 30182 103569,103621,103595
 1.4000e+000 103768 -1.3912e+002  2.7163e+001 -5.7107e+000 30182 103647,103621,103742
 1.4000e+000 103791 -1.6646e+002  7.2445e+001 -2.7707e+001 30182 103647,103742,103543
 1.4000e+000 104252 -9.6648e+001 -3.3740e+001 -1.1194e+001 29728 104030,104108,104056
 1.4000e+000 104229 -1.3173e+002 -4.4633e+001 -5.7426e+001 29728 104004,104108,104030
 1.4000e+000 104206 -1.4358e+002 -6.6789e+001 -6.5687e+001 29728 104004,104134,104108
 1.4000e+000 104183 -8.9191e+001  1.0201e+001 -1.9178e+001 29728 103978,104134,104004
 1.4000e+000 104160 -5.3889e+001 -2.7645e+001 -2.8810e+001 29728 104056,104108,104082
 1.4000e+000 104630 -1.4361e+002 -2.0724e+001  6.2498e+001 29217 104653,104382,104356
 1.4000e+000 104607 -1.4538e+002 -8.5375e+000 -6.1205e-001 29217 104653,104356,104512
 1.4000e+000 104584 -3.9582e+001 -1.1598e+001  1.2423e+001 29217 104434,104512,104486
 1.4000e+000 104561 -7.9148e+001  3.4142e+001  3.5641e+001 29217 104382,104434,104408
 1.4000e+000 104538 -2.3219e+001 -8.0353e+000  1.2471e+001 29217 104434,104486,104460
 1.4000e+000 104679 -1.0027e+002 -2.9336e+000  4.8547e+001 29217 104434,104382,104653
 1.4000e+000 104702 -8.4330e+001  3.0791e+000 -7.8119e+000 29217 104434,104653,104512
 1.4000e+000 105178 -1.4499e+002 -1.9035e+001 -8.1213e+000 28649 105201,104962,104936
 1.4000e+000 105155 -1.1681e+002 -3.7418e+001 -2.5995e+001 28649 105201,104936,104884
 1.4000e+000 105132 -1.0700e+002 -3.1115e+001 -1.4095e+001 28649 105273,104858,105014
 1.4000e+000 105109 -1.1269e+002 -1.2396e+001  1.4911e+001 28649 104962,105014,104988
 1.4000e+000 105086 -1.7133e+002 -4.2804e+001 -5.2491e+001 28649 104884,104936,104910
 1.4000e+000 105063 -5.5003e+001 -3.9103e+001 -2.4573e+001 28649 104806,105014,104858
 1.4000e+000 105040 -1.3504e+002 -9.3393e+001 -6.1643e+001 28649 104806,104858,104832
 1.4000e+000 105227 -1.0707e+002  6.9529e+000  5.5131e+000 28649 105014,104962,105201
 1.4000e+000 105250 -1.1078e+002 -2.7655e+001 -1.7027e+001 28649 105273,105014,105201
 1.4000e+000 105299 -1.0386e+002 -2.7809e+001 -1.6562e+001 28649 104884,104858,105273
 1.4000e+000 105322 -1.0453e+002 -2.2302e+001 -2.0144e+001 28649 104884,105273,105201
 1.4000e+000 105673 -4.2647e+002 -1.1863e+001  2.5268e+000 28351 105474,105578,105552
 1.4000e+000 105650 -3.7065e+002  1.1426e+002  1.6571e+001 28351 105448,105578,105474
 1.4000e+000 105627 -4.2242e+002  3.4765e+000 -3.3159e+001 28351 105500,105552,105526
 1.4000e+000 105604 -3.9157e+002  3.8234e+000 -6.5774e-001 28351 105474,105552,105500
 1.4000e+000 106130 -6.4708e+001 -2.1334e+001  2.4542e+001 28004 106153,105882,105856
 1.4000e+000 106107 -8.5551e+001 -1.1282e+001  7.0556e+000 28004 106153,105856,105986
 1.4000e+000 106084 -6.3092e+001 -1.4588e+001  8.3867e+000 28004 105934,105986,105960
 1.4000e+000 106061 -4.3850e+001 -2.1648e+001 -1.0539e+001 28004 105856,106012,105986
 1.4000e+000 106038 -1.2109e+001 -4.9043e-001 -2.7997e+000 28004 105882,105934,105908
 1.4000e+000 106179 -1.9718e+001 -1.0550e+001  2.5356e+001 28004 105934,105882,106153
 1.4000e+000 106202 -6.0437e+001 -8.7786e+000  1.4483e+001 28004 105934,106153,105986
 1.4000e+000 106885 -7.6208e+001  6.0906e+000  2.7679e+000 27564 106908,106620,106516
 1.4000e+000 106862 -1.8867e+002 -3.9458e+000  4.3752e+000 27564 106908,106516,106490
 1.4000e+000 106839 -1.9311e+002 -5.5732e+001  3.3932e+001 27564 106516,106620,106542
 1.4000e+000 106816 -7.3532e+001  4.0705e+000  7.8296e+001 27564 106620,106672,106646
 1.4000e+000 106793 -1.4404e+002 -6.6556e+001  2.4128e+001 27564 106542,106620,106594
 1.4000e+000 106770 -1.4822e+002  1.2166e+001  8.6842e+000 27564 106490,106698,106672
 1.4000e+000 106747 -1.2232e+002 -3.7478e+001  4.0051e+001 27564 106464,106698,106490
 1.4000e+000 106724 -2.2860e+002 -1.4266e+002  7.2475e+001 27564 106542,106594,106568
 1.4000e+000 106934 -3.1699e+001 -4.7959e+000  3.0454e+000 27564 106672,106620,106908
 1.4000e+000 106957 -8.3744e+001  2.8861e+001 -6.5297e+000 27564 106672,106908,106490
 1.4000e+000 107463 -7.3602e+001 -4.0669e+001 -1.3122e+001 27053 107218,107322,107296
 1.4000e+000 107440 -5.7103e+001  2.2238e+000  6.7427e+000 27053 107166,107322,107218
 1.4000e+000 107417 -5.3780e+001  1.9748e+001 -3.3489e+000 27053 107218,107296,107244
 1.4000e+000 107394 -1.3135e+001 -1.1176e+001  9.2482e+000 27053 107140,107322,107166
 1.4000e+000 107371 -1.7099e+001  8.9735e+000  1.9376e+000 27053 107166,107218,107192
 1.4000e+000 107348 -3.4202e+001  4.3685e+000 -3.0806e+001 27053 107244,107296,107270
 1.4000e+000 108097 -8.5842e+001 -4.4859e+000 -4.0856e+001 26549 108192,108120,107803
 1.4000e+000 108074 -1.1943e+002  4.6184e+001 -5.8516e+001 26549 108120,107725,107933
 1.4000e+000 108051  3.0334e+001 -1.7445e+001 -3.9630e+001 26549 107751,107803,107777
 1.4000e+000 108028 -7.4412e+001 -2.0160e+000 -4.9330e+001 26549 108192,107803,107751
 1.4000e+000 108005 -2.0215e+002 -7.2557e+001 -7.2124e+001 26549 108264,107855,107803
 1.4000e+000 107982 -9.8027e+001  4.1012e+001 -5.7691e+001 26549 107881,107933,107907
 1.4000e+000 107959 -1.6426e+002 -6.3344e+001 -6.5586e+001 26549 107803,107855,107829
 1.4000e+000 108146 -1.1018e+002 -4.4606e+001 -5.6952e+001 26549 108264,107803,108120
 1.4000e+000 108169 -1.2732e+002  2.0592e+001 -4.7240e+001 26549 107881,108120,107933
 1.4000e+000 108218 -6.2899e+001 -5.0259e+000 -4.6048e+001 26549 107725,108120,108192
 1.4000e+000 108241 -5.4601e+001 -6.2344e+000 -5.3611e+001 26549 107725,108192,107751
 1.4000e+000 108290 -2.6824e+002 -1.5407e+001 -4.7276e+001 26549 107881,107855,108264
 1.4000e+000 108313 -2.0563e+002 -8.7081e+000 -2.8764e+001 26549 107881,108264,108120
 1.4000e+000 108512 -1.9287e+002 -6.8637e+000  3.5414e+001 26137 108388,108440,108414
 1.4000e+000 108489 -2.1511e+002 -4.1200e+001  1.8443e+001 26137 108362,108440,108388
 1.4000e+000 108466 -2.8324e+002 -6.9948e+001  3.1775e+000 26137 108336,108440,108362
 1.4000e+000 108662 -1.3683e+002 -9.1709e-001  6.4407e+000 25733 108817,108685,108535
 1.4000e+000 108639 -1.5023e+002  7.2200e+000  9.4291e-001 25733 109017,108817,108535
 1.4000e+000 108711 -1.1418e+002 -9.4742e+000 -1.8063e+001 25733 108561,108535,108685
 1.4000e+000 108843 -1.5630e+002 -1.1872e+001 -2.8055e+000 25733 108587,108685,108817
 1.4000e+000 108866 -1.5249e+002 -2.1626e+000  2.9885e+000 25733 108889,108817,108613
 1.4000e+000 108915 -1.5969e+002 -3.0316e+000 -8.6333e-001 25733 108587,108817,108889
 1.4000e+000 109043 -1.5944e+002 -2.8252e+001 -1.9998e+000 25733 108613,108817,109017
 1.4000e+000 109500 -8.2254e+001 -4.0331e+001 -2.8928e+001 25229 109523,109356,109330
 1.4000e+000 109477 -9.2271e+001 -1.2143e+001 -1.2170e+001 25229 109595,109523,109330
 1.4000e+000 109454 -8.8454e+001 -3.2940e+001  6.9793e+000 25229 109595,109330,109278
 1.4000e+000 109431 -9.7207e+001  4.3482e+000 -5.2427e+001 25229 109667,109226,109382
 1.4000e+000 109408 -1.3822e+002 -1.7198e+001  2.6359e+001 25229 109278,109330,109304
 1.4000e+000 109549 -4.5949e+001 -2.3141e+001 -3.4351e+001 25229 109382,109356,109523
 1.4000e+000 109572 -7.8220e+001 -2.9354e+001 -5.9733e+001 25229 109667,109382,109523
 1.4000e+000 109621 -9.1067e+001  1.1661e+001 -8.7684e+000 25229 109252,109523,109595
 1.4000e+000 109644 -8.5310e+001  6.9939e-001  4.6045e+000 25229 109739,109595,109278
 1.4000e+000 109693 -2.5660e+002 -3.2467e+001 -2.4415e+001 25229 109252,109226,109667
 1.4000e+000 109716 -1.4849e+002 -6.5255e+000 -2.2924e+001 25229 109252,109667,109523
 1.4000e+000 109765 -8.9264e+001 -9.4513e+000 -9.8672e+000 25229 109252,109595,109739
 1.4000e+000 110478 -9.8419e+001 -7.8897e+000 -9.3343e+000 24917 110158,110236,110184
 1.4000e+000 110455 -4.9883e+001  1.3233e+001 -6.7395e+000 24917 110158,110288,110236
 1.4000e+000 110432 -5.6540e+001  4.6321e+000 -3.5275e+000 24917 110236,110288,110262
 1.4000e+000 110409 -4.1012e+001 -1.0693e+001  1.0778e+001 24917 110184,110236,110210
 1.4000e+000 110386 -4.3285e+001 -4.7875e+000  3.7042e+000 24917 110132,110288,110158
 1.4000e+000 110363 -1.3180e+001  4.3277e+000 -3.1080e+000 24917 110132,110314,110288
 1.4000e+000 110340 -1.4201e+001 -2.0745e-001  1.7190e+000 24917 110106,110314,110132
 1.4000e+000 110829 -3.4537e+002 -1.4310e+002  4.3668e+001 24307 110604,110682,110630
 1.4000e+000 110806 -2.8022e+002 -7.0018e+001  1.1791e+001 24307 110604,110708,110682
 1.4000e+000 110783 -2.3367e+002 -3.9000e+001 -1.8758e+001 24307 110604,110734,110708
 1.4000e+000 110760 -5.1901e+002 -2.1762e+002  5.0695e+001 24307 110630,110682,110656
 1.4000e+000 111335 -7.5495e+001 -1.3907e+001 -9.7365e+000 23767 111012,111168,111038
 1.4000e+000 111312 -3.6461e+001 -8.8578e+000 -3.7290e+001 23767 111012,111194,111168
 1.4000e+000 111289 -3.5841e+001  3.0558e+001 -5.1076e+001 23767 111358,111064,111038
 1.4000e+000 111266 -7.0717e+001  6.3379e+000 -2.2042e+001 23767 111358,111038,111168
 1.4000e+000 111243 -8.6772e+001 -2.6029e+001 -1.7011e+001 23767 111430,111142,111090
 1.4000e+000 111220 -1.0448e+002 -3.3831e+001 -1.8873e+001 23767 111090,111142,111116
 1.4000e+000 111384 -6.5404e+001  1.1285e+001 -2.1750e+001 23767 111090,111064,111358
 1.4000e+000 111407 -6.6039e+001 -1.2347e+001 -1.0789e+001 23767 111430,111090,111358
 1.4000e+000 111456 -1.0886e+002 -1.5464e+000 -1.2940e+001 23767 111168,111142,111430
 1.4000e+000 111479 -9.8996e+001  3.1582e+000 -1.0235e+001 23767 111168,111430,111358
 1.4000e+000 111985 -6.0558e+001 -2.1893e+001  1.0200e+001 23477 111688,111844,111818
 1.4000e+000 111962 -5.4088e+001 -1.0023e+001  3.3368e+000 23477 111662,111844,111688
 1.4000e+000 111939 -3.4609e+001 -4.2809e+000  2.4424e+001 23477 111766,111818,111792
 1.4000e+000 111916 -1.0323e+002 -1.8329e+001  2.9021e+001 23477 111740,111818,111766
 1.4000e+000 111893 -1.0503e+002 -3.1777e+001 -8.1586e-001 23477 111688,111818,111740
 1.4000e+000 111870 -1.4047e+002 -1.9491e+001 -1.1425e+001 23477 111688,111740,111714
 1.4000e+000 112314 -1.5138e+002  1.4264e+000 -1.8229e+001 23023 112141,112219,112193
 1.4000e+000 112291 -1.5567e+002 -6.6781e+001 -2.2164e+001 23023 112115,112219,112141
 1.4000e+000 112268 -1.2575e+002 -1.5692e+001  9.7190e+000 23023 112141,112193,112167
 1.4000e+000 112245 -1.3486e+002 -1.2738e+001 -1.3688e+001 23023 112089,112219,112115
 1.4000e+000 112692 -1.6583e+002 -2.4803e+001 -1.8770e+001 22768 112444,112574,112548
 1.4000e+000 112669 -2.3804e+002 -5.1469e+000 -4.4677e+001 22768 112418,112574,112444
 1.4000e+000 112646 -1.2055e+002 -3.0478e+001 -1.2025e+001 22768 112444,112522,112470
 1.4000e+000 112623 -1.5962e+002 -1.6674e+001 -1.4705e+000 22768 112444,112548,112522
 1.4000e+000 112600 -1.2409e+002 -3.5154e+001  1.3935e+001 22768 112470,112522,112496
 1.4000e+000 113011 -4.1489e+002  4.3859e+001 -8.1279e+001 22314 112763,112867,112789
 1.4000e+000 112988 -4.9948e+002 -6.1204e+001 -4.3591e+001 22314 112763,112893,112867
 1.4000e+000 112965 -5.6453e+002 -4.2458e+001  0.0000e+000 22314 112815,112867,112841
 1.4000e+000 112942 -6.2337e+002 -5.5284e+001 -4.8504e+001 22314 112789,112867,112815
 1.4000e+000 112919 -3.3206e+002 -1.4765e+001 -6.9643e+001 22314 112737,112893,112763
 1.4000e+000 113519 -7.3580e+000  1.7017e+000  6.2160e-001 21924 113614,113542,113248
 1.4000e+000 113496  2.5450e+001  3.3950e+001 -2.3233e+001 21924 113542,113196,113378
 1.4000e+000 113473 -8.5159e-001 -7.1429e+000  4.1097e+000 21924 113614,113248,113222
 1.4000e+000 113450 -3.5940e+001 -1.1599e+000  6.5874e+000 21924 113686,113274,113248
 1.4000e+000 113427 -5.0795e+001 -6.6045e+000 -2.0744e+000 21924 113274,113352,113326
 1.4000e+000 113404 -2.9353e+001 -6.6604e+000  1.3161e+001 21924 113274,113326,113300
 1.4000e+000 113568 -2.1985e+001  7.7457e+000  1.7021e+001 21924 113686,113248,113542
 1.4000e+000 113591  1.6530e-001  3.5361e+000  1.2663e+001 21924 113352,113542,113378
 1.4000e+000 113640 -1.2261e+000  1.2548e+001  3.3530e+000 21924 113196,113542,113614
 1.4000e+000 113663  4.1354e+000  3.3912e+000  5.5489e+000 21924 113196,113614,113222
 1.4000e+000 113712 -5.0891e+001  9.6825e+000  2.3949e+000 21924 113352,113274,113686
 1.4000e+000 113735 -4.4926e+001  1.0961e+001  1.1901e+001 21924 113352,113686,113542
 1.4000e+000 113885 -3.3209e+001 -1.8868e+001  2.6170e+001 21520 113980,113908,113784
 1.4000e+000 113862 -1.1825e+001 -3.3293e+001  1.6859e+001 21520 114238,113908,113758
 1.4000e+000 113934 -6.8010e+000  2.1303e-003  3.2642e+001 21520 114110,113908,113810
 1.4000e+000 113957  1.1849e+001 -2.3403e+000  6.4252e+000 21520 113810,113908,113836
 1.4000e+000 114006 -6.0185e+000 -2.2535e+001  2.6851e+001 21520 113758,113908,113980
 1.4000e+000 114136 -2.2704e+001 -1.5416e+001  2.5711e+001 21520 113784,113908,114110
 1.4000e+000 114264 -1.8555e+001 -1.4900e+001  2.0766e+001 21520 113836,113908,114238
 1.4000e+000 114662 -1.8294e+002 -3.3168e+001  1.0674e+000 21030 114414,114518,114492
 1.4000e+000 114639 -2.8377e+002 -6.9694e+001  4.1005e+001 21030 114414,114544,114518
 1.4000e+000 114616 -5.9056e+001  1.3832e+001  8.0454e-001 21030 114440,114492,114466
 1.4000e+000 114593 -1.8653e+002 -4.0624e+001  3.8840e+000 21030 114414,114492,114440
 1.4000e+000 114570 -1.6703e+002 -1.7623e+001  5.1865e+001 21030 114388,114544,114414
 1.4000e+000 114959 -1.2345e+002  5.6855e+000 -7.8623e+000 20512 114982,114711,114685
 1.4000e+000 114936 -1.1658e+002  4.9800e+000 -2.8407e+001 20512 115054,114982,114685
 1.4000e+000 114913 -8.6543e+001  2.4058e+001 -4.1221e+001 20512 115054,114685,114841
 1.4000e+000 114890  7.8342e+000  2.7921e+001  1.0694e+001 20512 114711,114763,114737
 1.4000e+000 114867 -7.5554e+001  9.8852e+000 -5.8403e+000 20512 114763,114815,114789
 1.4000e+000 115008 -1.0125e+002  1.6018e+001 -5.1556e+000 20512 114763,114711,114982
 1.4000e+000 115031 -1.0546e+002 -9.0555e+000 -1.3939e+001 20512 114763,114982,114815
 1.4000e+000 115080 -9.7827e+001  1.5581e+000 -2.0267e+001 20512 114815,114982,115054
 1.4000e+000 115103 -9.5443e+001 -8.1973e-001 -2.0848e+001 20512 114815,115054,114841
 1.4000e+000 115507 -5.7718e+001 -3.4554e+001 -1.1169e+001 20143 115285,115389,115363
 1.4000e+000 115484 -6.6568e+001 -2.9072e+000 -5.2767e-001 20143 115259,115389,115285
 1.4000e+000 115461 -9.9836e+001 -3.8163e+001 -2.2147e+001 20143 115233,115389,115259
 1.4000e+000 115438 -2.1960e+000  2.0743e+000 -1.1263e+000 20143 115285,115337,115311
 1.4000e+000 115415 -3.9079e+001 -8.5904e-001 -3.9109e-001 20143 115285,115363,115337
 1.4000e+000 115875 -6.5591e+001 -4.4432e+000  2.3832e+000 19632 115656,115734,115682
 1.4000e+000 115852 -4.9969e+001  1.0254e+001  9.7429e+000 19632 115552,115734,115656
 1.4000e+000 115829 -5.9877e+001 -7.6636e+000 -1.8725e+001 19632 115552,115656,115578
 1.4000e+000 115806 -9.8665e+001  6.6707e+000 -3.6801e+000 19632 115578,115656,115630
 1.4000e+000 115783 -3.7947e+001  1.3477e+000 -2.2083e+001 19632 115682,115734,115708
 1.4000e+000 115760 -8.1557e+001 -5.3244e+000  2.1939e+001 19632 115578,115630,115604
 1.4000e+000 116025 -1.4601e+002 -9.3923e+000  7.1699e+000 19178 115898,115950,115924
 1.4000e+000 116002 -1.4311e+002 -1.2496e+001  2.4696e+000 19178 115898,115976,115950
 1.4000e+000 116633 -1.2244e+002  1.8936e+001  3.5929e-001 18738 116800,116656,116342
 1.4000e+000 116610 -1.0968e+002  4.2719e+001 -4.7182e+001 18738 116656,116238,116446
 1.4000e+000 116587 -1.0330e+002 -8.2307e+000  1.0154e+001 18738 116728,116368,116342
 1.4000e+000 116564 -1.3109e+002  1.4365e+000  9.9270e+000 18738 116800,116342,116264
 1.4000e+000 116541 -7.8621e+001  4.5168e+002 -1.5533e+002 18738 116212,116446,116238
 1.4000e+000 116518 -7.1951e+001  7.2558e+000 -7.2335e+001 18738 116394,116446,116420
 1.4000e+000 116495 -3.3652e+002 -8.3799e+001  9.7753e+000 18738 116264,116342,116316
 1.4000e+000 116472 -9.3884e+001  1.3967e+001  2.6319e+000 18738 116264,116316,116290
 1.4000e+000 116682 -1.0190e+002  1.9251e+000 -1.2786e+001 18738 116728,116342,116656
 1.4000e+000 116705 -1.1671e+002 -2.0946e+001 -5.1532e+001 18738 116394,116656,116446
 1.4000e+000 116754 -7.1727e+001  7.6951e+000 -5.8462e+000 18738 116394,116368,116728
 1.4000e+000 116777 -6.5312e+001  2.1784e+001 -2.9377e+001 18738 116394,116728,116656
 1.4000e+000 116826 -1.3366e+002  5.7480e+001 -1.8459e+001 18738 116238,116656,116800
 1.4000e+000 116849 -1.5315e+002  3.3922e+001 -5.6310e+000 18738 116238,116800,116264
 1.4000e+000 116999  1.4437e+001  9.9258e+000 -1.7768e+001 18184 116872,116924,116898
 1.4000e+000 116976  7.3286e-002  1.4451e+001 -1.4548e+001 18184 116872,116950,116924
 1.4000e+000 117330 -3.2489e+001  5.0030e+000  4.4050e+000 17694 117157,117235,117183
 1.4000e+000 117307  4.6855e-001 -8.0531e-001  1.3642e+000 17694 117131,117235,117157
 1.4000e+000 117284  1.1379e+000 -1.0798e+000  1.1775e+000 17694 117105,117235,117131
 1.4000e+000 117261 -6.4087e+001  2.2177e+000  1.4981e+001 17694 117183,117235,117209
 1.4000e+000 117480 -7.0557e+001 -3.8207e+001  2.0127e+001 17290 117353,117405,117379
 1.4000e+000 117457 -1.3806e+001  3.5820e+000  9.5878e-001 17290 117353,117431,117405
 1.4000e+000 117679 -1.5405e+002 -8.3084e+001  6.3164e+000 16718 117555,117607,117581
 1.4000e+000 117656 -1.0733e+002 -5.2906e+001 -6.6112e+000 16718 117529,117607,117555
 1.4000e+000 117633 -1.5493e+002 -4.9003e+001 -1.0055e+000 16718 117503,117607,117529
 1.4000e+000 117782 -1.6717e+002 -8.4219e+000 -1.0107e+001 16520 117704,117756,117730
 1.4000e+000 117983 -2.2068e+002 -1.4653e+002  8.1637e+000 16208 117859,117911,117885
 1.4000e+000 117960 -1.8156e+002 -1.0148e+002 -2.3614e+001 16208 117833,117911,117859
 1.4000e+000 117937 -9.0734e+001 -5.1098e+001 -2.0175e+000 16208 117807,117911,117833
 1.4000e+000 118135 -2.3133e+001  1.9886e+001 -5.3331e+000 15674 118034,118086,118060
 1.4000e+000 118112 -1.4416e+002 -2.7160e+001 -9.3183e+000 15674 118008,118086,118034
 1.4000e+000 118238 -8.8190e+001  5.0029e+000 -5.3196e-001 15355 118160,118212,118186
 1.4000e+000 118341  1.7103e+000 -7.1213e-001 -9.4109e-001 421 118263,118315,118289
 1.5000e+000 68152 -1.4210e+001 -1.0361e+001  3.5462e+001 67838 68074,68126,68100
 1.5000e+000 68550 -8.5557e+001 -3.6526e+001  9.1699e-001 67526 68276,68380,68302
 1.5000e+000 68527 -3.1465e+001 -3.4017e+001 -6.3063e+000 67526 68276,68406,68380
 1.5000e+000 68504 -1.0151e+002 -4.2263e+001  2.0514e+000 67526 68328,68380,68354
 1.5000e+000 68481 -8.5690e+001 -3.6853e+001  9.2209e-001 67526 68302,68380,68328
 1.5000e+000 68458 -3.8674e+001 -2.8394e+001  1.2504e+001 67526 68276,68432,68406
 1.5000e+000 68651 -7.7180e-018 -5.3853e-015  2.7329e-017 67328 68573,68625,68599
 1.5000e+000 68970 -1.3795e+001 -1.6868e+001  1.5277e+001 67016 68722,68800,68774
 1.5000e+000 68947 -4.1641e+001 -1.3203e+001 -2.9284e+001 67016 68722,68826,68800
 1.5000e+000 68924 -1.5643e+002  1.0409e+000 -4.0615e+000 67016 68696,68826,68722
 1.5000e+000 68901 -1.7690e+001 -2.3541e+001  1.1231e+001 67016 68722,68774,68748
 1.5000e+000 68878 -1.2298e+002 -1.1083e+001  3.7943e+001 67016 68696,68852,68826
 1.5000e+000 69291 -1.1223e+002 -2.2707e+001 -2.2796e+001 66654 69069,69147,69095
 1.5000e+000 69268 -4.0959e+001 -2.0278e+001  5.7710e+000 66654 69069,69173,69147
 1.5000e+000 69245 -4.9467e+001 -3.8035e+001  8.3125e+000 66654 69043,69173,69069
 1.5000e+000 69222 -1.2599e+002  3.1173e+000  9.9193e+000 66654 69095,69147,69121
 1.5000e+000 69199 -4.6000e+001  2.9265e-001 -8.5646e+000 66654 69017,69173,69043
 1.5000e+000 69695 -8.6163e+000  2.1180e-001  4.7764e+000 66456 69447,69577,69551
 1.5000e+000 69672  1.3484e+001  7.2800e+000  3.0008e+000 66456 69421,69577,69447
 1.5000e+000 69649 -1.6182e+001 -6.7025e+000  6.8140e+000 66456 69473,69551,69525
 1.5000e+000 69626 -4.5136e+000  7.0705e+000  1.1531e+000 66456 69447,69551,69473
 1.5000e+000 69603 -1.1130e+000  9.7922e+000 -1.2852e+001 66456 69473,69525,69499
 1.5000e+000 70024 -1.0378e+001  3.4166e+000 -1.3969e+001 66258 70047,69851,69825
 1.5000e+000 70001 -5.2634e+001 -4.0005e+001  3.5151e+001 66258 70047,69825,69903
 1.5000e+000 69978 -6.0882e+001 -3.6619e+001  3.6655e+001 66258 69799,69903,69825
 1.5000e+000 69955 -5.4785e+001 -1.5116e+002  5.2251e+001 66258 69799,69929,69903
 1.5000e+000 70073 -5.0442e+001 -3.6423e+001  3.6216e+001 66258 69877,69851,70047
 1.5000e+000 70096 -1.1169e+002 -1.0181e+002  8.8611e+001 66258 69877,70047,69903
 1.5000e+000 70602 -1.9947e+002 -1.5897e+001  4.2101e+001 66060 70305,70435,70331
 1.5000e+000 70579  1.3089e+001 -5.1113e+001 -2.2573e+001 66060 70279,70435,70305
 1.5000e+000 70556 -8.7172e+001  6.2700e+001 -2.7927e+000 66060 70331,70435,70409
 1.5000e+000 70533  2.7966e+001 -2.8728e+000 -3.7951e+001 66060 70279,70461,70435
 1.5000e+000 70510 -1.5135e+002 -1.3768e+001  2.6757e+001 66060 70331,70409,70357
 1.5000e+000 70487 -1.0445e+002  5.8756e+000  2.4912e+001 66060 70357,70409,70383
 1.5000e+000 70703  8.1990e+000 -5.7639e+000 -4.6009e+000 65862 70625,70677,70651
 1.5000e+000 71083 -5.8314e+001 -4.4915e+001  1.5322e+001 65664 70887,70965,70939
 1.5000e+000 71060 -1.0779e+002 -5.2447e+001  2.9295e+001 65664 70861,70965,70887
 1.5000e+000 71037 -1.1615e+002 -7.1364e+000  9.9679e+000 65664 70809,70965,70861
 1.5000e+000 71014 -9.5648e+001  1.0769e+002  4.1029e+001 65664 70809,70861,70835
 1.5000e+000 70991 -5.0646e+001 -2.8249e+001  1.2983e+001 65664 70887,70939,70913
 1.5000e+000 71611 -2.0486e+001 -7.5184e+001 -7.2598e+000 65260 71288,71444,71314
 1.5000e+000 71588  1.7667e+001 -3.9737e+001  1.0392e+001 65260 71288,71470,71444
 1.5000e+000 71565 -4.6659e+001 -4.2937e+001 -1.5720e+001 65260 71314,71418,71392
 1.5000e+000 71542 -9.5908e+000 -4.4901e+001 -4.9738e+000 65260 71314,71444,71418
 1.5000e+000 71519 -3.6454e+001 -3.8402e+001 -1.4799e+001 65260 71314,71392,71340
 1.5000e+000 71496 -6.1551e+001 -7.4013e+001 -1.0715e+002 65260 71340,71392,71366
 1.5000e+000 72060 -4.8194e+001  1.1555e+001 -1.0303e+001 64870 71737,71893,71789
 1.5000e+000 72037 -8.0679e+001 -1.1153e-001  3.3828e-001 64870 71737,71919,71893
 1.5000e+000 72014 -7.2908e+001  7.6517e-001 -6.7597e+001 64870 71789,71841,71815
 1.5000e+000 71991 -5.3888e+001  6.3268e+001 -2.4572e+001 64870 71789,71893,71841
 1.5000e+000 71968 -4.9222e+001 -2.0276e+000 -1.5737e+001 64870 71737,71789,71763
 1.5000e+000 71945 -1.3891e+002  1.9473e+001  0.0000e+000 64870 71841,71893,71867
 1.5000e+000 72517 -4.2227e+001  1.2637e+001  6.7595e+000 64466 72321,72399,72347
 1.5000e+000 72494  2.4591e+000  8.4748e+000  1.4223e+001 64466 72269,72399,72321
 1.5000e+000 72471 -4.8723e+001 -5.3278e-001  3.6883e+000 64466 72347,72399,72373
 1.5000e+000 72448 -2.2220e+001 -1.4769e+001 -1.2618e+001 64466 72243,72399,72269
 1.5000e+000 72425  5.8952e+000 -1.1259e+000 -7.0014e-001 64466 72269,72321,72295
 1.5000e+000 72944 -8.1474e-002 -2.3814e+000  1.7534e+001 64062 73111,73039,72699
 1.5000e+000 72921 -2.0447e+001  8.1609e+000  7.1339e-001 64062 73183,72967,72647
 1.5000e+000 72898 -1.7124e+001 -1.5245e+000  9.1546e+000 64062 72967,72803,72751
 1.5000e+000 72875 -3.2240e+001 -1.6105e+001  1.5997e+001 64062 73111,72699,72673
 1.5000e+000 72852 -2.1121e+001  4.4968e+000  6.8851e-001 64062 73183,72647,72621
 1.5000e+000 72829 -2.0574e+001 -1.1568e+001  1.8254e+001 64062 72751,72803,72777
 1.5000e+000 72993 -1.8575e+001  9.4958e+000  1.3033e+000 64062 73039,72647,72967
 1.5000e+000 73016  1.4727e+001  5.3981e+000  7.5327e+000 64062 72725,72967,72751
 1.5000e+000 73065  4.1895e+001  1.9581e+001  9.0845e+000 64062 72725,72699,73039
 1.5000e+000 73088 -3.4616e+001 -1.5052e+001  1.7514e+001 64062 72725,73039,72967
 1.5000e+000 73137 -7.1432e+001 -1.1655e+001  1.1591e+001 64062 72647,73039,73111
 1.5000e+000 73160 -7.7691e+001 -1.2677e+001  7.6491e+000 64062 72647,73111,72673
 1.5000e+000 73209 -1.2252e+001  3.1409e+000  6.0407e+000 64062 72803,72967,73183
 1.5000e+000 73232 -1.8627e+001 -9.9726e+000  3.8777e+000 64062 72803,73183,72621
 1.5000e+000 73333 -4.1161e+001 -8.8368e+000  4.4422e+000 63814 73356,73281,73255
 1.5000e+000 73382 -1.4379e+002 -2.4169e+001  1.6060e+000 63814 73486,73356,73307
 1.5000e+000 73512 -6.7412e+001  8.5623e+000 -2.4753e+000 63814 73281,73356,73486
 1.5000e+000 73839 -1.2104e+002 -6.4431e+000  4.6275e+001 63616 73862,73692,73666
 1.5000e+000 73816 -1.1266e+002 -3.9143e+001  3.4270e+001 63616 73934,73862,73666
 1.5000e+000 73793 -1.0443e+002 -1.3960e+000  3.1061e+001 63616 73934,73666,73640
 1.5000e+000 73770 -5.2252e+001 -1.9163e+001  5.8181e+000 63616 73614,73744,73640
 1.5000e+000 73888 -1.1173e+002 -3.4594e+001  4.7269e+001 63616 73718,73692,73862
 1.5000e+000 73911 -1.2675e+002 -7.7009e+001 -3.5958e+000 63616 73718,73862,73744
 1.5000e+000 73960 -1.0558e+002 -8.9321e+000  7.3245e+000 63616 73744,73862,73934
 1.5000e+000 73983 -1.0849e+002  3.6489e+000  9.6176e-001 63616 73744,73934,73640
 1.5000e+000 74363 -3.1757e+000  2.2794e+001 -2.1658e+001 63390 74386,74115,74089
 1.5000e+000 74340 -1.0430e+002  1.8396e+001 -8.0403e+000 63390 74458,74386,74089
 1.5000e+000 74317 -1.1215e+002  1.2275e+001 -1.3552e+000 63390 74458,74089,74245
 1.5000e+000 74294 -6.5314e+001 -4.6184e+001  3.3368e+001 63390 74530,74167,74141
 1.5000e+000 74271 -3.5866e+001  5.1532e+000  4.0640e+001 63390 74167,74219,74193
 1.5000e+000 74412 -1.0259e+002 -3.2876e+001 -4.3694e+001 63390 74141,74115,74386
 1.5000e+000 74435 -1.1776e+002 -2.0254e+000 -1.2315e+001 63390 74530,74141,74386
 1.5000e+000 74484 -1.0542e+002  3.9563e+001 -3.2407e+001 63390 74219,74386,74458
 1.5000e+000 74507 -1.2765e+002  2.8524e+001 -2.4180e+001 63390 74219,74458,74245
 1.5000e+000 74556 -7.5287e+000 -9.8507e+000  1.7020e+001 63390 74219,74167,74530
 1.5000e+000 74579 -4.0720e+001  4.6461e+001 -3.3380e+001 63390 74219,74530,74386
 1.5000e+000 74680 -6.0283e+000 -3.0738e+000  8.4796e+000 63100 75089,74833,74703
 1.5000e+000 74729 -8.4168e+000 -1.7528e+000 -1.3371e+000 63100 74961,74703,74654
 1.5000e+000 74859  2.2439e+001 -4.2713e+000  8.5195e+000 63100 74602,74703,74833
 1.5000e+000 74987 -1.2056e+001 -6.3638e+000  4.8805e+000 63100 75089,74703,74961
 1.5000e+000 75115  6.8431e+000 -9.4904e+000  1.4542e+001 63100 74628,74833,75089
 1.5000e+000 75138  8.2238e-001 -1.2784e+001  1.0946e+001 63100 74628,75089,74961
 1.5000e+000 75723 -1.5621e+001 -2.2705e+001 -1.9572e-001 62532 75746,75504,75426
 1.5000e+000 75700 -7.2539e+001  1.2418e+001  3.4816e+001 62532 75746,75426,75556
 1.5000e+000 75677 -1.0632e+001  1.7598e+001 -1.9260e+001 62532 75426,75504,75452
 1.5000e+000 75654 -1.1224e+002  1.3292e+001  1.9909e+001 62532 75400,75556,75426
 1.5000e+000 75631 -1.3110e+002 -6.1868e+001 -2.5695e+001 62532 75400,75582,75556
 1.5000e+000 75608  2.2645e+001 -1.4621e+001 -1.6692e+001 62532 75452,75504,75478
 1.5000e+000 75772 -7.9703e+001 -1.4432e+001 -4.1256e+000 62532 75530,75504,75746
 1.5000e+000 75795 -1.6400e+002 -2.0003e-001  3.1136e+001 62532 75530,75746,75556
 1.5000e+000 76301 -4.3749e+001 -5.5222e+000 -8.5803e+000 62192 76324,76082,76030
 1.5000e+000 76278 -3.1967e+001  5.8738e+000 -3.7766e+000 62192 76324,76030,76004
 1.5000e+000 76255 -3.7372e+001 -4.7603e+000 -3.0684e+000 62192 76030,76082,76056
 1.5000e+000 76232 -6.6010e+001  7.6660e-001 -8.5510e+000 62192 76082,76134,76108
 1.5000e+000 76209 -1.1930e+002 -9.4194e+000 -2.4104e+001 62192 76004,76160,76134
 1.5000e+000 76186 -3.2961e+001 -6.7610e+001  7.7424e+000 62192 75978,76160,76004
 1.5000e+000 76350 -6.1602e+001  1.1237e+001 -8.6042e+000 62192 76134,76082,76324
 1.5000e+000 76373 -4.8703e+001  2.6398e+001 -3.1094e+000 62192 76134,76324,76004
 1.5000e+000 76879 -8.5617e+000 -1.3085e+001  1.6728e+000 61788 76902,76660,76582
 1.5000e+000 76856 -3.5120e+000 -1.3207e+001  1.2241e+000 61788 76902,76582,76556
 1.5000e+000 76833 -7.0936e+000 -1.5960e+001  7.2781e+000 61788 76582,76660,76634
 1.5000e+000 76810 -9.3486e+000 -1.5314e+001  7.2436e+000 61788 76582,76634,76608
 1.5000e+000 76787  5.0395e+000 -6.3122e+000 -7.4218e+000 61788 76556,76738,76686
 1.5000e+000 76764 -1.2434e+001  6.5842e+000 -7.3809e+000 61788 76686,76738,76712
 1.5000e+000 76928 -1.1288e+001 -1.3215e+001  2.1688e+000 61788 76686,76660,76902
 1.5000e+000 76951 -7.2734e+000 -1.4260e+001  2.1039e+000 61788 76686,76902,76556
 1.5000e+000 77408 -4.1693e+001 -2.6222e+001  4.4065e+001 61498 77212,77264,77238
 1.5000e+000 77385 -6.0085e+001  5.4920e-001 -3.5277e+001 61498 77160,77264,77212
 1.5000e+000 77362 -7.8229e+001 -6.3828e+000 -3.7733e+001 61498 77160,77290,77264
 1.5000e+000 77339 -1.2220e+002 -2.5725e+001 -2.0847e+001 61498 77160,77212,77186
 1.5000e+000 77316 -6.2984e+001 -3.5209e+000  7.3053e+000 61498 77134,77290,77160
 1.5000e+000 77678 -4.6612e+002 -3.1671e+001  7.3159e+000 61129 77479,77557,77505
 1.5000e+000 77655 -4.6817e+002 -1.1008e+002  4.4971e+000 61129 77479,77583,77557
 1.5000e+000 77632 -3.8532e+002 -1.5554e+002  5.0959e+001 61129 77453,77583,77479
 1.5000e+000 77609 -4.4124e+002  8.3012e+001  1.2575e+002 61129 77505,77557,77531
 1.5000e+000 77828  2.5259e+001 -3.0500e+001  2.6752e+001 60931 77851,77727,77701
 1.5000e+000 77805 -2.4046e+001  1.3875e+001  2.3515e+000 60931 77851,77701,77779
 1.5000e+000 77877 -1.2030e+001 -3.1471e+001  2.2794e+001 60931 77923,77851,77753
 1.5000e+000 77900 -9.2417e+001 -5.6541e+001 -2.5489e+001 60931 77753,77851,77779
 1.5000e+000 77949 -1.4972e+001 -4.9154e+001  1.4882e+001 60931 77727,77851,77923
 1.5000e+000 78133 -2.4843e+002 -7.8862e+001  1.4297e+001 60377 78055,78107,78081
 1.5000e+000 78535 -1.2618e+002  6.5965e+001 -3.4058e+001 60015 78287,78391,78313
 1.5000e+000 78512 -2.1801e+002 -1.0782e+001 -1.0223e+000 60015 78287,78417,78391
 1.5000e+000 78489 -1.1663e+002  1.8463e+001 -9.6452e+000 60015 78261,78417,78287
 1.5000e+000 78466 -3.4921e+002 -1.0264e+002  2.4309e+001 60015 78339,78391,78365
 1.5000e+000 78443 -3.5607e+002 -2.3846e+001 -2.0879e+001 60015 78313,78391,78339
 1.5000e+000 78913 -5.4634e+000 -3.6203e+000  3.4285e+000 59725 78936,78743,78691
 1.5000e+000 78890 -2.4225e+000 -6.7516e+000  4.0174e+000 59725 79008,78936,78691
 1.5000e+000 78867 -3.1529e-001  3.4699e-001  1.2399e+000 59725 79008,78691,78665
 1.5000e+000 78844 -8.3620e+000 -3.8330e+000  1.7564e+000 59725 78691,78743,78717
 1.5000e+000 78821  9.0878e+000  8.4553e+000 -3.7323e+000 59725 78639,78795,78769
 1.5000e+000 78962 -1.1396e+001 -2.8557e+000  7.0769e+000 59725 78769,78743,78936
 1.5000e+000 78985  1.5162e-001 -9.6485e+000  6.4619e+000 59725 78769,78936,78639
 1.5000e+000 79034  4.9898e+000 -2.6187e+000 -4.9469e-001 59725 78639,78936,79008
 1.5000e+000 79057  2.5369e+000 -8.9604e-001 -2.6890e+000 59725 78639,79008,78665
 1.5000e+000 79386 -3.4186e+001  3.8418e+001  1.5123e+001 59221 79187,79239,79213
 1.5000e+000 79363 -3.0750e+001  4.3695e+000  2.8810e+001 59221 79187,79265,79239
 1.5000e+000 79340  4.8028e+000  1.1159e+001  1.9055e+001 59221 79187,79291,79265
 1.5000e+000 79317  2.2912e+001  4.4851e+001 -8.4912e+000 59221 79161,79291,79187
 1.5000e+000 79813 -2.5069e+002 -2.1001e+001  4.5242e+001 58831 79836,79542,79516
 1.5000e+000 79790 -1.5096e+002  1.7941e+001  4.0928e+001 58831 79980,79836,79516
 1.5000e+000 79767 -4.4713e+001 -3.1852e+001  2.8966e+001 58831 79908,79646,79568
 1.5000e+000 79744 -2.5069e+002 -2.5923e+001  2.7520e+001 58831 79980,79516,79490
 1.5000e+000 79721 -2.4488e+000 -4.3400e+001  1.6301e+001 58831 79568,79646,79594
 1.5000e+000 79698 -2.1233e+001 -1.0793e+001  7.7017e+000 58831 79594,79646,79620
 1.5000e+000 79862 -1.2782e+002 -8.8721e+000  4.8079e+001 58831 79568,79542,79836
 1.5000e+000 79885 -6.8133e+001 -4.4078e+001  9.8468e+000 58831 79908,79568,79836
 1.5000e+000 79934 -2.8542e+001 -3.1058e+001  3.9153e+001 58831 79672,79646,79908
 1.5000e+000 79957 -3.1478e+001 -3.2507e+001  1.9970e+001 58831 79672,79908,79836
 1.5000e+000 80006 -1.1997e+002 -3.2716e+001  7.6268e-001 58831 79672,79836,79980
 1.5000e+000 80029 -1.4881e+002 -3.7742e+001  7.4879e+000 58831 79672,79980,79490
 1.5000e+000 80358 -3.0578e+001  8.1878e+000 -4.5157e-001 58377 80381,80185,80159
 1.5000e+000 80335 -6.5704e+001  1.1762e+001  1.9539e+000 58377 80381,80159,80133
 1.5000e+000 80312  1.5834e+001  1.6985e+001 -1.5552e+001 58377 80133,80263,80237
 1.5000e+000 80289  2.1114e+001  1.2993e+000 -6.3248e+000 58377 80185,80237,80211
 1.5000e+000 80407  2.3636e+001  8.6918e+000 -1.1251e+001 58377 80237,80185,80381
 1.5000e+000 80430 -3.5348e+001 -4.6481e+000 -9.9342e+000 58377 80237,80381,80133
 1.5000e+000 80759 -9.9731e+001  4.8920e+001 -2.3202e+001 57873 80782,80586,80560
 1.5000e+000 80736 -1.2323e+002  1.7000e+001 -3.5984e+001 57873 80782,80560,80534
 1.5000e+000 80713 -1.4138e+001  1.2625e+000 -6.3949e+000 57873 80586,80638,80612
 1.5000e+000 80690 -2.0049e+001 -4.7632e+000  8.5944e+000 57873 80534,80664,80638
 1.5000e+000 80808 -1.1429e+002  1.9284e+001 -3.4841e+001 57873 80638,80586,80782
 1.5000e+000 80831 -1.1421e+002  1.0281e+001 -4.2122e+001 57873 80638,80782,80534
 1.5000e+000 81337 -2.3361e+001 -1.5007e+001  1.6231e+001 57262 81360,81144,81092
 1.5000e+000 81314 -2.3361e+001 -1.1854e+001  2.1678e+001 57262 81360,81092,81066
 1.5000e+000 81291 -3.4850e+001 -9.3596e+000  1.6930e+001 57262 81014,81196,81066
 1.5000e+000 81268 -2.6388e+001 -1.7836e+001  1.4937e+001 57262 81092,81144,81118
 1.5000e+000 81245 -5.3646e+001 -4.1326e+001  2.3308e+001 57262 81144,81196,81170
 1.5000e+000 81222 -3.2666e+001 -9.0866e-001  4.3910e-001 57262 81014,81066,81040
 1.5000e+000 81386 -2.8731e+001 -1.9644e+001  1.3856e+001 57262 81196,81144,81360
 1.5000e+000 81409 -2.6543e+001 -1.5367e+001  1.9687e+001 57262 81196,81360,81066
 1.5000e+000 81608 -5.2642e+002 -2.0996e+002 -6.4441e+001 57007 81458,81536,81510
 1.5000e+000 81585 -4.8897e+002 -1.4956e+002 -4.8284e+001 57007 81432,81536,81458
 1.5000e+000 81562 -2.6792e+002 -2.7775e+002 -1.9750e+002 57007 81458,81510,81484
 1.5000e+000 82086 -2.6038e+001  5.8718e+000  4.4428e+000 56339 81792,81922,81818
 1.5000e+000 82063  1.7919e+001  5.9074e+000 -1.9023e+000 56339 81714,81922,81792
 1.5000e+000 82040 -6.6375e+001 -9.7656e+000  9.8557e+000 56339 82109,81844,81818
 1.5000e+000 82017 -3.5116e+001 -1.4556e+001  1.6476e+001 56339 82109,81818,81922
 1.5000e+000 81994 -8.1729e+001 -9.1785e+000 -2.3409e+001 56339 81844,81896,81870
 1.5000e+000 81971  1.6045e+001  2.2338e+000 -2.9656e+000 56339 81714,81792,81766
 1.5000e+000 81948  3.5211e+000  5.7763e+000 -6.9178e+000 56339 81714,81766,81740
 1.5000e+000 82135 -1.0772e+002 -7.4224e+000  6.9540e+000 56339 81896,81844,82109
 1.5000e+000 82158 -6.4421e+001 -7.7295e-001  1.8675e+001 56339 81896,82109,81922
 1.5000e+000 82536 -1.4063e+002 -5.5189e+000 -2.4364e+001 55699 82288,82392,82314
 1.5000e+000 82513 -9.7111e+001  2.1635e+001  5.9808e+000 55699 82288,82418,82392
 1.5000e+000 82490 -1.4867e+001 -2.8761e+001  3.1283e+001 55699 82314,82392,82340
 1.5000e+000 82467  1.1886e+001  5.3459e+000  1.9610e+001 55699 82340,82392,82366
 1.5000e+000 82444 -1.5805e+002  1.0597e+001 -6.7329e+000 55699 82262,82418,82288
 1.5000e+000 83091 -5.1548e+000 -6.4643e-001 -8.1922e+000 55409 82745,82901,82875
 1.5000e+000 83068  4.0542e+000  8.8666e+000 -4.3698e+000 55409 82719,82901,82745
 1.5000e+000 83045 -8.1432e+000 -2.8503e+001 -5.6825e+000 55409 82771,82849,82823
 1.5000e+000 83022  1.5535e+000 -1.8156e+001  1.0200e+001 55409 82745,82849,82771
 1.5000e+000 82999 -7.2919e+000 -2.7633e+000  8.6273e+000 55409 82745,82875,82849
 1.5000e+000 82976 -9.6815e+000 -6.8995e+000 -1.0222e+001 55409 82771,82823,82797
 1.5000e+000 82953 -1.9718e+000 -5.2519e+000  6.0194e-001 55409 82719,82927,82901
 1.5000e+000 83388 -3.2502e+001  6.6761e+000 -9.8679e-001 54905 83411,83218,83166
 1.5000e+000 83365 -6.6388e+001 -3.1895e+000 -3.7847e+000 54905 83411,83166,83114
 1.5000e+000 83342  1.4196e+000  6.1069e+000  4.2745e+000 54905 83483,83270,83244
 1.5000e+000 83319 -1.0439e+002  1.4750e+000 -8.9188e+000 54905 83166,83218,83192
 1.5000e+000 83296 -6.1247e+001 -1.2123e+000  8.5636e+000 54905 83114,83166,83140
 1.5000e+000 83437 -3.0410e+001 -5.2031e+000 -5.7939e+000 54905 83244,83218,83411
 1.5000e+000 83460 -2.4835e+001  5.1697e-001 -1.2659e+000 54905 83483,83244,83411
 1.5000e+000 83509 -3.4089e+001 -9.3939e+000 -5.7004e+000 54905 83114,83270,83483
 1.5000e+000 83532 -3.8963e+001 -2.9337e+000 -1.1806e+001 54905 83114,83483,83411
 1.5000e+000 83961 -2.3405e+002 -1.5327e+002 -2.1127e+001 54593 83638,83768,83690
 1.5000e+000 83938 -1.1414e+002 -1.1390e+002 -2.3842e+001 54593 83638,83794,83768
 1.5000e+000 83915 -1.5256e+002 -5.6587e+001  3.0801e+001 54593 83690,83768,83742
 1.5000e+000 83892 -1.9818e+002 -8.9763e+001 -9.1366e+001 54593 83638,83820,83794
 1.5000e+000 83869 -1.4233e+002  1.3924e+002 -4.7659e+001 54593 83638,83690,83664
 1.5000e+000 83846 -1.2031e+002 -8.4820e+001  7.0152e+001 54593 83690,83742,83716
 1.5000e+000 84209 -3.8723e+001  4.3021e-001 -3.8906e+000 54132 84232,84062,83984
 1.5000e+000 84186 -2.5888e+001 -8.0940e+000 -4.1548e+000 54132 84232,83984,84114
 1.5000e+000 84163 -3.9333e+001 -3.7582e-001 -5.1061e+000 54132 83984,84062,84036
 1.5000e+000 84140 -2.2754e+001 -6.6813e+000  4.4875e+000 54132 83984,84036,84010
 1.5000e+000 84258 -2.9377e+001  2.4359e+000 -2.1134e+000 54132 84088,84062,84232
 1.5000e+000 84281 -1.0637e+001 -1.5621e+000 -1.1364e+000 54132 84088,84232,84114
 1.5000e+000 84382 -3.3657e+002 -8.0757e+001 -2.1195e+001 53521 84304,84356,84330
 1.5000e+000 84632 -5.6416e+001 -1.5977e+001  6.7251e+000 53067 84655,84485,84459
 1.5000e+000 84609 -6.6306e+001 -7.4835e+000  4.8491e+000 53067 84655,84459,84407
 1.5000e+000 84586 -7.0522e+001 -2.1762e+001  1.8637e+001 53067 84485,84537,84511
 1.5000e+000 84563 -6.0435e+001 -1.4030e-001 -5.3166e+000 53067 84407,84459,84433
 1.5000e+000 84681 -5.4172e+001 -9.7097e+000  4.6001e+000 53067 84537,84485,84655
 1.5000e+000 84704 -5.6903e+001  4.0195e+000  4.1572e-002 53067 84537,84655,84407
 1.5000e+000 85214 -1.6296e+002 -7.2161e+001  2.8095e+001 52513 85021,85073,85047
 1.5000e+000 85191 -1.5974e+002 -2.9263e+001  1.9144e+001 52513 84943,85073,85021
 1.5000e+000 85168 -3.5934e+002 -1.2382e+002 -2.5750e+001 52513 84943,85021,84995
 1.5000e+000 85145 -1.7458e+002 -9.0260e+001  4.3075e+001 52513 84917,85073,84943
 1.5000e+000 85122 -1.7998e+002 -1.5103e+002 -3.6153e+001 52513 84943,84995,84969
 1.5000e+000 85099 -2.0464e+001 -7.4808e+001  4.8754e+001 52513 84891,85073,84917
 1.5000e+000 85582 -9.3786e+001 -1.1048e+000 -1.2628e+000 52037 85605,85311,85285
 1.5000e+000 85559 -1.2466e+002 -2.1994e+001  2.2686e+001 52037 85749,85605,85285
 1.5000e+000 85536 -1.0397e+002  4.1887e+001 -2.3121e+001 52037 85893,85677,85389
 1.5000e+000 85513 -1.4787e+002 -4.1231e+001  3.1244e+001 52037 85749,85285,85259
 1.5000e+000 85490 -6.3704e+001  5.2648e+001 -7.1239e+001 52037 85893,85389,85363
 1.5000e+000 85467 -1.7581e+002  3.1733e+001  1.8822e+001 52037 85259,85441,85415
 1.5000e+000 85631 -1.3738e+002 -2.4538e+000  1.6560e+001 52037 85337,85311,85605
 1.5000e+000 85654 -1.3425e+002 -1.6906e+001  2.4234e+001 52037 85677,85337,85605
 1.5000e+000 85703 -1.8104e+002  5.8944e+000 -8.1707e+000 52037 85415,85389,85677
 1.5000e+000 85726 -1.3453e+002  9.7777e+000  1.5071e+001 52037 85821,85677,85605
 1.5000e+000 85775 -1.5522e+002  3.0697e+000  1.9813e+001 52037 85821,85605,85749
 1.5000e+000 85798 -1.8735e+002 -1.1274e+001  1.1858e+001 52037 85415,85749,85259
 1.5000e+000 85847 -1.3633e+002  1.2266e+001 -1.4558e+000 52037 85415,85677,85821
 1.5000e+000 85870 -1.4393e+002  1.1414e+001  3.4457e+000 52037 85415,85821,85749
 1.5000e+000 85919 -1.2530e+002 -3.2713e+001  1.7232e+001 52037 85337,85677,85893
 1.5000e+000 85942 -1.0990e+002 -3.8767e+001 -2.7564e+001 52037 85337,85893,85363
 1.5000e+000 86224 -3.1128e+001 -9.0436e+000 -4.3589e+000 51368 86375,86100,86074
 1.5000e+000 86201 -2.4171e+000 -5.6944e-001 -7.5172e+000 51368 86375,86074,86247
 1.5000e+000 86178 -1.7966e+001 -4.2543e+000  2.1270e+000 51368 86048,86152,86126
 1.5000e+000 86273 -1.9670e+001  3.0526e+000  1.9062e+000 51368 86048,86126,86247
 1.5000e+000 86401 -4.5802e+001 -8.0515e-001  7.9956e+000 51368 86126,86100,86375
 1.5000e+000 86424 -3.1293e+001 -2.9387e+000  5.5658e+000 51368 86126,86375,86247
 1.5000e+000 86802 -1.1613e+002 -9.4024e-001 -8.6680e+000 51028 86528,86632,86580
 1.5000e+000 86779 -3.6252e+001 -6.0664e+000 -2.3001e+001 51028 86528,86684,86632
 1.5000e+000 86756 -1.1330e+002  2.2603e+000  3.6250e+000 51028 86528,86580,86554
 1.5000e+000 86733  1.1656e+001  1.1570e+001  2.3887e+001 51028 86632,86684,86658
 1.5000e+000 86710 -5.8234e+001  1.3123e+000 -2.5923e+001 51028 86580,86632,86606
 1.5000e+000 87131 -1.0329e+001  2.8218e-001  2.2682e+001 50624 86958,87036,87010
 1.5000e+000 87108 -1.1168e+001 -9.1150e+000  2.1399e+001 50624 86932,87036,86958
 1.5000e+000 87085 -4.1293e+001 -1.1120e+001  1.3010e+001 50624 86958,87010,86984
 1.5000e+000 87062  1.3730e+001 -7.0860e+000  7.5522e+000 50624 86906,87036,86932
 1.5000e+000 87330 -8.9942e+001  2.8374e+000 -3.4165e+000 50234 87353,87180,87154
 1.5000e+000 87307 -7.4780e+001  3.9174e+000 -3.3871e+000 50234 87353,87154,87258
 1.5000e+000 87284 -5.3893e+001 -1.4994e+000 -5.7217e-001 50234 87206,87258,87232
 1.5000e+000 87379 -7.6428e+001 -7.2593e+000  4.9085e+000 50234 87206,87180,87353
 1.5000e+000 87402 -5.3795e+001 -1.3723e+000  1.6610e+000 50234 87206,87353,87258
 1.5000e+000 87650 -8.5628e+001 -3.1882e+000  1.0749e+001 49730 87673,87503,87451
 1.5000e+000 87627 -8.7135e+001 -2.7965e+000  1.6843e+001 49730 87673,87451,87425
 1.5000e+000 87604 -6.7705e+001 -3.3633e+000  2.6368e+001 49730 87503,87555,87529
 1.5000e+000 87581 -2.2717e+002 -3.1422e+000  3.8361e+001 49730 87451,87503,87477
 1.5000e+000 87699 -8.5091e+001  1.0064e+000  1.1931e+001 49730 87555,87503,87673
 1.5000e+000 87722 -8.5873e+001  6.4184e+000  1.4971e+001 49730 87555,87673,87425
 1.5000e+000 88232 -5.8471e+001 -5.7124e+001  5.0267e+001 49176 88255,87935,87909
 1.5000e+000 88209 -1.2698e+001 -2.5611e+001 -1.2362e+001 49176 88255,87909,88065
 1.5000e+000 88186 -2.0045e+002  3.3496e+001  5.0260e+000 49176 87935,88039,87961
 1.5000e+000 88163 -2.3339e+001 -1.9659e+001 -1.4626e+001 49176 87909,88091,88065
 1.5000e+000 88140 -1.7870e+002  4.2958e+001 -5.9324e+001 49176 87961,88039,88013
 1.5000e+000 88117 -2.0843e+002  3.3139e+000 -3.8720e+001 49176 87961,88013,87987
 1.5000e+000 88281  7.2249e-001 -3.0911e+001  1.6331e+001 49176 88039,87935,88255
 1.5000e+000 88304  4.3833e+001 -3.8936e+000 -4.5411e+001 49176 88039,88255,88065
 1.5000e+000 88503 -7.5512e+001 -9.5198e+001 -3.5876e+001 48772 88526,88379,88353
 1.5000e+000 88480 -1.9059e+001  1.5247e+000 -2.5138e+000 48772 88526,88353,88327
 1.5000e+000 88457 -3.9147e+001  2.0567e+001  3.6034e+001 48772 88379,88431,88405
 1.5000e+000 88552 -8.8879e+001 -6.3007e+000 -3.2899e+001 48772 88431,88379,88526
 1.5000e+000 88575 -8.4392e+001  3.5400e+001 -2.0532e+001 48772 88431,88526,88327
 1.5000e+000 89083 -4.7203e+001 -1.1462e+002  1.1400e+001 48368 88786,88916,88864
 1.5000e+000 89060 -6.9427e+001 -9.5580e+001 -8.0862e+000 48368 88786,88942,88916
 1.5000e+000 89037 -4.7926e+001 -1.3342e+002  5.4431e+000 48368 88786,88864,88812
 1.5000e+000 89014 -1.2720e+002 -9.5371e+001  3.6263e+000 48368 88864,88916,88890
 1.5000e+000 88991 -6.6449e+001 -9.4892e+001 -2.6945e+001 48368 88812,88864,88838
 1.5000e+000 88968 -6.6031e+001 -1.0645e+002 -2.5377e+001 48368 88760,88942,88786
 1.5000e+000 89331 -1.9626e+002 -1.3160e+002 -7.7972e+001 47928 89158,89236,89210
 1.5000e+000 89308 -2.0587e+002 -9.6687e+001 -4.7498e+001 47928 89132,89236,89158
 1.5000e+000 89285 -9.3186e+001 -9.9006e+001 -3.8451e+001 47928 89158,89210,89184
 1.5000e+000 89262 -1.8492e+002 -5.4658e+001 -3.4397e+001 47928 89106,89236,89132
 1.5000e+000 89662 -4.0007e+001 -1.2398e+001  2.8633e+001 47588 89463,89541,89515
 1.5000e+000 89639 -8.4073e+000 -2.4103e+001 -3.9663e-001 47588 89463,89567,89541
 1.5000e+000 89616 -1.0195e+002 -1.3718e+001 -3.8607e+001 47588 89463,89515,89489
 1.5000e+000 89593  3.7473e+001 -2.1361e+001  7.0342e+000 47588 89437,89567,89463
 1.5000e+000 89763 -5.9242e+002 -2.3058e+002 -2.3790e+001 47390 89685,89737,89711
 1.5000e+000 89913 -4.2866e+002 -1.8644e+002 -3.1905e+001 47078 89786,89838,89812
 1.5000e+000 89890 -3.0485e+002 -2.0463e+002 -3.6463e+001 47078 89786,89864,89838
 1.5000e+000 90163 -5.3166e+001 -1.7037e-001  1.5928e+001 46474 89964,90042,89990
 1.5000e+000 90140 -5.2156e+001  5.6987e-001  1.4804e+001 46474 89938,90042,89964
 1.5000e+000 90117  1.1492e+000  3.1801e+000  2.3805e+001 46474 89990,90042,90016
 1.5000e+000 90094 -1.4914e+001 -4.5060e-001  6.3028e+000 46474 89938,90068,90042
 1.5000e+000 90364 -1.9466e+001 -1.3425e+001  1.3687e+001 46184 90240,90292,90266
 1.5000e+000 90341 -3.0303e+000 -1.5132e+001  1.1650e+001 46184 90188,90292,90240
 1.5000e+000 90318 -2.6019e+001 -8.6279e+000  2.7269e+000 46184 90188,90240,90214
 1.5000e+000 90565 -1.5932e+002  1.6649e+001 -3.1745e+001 45780 90588,90415,90389
 1.5000e+000 90542 -8.6438e+001  1.6122e+001 -2.4658e+001 45780 90588,90389,90493
 1.5000e+000 90519 -1.1085e+002 -3.5596e+001 -3.0040e-001 45780 90415,90467,90441
 1.5000e+000 90614 -1.0199e+002 -7.4264e+000  1.3338e+001 45780 90467,90415,90588
 1.5000e+000 90637 -8.0973e+000  1.9219e+001  3.1022e+001 45780 90467,90588,90493
 1.5000e+000 91196 -1.4528e+001  3.7676e+000  1.0909e+001 45226 91219,90876,90850
 1.5000e+000 91173 -2.1359e+001  1.9072e+000  8.7601e+000 45226 91219,90850,91032
 1.5000e+000 91150 -6.8966e+000  8.5183e+000  1.0672e+001 45226 90824,91032,90850
 1.5000e+000 91127 -4.1992e+001  8.6612e+000  5.0731e+000 45226 90876,90980,90902
 1.5000e+000 91104 -1.0341e+001  1.1577e+001  1.3527e+001 45226 90876,91006,90980
 1.5000e+000 91081 -3.2709e+001  5.9952e+000 -1.9212e+000 45226 90902,90980,90954
 1.5000e+000 91058 -1.3990e+002 -1.4691e+001 -1.2068e+001 45226 90902,90954,90928
 1.5000e+000 91245 -2.1629e+001  3.0898e+000  8.8529e+000 45226 91006,90876,91219
 1.5000e+000 91268 -2.8242e+001  1.8489e+000  7.1539e+000 45226 91006,91219,91032
 1.5000e+000 91516 -1.0421e+002 -1.8839e+001 -1.5344e+001 44836 91539,91421,91395
 1.5000e+000 91493 -2.1826e+002 -1.2940e+001 -4.4956e+001 44836 91317,91421,91343
 1.5000e+000 91470 -1.5031e+002 -5.3441e+001  6.4612e-002 44836 91539,91395,91369
 1.5000e+000 91447 -1.1638e+002 -8.6990e+001 -1.0070e+002 44836 91291,91421,91317
 1.5000e+000 91565 -1.2149e+002 -3.2460e+000 -4.2773e+001 44836 91343,91421,91539
 1.5000e+000 91588 -1.3960e+002 -1.6152e+001 -3.4121e+001 44836 91343,91539,91369
 1.5000e+000 91787 -4.2179e+001  6.2139e+000  1.3953e+000 44432 91810,91637,91611
 1.5000e+000 91764  1.8946e+001 -5.7819e+000 -7.7823e+000 44432 91810,91611,91715
 1.5000e+000 91741 -1.9930e+001 -9.9175e-001  1.2200e+000 44432 91637,91689,91663
 1.5000e+000 91836  8.3982e+000  1.1126e+001  1.1846e+001 44432 91689,91637,91810
 1.5000e+000 91859  5.2728e+001 -9.0480e+000  1.2631e+001 44432 91689,91810,91715
 1.5000e+000 92207 -2.0498e+002 -5.6670e+001 -7.9671e+001 43864 92230,91936,91910
 1.5000e+000 92184 -1.5614e+002 -8.1766e+001 -8.5637e+001 43864 92230,91910,92040
 1.5000e+000 92161 -2.7219e+001 -2.1018e+001 -5.2424e+001 43864 91884,92040,91910
 1.5000e+000 92138 -1.7736e+002 -4.4532e+001 -6.7975e+000 43864 91936,92014,91988
 1.5000e+000 92115 -9.2336e+001 -1.0238e+001 -1.6380e+001 43864 91936,91988,91962
 1.5000e+000 92092 -4.5179e+001 -4.6365e+001 -4.3863e+001 43864 91884,92066,92040
 1.5000e+000 92256 -1.6387e+002 -2.8141e+001 -6.5774e+001 43864 92014,91936,92230
 1.5000e+000 92279 -1.3733e+002 -7.3406e+001 -8.0936e+001 43864 92014,92230,92040
 1.5000e+000 92529 -1.1362e+002 -1.3822e+001  1.3716e+001 43410 92552,92330,92304
 1.5000e+000 92506 -1.0239e+002  6.1534e+000  4.9015e+001 43410 92552,92304,92408
 1.5000e+000 92483 -6.9815e+001  8.0944e+000  3.5149e+001 43410 92304,92434,92408
 1.5000e+000 92460 -1.4047e+002 -9.3704e+000 -1.6817e+001 43410 92330,92382,92356
 1.5000e+000 92578 -1.4787e+002 -2.4313e+001 -1.1094e+001 43410 92382,92330,92552
 1.5000e+000 92601 -1.4460e+002  1.3584e+001  2.7382e+001 43410 92382,92552,92408
 1.5000e+000 92802 -1.2227e+002 -3.6752e+001  6.2290e+000 43162 92825,92704,92652
 1.5000e+000 92779 -1.2725e+002 -4.0222e+001 -3.2593e+000 43162 92825,92652,92626
 1.5000e+000 92756 -3.0266e+001 -1.8414e+001  2.0889e+001 43162 92652,92704,92678
 1.5000e+000 92851 -1.1320e+002 -3.5310e+001  1.2305e+001 43162 92730,92704,92825
 1.5000e+000 92874 -1.0565e+002 -4.9513e+001 -1.7992e+000 43162 92730,92825,92626
 1.5000e+000 93463 -1.4858e+002  1.0908e+001  1.6803e+001 42758 93140,93270,93166
 1.5000e+000 93440 -1.2190e+002  3.5166e+001 -2.1149e+000 42758 93140,93296,93270
 1.5000e+000 93417 -2.4677e+001  3.3003e+001  2.2616e+001 42758 93166,93270,93218
 1.5000e+000 93394 -2.0599e+002 -8.0907e+000  3.1884e+001 42758 93218,93270,93244
 1.5000e+000 93371 -2.9837e+001 -8.0196e+000 -7.5125e-001 42758 93140,93322,93296
 1.5000e+000 93348 -3.5481e+001  4.0902e-001 -1.2641e+000 42758 93166,93218,93192
 1.5000e+000 93920 -9.1780e+001  1.0750e+001  1.4015e+001 42304 93943,93672,93646
 1.5000e+000 93897 -7.4483e+001 -1.0341e+001 -2.1180e+001 42304 93943,93646,93802
 1.5000e+000 93874 -2.0894e+001  6.6347e-001  1.7392e+000 42304 93724,93802,93776
 1.5000e+000 93851 -4.3585e+001  8.0219e+000  2.4027e+001 42304 93672,93724,93698
 1.5000e+000 93828 -1.0696e+001 -5.0014e+000  4.0072e+000 42304 93724,93776,93750
 1.5000e+000 93969 -5.8542e+001  1.8985e+001  1.2995e+001 42304 93724,93672,93943
 1.5000e+000 93992 -2.8065e+001  2.4483e+000 -1.2819e+001 42304 93724,93943,93802
 1.5000e+000 94321 -2.7342e+001 -2.7984e-001 -1.3662e+001 41478 94096,94148,94122
 1.5000e+000 94298 -2.9843e+001 -3.4517e+001 -1.9715e+001 41478 94096,94226,94148
 1.5000e+000 94275 -2.3337e+001 -1.4662e+001 -1.4947e+001 41478 94148,94226,94174
 1.5000e+000 94252 -2.5979e+001 -3.3110e+000 -7.3510e+000 41478 94174,94226,94200
 1.5000e+000 94618 -2.2856e+001  4.5165e+000 -2.8051e+000 40910 94344,94422,94396
 1.5000e+000 94595 -6.9895e+001 -1.0163e+000 -1.5392e+001 40910 94344,94448,94422
 1.5000e+000 94572 -6.2001e+001  2.5232e+001  4.5354e+001 40910 94344,94474,94448
 1.5000e+000 94549 -2.3119e+001  7.5477e+000 -4.5394e-001 40910 94344,94396,94370
 1.5000e+000 94526 -9.9636e+001  2.0670e+001  5.6376e+001 40910 94344,94500,94474
 1.5000e+000 94866 -5.5452e+001 -9.4689e+000  9.7793e+000 40306 94667,94719,94693
 1.5000e+000 94843 -3.2786e+001 -1.8411e+001  1.0061e+001 40306 94641,94719,94667
 1.5000e+000 94820 -2.2386e+001 -8.1406e-001  5.2891e+000 40306 94641,94745,94719
 1.5000e+000 94797 -4.1154e+001  2.2746e+000  5.1122e+000 40306 94641,94771,94745
 1.5000e+000 95089 -1.6960e+002 -3.0663e+001 -3.4511e+001 39702 94913,94991,94939
 1.5000e+000 95066 -2.5257e+002 -6.7163e+001 -2.2536e+001 39702 94913,95017,94991
 1.5000e+000 95043 -3.2705e+002 -9.8072e+001 -3.5986e+001 39702 94939,94991,94965
 1.5000e+000 95339 -1.0416e+002  1.1174e+001  1.2409e+001 39248 95140,95218,95166
 1.5000e+000 95316 -1.7358e+002 -2.5258e+001  2.5895e+001 39248 95140,95244,95218
 1.5000e+000 95293 -6.0491e+001  2.7122e+000  2.8825e+001 39248 95114,95244,95140
 1.5000e+000 95270 -2.1989e+002 -4.7254e+000  3.0588e+001 39248 95166,95218,95192
 1.5000e+000 95770 -6.8771e+001 -6.9947e+001 -3.7158e+001 38694 95551,95629,95577
 1.5000e+000 95747 -1.1470e+002 -4.7045e+001 -4.4353e+001 38694 95447,95629,95551
 1.5000e+000 95724 -1.4323e+002 -9.9967e+001 -1.4767e+001 38694 95447,95551,95473
 1.5000e+000 95701 -1.2053e+002 -9.0560e+001 -2.1464e+001 38694 95473,95551,95499
 1.5000e+000 95678 -1.2709e+002 -1.1279e+002  1.8179e+001 38694 95499,95551,95525
 1.5000e+000 95655 -2.3565e+001 -2.3310e+000  5.8947e+000 38694 95577,95629,95603
 1.5000e+000 96325 -1.1241e+002 -2.0274e+001 -2.7084e+001 38240 95953,96031,96005
 1.5000e+000 96302 -8.4500e+001 -2.1643e+001 -5.4073e+001 38240 95953,96161,96031
 1.5000e+000 96279 -6.7583e+001  1.1962e+001 -5.9776e+001 38240 96031,96161,96135
 1.5000e+000 96256 -1.6368e+002 -3.0812e+001  3.0786e+001 38240 96348,96109,96057
 1.5000e+000 96233 -1.5850e+002 -1.3981e+002 -8.5322e+001 38240 96348,96057,96031
 1.5000e+000 96210 -1.4196e+002 -1.9967e+001  4.4465e+001 38240 96057,96109,96083
 1.5000e+000 96187 -2.6218e+001 -4.5937e+000  1.8816e+001 38240 95953,96005,95979
 1.5000e+000 96374 -6.8925e+001  6.4805e+001  7.1508e+001 38240 96135,96109,96348
 1.5000e+000 96397 -4.8679e+001 -4.7791e+001 -4.2136e+001 38240 96135,96348,96031
 1.5000e+000 96618 -1.6461e+002 -9.1149e+001 -1.3442e+001 37821 96494,96546,96520
 1.5000e+000 96595 -2.0506e+002 -8.3178e+001 -8.1126e+000 37821 96468,96546,96494
 1.5000e+000 96572 -2.1694e+002 -8.8270e+001 -7.2169e+000 37821 96442,96546,96468
 1.5000e+000 97126 -1.3127e+002 -5.3202e+000  2.0955e+000 37367 97149,96855,96829
 1.5000e+000 97103 -7.0492e+001  1.5506e+001  1.6907e+001 37367 97149,96829,96985
 1.5000e+000 97080 -8.4475e+001  1.1923e+001  1.5824e+001 37367 96803,96985,96829
 1.5000e+000 97057 -2.2922e+001 -4.3511e+000  1.3826e+001 37367 96855,96907,96881
 1.5000e+000 97034  1.1098e+001 -2.9616e+001  7.2622e+000 37367 96907,96985,96959
 1.5000e+000 97011 -9.1346e+000 -3.0237e+001 -7.0400e+000 37367 96907,96959,96933
 1.5000e+000 97175 -7.2510e+001  1.8323e-002  2.9023e+001 37367 96907,96855,97149
 1.5000e+000 97198 -2.9433e+001  8.2122e+000  4.2764e+001 37367 96907,97149,96985
 1.5000e+000 97704 -9.8404e+001 -3.7562e+001 -2.0943e+001 36863 97727,97511,97485
 1.5000e+000 97681 -9.0077e+001 -8.2369e+001 -7.1581e+001 36863 97727,97485,97433
 1.5000e+000 97658 -7.8854e+001 -8.3254e+001 -8.2517e+001 36863 97381,97563,97433
 1.5000e+000 97635 -3.5102e+001  5.3610e+000 -1.6368e+001 36863 97511,97563,97537
 1.5000e+000 97612 -1.4466e+002 -5.5128e+001 -9.3827e+001 36863 97433,97485,97459
 1.5000e+000 97589 -1.0094e+002 -2.8307e+001 -5.0170e+001 36863 97381,97433,97407
 1.5000e+000 97753 -5.8413e+001 -1.0232e+001 -8.8951e+000 36863 97563,97511,97727
 1.5000e+000 97776 -3.2586e+001 -4.5162e+001 -5.5549e+001 36863 97563,97727,97433
 1.5000e+000 98331  7.0401e+000  2.2931e+000 -5.2386e+000 36287 98354,98089,98063
 1.5000e+000 98308  1.2491e+001 -1.5849e+001  1.3263e+001 36287 98354,98063,98011
 1.5000e+000 98285  2.4608e+000  6.2690e+000  1.4430e+001 36287 98426,97985,98115
 1.5000e+000 98262 -9.3307e+000 -1.1349e+001  2.3872e+001 36287 98011,98063,98037
 1.5000e+000 98239 -7.2347e+001  1.6717e+001 -6.9421e+000 36287 97985,98141,98115
 1.5000e+000 98216 -6.7515e+001 -1.7019e+000 -2.0497e+001 36287 97959,98141,97985
 1.5000e+000 98193 -7.4035e+001 -1.5093e+001 -1.5783e+001 36287 97959,98167,98141
 1.5000e+000 98380 -8.2119e+001 -1.9817e+001 -4.4415e+000 36287 98115,98089,98354
 1.5000e+000 98403 -5.0485e+000  2.0644e+000  1.1002e+001 36287 98426,98115,98354
 1.5000e+000 98452  1.0132e+001 -3.9113e+000  4.8338e+000 36287 98011,97985,98426
 1.5000e+000 98475  2.9701e+000 -8.7587e+000  1.4241e+000 36287 98011,98426,98354
 1.5000e+000 99030 -7.0813e+001 -2.5213e+001 -2.0828e+001 35726 99053,98736,98710
 1.5000e+000 99007 -6.1128e+001 -1.1747e+001 -1.4667e+001 35726 99053,98710,98684
 1.5000e+000 98984 -6.3828e+001 -1.3776e+001 -1.2502e+001 35726 99125,98814,98736
 1.5000e+000 98961 -5.0347e+001 -4.1688e+001 -2.3136e+001 35726 98736,98814,98788
 1.5000e+000 98938 -1.3919e+002 -3.8150e+001 -9.9896e+000 35726 98684,98866,98840
 1.5000e+000 98915 -9.9560e+001 -4.9052e+001 -6.6541e+001 35726 98736,98788,98762
 1.5000e+000 98892 -4.9931e+001 -1.0887e+001 -1.7407e+000 35726 98658,98866,98684
 1.5000e+000 99079 -6.8535e+001 -1.3455e+001 -1.5330e+001 35726 99125,98736,99053
 1.5000e+000 99102 -6.7311e+001 -6.6646e+000 -1.4346e+001 35726 98840,99053,98684
 1.5000e+000 99151 -5.9836e+001 -1.1924e+001 -1.1662e+001 35726 98840,98814,99125
 1.5000e+000 99174 -6.2050e+001 -1.0866e+001 -1.5048e+001 35726 98840,99125,99053
 1.5000e+000 99454 -8.5155e+000  3.2777e+000 -3.5568e+001 35222 99278,99330,99304
 1.5000e+000 99431 -5.8456e+001 -1.6699e+001  1.7543e+001 35222 99278,99382,99330
 1.5000e+000 99408 -1.0443e+002  3.5402e-001  7.4789e+000 35222 99330,99382,99356
 1.5000e+000 99653 -1.9604e+002 -1.2827e+002  5.7832e+000 34867 99477,99529,99503
 1.5000e+000 99630 -1.7249e+002 -1.2267e+002  1.2509e+000 34867 99477,99581,99529
 1.5000e+000 99607 -2.1627e+002 -1.7651e+002  3.6511e+001 34867 99529,99581,99555
 1.5000e+000 100104 -9.5537e+001  1.9079e+001 -1.6415e+001 34363 99781,99885,99807
 1.5000e+000 100081 -8.7014e+001  1.2176e+001  1.2547e+001 34363 99781,99963,99885
 1.5000e+000 100058 -1.4498e+002  2.7908e+001  1.4509e+001 34363 99885,99963,99911
 1.5000e+000 100035 -1.5771e+002  2.7906e+001 -2.7214e+001 34363 99807,99885,99859
 1.5000e+000 100012 -4.4436e+001  5.4735e+001  1.1145e+002 34363 99911,99963,99937
 1.5000e+000 99989 -1.5015e+002  8.1971e+000 -1.0393e+002 34363 99807,99859,99833
 1.5000e+000 100303 -5.2630e+001 -5.3877e-001  8.1120e+000 33909 100127,100205,100179
 1.5000e+000 100280 -1.3562e+001  1.3409e+001  4.3841e+000 33909 100127,100231,100205
 1.5000e+000 100257 -5.2596e+001 -4.4696e+000 -2.9195e+000 33909 100127,100179,100153
 1.5000e+000 100890 -7.9977e+001 -5.8222e+001 -1.2551e+001 33412 100645,100749,100697
 1.5000e+000 100867 -1.0638e+002 -7.6864e+001 -2.8854e+001 33412 100567,100749,100645
 1.5000e+000 100844 -8.5304e+001 -2.5670e+001 -3.2826e+001 33412 100567,100645,100619
 1.5000e+000 100821 -1.5076e+002 -6.3691e+001 -6.6179e+000 33412 100645,100697,100671
 1.5000e+000 100798 -1.1583e+002 -4.3306e+001 -6.0649e+001 33412 100567,100619,100593
 1.5000e+000 100775 -1.1016e+002 -3.9728e+001 -4.9701e+000 33412 100697,100749,100723
 1.5000e+000 101268 -1.2583e+002 -6.7967e+000 -1.3748e+001 32908 101435,101291,101098
 1.5000e+000 101245 -8.5026e+001 -2.3560e+001 -9.0094e-001 32908 101291,101072,101020
 1.5000e+000 101222 -1.8476e+002 -5.6887e+001 -2.4955e+001 32908 101363,101150,101124
 1.5000e+000 101199 -8.4552e+001 -4.8023e+001 -3.7882e+001 32908 101020,101072,101046
 1.5000e+000 101176 -7.2023e+001 -4.5258e+001  9.5668e+000 32908 100994,101150,101020
 1.5000e+000 101317 -1.0185e+002 -7.9610e+000 -1.2034e+001 32908 101124,101098,101291
 1.5000e+000 101340 -1.3592e+002 -3.7668e+001 -2.6190e+001 32908 101363,101124,101291
 1.5000e+000 101389 -1.5433e+002 -5.9740e+001  9.9539e+000 32908 101020,101150,101363
 1.5000e+000 101412 -1.3640e+002 -5.3246e+001  1.3084e+001 32908 101020,101363,101291
 1.5000e+000 101461 -1.3538e+002 -2.7182e+001 -7.5732e+000 32908 101072,101291,101435
 1.5000e+000 101918 -7.2158e+001 -3.2893e+001 -3.8708e+001 32618 101941,101670,101644
 1.5000e+000 101895  5.0228e-001 -1.3850e+001  5.1976e+000 32618 101941,101644,101774
 1.5000e+000 101872 -1.8600e+002 -7.7743e-001 -2.4418e+000 32618 102013,101696,101670
 1.5000e+000 101849 -1.0330e+002 -1.4013e+001  3.2636e+001 32618 101696,101748,101722
 1.5000e+000 101826  7.0732e+000  4.6936e-001  3.2280e+000 32618 101644,101800,101774
 1.5000e+000 101967 -1.7153e+002 -1.7297e+001 -3.3827e+001 32618 102013,101670,101941
 1.5000e+000 101990 -7.4734e+001  4.9150e+000 -2.1401e+001 32618 101748,101941,101774
 1.5000e+000 102039 -1.4914e+002 -1.0134e+001 -1.5356e+001 32618 101748,101696,102013
 1.5000e+000 102062 -7.7842e+001  4.5702e+000 -3.9198e+001 32618 101748,102013,101941
 1.5000e+000 102440 -9.7702e+001 -7.3147e+001 -3.6681e+001 32306 102463,102270,102244
 1.5000e+000 102417 -8.5427e+001 -4.6315e+001 -3.1394e+001 32306 102463,102244,102192
 1.5000e+000 102394 -7.9788e+001 -1.8655e+001 -3.4292e+001 32306 102192,102244,102218
 1.5000e+000 102371 -1.3835e+002 -7.0133e+001 -5.9301e+001 32306 102270,102322,102296
 1.5000e+000 102348 -1.0904e+002 -5.3380e+001 -7.6332e+001 32306 102166,102322,102192
 1.5000e+000 102489 -1.1438e+002 -6.5418e+001 -6.5627e+001 32306 102322,102270,102463
 1.5000e+000 102512 -9.4924e+001 -2.1390e+001 -5.9125e+001 32306 102322,102463,102192
 1.5000e+000 102662 -2.1065e+001 -3.1831e+001  3.8538e+001 31852 102943,102587,102561
 1.5000e+000 102639 -8.7817e+001  1.3184e+000  1.3513e+001 31852 102815,102685,102561
 1.5000e+000 102711 -4.0340e+001 -7.9901e+000  4.8792e+001 31852 102943,102561,102685
 1.5000e+000 102841 -3.2778e+001  1.1280e+001  1.6508e+001 31852 102535,102685,102815
 1.5000e+000 102969 -7.4657e+000 -9.5599e+000  2.6910e+001 31852 102613,102587,102943
 1.5000e+000 102992 -3.0086e+001  7.7931e+000  3.8429e+001 31852 102613,102943,102685
 1.5000e+000 103370 -4.5844e+001 -4.7884e+001  4.1825e+001 31134 103096,103200,103122
 1.5000e+000 103347 -5.0008e+001 -1.5225e+001 -2.8704e+001 31134 103096,103226,103200
 1.5000e+000 103324 -1.2651e+002 -9.0448e+000  5.8923e+000 31134 103122,103200,103174
 1.5000e+000 103301 -8.6468e+001 -3.4016e+001 -1.5434e+001 31134 103096,103252,103226
 1.5000e+000 103278 -1.5103e+002 -2.0624e-001  3.7266e+001 31134 103122,103174,103148
 1.5000e+000 103520 -2.9371e+002 -5.0750e+001 -2.6411e+001 30822 103393,103445,103419
 1.5000e+000 103497 -3.0624e+002 -6.4558e+001 -1.9927e+001 30822 103393,103471,103445
 1.5000e+000 103719 -1.4905e+002  1.4241e+001 -5.4496e-001 30182 103742,103621,103569
 1.5000e+000 103696 -2.0170e+002  3.1334e+001 -9.1181e+000 30182 103742,103569,103543
 1.5000e+000 103673 -1.1362e+002  4.5388e+001  5.9794e+001 30182 103569,103621,103595
 1.5000e+000 103768 -1.2527e+002  2.2513e+001 -3.6091e+000 30182 103647,103621,103742
 1.5000e+000 103791 -1.4816e+002  6.0947e+001 -2.2074e+001 30182 103647,103742,103543
 1.5000e+000 104252 -1.0010e+002 -4.2810e+001 -1.3336e+001 29728 104030,104108,104056
 1.5000e+000 104229 -1.3493e+002 -5.1076e+001 -6.0221e+001 29728 104004,104108,104030
 1.5000e+000 104206 -1.4191e+002 -8.0523e+001 -7.0536e+001 29728 104004,104134,104108
 1.5000e+000 104183 -8.4039e+001  1.1700e+001 -2.9824e+001 29728 103978,104134,104004
 1.5000e+000 104160 -6.3188e+001 -3.7750e+001 -2.8649e+001 29728 104056,104108,104082
 1.5000e+000 104630 -1.0359e+002 -8.1111e+000  4.9970e+001 29217 104653,104382,104356
 1.5000e+000 104607 -1.1141e+002 -1.1776e+001 -5.5393e+000 29217 104653,104356,104512
 1.5000e+000 104584 -1.6832e+001 -2.5556e+001  1.2909e+001 29217 104434,104512,104486
 1.5000e+000 104561 -3.9046e+001  3.2443e+001  3.3482e+001 29217 104382,104434,104408
 1.5000e+000 104538 -1.8928e+001 -1.5527e+001  1.9664e+001 29217 104434,104486,104460
 1.5000e+000 104679 -6.8170e+001  6.7426e+000  4.4317e+001 29217 104434,104382,104653
 1.5000e+000 104702 -5.6674e+001  5.9660e+000 -5.2502e+000 29217 104434,104653,104512
 1.5000e+000 105178 -1.3497e+002 -2.6238e+001 -8.3687e+000 28649 105201,104962,104936
 1.5000e+000 105155 -1.1259e+002 -3.8017e+001 -2.2200e+001 28649 105201,104936,104884
 1.5000e+000 105132 -1.0354e+002 -2.9254e+001 -1.7530e+001 28649 105273,104858,105014
 1.5000e+000 105109 -1.0991e+002 -2.3748e+001  4.6772e+000 28649 104962,105014,104988
 1.5000e+000 105086 -1.6275e+002 -3.7594e+001 -5.5682e+001 28649 104884,104936,104910
 1.5000e+000 105063 -6.1935e+001 -4.5478e+001 -3.1717e+001 28649 104806,105014,104858
 1.5000e+000 105040 -1.2437e+002 -8.6398e+001 -6.0713e+001 28649 104806,104858,104832
 1.5000e+000 105227 -1.0575e+002 -1.0120e+001 -1.9487e+000 28649 105014,104962,105201
 1.5000e+000 105250 -1.0567e+002 -2.9297e+001 -1.8908e+001 28649 105273,105014,105201
 1.5000e+000 105299 -1.0096e+002 -2.9078e+001 -1.6693e+001 28649 104884,104858,105273
 1.5000e+000 105322 -1.0208e+002 -2.8796e+001 -1.8308e+001 28649 104884,105273,105201
 1.5000e+000 105673 -3.4423e+002 -8.8118e+000  1.3940e+000 28351 105474,105578,105552
 1.5000e+000 105650 -3.0470e+002  7.9392e+001  1.1693e+001 28351 105448,105578,105474
 1.5000e+000 105627 -3.4447e+002  2.6504e+000 -2.9644e+001 28351 105500,105552,105526
 1.5000e+000 105604 -3.1729e+002  3.3519e+000 -1.1739e+000 28351 105474,105552,105500
 1.5000e+000 106130 -6.4806e+001 -1.1606e+001  1.6886e+001 28004 106153,105882,105856
 1.5000e+000 106107 -9.1169e+001 -1.2472e+001 -2.5076e+000 28004 106153,105856,105986
 1.5000e+000 106084 -4.4646e+001 -1.0497e+001  8.6769e+000 28004 105934,105986,105960
 1.5000e+000 106061 -2.8461e+001 -1.0941e+001 -2.9173e+001 28004 105856,106012,105986
 1.5000e+000 106038 -6.8290e+000  3.5385e+000 -5.6470e-001 28004 105882,105934,105908
 1.5000e+000 106179 -1.4894e+001 -8.5137e+000  2.4386e+001 28004 105934,105882,106153
 1.5000e+000 106202 -5.9072e+001 -1.3408e+001  1.1699e+001 28004 105934,106153,105986
 1.5000e+000 106885 -7.5974e+001  6.3269e+000  2.0245e+000 27564 106908,106620,106516
 1.5000e+000 106862 -1.6529e+002 -4.4126e+000  2.2610e+000 27564 106908,106516,106490
 1.5000e+000 106839 -1.7027e+002 -3.9798e+001  1.8591e+001 27564 106516,106620,106542
 1.5000e+000 106816 -6.6264e+001 -1.4165e+000  5.0919e+001 27564 106620,106672,106646
 1.5000e+000 106793 -1.6185e+002 -5.4412e+001  9.7526e+000 27564 106542,106620,106594
 1.5000e+000 106770 -1.4115e+002 -3.3560e+000 -1.7547e+000 27564 106490,106698,106672
 1.5000e+000 106747 -1.0358e+002 -4.5934e+001  3.6032e+001 27564 106464,106698,106490
 1.5000e+000 106724 -2.5961e+002 -1.6994e+002  9.3902e+001 27564 106542,106594,106568
 1.5000e+000 106934 -3.8987e+001 -4.6613e+000  2.6775e+000 27564 106672,106620,106908
 1.5000e+000 106957 -8.0864e+001  1.8748e+001 -5.1402e+000 27564 106672,106908,106490
 1.5000e+000 107463 -6.9043e+001 -3.9216e+001 -1.2771e+001 27053 107218,107322,107296
 1.5000e+000 107440 -5.3528e+001  6.5389e-001  4.5742e+000 27053 107166,107322,107218
 1.5000e+000 107417 -5.1283e+001  1.6389e+001 -3.9128e+000 27053 107218,107296,107244
 1.5000e+000 107394 -6.2554e+000 -7.1085e+000  8.9664e+000 27053 107140,107322,107166
 1.5000e+000 107371 -1.2093e+001  9.7381e-001  1.9414e+000 27053 107166,107218,107192
 1.5000e+000 107348 -3.3456e+001  3.3325e+000 -2.8746e+001 27053 107244,107296,107270
 1.5000e+000 108097 -6.3237e+000 -1.0560e+001 -3.2526e+001 26549 108192,108120,107803
 1.5000e+000 108074 -7.0252e+001  3.2706e+001 -5.1542e+001 26549 108120,107725,107933
 1.5000e+000 108051 -4.8092e+000 -1.3940e+001 -8.7592e+000 26549 107751,107803,107777
 1.5000e+000 108028 -2.4982e+001 -1.1790e-001 -1.5173e+001 26549 108192,107803,107751
 1.5000e+000 108005 -1.4848e+002 -4.8354e+001 -7.9874e+001 26549 108264,107855,107803
 1.5000e+000 107982 -5.8866e+001  1.7013e+001 -4.6429e+001 26549 107881,107933,107907
 1.5000e+000 107959 -1.4702e+002 -5.8310e+001 -6.5834e+001 26549 107803,107855,107829
 1.5000e+000 108146 -3.4046e+001 -3.3888e+001 -6.8350e+001 26549 108264,107803,108120
 1.5000e+000 108169 -7.7119e+001  9.8862e+000 -4.0761e+001 26549 107881,108120,107933
 1.5000e+000 108218 -4.4943e+001 -2.3996e+001 -3.4752e+001 26549 107725,108120,108192
 1.5000e+000 108241 -5.9893e+001 -1.0997e+001 -1.8056e+001 26549 107725,108192,107751
 1.5000e+000 108290 -2.2347e+002 -6.9674e-001 -5.1428e+001 26549 107881,107855,108264
 1.5000e+000 108313 -1.4813e+002 -1.8432e+001 -3.2267e+001 26549 107881,108264,108120
 1.5000e+000 108512 -1.6934e+002 -7.3096e+000  3.0757e+001 26137 108388,108440,108414
 1.5000e+000 108489 -1.8887e+002 -3.7954e+001  1.6076e+001 26137 108362,108440,108388
 1.5000e+000 108466 -2.4838e+002 -6.1169e+001  3.3525e+000 26137 108336,108440,108362
 1.5000e+000 108662 -1.2028e+002 -7.1278e+000  1.3392e+000 25733 108817,108685,108535
 1.5000e+000 108639 -1.2606e+002 -1.4958e+000 -2.2307e+000 25733 109017,108817,108535
 1.5000e+000 108711 -9.7236e+001 -9.6162e+000 -2.1528e+001 25733 108561,108535,108685
 1.5000e+000 108843 -1.3328e+002 -1.8339e+001 -4.6715e+000 25733 108587,108685,108817
 1.5000e+000 108866 -1.2382e+002 -7.7506e+000  2.4885e+000 25733 108889,108817,108613
 1.5000e+000 108915 -1.3466e+002 -8.8683e+000 -3.6952e+000 25733 108587,108817,108889
 1.5000e+000 109043 -1.3511e+002 -3.1969e+001 -3.5392e+000 25733 108613,108817,109017
 1.5000e+000 109500 -8.6771e+001 -4.2901e+001 -2.9044e+001 25229 109523,109356,109330
 1.5000e+000 109477 -9.6230e+001 -1.1679e+001 -1.1891e+001 25229 109595,109523,109330
 1.5000e+000 109454 -8.9391e+001 -3.3616e+001  9.0145e+000 25229 109595,109330,109278
 1.5000e+000 109431 -1.0196e+002  2.9666e+000 -5.3559e+001 25229 109667,109226,109382
 1.5000e+000 109408 -1.4320e+002 -1.7007e+001  2.9706e+001 25229 109278,109330,109304
 1.5000e+000 109549 -5.8764e+001 -2.6849e+001 -3.9964e+001 25229 109382,109356,109523
 1.5000e+000 109572 -8.4092e+001 -2.8718e+001 -6.0521e+001 25229 109667,109382,109523
 1.5000e+000 109621 -9.1115e+001  1.0782e+001 -7.5737e+000 25229 109252,109523,109595
 1.5000e+000 109644 -8.5073e+001  1.6764e+000  7.1811e+000 25229 109739,109595,109278
 1.5000e+000 109693 -2.5292e+002 -3.1511e+001 -2.6958e+001 25229 109252,109226,109667
 1.5000e+000 109716 -1.5055e+002 -6.6798e+000 -2.5487e+001 25229 109252,109667,109523
 1.5000e+000 109765 -8.5655e+001 -8.9279e+000 -1.0342e+001 25229 109252,109595,109739
 1.5000e+000 110478 -9.2475e+001 -7.6554e+000 -8.3030e+000 24917 110158,110236,110184
 1.5000e+000 110455 -4.6783e+001  1.2100e+001 -6.2451e+000 24917 110158,110288,110236
 1.5000e+000 110432 -5.6361e+001  5.9284e+000 -3.3021e+000 24917 110236,110288,110262
 1.5000e+000 110409 -4.2109e+001 -1.1402e+001  9.1882e+000 24917 110184,110236,110210
 1.5000e+000 110386 -4.0526e+001 -1.8605e+000  2.7877e+000 24917 110132,110288,110158
 1.5000e+000 110363 -1.3171e+001  7.9049e+000 -1.6786e-001 24917 110132,110314,110288
 1.5000e+000 110340 -1.6431e+001  2.9245e-001  4.6597e-001 24917 110106,110314,110132
 1.5000e+000 110829 -3.0648e+002 -1.2737e+002  3.8741e+001 24307 110604,110682,110630
 1.5000e+000 110806 -2.4842e+002 -6.0522e+001  1.0580e+001 24307 110604,110708,110682
 1.5000e+000 110783 -2.0622e+002 -3.2588e+001 -1.6770e+001 24307 110604,110734,110708
 1.5000e+000 110760 -4.6076e+002 -1.9357e+002  4.4934e+001 24307 110630,110682,110656
 1.5000e+000 111335 -7.9534e+001 -1.0275e+001 -1.0927e+001 23767 111012,111168,111038
 1.5000e+000 111312 -3.3319e+001 -6.8524e+000 -4.4015e+001 23767 111012,111194,111168
 1.5000e+000 111289 -3.5693e+001  3.5056e+001 -5.1411e+001 23767 111358,111064,111038
 1.5000e+000 111266 -7.0500e+001  1.0090e+001 -2.2733e+001 23767 111358,111038,111168
 1.5000e+000 111243 -8.6725e+001 -2.3158e+001 -1.7161e+001 23767 111430,111142,111090
 1.5000e+000 111220 -1.0415e+002 -3.0993e+001 -2.1620e+001 23767 111090,111142,111116
 1.5000e+000 111384 -6.3578e+001  1.6200e+001 -2.0817e+001 23767 111090,111064,111358
 1.5000e+000 111407 -6.5477e+001 -9.0200e+000 -1.0745e+001 23767 111430,111090,111358
 1.5000e+000 111456 -1.0935e+002  2.2774e+000 -1.3033e+001 23767 111168,111142,111430
 1.5000e+000 111479 -9.9286e+001  7.1570e+000 -1.0253e+001 23767 111168,111430,111358
 1.5000e+000 111985 -4.9066e+001 -3.5667e+001  4.6961e+000 23477 111688,111844,111818
 1.5000e+000 111962 -3.7659e+001 -1.0075e+001  2.0653e+000 23477 111662,111844,111688
 1.5000e+000 111939 -2.5145e+001 -1.5684e+001  2.1644e+001 23477 111766,111818,111792
 1.5000e+000 111916 -7.0551e+001 -2.1785e+001  2.3257e+001 23477 111740,111818,111766
 1.5000e+000 111893 -7.0620e+001 -2.8783e+001  1.6263e+000 23477 111688,111818,111740
 1.5000e+000 111870 -1.0232e+002 -1.8474e+001 -7.5006e+000 23477 111688,111740,111714
 1.5000e+000 112314 -1.3381e+002  2.0871e-001 -1.6741e+001 23023 112141,112219,112193
 1.5000e+000 112291 -1.3669e+002 -6.1131e+001 -2.0775e+001 23023 112115,112219,112141
 1.5000e+000 112268 -1.1097e+002 -1.4114e+001  8.0374e+000 23023 112141,112193,112167
 1.5000e+000 112245 -1.2458e+002 -1.6063e+001 -1.6203e+001 23023 112089,112219,112115
 1.5000e+000 112692 -1.4913e+002 -2.0412e+001 -1.9775e+001 22768 112444,112574,112548
 1.5000e+000 112669 -2.3059e+002 -3.9435e+000 -4.9332e+001 22768 112418,112574,112444
 1.5000e+000 112646 -1.1094e+002 -2.3883e+001 -1.2376e+001 22768 112444,112522,112470
 1.5000e+000 112623 -1.4690e+002 -1.3906e+001 -2.3893e+000 22768 112444,112548,112522
 1.5000e+000 112600 -1.1783e+002 -3.0379e+001  1.6836e+001 22768 112470,112522,112496
 1.5000e+000 113011 -3.5586e+002  2.9818e+001 -6.7928e+001 22314 112763,112867,112789
 1.5000e+000 112988 -4.1754e+002 -5.5805e+001 -3.8754e+001 22314 112763,112893,112867
 1.5000e+000 112965 -4.7404e+002 -3.4381e+001  0.0000e+000 22314 112815,112867,112841
 1.5000e+000 112942 -5.2534e+002 -5.1027e+001 -4.0743e+001 22314 112789,112867,112815
 1.5000e+000 112919 -2.7182e+002 -1.2414e+001 -5.7029e+001 22314 112737,112893,112763
 1.5000e+000 113519  4.1158e+000  5.2433e+000  4.5356e-001 21924 113614,113542,113248
 1.5000e+000 113496  4.8437e-001  1.1138e+001 -2.2726e+000 21924 113542,113196,113378
 1.5000e+000 113473 -4.7330e+000 -6.2237e-001  3.0256e+000 21924 113614,113248,113222
 1.5000e+000 113450  9.3619e+000  2.1278e-001  4.0291e+000 21924 113686,113274,113248
 1.5000e+000 113427  1.3846e+001  2.2062e+000  2.6467e+000 21924 113274,113352,113326
 1.5000e+000 113404  5.9447e+000  9.9332e-001 -2.7951e+000 21924 113274,113326,113300
 1.5000e+000 113568  5.3376e+000  4.2149e+000 -1.0637e+000 21924 113686,113248,113542
 1.5000e+000 113591  1.2163e+000  1.2091e+001 -3.1736e+000 21924 113352,113542,113378
 1.5000e+000 113640 -4.6721e+000  9.3034e+000 -3.0829e+000 21924 113196,113542,113614
 1.5000e+000 113663 -6.6570e+000  7.9968e+000 -2.4812e+000 21924 113196,113614,113222
 1.5000e+000 113712  1.4583e+001  3.8418e+000  2.4438e+000 21924 113352,113274,113686
 1.5000e+000 113735  1.3609e+001  9.1806e+000 -3.1313e+000 21924 113352,113686,113542
 1.5000e+000 113885 -2.5826e+001 -2.0806e+001  2.2538e+001 21520 113980,113908,113784
 1.5000e+000 113862 -1.2115e+001 -2.9971e+001  1.5616e+001 21520 114238,113908,113758
 1.5000e+000 113934 -1.0402e+001 -1.8081e+001  2.3063e+001 21520 114110,113908,113810
 1.5000e+000 113957  8.2798e+000 -5.2392e+000  4.3921e+000 21520 113810,113908,113836
 1.5000e+000 114006 -6.8050e+000 -1.9191e+001  2.1352e+001 21520 113758,113908,113980
 1.5000e+000 114136 -1.9938e+001 -2.1623e+001  1.8914e+001 21520 113784,113908,114110
 1.5000e+000 114264 -1.6851e+001 -1.5589e+001  1.8765e+001 21520 113836,113908,114238
 1.5000e+000 114662 -1.5856e+002 -2.9083e+001  2.7266e+000 21030 114414,114518,114492
 1.5000e+000 114639 -2.4570e+002 -6.4078e+001  3.7340e+001 21030 114414,114544,114518
 1.5000e+000 114616 -5.6825e+001  7.6578e+000 -1.2160e+000 21030 114440,114492,114466
 1.5000e+000 114593 -1.6288e+002 -3.8398e+001  5.1063e+000 21030 114414,114492,114440
 1.5000e+000 114570 -1.2795e+002 -1.5211e+001  3.6366e+001 21030 114388,114544,114414
 1.5000e+000 114959 -8.7675e+001  9.0095e-001  3.9902e+000 20512 114982,114711,114685
 1.5000e+000 114936 -8.2289e+001 -4.5267e-001 -1.2706e+001 20512 115054,114982,114685
 1.5000e+000 114913 -6.2147e+001  3.8223e+000 -2.1133e+001 20512 115054,114685,114841
 1.5000e+000 114890 -1.3847e+001  1.6889e+001  6.9065e+000 20512 114711,114763,114737
 1.5000e+000 114867 -2.9978e+001  1.2137e+001 -6.7046e+000 20512 114763,114815,114789
 1.5000e+000 115008 -7.2678e+001  5.8847e+000  2.0391e+000 20512 114763,114711,114982
 1.5000e+000 115031 -6.6999e+001  4.0978e+000 -7.9222e+000 20512 114763,114982,114815
 1.5000e+000 115080 -6.7656e+001  1.7474e+000 -6.3057e+000 20512 114815,114982,115054
 1.5000e+000 115103 -6.4219e+001 -3.6091e+000 -6.9590e+000 20512 114815,115054,114841
 1.5000e+000 115507 -5.8503e+001 -4.3768e+001 -1.4299e+001 20143 115285,115389,115363
 1.5000e+000 115484 -6.7685e+001 -3.9081e+000 -2.2088e+000 20143 115259,115389,115285
 1.5000e+000 115461 -1.0993e+002 -4.8860e+001 -2.9808e+001 20143 115233,115389,115259
 1.5000e+000 115438  3.3197e+000  1.1556e+000 -2.0504e+000 20143 115285,115337,115311
 1.5000e+000 115415 -3.4681e+001 -5.8620e-001 -6.1878e-001 20143 115285,115363,115337
 1.5000e+000 115875 -6.8563e+001 -1.5195e+000  1.9007e+000 19632 115656,115734,115682
 1.5000e+000 115852 -5.2118e+001  9.6068e+000  9.9413e+000 19632 115552,115734,115656
 1.5000e+000 115829 -6.0826e+001 -5.8363e+000 -1.6359e+001 19632 115552,115656,115578
 1.5000e+000 115806 -9.3692e+001  5.4981e+000 -3.5740e+000 19632 115578,115656,115630
 1.5000e+000 115783 -4.1085e+001  1.1458e+000 -2.3365e+001 19632 115682,115734,115708
 1.5000e+000 115760 -7.6870e+001 -4.5544e+000  2.0876e+001 19632 115578,115630,115604
 1.5000e+000 116025 -1.3041e+002 -8.9481e+000  6.3873e+000 19178 115898,115950,115924
 1.5000e+000 116002 -1.2566e+002 -1.1083e+001 -6.3171e-002 19178 115898,115976,115950
 1.5000e+000 116633 -1.0857e+002  1.6641e+001  5.3872e-001 18738 116800,116656,116342
 1.5000e+000 116610 -9.7071e+001  3.7278e+001 -4.2080e+001 18738 116656,116238,116446
 1.5000e+000 116587 -9.1909e+001 -8.1912e+000  8.9045e+000 18738 116728,116368,116342
 1.5000e+000 116564 -1.1645e+002  1.3069e+000  8.8970e+000 18738 116800,116342,116264
 1.5000e+000 116541 -6.9407e+001  4.0171e+002 -1.3811e+002 18738 116212,116446,116238
 1.5000e+000 116518 -6.3863e+001  6.5207e+000 -6.4949e+001 18738 116394,116446,116420
 1.5000e+000 116495 -2.9887e+002 -7.4254e+001  9.1495e+000 18738 116264,116342,116316
 1.5000e+000 116472 -8.4797e+001  1.1941e+001  2.5405e+000 18738 116264,116316,116290
 1.5000e+000 116682 -9.0461e+001  1.1102e+000 -1.1071e+001 18738 116728,116342,116656
 1.5000e+000 116705 -1.0352e+002 -1.8831e+001 -4.5729e+001 18738 116394,116656,116446
 1.5000e+000 116754 -6.4459e+001  5.7539e+000 -5.8510e+000 18738 116394,116368,116728
 1.5000e+000 116777 -5.8579e+001  1.8620e+001 -2.6352e+001 18738 116394,116728,116656
 1.5000e+000 116826 -1.1870e+002  5.0555e+001 -1.6271e+001 18738 116238,116656,116800
 1.5000e+000 116849 -1.3626e+002  2.9804e+001 -5.0288e+000 18738 116238,116800,116264
 1.5000e+000 116999  8.7015e+000 -7.3258e-001 -1.4767e+000 18184 116872,116924,116898
 1.5000e+000 116976  5.2777e+000  1.0755e+001 -2.1562e+000 18184 116872,116950,116924
 1.5000e+000 117330  1.0006e+001 -3.9471e-001  2.1283e-001 17694 117157,117235,117183
 1.5000e+000 117307 -1.2019e+001 -1.0189e+000  1.8607e-001 17694 117131,117235,117157
 1.5000e+000 117284 -1.3022e+001 -1.6514e+000 -8.7090e-002 17694 117105,117235,117131
 1.5000e+000 117261  1.6289e+001  8.1552e+000 -2.5627e+000 17694 117183,117235,117209
 1.5000e+000 117480 -7.2524e+001 -3.8151e+001  2.0542e+001 17290 117353,117405,117379
 1.5000e+000 117457 -1.3133e+001  2.2748e+000  1.2919e+000 17290 117353,117431,117405
 1.5000e+000 117679 -1.5478e+002 -8.3463e+001  6.1881e+000 16718 117555,117607,117581
 1.5000e+000 117656 -1.0537e+002 -5.1167e+001 -7.7110e+000 16718 117529,117607,117555
 1.5000e+000 117633 -1.5630e+002 -4.5337e+001 -8.1832e-001 16718 117503,117607,117529
 1.5000e+000 117782 -1.4889e+002 -7.4308e+000 -8.9951e+000 16520 117704,117756,117730
 1.5000e+000 117983 -1.9017e+002 -1.2257e+002  8.0899e+000 16208 117859,117911,117885
 1.5000e+000 117960 -1.6576e+002 -8.5092e+001 -2.1043e+001 16208 117833,117911,117859
 1.5000e+000 117937 -7.3765e+001 -3.8937e+001 -1.4298e+000 16208 117807,117911,117833
 1.5000e+000 118135 -2.0390e+001  1.7556e+001 -4.7329e+000 15674 118034,118086,118060
 1.5000e+000 118112 -1.2827e+002 -2.4305e+001 -8.2983e+000 15674 118008,118086,118034
 1.5000e+000 118238 -3.8022e+001 -3.8709e-001 -2.7833e-002 15355 118160,118212,118186
 1.5000e+000 118341  1.3444e+000 -8.2473e-001 -1.0256e+000 421 118263,118315,118289
 1.6000e+000 68152  9.8240e+000 -2.9216e+000 -7.2120e-001 67838 68074,68126,68100
 1.6000e+000 68550 -4.5809e+001 -4.4191e+001  6.2907e-001 67526 68276,68380,68302
 1.6000e+000 68527 -1.8017e+001 -3.9772e+001 -7.7820e-001 67526 68276,68406,68380
 1.6000e+000 68504 -7.1036e+001 -5.3487e+001  3.2401e+000 67526 68328,68380,68354
 1.6000e+000 68481 -4.5533e+001 -4.3566e+001  6.2062e-001 67526 68302,68380,68328
 1.6000e+000 68458 -2.1388e+001 -2.5620e+001  1.5481e+001 67526 68276,68432,68406
 1.6000e+000 68651  9.3939e-015  8.6549e-016 -7.2545e-017 67328 68573,68625,68599
 1.6000e+000 68970  2.4077e+000 -6.9707e+000  9.8703e+000 67016 68722,68800,68774
 1.6000e+000 68947 -1.1498e+001  7.5634e+000 -1.9635e+001 67016 68722,68826,68800
 1.6000e+000 68924 -9.3430e+001  4.5297e+000  5.5843e-001 67016 68696,68826,68722
 1.6000e+000 68901 -3.9799e+000 -1.2659e+001  6.9759e+000 67016 68722,68774,68748
 1.6000e+000 68878 -7.6056e+001 -6.6338e+000  2.4465e+001 67016 68696,68852,68826
 1.6000e+000 69291 -1.0695e+002 -2.6899e+001 -1.5318e+001 66654 69069,69147,69095
 1.6000e+000 69268 -5.2279e+001 -2.7276e+001  6.5036e+000 66654 69069,69173,69147
 1.6000e+000 69245 -5.7807e+001 -3.9845e+001  7.7889e+000 66654 69043,69173,69069
 1.6000e+000 69222 -1.1587e+002 -2.6275e+000  9.8988e+000 66654 69095,69147,69121
 1.6000e+000 69199 -3.4998e+001  3.9866e+001 -2.7708e+000 66654 69017,69173,69043
 1.6000e+000 69695  1.7569e+000  2.6336e+000  3.7269e+000 66456 69447,69577,69551
 1.6000e+000 69672  1.5551e+001  5.3573e+000  3.6411e+000 66456 69421,69577,69447
 1.6000e+000 69649 -6.3992e+000 -9.8798e-001  6.4923e+000 66456 69473,69551,69525
 1.6000e+000 69626  6.4055e+000  1.1650e+001  1.1774e+000 66456 69447,69551,69473
 1.6000e+000 69603  1.0922e+001  1.1528e+001 -2.2275e+001 66456 69473,69525,69499
 1.6000e+000 70024  1.6912e+000  6.4407e+000 -1.4883e+001 66258 70047,69851,69825
 1.6000e+000 70001 -3.6130e+001 -3.4789e+001  2.7296e+001 66258 70047,69825,69903
 1.6000e+000 69978 -5.3981e+001 -3.2451e+001  3.1335e+001 66258 69799,69903,69825
 1.6000e+000 69955 -6.7414e+001 -1.1388e+002  3.2047e+001 66258 69799,69929,69903
 1.6000e+000 70073 -3.1929e+001 -2.9412e+001  3.2114e+001 66258 69877,69851,70047
 1.6000e+000 70096 -8.6470e+001 -9.0722e+001  7.7198e+001 66258 69877,70047,69903
 1.6000e+000 70602 -1.3503e+002 -4.3777e+000  3.3250e+001 66060 70305,70435,70331
 1.6000e+000 70579  2.2677e+001 -4.0601e+001 -1.3238e+001 66060 70279,70435,70305
 1.6000e+000 70556 -6.2713e+001  5.5283e+001 -6.7287e+000 66060 70331,70435,70409
 1.6000e+000 70533  3.0105e+001 -7.4279e+000 -3.2245e+001 66060 70279,70461,70435
 1.6000e+000 70510 -1.0181e+002 -3.9724e+000  1.0178e+001 66060 70331,70409,70357
 1.6000e+000 70487 -6.9238e+001  9.7046e+000  8.8212e+000 66060 70357,70409,70383
 1.6000e+000 70703  4.4060e+000 -1.5645e-001 -9.3277e-001 65862 70625,70677,70651
 1.6000e+000 71083 -5.9574e+001 -5.1713e+001  1.1672e+001 65664 70887,70965,70939
 1.6000e+000 71060 -7.9868e+001 -4.9057e+001  1.6565e+001 65664 70861,70965,70887
 1.6000e+000 71037 -8.4068e+001 -3.5373e+001  9.2643e+000 65664 70809,70965,70861
 1.6000e+000 71014 -7.4287e+001  4.7424e+001  3.8461e+001 65664 70809,70861,70835
 1.6000e+000 70991 -4.6881e+001 -2.0512e+001  1.1564e+001 65664 70887,70939,70913
 1.6000e+000 71611  3.6396e+000 -4.9154e+001  3.6977e+000 65260 71288,71444,71314
 1.6000e+000 71588 -1.1265e+001 -3.5044e+001  1.4824e+001 65260 71288,71470,71444
 1.6000e+000 71565 -6.4381e+001 -2.6024e+001 -2.0559e+001 65260 71314,71418,71392
 1.6000e+000 71542  9.1005e+000 -4.0833e+001 -2.6956e-001 65260 71314,71444,71418
 1.6000e+000 71519 -4.1002e+001 -2.9114e+000 -2.5967e-001 65260 71314,71392,71340
 1.6000e+000 71496 -6.2301e+001 -3.2465e+001 -9.5368e+001 65260 71340,71392,71366
 1.6000e+000 72060 -2.8778e+001  8.7492e+000 -8.6736e+000 64870 71737,71893,71789
 1.6000e+000 72037 -5.2773e+001  5.6475e-001  1.3923e+000 64870 71737,71919,71893
 1.6000e+000 72014 -4.5340e+001  2.0520e+000 -4.9849e+001 64870 71789,71841,71815
 1.6000e+000 71991 -3.0510e+001  4.8859e+001 -1.7730e+001 64870 71789,71893,71841
 1.6000e+000 71968 -3.1749e+001 -3.1530e-001 -9.2697e+000 64870 71737,71789,71763
 1.6000e+000 71945 -8.9532e+001  1.5556e+001  0.0000e+000 64870 71841,71893,71867
 1.6000e+000 72517 -3.1948e+001  2.3182e+001  3.4617e+000 64466 72321,72399,72347
 1.6000e+000 72494  2.1485e+001  1.6910e+001  1.2200e+001 64466 72269,72399,72321
 1.6000e+000 72471 -4.2141e+001  4.5657e-002  3.0228e+000 64466 72347,72399,72373
 1.6000e+000 72448 -1.5573e+001 -1.4401e+001 -2.0659e+001 64466 72243,72399,72269
 1.6000e+000 72425  2.0028e+001  1.2988e+000  2.3542e+000 64466 72269,72321,72295
 1.6000e+000 72944  5.3758e+000  1.4684e+000  6.3265e+000 64062 73111,73039,72699
 1.6000e+000 72921 -7.9115e+000  5.9762e+000 -3.9106e-002 64062 73183,72967,72647
 1.6000e+000 72898 -8.1502e-001  5.3312e+000  3.9244e+000 64062 72967,72803,72751
 1.6000e+000 72875 -8.3479e+000 -4.3855e+000  5.7404e+000 64062 73111,72699,72673
 1.6000e+000 72852 -8.5964e+000  4.0102e+000 -2.3176e-001 64062 73183,72647,72621
 1.6000e+000 72829 -3.4017e-001 -1.8706e+000  1.1457e+001 64062 72751,72803,72777
 1.6000e+000 72993 -1.8858e+000  6.4033e+000 -4.0623e-001 64062 73039,72647,72967
 1.6000e+000 73016  1.5697e+001  5.7894e+000  5.9324e-001 64062 72725,72967,72751
 1.6000e+000 73065  3.4655e+001  1.3277e+001  4.6718e+000 64062 72725,72699,73039
 1.6000e+000 73088 -8.8229e+000 -4.9284e+000  5.7601e+000 64062 72725,73039,72967
 1.6000e+000 73137 -2.4258e+001 -2.5893e+000  3.7902e+000 64062 72647,73039,73111
 1.6000e+000 73160 -2.7223e+001 -3.1960e+000  2.2299e+000 64062 72647,73111,72673
 1.6000e+000 73209 -1.1069e+000  2.9860e+000  3.5014e+000 64062 72803,72967,73183
 1.6000e+000 73232 -5.7971e+000 -5.4894e+000  1.6798e+000 64062 72803,73183,72621
 1.6000e+000 73333 -5.5922e+001  1.4689e+001  1.3067e+001 63814 73356,73281,73255
 1.6000e+000 73382 -1.2888e+002 -2.6388e+001  3.3140e+001 63814 73486,73356,73307
 1.6000e+000 73512 -2.4766e+001  1.7963e+001  1.1359e+001 63814 73281,73356,73486
 1.6000e+000 73839 -1.0523e+002 -6.1773e+000  3.8562e+001 63616 73862,73692,73666
 1.6000e+000 73816 -1.0271e+002 -3.2676e+001  2.8554e+001 63616 73934,73862,73666
 1.6000e+000 73793 -9.5182e+001 -2.3050e+000  2.6866e+001 63616 73934,73666,73640
 1.6000e+000 73770 -5.2019e+001 -2.0125e+001  5.8553e+000 63616 73614,73744,73640
 1.6000e+000 73888 -8.5208e+001 -2.7781e+001  3.5632e+001 63616 73718,73692,73862
 1.6000e+000 73911 -1.1479e+002 -6.9415e+001 -6.8951e+000 63616 73718,73862,73744
 1.6000e+000 73960 -9.7823e+001 -8.3538e+000  6.7562e+000 63616 73744,73862,73934
 1.6000e+000 73983 -9.9437e+001  1.5546e+000  2.4187e+000 63616 73744,73934,73640
 1.6000e+000 74363 -7.8376e-002  1.3841e+001 -7.9563e+000 63390 74386,74115,74089
 1.6000e+000 74340 -6.6650e+001  4.7078e+000  3.0318e+000 63390 74458,74386,74089
 1.6000e+000 74317 -7.1299e+001 -2.2296e+000  1.4384e+001 63390 74458,74089,74245
 1.6000e+000 74294 -3.5982e+001 -3.4683e+001  2.8846e+001 63390 74530,74167,74141
 1.6000e+000 74271 -1.2292e+001  3.3721e-001  2.8974e+001 63390 74167,74219,74193
 1.6000e+000 74412 -6.2756e+001 -1.9378e+001 -2.0257e+001 63390 74141,74115,74386
 1.6000e+000 74435 -7.1647e+001 -2.9645e+000 -2.1939e+000 63390 74530,74141,74386
 1.6000e+000 74484 -6.3364e+001  3.1017e+001 -1.5066e+001 63390 74219,74386,74458
 1.6000e+000 74507 -7.8143e+001  2.2029e+001 -1.8180e+000 63390 74219,74458,74245
 1.6000e+000 74556  2.5890e+000 -8.6002e+000  1.6349e+001 63390 74219,74167,74530
 1.6000e+000 74579 -1.9729e+001  3.1876e+001 -1.7969e+001 63390 74219,74530,74386
 1.6000e+000 74680 -2.4137e+000 -2.6382e+000  5.7146e-001 63100 75089,74833,74703
 1.6000e+000 74729  9.9006e-001  2.3763e+000 -7.3885e+000 63100 74961,74703,74654
 1.6000e+000 74859 -2.7630e+000 -1.7640e+000  9.1646e-001 63100 74602,74703,74833
 1.6000e+000 74987 -3.0179e+000 -2.0363e+000  4.7859e-002 63100 75089,74703,74961
 1.6000e+000 75115 -9.4241e-001 -3.0635e+000  1.0753e+000 63100 74628,74833,75089
 1.6000e+000 75138 -1.5639e+000 -2.4807e+000  5.5085e-001 63100 74628,75089,74961
 1.6000e+000 75723 -1.6177e+001 -2.1426e+001  5.5674e+000 62532 75746,75504,75426
 1.6000e+000 75700 -6.9011e+001  9.9620e+000  3.7117e+001 62532 75746,75426,75556
 1.6000e+000 75677 -1.4532e+001  7.5199e+000 -1.2211e+001 62532 75426,75504,75452
 1.6000e+000 75654 -1.2244e+002 -5.8901e-001  2.8739e+001 62532 75400,75556,75426
 1.6000e+000 75631 -1.2340e+002 -2.7880e+001 -6.3106e+000 62532 75400,75582,75556
 1.6000e+000 75608  5.4134e+000 -8.8225e+000 -1.1201e+001 62532 75452,75504,75478
 1.6000e+000 75772 -7.5445e+001 -1.2354e+001  1.9414e+000 62532 75530,75504,75746
 1.6000e+000 75795 -1.5349e+002 -3.7846e-001  3.3843e+001 62532 75530,75746,75556
 1.6000e+000 76301 -3.3106e+001 -2.6641e+000 -5.3696e+000 62192 76324,76082,76030
 1.6000e+000 76278 -2.8915e+001  3.5126e+000 -2.8762e+000 62192 76324,76030,76004
 1.6000e+000 76255 -3.0556e+001 -2.1759e+000 -3.7406e+000 62192 76030,76082,76056
 1.6000e+000 76232 -4.2014e+001  3.2101e+000 -5.9919e+000 62192 76082,76134,76108
 1.6000e+000 76209 -7.8935e+001 -6.4111e+000 -1.2676e+001 62192 76004,76160,76134
 1.6000e+000 76186 -3.2443e+001 -3.1041e+001  5.0423e+000 62192 75978,76160,76004
 1.6000e+000 76350 -4.0985e+001  5.9136e+000 -5.6286e+000 62192 76134,76082,76324
 1.6000e+000 76373 -3.5571e+001  1.4647e+001 -3.0990e+000 62192 76134,76324,76004
 1.6000e+000 76879 -9.6931e+000 -2.4105e+001  1.1763e+001 61788 76902,76660,76582
 1.6000e+000 76856 -3.2552e+001 -1.7973e+001  1.6793e+001 61788 76902,76582,76556
 1.6000e+000 76833 -7.5202e+000 -2.0113e+001  6.5206e+000 61788 76582,76660,76634
 1.6000e+000 76810 -1.1858e+001 -1.3609e+001  4.9281e+000 61788 76582,76634,76608
 1.6000e+000 76787 -1.7106e+001 -7.1023e+000  5.9960e+000 61788 76556,76738,76686
 1.6000e+000 76764 -3.6180e+001  1.0768e+000  7.2513e+000 61788 76686,76738,76712
 1.6000e+000 76928  1.3719e+000 -2.0039e+001  8.9530e+000 61788 76686,76660,76902
 1.6000e+000 76951 -1.5691e+001 -8.0646e+000  1.1687e+001 61788 76686,76902,76556
 1.6000e+000 77408 -1.9619e+001 -2.8409e+001  3.5059e+001 61498 77212,77264,77238
 1.6000e+000 77385 -2.9733e+001  3.2742e+000 -2.8100e+001 61498 77160,77264,77212
 1.6000e+000 77362 -5.7875e+001 -5.5441e+000 -3.0875e+001 61498 77160,77290,77264
 1.6000e+000 77339 -1.0387e+002 -1.8700e+001 -1.3694e+001 61498 77160,77212,77186
 1.6000e+000 77316 -4.7141e+001 -6.0393e+000  4.5987e+000 61498 77134,77290,77160
 1.6000e+000 77678 -3.6028e+002 -4.1185e+001  8.1781e+000 61129 77479,77557,77505
 1.6000e+000 77655 -3.5264e+002 -1.2028e+002  4.4149e-001 61129 77479,77583,77557
 1.6000e+000 77632 -2.9616e+002 -1.8196e+002  3.4236e+001 61129 77453,77583,77479
 1.6000e+000 77609 -3.4485e+002  4.8497e+001  1.0307e+002 61129 77505,77557,77531
 1.6000e+000 77828  8.9053e-001 -3.2685e+001  2.5021e+001 60931 77851,77727,77701
 1.6000e+000 77805 -3.7899e+001  2.2823e+001 -4.8925e+000 60931 77851,77701,77779
 1.6000e+000 77877 -1.7011e+001 -3.1910e+001  1.8619e+001 60931 77923,77851,77753
 1.6000e+000 77900 -8.5025e+001 -5.2284e+001 -2.7701e+001 60931 77753,77851,77779
 1.6000e+000 77949 -2.9956e+001 -7.4649e+001  1.0699e+001 60931 77727,77851,77923
 1.6000e+000 78133 -1.8286e+002 -5.8771e+001  1.0290e+001 60377 78055,78107,78081
 1.6000e+000 78535 -1.0446e+002  5.0238e+001 -2.8428e+001 60015 78287,78391,78313
 1.6000e+000 78512 -1.8176e+002 -1.2708e+001 -1.0524e+000 60015 78287,78417,78391
 1.6000e+000 78489 -9.4148e+001  1.2898e+001 -8.0898e+000 60015 78261,78417,78287
 1.6000e+000 78466 -2.8161e+002 -8.5646e+001  2.4217e+001 60015 78339,78391,78365
 1.6000e+000 78443 -2.9203e+002 -2.3141e+001 -1.7873e+001 60015 78313,78391,78339
 1.6000e+000 78913 -1.0750e+001 -1.0093e-001  1.7695e+000 59725 78936,78743,78691
 1.6000e+000 78890 -2.8810e+000 -5.9676e+000  3.4940e+000 59725 79008,78936,78691
 1.6000e+000 78867 -8.3673e-002  2.2081e+000  1.5546e+000 59725 79008,78691,78665
 1.6000e+000 78844 -1.7782e+001 -4.7246e+000  4.9060e+000 59725 78691,78743,78717
 1.6000e+000 78821  6.5939e+000  7.6200e+000 -1.4007e+000 59725 78639,78795,78769
 1.6000e+000 78962 -2.1818e+001 -5.9326e-001  8.4131e+000 59725 78769,78743,78936
 1.6000e+000 78985 -2.8705e+000 -9.3777e+000  8.0090e+000 59725 78769,78936,78639
 1.6000e+000 79034  2.6691e+000 -2.3878e+000 -1.9132e+000 59725 78639,78936,79008
 1.6000e+000 79057  1.2209e+000 -2.2940e-001 -3.4187e+000 59725 78639,79008,78665
 1.6000e+000 79386 -2.6875e+001  2.3339e+001  1.2124e+001 59221 79187,79239,79213
 1.6000e+000 79363 -2.3059e+001  2.1236e+000  2.0341e+001 59221 79187,79265,79239
 1.6000e+000 79340 -2.3773e+000  3.2108e+000  9.9968e+000 59221 79187,79291,79265
 1.6000e+000 79317  6.6187e+000  2.1209e+001 -4.7503e+000 59221 79161,79291,79187
 1.6000e+000 79813 -2.1644e+002 -3.9194e+001  4.1273e+001 58831 79836,79542,79516
 1.6000e+000 79790 -1.3519e+002 -3.6893e+000  3.3555e+001 58831 79980,79836,79516
 1.6000e+000 79767 -5.5345e+001 -4.4331e+001  2.3568e+001 58831 79908,79646,79568
 1.6000e+000 79744 -2.0601e+002 -4.2416e+001  1.8548e+001 58831 79980,79516,79490
 1.6000e+000 79721 -5.4702e+000 -6.6265e+001  3.2223e+000 58831 79568,79646,79594
 1.6000e+000 79698 -3.4518e+001 -1.1876e+002 -6.1355e+000 58831 79594,79646,79620
 1.6000e+000 79862 -1.2076e+002 -3.6001e+001  4.0701e+001 58831 79568,79542,79836
 1.6000e+000 79885 -7.2373e+001 -5.6316e+001  1.0645e+001 58831 79908,79568,79836
 1.6000e+000 79934 -4.4536e+001 -4.5215e+001  3.2991e+001 58831 79672,79646,79908
 1.6000e+000 79957 -4.7945e+001 -4.9678e+001  2.0381e+001 58831 79672,79908,79836
 1.6000e+000 80006 -1.1694e+002 -5.1589e+001  5.1148e+000 58831 79672,79836,79980
 1.6000e+000 80029 -1.3316e+002 -5.7368e+001  5.2996e+000 58831 79672,79980,79490
 1.6000e+000 80358 -5.5658e+000  1.6667e+000  2.1452e-001 58377 80381,80185,80159
 1.6000e+000 80335 -2.1360e+001  2.6509e+000  9.2318e-001 58377 80381,80159,80133
 1.6000e+000 80312  1.8261e+001  1.2985e+000 -3.7845e+000 58377 80133,80263,80237
 1.6000e+000 80289  1.9506e+001  5.4911e-001  6.9221e-001 58377 80185,80237,80211
 1.6000e+000 80407  1.9224e+001  1.2520e+000 -4.4874e+000 58377 80237,80185,80381
 1.6000e+000 80430 -7.4793e+000 -5.4019e+000 -4.4098e+000 58377 80237,80381,80133
 1.6000e+000 80759 -6.4319e+001  2.8401e+001 -1.4370e+001 57873 80782,80586,80560
 1.6000e+000 80736 -7.6908e+001  1.4612e+001 -2.0018e+001 57873 80782,80560,80534
 1.6000e+000 80713  8.2859e+000 -1.2738e+000  1.7604e+000 57873 80586,80638,80612
 1.6000e+000 80690  2.1589e+000  2.3813e+000  1.4155e+001 57873 80534,80664,80638
 1.6000e+000 80808 -7.0760e+001  1.5646e+001 -2.0543e+001 57873 80638,80586,80782
 1.6000e+000 80831 -7.1879e+001  1.1900e+001 -2.3297e+001 57873 80638,80782,80534
 1.6000e+000 81337 -1.9877e+001 -4.5187e+001  1.6191e+001 57262 81360,81144,81092
 1.6000e+000 81314 -2.0684e+001 -4.0954e+001  2.6666e+001 57262 81360,81092,81066
 1.6000e+000 81291 -4.8952e+001 -2.1028e+001  1.7810e+001 57262 81014,81196,81066
 1.6000e+000 81268 -2.0001e+001 -5.4177e+001  1.6446e+001 57262 81092,81144,81118
 1.6000e+000 81245 -5.2336e+001 -5.2845e+001  1.3149e+001 57262 81144,81196,81170
 1.6000e+000 81222 -4.1797e+001 -9.2285e-001 -3.2005e-001 57262 81014,81066,81040
 1.6000e+000 81386 -3.1729e+001 -5.2512e+001  1.3069e+001 57262 81196,81144,81360
 1.6000e+000 81409 -2.8401e+001 -4.6247e+001  2.4233e+001 57262 81196,81360,81066
 1.6000e+000 81608 -3.9777e+002 -1.7477e+002 -5.1186e+001 57007 81458,81536,81510
 1.6000e+000 81585 -3.6544e+002 -1.2178e+002 -3.7447e+001 57007 81432,81536,81458
 1.6000e+000 81562 -1.9442e+002 -1.9820e+002 -1.2605e+002 57007 81458,81510,81484
 1.6000e+000 82086 -3.5090e+001 -2.5365e+000  7.1350e+000 56339 81792,81922,81818
 1.6000e+000 82063  1.2311e+000 -1.5745e+000  2.6940e+000 56339 81714,81922,81792
 1.6000e+000 82040 -6.3023e+001 -1.4954e+001  9.0069e+000 56339 82109,81844,81818
 1.6000e+000 82017 -4.1500e+001 -1.6876e+001  1.3894e+001 56339 82109,81818,81922
 1.6000e+000 81994 -6.9195e+001 -8.3500e+000 -1.8717e+001 56339 81844,81896,81870
 1.6000e+000 81971  1.7842e+000  1.5512e+000 -1.2714e+000 56339 81714,81792,81766
 1.6000e+000 81948  1.6357e+000  4.1260e+000 -8.5077e-001 56339 81714,81766,81740
 1.6000e+000 82135 -9.2709e+001 -1.2133e+001  6.2053e+000 56339 81896,81844,82109
 1.6000e+000 82158 -6.2290e+001 -5.3021e+000  1.4895e+001 56339 81896,82109,81922
 1.6000e+000 82536 -1.0149e+002 -2.5426e+000 -1.6924e+001 55699 82288,82392,82314
 1.6000e+000 82513 -5.0772e+001  2.4821e+001  4.0895e+000 55699 82288,82418,82392
 1.6000e+000 82490  2.3083e+000 -3.1835e+001  2.8963e+001 55699 82314,82392,82340
 1.6000e+000 82467  8.1860e+000 -3.9981e-001  2.4956e+001 55699 82340,82392,82366
 1.6000e+000 82444 -1.1753e+002  1.0205e+001 -1.0327e+001 55699 82262,82418,82288
 1.6000e+000 83091 -1.0794e+001 -3.9189e+000 -9.4451e+000 55409 82745,82901,82875
 1.6000e+000 83068 -1.5011e+000 -1.5398e+001 -7.5728e+000 55409 82719,82901,82745
 1.6000e+000 83045 -1.3394e+001 -1.7953e+001 -7.2796e+000 55409 82771,82849,82823
 1.6000e+000 83022 -1.1238e+000 -6.4808e+000  8.5602e+000 55409 82745,82849,82771
 1.6000e+000 82999 -6.2562e+000 -3.1504e+000  8.8057e+000 55409 82745,82875,82849
 1.6000e+000 82976 -1.0101e+001 -9.4635e+000 -9.8341e+000 55409 82771,82823,82797
 1.6000e+000 82953 -1.8975e+000 -1.7606e+001 -7.1975e+000 55409 82719,82927,82901
 1.6000e+000 83388 -2.3169e+001  9.1854e+000  3.5150e+000 54905 83411,83218,83166
 1.6000e+000 83365 -4.3544e+001  2.1185e-001  2.1262e-001 54905 83411,83166,83114
 1.6000e+000 83342 -5.9988e+000  3.1584e+000  3.5923e+000 54905 83483,83270,83244
 1.6000e+000 83319 -8.1795e+001  1.4737e+001 -9.1090e+000 54905 83166,83218,83192
 1.6000e+000 83296 -4.2475e+001  3.8861e-001  3.6443e+000 54905 83114,83166,83140
 1.6000e+000 83437 -2.1672e+001 -1.1290e+000 -5.1485e-001 54905 83244,83218,83411
 1.6000e+000 83460 -1.9334e+001  6.0135e-001  5.8255e-001 54905 83483,83244,83411
 1.6000e+000 83509 -2.3840e+001 -5.1299e+000 -1.4685e+000 54905 83114,83270,83483
 1.6000e+000 83532 -2.6634e+001 -1.7344e+000 -4.6322e+000 54905 83114,83483,83411
 1.6000e+000 83961 -2.0149e+002 -1.5995e+002 -1.0255e+001 54593 83638,83768,83690
 1.6000e+000 83938 -1.1156e+002 -1.3493e+002 -8.7452e+000 54593 83638,83794,83768
 1.6000e+000 83915 -1.4269e+002 -8.0141e+001  3.3767e+001 54593 83690,83768,83742
 1.6000e+000 83892 -1.8242e+002 -1.2313e+002 -5.5102e+001 54593 83638,83820,83794
 1.6000e+000 83869 -1.5644e+002 -1.2616e+001 -2.4895e+001 54593 83638,83690,83664
 1.6000e+000 83846 -1.0784e+002 -9.6822e+001  6.2360e+001 54593 83690,83742,83716
 1.6000e+000 84209 -1.9314e+001  1.6723e+000 -2.5604e+000 54132 84232,84062,83984
 1.6000e+000 84186 -1.2079e+001 -3.1768e+000 -2.6339e+000 54132 84232,83984,84114
 1.6000e+000 84163 -2.2009e+001 -3.7677e+000 -4.6948e+000 54132 83984,84062,84036
 1.6000e+000 84140 -1.9248e+001 -1.2595e+001 -2.2514e+000 54132 83984,84036,84010
 1.6000e+000 84258 -1.3434e+001  2.6570e+000 -1.4908e+000 54132 84088,84062,84232
 1.6000e+000 84281 -2.7352e+000  4.7341e-001 -8.9835e-001 54132 84088,84232,84114
 1.6000e+000 84382 -2.5000e+002 -1.1098e+002 -2.1008e+001 53521 84304,84356,84330
 1.6000e+000 84632 -3.8555e+001 -1.5580e+001  3.5523e+000 53067 84655,84485,84459
 1.6000e+000 84609 -5.0766e+001 -7.3336e+000  1.0085e+000 53067 84655,84459,84407
 1.6000e+000 84586 -5.2064e+001 -2.4673e+001  1.5304e+001 53067 84485,84537,84511
 1.6000e+000 84563 -4.5523e+001 -8.0186e-002 -7.2460e+000 53067 84407,84459,84433
 1.6000e+000 84681 -3.4930e+001 -9.8422e+000  1.4454e+000 53067 84537,84485,84655
 1.6000e+000 84704 -3.8778e+001  4.4503e+000 -3.9927e+000 53067 84537,84655,84407
 1.6000e+000 85214 -1.4669e+002 -6.3244e+001  2.9662e+001 52513 85021,85073,85047
 1.6000e+000 85191 -1.4289e+002 -2.8027e+001  2.2003e+001 52513 84943,85073,85021
 1.6000e+000 85168 -3.1126e+002 -1.0938e+002 -2.1676e+001 52513 84943,85021,84995
 1.6000e+000 85145 -1.5492e+002 -8.5435e+001  4.9647e+001 52513 84917,85073,84943
 1.6000e+000 85122 -2.0718e+002 -1.3413e+002 -2.4903e+001 52513 84943,84995,84969
 1.6000e+000 85099  7.1513e+000 -6.3728e+001  5.8550e+001 52513 84891,85073,84917
 1.6000e+000 85582 -6.2511e+001  6.9073e+000  1.0080e+000 52037 85605,85311,85285
 1.6000e+000 85559 -8.5000e+001 -1.2554e+001  1.7045e+001 52037 85749,85605,85285
 1.6000e+000 85536 -7.6831e+001  4.7337e+001 -1.6490e+001 52037 85893,85677,85389
 1.6000e+000 85513 -1.0610e+002 -3.3562e+001  2.6566e+001 52037 85749,85285,85259
 1.6000e+000 85490 -4.9807e+001  5.4419e+001 -4.9859e+001 52037 85893,85389,85363
 1.6000e+000 85467 -1.3156e+002  3.2716e+001  1.9764e+001 52037 85259,85441,85415
 1.6000e+000 85631 -8.7842e+001  8.7763e+000  1.4689e+001 52037 85337,85311,85605
 1.6000e+000 85654 -8.9497e+001  5.1099e+000  1.4255e+001 52037 85677,85337,85605
 1.6000e+000 85703 -1.3101e+002  1.9921e+001 -4.9681e+000 52037 85415,85389,85677
 1.6000e+000 85726 -9.7818e+001  1.6847e+001  1.0800e+001 52037 85821,85677,85605
 1.6000e+000 85775 -1.1375e+002  1.1684e+001  1.4447e+001 52037 85821,85605,85749
 1.6000e+000 85798 -1.3851e+002 -2.4746e+000  1.0472e+001 52037 85415,85749,85259
 1.6000e+000 85847 -9.9272e+001  1.8610e+001 -1.9592e+000 52037 85415,85677,85821
 1.6000e+000 85870 -1.0510e+002  1.7964e+001  1.8237e+000 52037 85415,85821,85749
 1.6000e+000 85919 -9.1836e+001 -4.1410e+000  1.0185e+001 52037 85337,85677,85893
 1.6000e+000 85942 -8.1616e+001 -8.6554e+000 -2.0820e+001 52037 85337,85893,85363
 1.6000e+000 86224 -4.0402e+001 -1.1922e+001 -7.1250e+000 51368 86375,86100,86074
 1.6000e+000 86201  4.8896e+000  1.5284e+000 -1.1884e+001 51368 86375,86074,86247
 1.6000e+000 86178 -2.1909e+001 -2.9769e+000 -6.4737e+000 51368 86048,86152,86126
 1.6000e+000 86273 -3.6668e+001  3.9300e+000 -2.6496e+000 51368 86048,86126,86247
 1.6000e+000 86401 -6.3694e+001  1.9758e+000  1.2477e+001 51368 86126,86100,86375
 1.6000e+000 86424 -4.0868e+001 -1.2810e+000  8.7488e+000 51368 86126,86375,86247
 1.6000e+000 86802 -8.1959e+001  3.4242e+000 -8.9935e+000 51028 86528,86632,86580
 1.6000e+000 86779 -2.6178e+001 -3.7366e+000 -1.8153e+001 51028 86528,86684,86632
 1.6000e+000 86756 -8.2062e+001  6.1204e-001  1.0367e+000 51028 86528,86580,86554
 1.6000e+000 86733  1.1569e+001  1.0192e+001  1.9012e+001 51028 86632,86684,86658
 1.6000e+000 86710 -4.7239e+001  1.9895e+000 -2.1932e+001 51028 86580,86632,86606
 1.6000e+000 87131 -1.1909e+001  1.4023e-001  2.1499e+001 50624 86958,87036,87010
 1.6000e+000 87108 -2.8013e+001 -1.1880e+001  1.5381e+001 50624 86932,87036,86958
 1.6000e+000 87085 -4.2690e+001 -1.1062e+001  1.0750e+001 50624 86958,87010,86984
 1.6000e+000 87062 -6.5046e+000 -1.2149e+001  1.4178e-001 50624 86906,87036,86932
 1.6000e+000 87330 -9.2866e+001 -1.2893e-001 -8.4897e+000 50234 87353,87180,87154
 1.6000e+000 87307 -7.6085e+001  9.5668e-001 -8.3455e+000 50234 87353,87154,87258
 1.6000e+000 87284 -5.1414e+001 -3.4807e-001  3.5235e-001 50234 87206,87258,87232
 1.6000e+000 87379 -7.8106e+001 -1.1261e+001  7.4516e-001 50234 87206,87180,87353
 1.6000e+000 87402 -5.3106e+001 -4.9336e+000 -2.7196e+000 50234 87206,87353,87258
 1.6000e+000 87650 -6.1742e+001 -1.5581e+000  8.5949e+000 49730 87673,87503,87451
 1.6000e+000 87627 -6.0730e+001 -7.0516e-001  1.1198e+001 49730 87673,87451,87425
 1.6000e+000 87604 -4.9420e+001 -3.0688e-001  1.9353e+001 49730 87503,87555,87529
 1.6000e+000 87581 -1.6801e+002  3.6533e+000  2.8323e+001 49730 87451,87503,87477
 1.6000e+000 87699 -6.1725e+001  7.6259e-001  9.5997e+000 49730 87555,87503,87673
 1.6000e+000 87722 -6.1842e+001  2.9786e+000  1.0835e+001 49730 87555,87673,87425
 1.6000e+000 88232 -4.1301e+001 -3.9674e+001  3.4934e+001 49176 88255,87935,87909
 1.6000e+000 88209 -9.5901e+000 -2.2669e+001 -9.9833e+000 49176 88255,87909,88065
 1.6000e+000 88186 -1.3563e+002  2.3889e+001  3.7596e+000 49176 87935,88039,87961
 1.6000e+000 88163 -2.0555e+001 -1.5614e+001 -1.2845e+001 49176 87909,88091,88065
 1.6000e+000 88140 -1.2125e+002  2.8033e+001 -4.2083e+001 49176 87961,88039,88013
 1.6000e+000 88117 -1.3836e+002  7.8013e+000 -2.9774e+001 49176 87961,88013,87987
 1.6000e+000 88281  1.2844e+000 -2.1502e+001  1.4461e+001 49176 88039,87935,88255
 1.6000e+000 88304  3.1560e+001 -7.0234e+000 -2.9886e+001 49176 88039,88255,88065
 1.6000e+000 88503 -4.1982e+001 -5.9380e+001 -2.7657e+001 48772 88526,88379,88353
 1.6000e+000 88480 -4.6311e+000  5.4613e+000 -5.4943e+000 48772 88526,88353,88327
 1.6000e+000 88457 -1.4382e+001  1.8485e+001  2.7429e+001 48772 88379,88431,88405
 1.6000e+000 88552 -5.0878e+001  5.0260e-002 -2.6059e+001 48772 88431,88379,88526
 1.6000e+000 88575 -4.8027e+001  2.8150e+001 -1.7911e+001 48772 88431,88526,88327
 1.6000e+000 89083 -4.6437e+001 -1.0902e+002  1.1567e+001 48368 88786,88916,88864
 1.6000e+000 89060 -5.3667e+001 -8.9473e+001 -5.2187e+000 48368 88786,88942,88916
 1.6000e+000 89037 -4.3719e+001 -1.1744e+002  5.7323e+000 48368 88786,88864,88812
 1.6000e+000 89014 -9.6427e+001 -6.7453e+001  1.3935e+001 48368 88864,88916,88890
 1.6000e+000 88991 -4.2189e+001 -7.7912e+001 -2.3706e+001 48368 88812,88864,88838
 1.6000e+000 88968 -6.1053e+001 -1.0350e+002 -2.1044e+001 48368 88760,88942,88786
 1.6000e+000 89331 -1.9102e+002 -1.1323e+002 -6.2882e+001 47928 89158,89236,89210
 1.6000e+000 89308 -1.8900e+002 -8.1691e+001 -4.9262e+001 47928 89132,89236,89158
 1.6000e+000 89285 -9.1569e+001 -1.2271e+002 -2.7937e+001 47928 89158,89210,89184
 1.6000e+000 89262 -1.8949e+002 -4.9798e+001 -4.2151e+001 47928 89106,89236,89132
 1.6000e+000 89662 -2.9029e+001 -8.1172e+000  2.3024e+001 47588 89463,89541,89515
 1.6000e+000 89639  3.2794e+000 -1.5503e+001 -5.1235e+000 47588 89463,89567,89541
 1.6000e+000 89616 -8.0388e+001 -1.1013e+001 -3.2812e+001 47588 89463,89515,89489
 1.6000e+000 89593  2.4345e+001 -1.5935e+001 -3.0830e-001 47588 89437,89567,89463
 1.6000e+000 89763 -5.3841e+002 -2.2530e+002 -2.1889e+001 47390 89685,89737,89711
 1.6000e+000 89913 -3.8358e+002 -1.7791e+002 -3.0610e+001 47078 89786,89838,89812
 1.6000e+000 89890 -2.8373e+002 -2.0866e+002 -2.9204e+001 47078 89786,89864,89838
 1.6000e+000 90163 -3.3852e+001 -4.2166e-001  1.1692e+001 46474 89964,90042,89990
 1.6000e+000 90140 -3.6737e+001 -6.4995e-001  7.9993e+000 46474 89938,90042,89964
 1.6000e+000 90117  5.8805e+000  7.2324e+000  1.9057e+001 46474 89990,90042,90016
 1.6000e+000 90094 -1.0850e+001 -1.6492e+000  2.2330e+000 46474 89938,90068,90042
 1.6000e+000 90364 -1.6714e+001 -2.1628e+001  1.4742e+001 46184 90240,90292,90266
 1.6000e+000 90341 -1.4116e+001 -1.0827e+001  2.0343e+001 46184 90188,90292,90240
 1.6000e+000 90318 -4.2473e+001 -2.0579e+001  8.7688e+000 46184 90188,90240,90214
 1.6000e+000 90565 -1.4686e+002  9.4859e+000 -3.0001e+001 45780 90588,90415,90389
 1.6000e+000 90542 -8.3590e+001  1.5592e+001 -2.7370e+001 45780 90588,90389,90493
 1.6000e+000 90519 -1.0371e+002 -3.7708e+001 -4.0457e-001 45780 90415,90467,90441
 1.6000e+000 90614 -9.7149e+001 -1.5025e+001  1.0446e+001 45780 90467,90415,90588
 1.6000e+000 90637 -1.7908e+001  1.0097e+001  2.1391e+001 45780 90467,90588,90493
 1.6000e+000 91196  5.6201e+000  2.3455e+000  5.1707e+000 45226 91219,90876,90850
 1.6000e+000 91173 -2.6817e+000 -1.9928e-001  3.1356e+000 45226 91219,90850,91032
 1.6000e+000 91150  3.4459e+000 -8.7954e-001  9.2613e-001 45226 90824,91032,90850
 1.6000e+000 91127 -4.6559e-001  5.2309e+000  3.8663e+000 45226 90876,90980,90902
 1.6000e+000 91104 -6.9988e+000  2.5509e+000  4.3267e+000 45226 90876,91006,90980
 1.6000e+000 91081 -5.6577e-001  1.0322e+000 -8.6611e-001 45226 90902,90980,90954
 1.6000e+000 91058 -1.4257e+000 -4.5460e-001 -2.9074e-001 45226 90902,90954,90928
 1.6000e+000 91245 -2.8322e+000  2.3217e+000  2.7864e+000 45226 91006,90876,91219
 1.6000e+000 91268 -1.0977e+001  3.3848e-001  1.2656e+000 45226 91006,91219,91032
 1.6000e+000 91516 -8.6666e+001 -2.2873e+001 -1.6700e+001 44836 91539,91421,91395
 1.6000e+000 91493 -1.8945e+002 -1.4161e+001 -4.2064e+001 44836 91317,91421,91343
 1.6000e+000 91470 -1.3120e+002 -4.7910e+001 -6.3801e+000 44836 91539,91395,91369
 1.6000e+000 91447 -9.9077e+001 -7.6565e+001 -8.9406e+001 44836 91291,91421,91317
 1.6000e+000 91565 -1.0446e+002 -1.1462e+001 -4.2911e+001 44836 91343,91421,91539
 1.6000e+000 91588 -1.2515e+002 -2.1861e+001 -3.9313e+001 44836 91343,91539,91369
 1.6000e+000 91787 -4.1047e+001  6.7689e+000 -1.0003e-001 44432 91810,91637,91611
 1.6000e+000 91764  1.6672e+001 -6.1267e+000 -8.2710e+000 44432 91810,91611,91715
 1.6000e+000 91741 -1.8352e+001  1.2797e+000 -2.0460e+000 44432 91637,91689,91663
 1.6000e+000 91836  6.4655e+000  1.1972e+001  9.9502e+000 44432 91689,91637,91810
 1.6000e+000 91859  4.8691e+001 -8.0859e+000  1.1104e+001 44432 91689,91810,91715
 1.6000e+000 92207 -1.6197e+002 -5.4500e+001 -7.0496e+001 43864 92230,91936,91910
 1.6000e+000 92184 -1.3857e+002 -8.3236e+001 -7.0574e+001 43864 92230,91910,92040
 1.6000e+000 92161 -3.2916e+001 -3.6839e+001 -6.1594e+001 43864 91884,92040,91910
 1.6000e+000 92138 -1.5657e+002 -3.2802e+001 -5.7766e+000 43864 91936,92014,91988
 1.6000e+000 92115 -4.9562e+001  2.0321e+000 -1.2122e+001 43864 91936,91988,91962
 1.6000e+000 92092 -5.7134e+001 -5.8928e+001 -5.2374e+001 43864 91884,92066,92040
 1.6000e+000 92256 -1.4558e+002 -1.7858e+001 -5.9749e+001 43864 92014,91936,92230
 1.6000e+000 92279 -1.3890e+002 -6.4445e+001 -6.5299e+001 43864 92014,92230,92040
 1.6000e+000 92529 -9.6144e+001 -1.1765e+001  3.7088e+000 43410 92552,92330,92304
 1.6000e+000 92506 -8.6609e+001  6.0445e+000  3.5236e+001 43410 92552,92304,92408
 1.6000e+000 92483 -4.5907e+001  5.6358e+000  1.8266e+001 43410 92304,92434,92408
 1.6000e+000 92460 -1.2274e+002 -1.6017e+001 -2.0125e+001 43410 92330,92382,92356
 1.6000e+000 92578 -1.2626e+002 -2.1350e+001 -1.7994e+001 43410 92382,92330,92552
 1.6000e+000 92601 -1.2417e+002  1.1859e+001  1.6242e+001 43410 92382,92552,92408
 1.6000e+000 92802 -1.1165e+002 -5.1804e+001  8.6193e+000 43162 92825,92704,92652
 1.6000e+000 92779 -1.1914e+002 -5.3244e+001 -9.4344e+000 43162 92825,92652,92626
 1.6000e+000 92756 -4.8424e+001 -1.5123e+001  2.6167e+001 43162 92652,92704,92678
 1.6000e+000 92851 -9.9101e+001 -4.8295e+001  1.2880e+001 43162 92730,92704,92825
 1.6000e+000 92874 -7.3627e+001 -4.6433e+001 -1.5319e+001 43162 92730,92825,92626
 1.6000e+000 93463 -9.2736e+001  8.8381e+000  5.8782e+000 42758 93140,93270,93166
 1.6000e+000 93440 -8.2828e+001 -9.6629e-001 -7.3380e+000 42758 93140,93296,93270
 1.6000e+000 93417 -1.1748e+001  1.5866e+001  1.5337e+001 42758 93166,93270,93218
 1.6000e+000 93394 -1.3037e+002 -5.5714e+000  2.5426e+001 42758 93218,93270,93244
 1.6000e+000 93371 -3.8776e+001 -1.5999e+001 -8.1179e+000 42758 93140,93322,93296
 1.6000e+000 93348 -1.7620e+001 -2.8839e+000  2.9243e-001 42758 93166,93218,93192
 1.6000e+000 93920 -7.3668e+001  1.2342e+001  7.7949e+000 42304 93943,93672,93646
 1.6000e+000 93897 -5.9978e+001 -1.4169e+001 -2.4420e+001 42304 93943,93646,93802
 1.6000e+000 93874 -1.2363e+001 -1.6136e+000 -1.2274e+000 42304 93724,93802,93776
 1.6000e+000 93851 -3.2339e+001  9.0766e+000  2.1511e+001 42304 93672,93724,93698
 1.6000e+000 93828 -3.7866e+000  2.6569e+000  1.7756e+000 42304 93724,93776,93750
 1.6000e+000 93969 -4.5399e+001  2.1980e+001  9.1367e+000 42304 93724,93672,93943
 1.6000e+000 93992 -1.7364e+001  3.5870e+000 -1.4733e+001 42304 93724,93943,93802
 1.6000e+000 94321 -4.5502e+001  1.3331e+000 -1.4928e+001 41478 94096,94148,94122
 1.6000e+000 94298 -3.7248e+001 -3.5936e+001 -3.0646e+001 41478 94096,94226,94148
 1.6000e+000 94275 -2.1087e+001 -1.0790e+001 -2.2689e+001 41478 94148,94226,94174
 1.6000e+000 94252 -3.0300e+001 -3.6284e+000 -9.0314e+000 41478 94174,94226,94200
 1.6000e+000 94618 -2.4713e+001 -1.3114e+000  1.7422e+000 40910 94344,94422,94396
 1.6000e+000 94595 -6.4548e+001 -4.4029e+000 -8.7897e+000 40910 94344,94448,94422
 1.6000e+000 94572 -5.7056e+001  1.9915e+001  3.5645e+001 40910 94344,94474,94448
 1.6000e+000 94549 -2.0945e+001 -2.6120e+000  1.5118e-001 40910 94344,94396,94370
 1.6000e+000 94526 -8.8894e+001  1.6592e+001  4.4738e+001 40910 94344,94500,94474
 1.6000e+000 94866 -5.4852e+001 -1.0036e+001  3.2123e+000 40306 94667,94719,94693
 1.6000e+000 94843 -2.8000e+001 -1.6679e+001  2.5876e+000 40306 94641,94719,94667
 1.6000e+000 94820 -2.1021e+001 -4.0592e-001  1.1778e+000 40306 94641,94745,94719
 1.6000e+000 94797 -2.4460e+001  1.0776e+000  6.8775e-001 40306 94641,94771,94745
 1.6000e+000 95089 -1.2442e+002 -3.4928e+001 -1.2229e+001 39702 94913,94991,94939
 1.6000e+000 95066 -1.8826e+002 -5.4716e+001 -8.4304e+000 39702 94913,95017,94991
 1.6000e+000 95043 -2.2846e+002 -8.0225e+001 -1.9083e+001 39702 94939,94991,94965
 1.6000e+000 95339 -8.8041e+001  7.7294e+000  7.3953e+000 39248 95140,95218,95166
 1.6000e+000 95316 -1.3448e+002 -1.8628e+001  1.8741e+001 39248 95140,95244,95218
 1.6000e+000 95293 -5.9940e+001  3.6265e+000  2.3285e+001 39248 95114,95244,95140
 1.6000e+000 95270 -1.7407e+002 -2.5804e+000  2.1981e+001 39248 95166,95218,95192
 1.6000e+000 95770 -6.9939e+001 -6.7122e+001 -2.1992e+001 38694 95551,95629,95577
 1.6000e+000 95747 -1.1797e+002 -3.9276e+001 -2.8899e+001 38694 95447,95629,95551
 1.6000e+000 95724 -1.3859e+002 -7.8330e+001 -9.3918e+000 38694 95447,95551,95473
 1.6000e+000 95701 -1.1256e+002 -7.6564e+001 -1.5406e+001 38694 95473,95551,95499
 1.6000e+000 95678 -1.3198e+002 -8.7553e+001 -9.1487e+000 38694 95499,95551,95525
 1.6000e+000 95655 -3.8370e+001 -1.1499e+001 -3.1980e-001 38694 95577,95629,95603
 1.6000e+000 96325 -8.0449e+001 -1.6100e+001 -2.4152e+001 38240 95953,96031,96005
 1.6000e+000 96302 -6.2904e+001 -1.8031e+001 -4.1743e+001 38240 95953,96161,96031
 1.6000e+000 96279 -4.8589e+001  8.9023e+000 -4.7384e+001 38240 96031,96161,96135
 1.6000e+000 96256 -1.2411e+002 -2.2284e+001  1.6612e+001 38240 96348,96109,96057
 1.6000e+000 96233 -1.2265e+002 -1.1386e+002 -7.5257e+001 38240 96348,96057,96031
 1.6000e+000 96210 -8.4140e+001 -1.8823e+001  4.4723e+001 38240 96057,96109,96083
 1.6000e+000 96187 -1.9032e+001 -4.3177e-001  8.0284e+000 38240 95953,96005,95979
 1.6000e+000 96374 -5.1401e+001  6.1773e+001  5.2103e+001 38240 96135,96109,96348
 1.6000e+000 96397 -3.9342e+001 -3.5702e+001 -3.7348e+001 38240 96135,96348,96031
 1.6000e+000 96618 -1.3608e+002 -9.6356e+001 -1.6330e+001 37821 96494,96546,96520
 1.6000e+000 96595 -1.6866e+002 -7.3748e+001 -4.1033e+000 37821 96468,96546,96494
 1.6000e+000 96572 -1.7369e+002 -7.5900e+001 -3.7231e+000 37821 96442,96546,96468
 1.6000e+000 97126 -9.9024e+001 -3.3728e+000 -1.7182e+000 37367 97149,96855,96829
 1.6000e+000 97103 -4.8322e+001  1.2665e+001  1.6078e+001 37367 97149,96829,96985
 1.6000e+000 97080 -5.7196e+001  1.1014e+001  1.5673e+001 37367 96803,96985,96829
 1.6000e+000 97057 -1.5020e+001  7.8733e-001  6.7900e+000 37367 96855,96907,96881
 1.6000e+000 97034  1.4955e+001 -3.3431e+001  8.7160e+000 37367 96907,96985,96959
 1.6000e+000 97011 -1.3483e+001 -3.2097e+001 -1.2269e+001 37367 96907,96959,96933
 1.6000e+000 97175 -5.0612e+001  8.2712e+000  2.0717e+001 37367 96907,96855,97149
 1.6000e+000 97198 -1.4654e+001  1.2530e+001  3.7032e+001 37367 96907,97149,96985
 1.6000e+000 97704 -1.0064e+002 -3.4980e+001 -2.0040e+001 36863 97727,97511,97485
 1.6000e+000 97681 -9.1393e+001 -7.2259e+001 -6.6850e+001 36863 97727,97485,97433
 1.6000e+000 97658 -7.7712e+001 -8.0007e+001 -7.7162e+001 36863 97381,97563,97433
 1.6000e+000 97635 -4.0309e+001  4.6605e+000 -2.0873e+001 36863 97511,97563,97537
 1.6000e+000 97612 -1.3471e+002 -5.0105e+001 -8.4783e+001 36863 97433,97485,97459
 1.6000e+000 97589 -9.9391e+001 -1.5050e+001 -4.2293e+001 36863 97381,97433,97407
 1.6000e+000 97753 -6.2048e+001 -1.3030e+001 -1.1121e+001 36863 97563,97511,97727
 1.6000e+000 97776 -3.6862e+001 -4.1496e+001 -5.4380e+001 36863 97563,97727,97433
 1.6000e+000 98331  2.4568e+001  2.6884e+000 -1.0556e+000 36287 98354,98089,98063
 1.6000e+000 98308  2.6228e+001 -1.1541e+001  9.7144e+000 36287 98354,98063,98011
 1.6000e+000 98285  2.3615e+001  5.8238e+000  1.3459e+001 36287 98426,97985,98115
 1.6000e+000 98262  1.4108e+000 -7.3234e+000  2.1633e+001 36287 98011,98063,98037
 1.6000e+000 98239 -2.4914e+001  2.1006e+001 -6.9458e+000 36287 97985,98141,98115
 1.6000e+000 98216 -5.0284e+000  7.5117e-001 -2.3987e+001 36287 97959,98141,97985
 1.6000e+000 98193 -1.7294e+001 -2.0957e+001 -1.6039e+001 36287 97959,98167,98141
 1.6000e+000 98380 -3.4354e+001 -1.3081e+001  1.5738e-001 36287 98115,98089,98354
 1.6000e+000 98403  1.7419e+001  2.4040e+000  1.0873e+001 36287 98426,98115,98354
 1.6000e+000 98452  3.0047e+001 -2.5611e+000  5.5822e+000 36287 98011,97985,98426
 1.6000e+000 98475  2.4177e+001 -6.4254e+000  3.0042e+000 36287 98011,98426,98354
 1.6000e+000 99030 -6.1910e+001 -1.5522e+001 -1.5413e+001 35726 99053,98736,98710
 1.6000e+000 99007 -4.9725e+001 -6.4087e+000 -1.1417e+001 35726 99053,98710,98684
 1.6000e+000 98984 -5.9362e+001 -9.5359e+000 -8.0658e+000 35726 99125,98814,98736
 1.6000e+000 98961 -4.6477e+001 -3.9429e+001 -1.9557e+001 35726 98736,98814,98788
 1.6000e+000 98938 -1.2660e+002 -3.0859e+001 -9.6550e+000 35726 98684,98866,98840
 1.6000e+000 98915 -8.7803e+001 -4.4996e+001 -5.7708e+001 35726 98736,98788,98762
 1.6000e+000 98892 -1.9478e+001 -1.9226e+000 -1.9951e+000 35726 98658,98866,98684
 1.6000e+000 99079 -6.1530e+001 -8.0156e+000 -9.5078e+000 35726 99125,98736,99053
 1.6000e+000 99102 -5.8428e+001 -1.9859e+000 -1.0421e+001 35726 98840,99053,98684
 1.6000e+000 99151 -5.7797e+001 -9.2026e+000 -9.7781e+000 35726 98840,98814,99125
 1.6000e+000 99174 -5.7853e+001 -5.7539e+000 -1.1502e+001 35726 98840,99125,99053
 1.6000e+000 99454 -1.3337e+001  1.1872e+001 -3.6951e+001 35222 99278,99330,99304
 1.6000e+000 99431 -5.9719e+001 -1.5851e+001  8.0946e+000 35222 99278,99382,99330
 1.6000e+000 99408 -9.4442e+001  1.7131e+000  1.0847e+000 35222 99330,99382,99356
 1.6000e+000 99653 -1.5541e+002 -1.1539e+002  8.1943e+000 34867 99477,99529,99503
 1.6000e+000 99630 -1.3660e+002 -7.7713e+001 -4.6698e+000 34867 99477,99581,99529
 1.6000e+000 99607 -1.7797e+002 -1.3048e+002  2.7683e+001 34867 99529,99581,99555
 1.6000e+000 100104 -7.8517e+001  1.4187e+001 -1.3027e+001 34363 99781,99885,99807
 1.6000e+000 100081 -7.0736e+001  9.5172e+000  8.7736e+000 34363 99781,99963,99885
 1.6000e+000 100058 -1.2170e+002  1.3027e+001  1.3548e+001 34363 99885,99963,99911
 1.6000e+000 100035 -1.3372e+002  2.3650e+001 -2.2269e+001 34363 99807,99885,99859
 1.6000e+000 100012 -6.2919e+001  2.9527e+001  6.3007e+001 34363 99911,99963,99937
 1.6000e+000 99989 -1.2435e+002  8.6492e+000 -8.5620e+001 34363 99807,99859,99833
 1.6000e+000 100303 -4.9461e+001 -8.9799e+000  7.0465e+000 33909 100127,100205,100179
 1.6000e+000 100280 -1.9813e+001  1.1996e+001 -2.4526e+000 33909 100127,100231,100205
 1.6000e+000 100257 -4.4989e+001 -2.6917e+000 -3.0600e+000 33909 100127,100179,100153
 1.6000e+000 100890 -7.7888e+001 -5.4853e+001 -1.3863e+001 33412 100645,100749,100697
 1.6000e+000 100867 -1.0225e+002 -7.6612e+001 -2.7981e+001 33412 100567,100749,100645
 1.6000e+000 100844 -8.1758e+001 -2.4534e+001 -3.1071e+001 33412 100567,100645,100619
 1.6000e+000 100821 -1.4681e+002 -6.0937e+001 -8.6105e+000 33412 100645,100697,100671
 1.6000e+000 100798 -1.0940e+002 -4.0405e+001 -5.6308e+001 33412 100567,100619,100593
 1.6000e+000 100775 -1.0686e+002 -4.2563e+001 -6.0897e+000 33412 100697,100749,100723
 1.6000e+000 101268 -1.0846e+002 -1.0225e+001 -1.2382e+001 32908 101435,101291,101098
 1.6000e+000 101245 -7.5055e+001 -2.8789e+001 -4.5965e+000 32908 101291,101072,101020
 1.6000e+000 101222 -1.4883e+002 -5.4668e+001 -2.2753e+001 32908 101363,101150,101124
 1.6000e+000 101199 -7.5626e+001 -5.2653e+001 -3.7119e+001 32908 101020,101072,101046
 1.6000e+000 101176 -6.4090e+001 -3.8250e+001  4.5989e+000 32908 100994,101150,101020
 1.6000e+000 101317 -9.4551e+001 -1.6892e+001 -8.3795e+000 32908 101124,101098,101291
 1.6000e+000 101340 -1.1454e+002 -4.2603e+001 -2.1727e+001 32908 101363,101124,101291
 1.6000e+000 101389 -1.2682e+002 -5.4612e+001  1.6464e+000 32908 101020,101150,101363
 1.6000e+000 101412 -1.1353e+002 -5.0329e+001  5.6417e+000 32908 101020,101363,101291
 1.6000e+000 101461 -1.1742e+002 -3.0387e+001 -9.7840e+000 32908 101072,101291,101435
 1.6000e+000 101918 -4.6595e+001 -2.5703e+001 -3.4503e+001 32618 101941,101670,101644
 1.6000e+000 101895  2.1192e+001 -9.9939e+000  6.6491e+000 32618 101941,101644,101774
 1.6000e+000 101872 -1.5070e+002  2.2593e+000 -1.0496e+000 32618 102013,101696,101670
 1.6000e+000 101849 -8.1277e+001 -1.2259e+001  3.0818e+001 32618 101696,101748,101722
 1.6000e+000 101826  2.1379e+001  3.0842e+000  9.7915e+000 32618 101644,101800,101774
 1.6000e+000 101967 -1.3751e+002 -1.2669e+001 -2.9596e+001 32618 102013,101670,101941
 1.6000e+000 101990 -5.0009e+001  5.0523e+000 -1.6555e+001 32618 101748,101941,101774
 1.6000e+000 102039 -1.1703e+002 -6.3074e+000 -1.2849e+001 32618 101748,101696,102013
 1.6000e+000 102062 -5.2092e+001  7.1982e+000 -3.4564e+001 32618 101748,102013,101941
 1.6000e+000 102440 -9.7920e+001 -6.2322e+001 -3.1812e+001 32306 102463,102270,102244
 1.6000e+000 102417 -8.8806e+001 -4.3555e+001 -2.4740e+001 32306 102463,102244,102192
 1.6000e+000 102394 -8.5654e+001 -1.5018e+001 -2.6651e+001 32306 102192,102244,102218
 1.6000e+000 102371 -1.3288e+002 -2.8416e+001 -5.2988e+001 32306 102270,102322,102296
 1.6000e+000 102348 -1.0614e+002 -6.8174e+001 -6.7443e+001 32306 102166,102322,102192
 1.6000e+000 102489 -1.1308e+002 -5.8205e+001 -5.2443e+001 32306 102322,102270,102463
 1.6000e+000 102512 -9.9064e+001 -2.7185e+001 -4.4334e+001 32306 102322,102463,102192
 1.6000e+000 102662 -3.6224e+000 -2.1119e+001  2.8835e+001 31852 102943,102587,102561
 1.6000e+000 102639 -5.8297e+001 -1.6463e-001  9.2674e+000 31852 102815,102685,102561
 1.6000e+000 102711 -2.0912e+001 -4.4966e+000  3.6116e+001 31852 102943,102561,102685
 1.6000e+000 102841 -2.2064e+001  8.6025e+000  1.2192e+001 31852 102535,102685,102815
 1.6000e+000 102969  7.0285e+000 -5.6984e+000  1.7218e+001 31852 102613,102587,102943
 1.6000e+000 102992 -1.2891e+001  5.9892e+000  2.5510e+001 31852 102613,102943,102685
 1.6000e+000 103370 -4.1412e+001 -4.0024e+001  3.4192e+001 31134 103096,103200,103122
 1.6000e+000 103347 -4.6747e+001 -1.7818e+001 -2.9482e+001 31134 103096,103226,103200
 1.6000e+000 103324 -1.0840e+002 -6.7987e+000  2.3912e+000 31134 103122,103200,103174
 1.6000e+000 103301 -7.3679e+001 -3.3321e+001 -1.9652e+001 31134 103096,103252,103226
 1.6000e+000 103278 -1.2550e+002  5.6725e+000  2.5771e+001 31134 103122,103174,103148
 1.6000e+000 103520 -2.4124e+002 -4.1843e+001 -2.4378e+001 30822 103393,103445,103419
 1.6000e+000 103497 -2.5504e+002 -5.2273e+001 -1.6378e+001 30822 103393,103471,103445
 1.6000e+000 103719 -1.2359e+002  1.3722e+001 -9.4742e-002 30182 103742,103621,103569
 1.6000e+000 103696 -1.6475e+002  2.6455e+001 -6.9200e+000 30182 103742,103569,103543
 1.6000e+000 103673 -9.3260e+001  3.9559e+001  4.8499e+001 30182 103569,103621,103595
 1.6000e+000 103768 -1.0468e+002  1.9947e+001 -2.3499e+000 30182 103647,103621,103742
 1.6000e+000 103791 -1.2281e+002  4.9099e+001 -1.6833e+001 30182 103647,103742,103543
 1.6000e+000 104252 -8.8516e+001 -4.1688e+001 -9.7717e+000 29728 104030,104108,104056
 1.6000e+000 104229 -1.1932e+002 -4.6068e+001 -5.2731e+001 29728 104004,104108,104030
 1.6000e+000 104206 -1.2927e+002 -7.3181e+001 -6.2535e+001 29728 104004,104134,104108
 1.6000e+000 104183 -7.4800e+001  1.5292e+001 -2.5628e+001 29728 103978,104134,104004
 1.6000e+000 104160 -5.3698e+001 -3.2391e+001 -2.4328e+001 29728 104056,104108,104082
 1.6000e+000 104630 -5.8749e+001  2.8946e+000  3.5634e+001 29217 104653,104382,104356
 1.6000e+000 104607 -6.7638e+001 -7.3880e+000 -3.8963e+000 29217 104653,104356,104512
 1.6000e+000 104584 -3.8856e+000 -2.0459e+001  1.1054e+001 29217 104434,104512,104486
 1.6000e+000 104561 -3.9105e+000  2.5902e+001  2.7686e+001 29217 104382,104434,104408
 1.6000e+000 104538 -1.2165e+001 -1.7253e+001  1.4247e+001 29217 104434,104486,104460
 1.6000e+000 104679 -3.5005e+001  1.3039e+001  3.5222e+001 29217 104434,104382,104653
 1.6000e+000 104702 -2.8122e+001  9.3213e+000 -9.2776e-002 29217 104434,104653,104512
 1.6000e+000 105178 -1.2221e+002 -2.5342e+001 -9.9120e+000 28649 105201,104962,104936
 1.6000e+000 105155 -1.0614e+002 -3.9919e+001 -2.0385e+001 28649 105201,104936,104884
 1.6000e+000 105132 -9.8135e+001 -2.5502e+001 -1.6068e+001 28649 105273,104858,105014
 1.6000e+000 105109 -1.0847e+002 -2.5557e+001  1.5283e+000 28649 104962,105014,104988
 1.6000e+000 105086 -1.4136e+002 -3.6943e+001 -4.8495e+001 28649 104884,104936,104910
 1.6000e+000 105063 -5.5963e+001 -4.2636e+001 -3.0849e+001 28649 104806,105014,104858
 1.6000e+000 105040 -1.0420e+002 -7.2498e+001 -5.3296e+001 28649 104806,104858,104832
 1.6000e+000 105227 -1.0180e+002 -1.3091e+001 -4.4028e+000 28649 105014,104962,105201
 1.6000e+000 105250 -1.0114e+002 -2.6848e+001 -1.7836e+001 28649 105273,105014,105201
 1.6000e+000 105299 -9.4193e+001 -2.6254e+001 -1.3632e+001 28649 104884,104858,105273
 1.6000e+000 105322 -9.6227e+001 -2.7631e+001 -1.5645e+001 28649 104884,105273,105201
 1.6000e+000 105673 -2.9101e+002 -7.9688e+000  1.8030e+000 28351 105474,105578,105552
 1.6000e+000 105650 -2.5336e+002  7.7855e+001  1.1039e+001 28351 105448,105578,105474
 1.6000e+000 105627 -2.8791e+002  2.5243e+000 -2.1280e+001 28351 105500,105552,105526
 1.6000e+000 105604 -2.6810e+002  2.3393e+000 -3.0762e-001 28351 105474,105552,105500
 1.6000e+000 106130 -5.1921e+001 -7.3972e+000  1.0721e+001 28004 106153,105882,105856
 1.6000e+000 106107 -7.5554e+001 -1.1193e+001 -6.2575e+000 28004 106153,105856,105986
 1.6000e+000 106084 -3.1801e+001 -9.3706e+000  4.9984e+000 28004 105934,105986,105960
 1.6000e+000 106061 -1.3251e+001 -2.6622e+000 -3.2583e+001 28004 105856,106012,105986
 1.6000e+000 106038 -2.1757e+000  2.4769e+000 -2.0321e+000 28004 105882,105934,105908
 1.6000e+000 106179 -8.7701e+000 -6.7678e+000  1.8937e+001 28004 105934,105882,106153
 1.6000e+000 106202 -4.7054e+001 -1.2884e+001  7.5790e+000 28004 105934,106153,105986
 1.6000e+000 106885 -7.0160e+001  7.4798e+000 -3.0195e-001 27564 106908,106620,106516
 1.6000e+000 106862 -1.2822e+002 -1.5133e+000 -1.2707e+000 27564 106908,106516,106490
 1.6000e+000 106839 -1.3929e+002 -3.0862e+001  2.1766e+001 27564 106516,106620,106542
 1.6000e+000 106816 -7.1354e+001 -9.7741e+000  4.0307e+001 27564 106620,106672,106646
 1.6000e+000 106793 -1.7982e+002 -3.4792e+001  2.2938e+001 27564 106542,106620,106594
 1.6000e+000 106770 -1.1941e+002 -1.1540e+001 -1.1412e+001 27564 106490,106698,106672
 1.6000e+000 106747 -7.9430e+001 -4.3251e+001  2.5777e+001 27564 106464,106698,106490
 1.6000e+000 106724 -1.1541e+002 -3.5594e+001  4.5908e+001 27564 106542,106594,106568
 1.6000e+000 106934 -4.4573e+001 -1.8054e+000  7.6212e-001 27564 106672,106620,106908
 1.6000e+000 106957 -7.2029e+001  1.1044e+001 -4.7262e+000 27564 106672,106908,106490
 1.6000e+000 107463 -7.1797e+001 -3.8931e+001 -1.4104e+001 27053 107218,107322,107296
 1.6000e+000 107440 -5.7041e+001 -1.9406e-001  7.1482e+000 27053 107166,107322,107218
 1.6000e+000 107417 -4.9904e+001  1.4734e+001 -3.6774e+000 27053 107218,107296,107244
 1.6000e+000 107394 -2.3167e+001 -5.8657e+000  1.0237e+001 27053 107140,107322,107166
 1.6000e+000 107371 -2.1609e+001  4.6706e-001  4.7071e+000 27053 107166,107218,107192
 1.6000e+000 107348 -3.4920e+001  4.1648e+000 -2.4532e+001 27053 107244,107296,107270
 1.6000e+000 108097  1.5758e+001 -8.0237e+000 -2.5897e+001 26549 108192,108120,107803
 1.6000e+000 108074 -4.2885e+001  3.1704e+001 -4.4066e+001 26549 108120,107725,107933
 1.6000e+000 108051 -2.2046e+000 -6.1426e+000 -3.8088e+000 26549 107751,107803,107777
 1.6000e+000 108028 -4.2059e+000  2.3877e+000 -7.4548e+000 26549 108192,107803,107751
 1.6000e+000 108005 -1.1325e+002 -2.4656e+001 -6.8161e+001 26549 108264,107855,107803
 1.6000e+000 107982 -3.6043e+001  1.9395e+001 -4.3685e+001 26549 107881,107933,107907
 1.6000e+000 107959 -1.1205e+002 -4.2725e+001 -4.3335e+001 26549 107803,107855,107829
 1.6000e+000 108146 -6.7739e+000 -1.9728e+001 -6.0597e+001 26549 108264,107803,108120
 1.6000e+000 108169 -5.2657e+001  4.4237e+000 -3.7248e+001 26549 107881,108120,107933
 1.6000e+000 108218 -2.5683e+001 -2.1735e+001 -2.7726e+001 26549 107725,108120,108192
 1.6000e+000 108241 -4.1624e+001 -8.4192e+000 -1.0030e+001 26549 107725,108192,107751
 1.6000e+000 108290 -1.7944e+002  9.7046e+000 -4.2851e+001 26549 107881,107855,108264
 1.6000e+000 108313 -1.1070e+002 -1.7938e+001 -2.6693e+001 26549 107881,108264,108120
 1.6000e+000 108512 -1.4189e+002 -5.5701e+000  2.7324e+001 26137 108388,108440,108414
 1.6000e+000 108489 -1.5932e+002 -3.1194e+001  1.2700e+001 26137 108362,108440,108388
 1.6000e+000 108466 -2.0610e+002 -5.1745e+001  1.9448e+000 26137 108336,108440,108362
 1.6000e+000 108662 -1.0809e+002 -2.1093e+001 -4.6276e+000 25733 108817,108685,108535
 1.6000e+000 108639 -1.0966e+002 -9.4584e+000 -1.1161e+001 25733 109017,108817,108535
 1.6000e+000 108711 -8.3669e+001 -1.1180e+001 -2.5001e+001 25733 108561,108535,108685
 1.6000e+000 108843 -1.1853e+002 -1.7014e+001 -1.0053e+001 25733 108587,108685,108817
 1.6000e+000 108866 -1.1528e+002 -1.7449e+001 -6.7079e+000 25733 108889,108817,108613
 1.6000e+000 108915 -1.3555e+002 -2.7981e+001 -2.1948e+000 25733 108587,108817,108889
 1.6000e+000 109043 -1.1944e+002 -3.4528e+001 -9.8492e+000 25733 108613,108817,109017
 1.6000e+000 109500 -7.6743e+001 -4.0569e+001 -2.5101e+001 25229 109523,109356,109330
 1.6000e+000 109477 -8.3589e+001 -9.1753e+000 -1.0259e+001 25229 109595,109523,109330
 1.6000e+000 109454 -7.8555e+001 -3.0750e+001  9.8767e+000 25229 109595,109330,109278
 1.6000e+000 109431 -8.9567e+001  5.8870e+000 -4.9420e+001 25229 109667,109226,109382
 1.6000e+000 109408 -1.2915e+002 -1.2937e+001  3.0842e+001 25229 109278,109330,109304
 1.6000e+000 109549 -5.2072e+001 -2.5062e+001 -3.8023e+001 25229 109382,109356,109523
 1.6000e+000 109572 -7.3064e+001 -2.3296e+001 -5.5851e+001 25229 109667,109382,109523
 1.6000e+000 109621 -7.9785e+001  9.2255e+000 -6.8345e+000 25229 109252,109523,109595
 1.6000e+000 109644 -7.4161e+001  3.8719e+000  8.1701e+000 25229 109739,109595,109278
 1.6000e+000 109693 -2.2444e+002 -2.6777e+001 -2.5075e+001 25229 109252,109226,109667
 1.6000e+000 109716 -1.3275e+002 -5.6860e+000 -2.4497e+001 25229 109252,109667,109523
 1.6000e+000 109765 -7.3423e+001 -6.5787e+000 -9.9534e+000 25229 109252,109595,109739
 1.6000e+000 110478 -8.8120e+001 -7.7903e+000 -7.8705e+000 24917 110158,110236,110184
 1.6000e+000 110455 -4.6284e+001  9.5712e+000 -8.1334e+000 24917 110158,110288,110236
 1.6000e+000 110432 -5.7941e+001  5.4960e-001 -4.1412e+000 24917 110236,110288,110262
 1.6000e+000 110409 -4.7475e+001 -1.2291e+001  6.1003e+000 24917 110184,110236,110210
 1.6000e+000 110386 -3.9573e+001 -1.1841e+001  3.1418e+000 24917 110132,110288,110158
 1.6000e+000 110363 -2.1282e+001 -4.0256e+000  4.0499e+000 24917 110132,110314,110288
 1.6000e+000 110340 -2.0459e+001 -1.1489e+000  3.1257e+000 24917 110106,110314,110132
 1.6000e+000 110829 -2.5309e+002 -1.0962e+002  3.2839e+001 24307 110604,110682,110630
 1.6000e+000 110806 -2.0605e+002 -6.4120e+001  8.8941e+000 24307 110604,110708,110682
 1.6000e+000 110783 -1.7627e+002 -4.2921e+001 -1.4590e+001 24307 110604,110734,110708
 1.6000e+000 110760 -3.8447e+002 -1.6599e+002  3.8062e+001 24307 110630,110682,110656
 1.6000e+000 111335 -8.5730e+001 -1.5913e+001 -4.1842e+000 23767 111012,111168,111038
 1.6000e+000 111312 -4.2222e+001 -9.5143e+000 -3.4709e+001 23767 111012,111194,111168
 1.6000e+000 111289 -3.9182e+001  2.7807e+001 -4.2378e+001 23767 111358,111064,111038
 1.6000e+000 111266 -7.0038e+001  6.7561e+000 -1.6588e+001 23767 111358,111038,111168
 1.6000e+000 111243 -8.5545e+001 -2.2910e+001 -1.2552e+001 23767 111430,111142,111090
 1.6000e+000 111220 -1.0177e+002 -3.0164e+001 -1.5755e+001 23767 111090,111142,111116
 1.6000e+000 111384 -6.3310e+001  1.1411e+001 -1.5482e+001 23767 111090,111064,111358
 1.6000e+000 111407 -6.5004e+001 -1.0529e+001 -6.7688e+000 23767 111430,111090,111358
 1.6000e+000 111456 -1.0731e+002 -4.7546e-001 -8.3857e+000 23767 111168,111142,111430
 1.6000e+000 111479 -9.7288e+001  3.2784e+000 -5.8844e+000 23767 111168,111430,111358
 1.6000e+000 111985 -3.1337e+001 -3.2897e+001  6.7996e-001 23477 111688,111844,111818
 1.6000e+000 111962 -1.9339e+001 -4.6891e+000  4.9685e-001 23477 111662,111844,111688
 1.6000e+000 111939 -1.7793e+001 -1.1321e+001  1.5986e+001 23477 111766,111818,111792
 1.6000e+000 111916 -3.8384e+001 -1.5060e+001  1.7517e+001 23477 111740,111818,111766
 1.6000e+000 111893 -3.6730e+001 -1.5913e+001  2.8758e+000 23477 111688,111818,111740
 1.6000e+000 111870 -7.1839e+001 -1.3298e+001 -2.1399e+000 23477 111688,111740,111714
 1.6000e+000 112314 -1.1606e+002 -6.9562e+000 -1.1306e+001 23023 112141,112219,112193
 1.6000e+000 112291 -1.1885e+002 -4.9396e+001 -1.3608e+001 23023 112115,112219,112141
 1.6000e+000 112268 -1.0669e+002 -1.0950e+001 -1.6007e+000 23023 112141,112193,112167
 1.6000e+000 112245 -1.1064e+002 -1.8078e+001 -1.0535e+001 23023 112089,112219,112115
 1.6000e+000 112692 -1.3262e+002 -1.3540e+001 -1.0762e+001 22768 112444,112574,112548
 1.6000e+000 112669 -2.0283e+002 -2.5298e+000 -3.6583e+001 22768 112418,112574,112444
 1.6000e+000 112646 -1.0329e+002 -2.0957e+001 -1.0982e+001 22768 112444,112522,112470
 1.6000e+000 112623 -1.2993e+002 -1.0199e+001 -3.9724e+000 22768 112444,112548,112522
 1.6000e+000 112600 -1.0577e+002 -2.4754e+001  1.1739e+001 22768 112470,112522,112496
 1.6000e+000 113011 -2.8359e+002  2.6943e+001 -5.2109e+001 22314 112763,112867,112789
 1.6000e+000 112988 -3.4092e+002 -3.6818e+001 -2.7987e+001 22314 112763,112893,112867
 1.6000e+000 112965 -3.8351e+002 -2.7592e+001  0.0000e+000 22314 112815,112867,112841
 1.6000e+000 112942 -4.2400e+002 -3.8831e+001 -3.2626e+001 22314 112789,112867,112815
 1.6000e+000 112919 -2.3533e+002 -8.6196e+000 -4.6104e+001 22314 112737,112893,112763
 1.6000e+000 113519  9.7038e+000  1.0110e+001 -3.0254e+000 21924 113614,113542,113248
 1.6000e+000 113496 -8.4166e-002  1.0608e+001 -2.0487e+000 21924 113542,113196,113378
 1.6000e+000 113473  6.9372e-001  5.6069e+000 -1.0124e+000 21924 113614,113248,113222
 1.6000e+000 113450  1.8092e+001 -1.6627e+000  2.3591e+000 21924 113686,113274,113248
 1.6000e+000 113427  1.9231e+001  5.4698e-001  5.5623e+000 21924 113274,113352,113326
 1.6000e+000 113404  7.2203e+000  1.4052e+000 -3.1988e+000 21924 113274,113326,113300
 1.6000e+000 113568  1.1217e+001  4.7552e+000 -6.2052e+000 21924 113686,113248,113542
 1.6000e+000 113591  6.1681e+000  1.9479e+001 -8.8754e+000 21924 113352,113542,113378
 1.6000e+000 113640  7.9882e-001  1.2694e+001 -6.6343e+000 21924 113196,113542,113614
 1.6000e+000 113663 -1.6671e+000  1.2491e+001 -6.3198e+000 21924 113196,113614,113222
 1.6000e+000 113712  2.6939e+001  4.1038e+000 -1.6900e-001 21924 113352,113274,113686
 1.6000e+000 113735  2.5230e+001  1.2860e+001 -9.5077e+000 21924 113352,113686,113542
 1.6000e+000 113885 -1.1686e+001 -3.7898e+000  8.7944e+000 21520 113980,113908,113784
 1.6000e+000 113862 -7.0625e+000 -2.0896e+001  9.0012e+000 21520 114238,113908,113758
 1.6000e+000 113934 -3.3134e+000 -2.1443e+000  2.0972e+001 21520 114110,113908,113810
 1.6000e+000 113957  8.4154e+000 -8.1518e-001  5.8815e+000 21520 113810,113908,113836
 1.6000e+000 114006 -1.6157e+000 -8.5513e+000  1.0402e+001 21520 113758,113908,113980
 1.6000e+000 114136 -2.1828e+001 -4.1105e+000  1.2902e+001 21520 113784,113908,114110
 1.6000e+000 114264 -1.1104e+001 -9.0184e+000  1.1592e+001 21520 113836,113908,114238
 1.6000e+000 114662 -1.2765e+002 -1.6684e+001  2.8769e-002 21030 114414,114518,114492
 1.6000e+000 114639 -1.7088e+002 -3.4843e+001  1.7212e+001 21030 114414,114544,114518
 1.6000e+000 114616 -3.2888e+001  2.0967e+001 -2.2824e+000 21030 114440,114492,114466
 1.6000e+000 114593 -1.2969e+002 -2.0755e+001  2.1367e+000 21030 114414,114492,114440
 1.6000e+000 114570 -1.2867e+002 -1.2571e+001  3.2452e+001 21030 114388,114544,114414
 1.6000e+000 114959 -5.2820e+001  7.2150e+000  3.3966e+000 20512 114982,114711,114685
 1.6000e+000 114936 -4.8690e+001  4.3726e+000 -1.1477e+001 20512 115054,114982,114685
 1.6000e+000 114913 -2.8847e+001  3.8638e+000 -1.9699e+001 20512 115054,114685,114841
 1.6000e+000 114890  1.1785e+000  1.7469e+001  6.5446e+000 20512 114711,114763,114737
 1.6000e+000 114867 -1.0093e+001  1.3241e+001 -6.9891e+000 20512 114763,114815,114789
 1.6000e+000 115008 -3.9445e+001  1.1680e+001  1.7016e+000 20512 114763,114711,114982
 1.6000e+000 115031 -3.4761e+001  1.0623e+001 -6.2480e+000 20512 114763,114982,114815
 1.6000e+000 115080 -3.3171e+001  8.9361e+000 -4.6889e+000 20512 114815,114982,115054
 1.6000e+000 115103 -2.8760e+001  1.5120e+000 -5.4777e+000 20512 114815,115054,114841
 1.6000e+000 115507 -6.0929e+001 -2.3326e+001 -1.3283e+001 20143 115285,115389,115363
 1.6000e+000 115484 -8.7912e+001 -3.5865e+000  7.5418e+000 20143 115259,115389,115285
 1.6000e+000 115461 -1.5145e+002  2.0972e+000 -6.2033e+001 20143 115233,115389,115259
 1.6000e+000 115438  6.0851e+000  6.0444e-001  2.6354e-001 20143 115285,115337,115311
 1.6000e+000 115415 -4.3169e+001  1.4639e+000  3.7249e+000 20143 115285,115363,115337
 1.6000e+000 115875 -6.8224e+001 -1.3051e+000  2.1034e+000 19632 115656,115734,115682
 1.6000e+000 115852 -5.3875e+001  3.8606e+000  9.4263e+000 19632 115552,115734,115656
 1.6000e+000 115829 -5.9935e+001 -5.8296e+000 -1.4330e+001 19632 115552,115656,115578
 1.6000e+000 115806 -8.7953e+001  3.8600e+000 -3.4229e+000 19632 115578,115656,115630
 1.6000e+000 115783 -4.4254e+001  3.6052e-001 -2.0152e+001 19632 115682,115734,115708
 1.6000e+000 115760 -7.1868e+001 -5.0554e+000  1.9667e+001 19632 115578,115630,115604
 1.6000e+000 116025 -1.1523e+002 -2.5310e+000  1.0105e+001 19178 115898,115950,115924
 1.6000e+000 116002 -1.0923e+002  1.7839e+000  4.8968e+000 19178 115898,115976,115950
 1.6000e+000 116633 -9.2964e+001  1.3598e+001  2.6644e-001 18738 116800,116656,116342
 1.6000e+000 116610 -8.7774e+001  3.0944e+001 -3.3679e+001 18738 116656,116238,116446
 1.6000e+000 116587 -7.6887e+001 -5.6684e+000  6.5043e+000 18738 116728,116368,116342
 1.6000e+000 116564 -9.9873e+001  9.4920e-001  7.1227e+000 18738 116800,116342,116264
 1.6000e+000 116541 -6.7828e+001  3.1684e+002 -1.1035e+002 18738 116212,116446,116238
 1.6000e+000 116518 -6.5417e+001  3.7241e-001 -4.8821e+001 18738 116394,116446,116420
 1.6000e+000 116495 -2.5241e+002 -6.2784e+001  6.0833e+000 18738 116264,116342,116316
 1.6000e+000 116472 -7.1964e+001  9.0609e+000  1.3012e+000 18738 116264,116316,116290
 1.6000e+000 116682 -7.6120e+001  1.0458e+000 -1.0345e+001 18738 116728,116342,116656
 1.6000e+000 116705 -8.9446e+001 -1.4140e+001 -3.8839e+001 18738 116394,116656,116446
 1.6000e+000 116754 -5.3549e+001  5.8699e+000 -4.1805e+000 18738 116394,116368,116728
 1.6000e+000 116777 -4.9118e+001  1.5371e+001 -2.1467e+001 18738 116394,116728,116656
 1.6000e+000 116826 -1.0183e+002  4.1897e+001 -1.4131e+001 18738 116238,116656,116800
 1.6000e+000 116849 -1.1700e+002  2.4607e+001 -4.8451e+000 18738 116238,116800,116264
 1.6000e+000 116999  9.1857e+000 -1.5085e+000 -9.9532e-001 18184 116872,116924,116898
 1.6000e+000 116976  5.7367e+000  1.1467e+001 -1.8737e+000 18184 116872,116950,116924
 1.6000e+000 117330  1.4987e+001 -8.6014e-001  3.2256e-001 17694 117157,117235,117183
 1.6000e+000 117307 -3.4658e+000 -1.6905e+000  1.6351e-001 17694 117131,117235,117157
 1.6000e+000 117284 -3.6032e+000 -2.5793e+000 -2.9284e-001 17694 117105,117235,117131
 1.6000e+000 117261  2.1529e+001  8.9769e+000 -2.6464e+000 17694 117183,117235,117209
 1.6000e+000 117480 -7.2596e+001 -3.1121e+001  2.0353e+001 17290 117353,117405,117379
 1.6000e+000 117457 -2.2566e+001  9.2458e+000  2.5896e+000 17290 117353,117431,117405
 1.6000e+000 117679 -1.2715e+002 -6.8009e+001  5.9581e+000 16718 117555,117607,117581
 1.6000e+000 117656 -9.9270e+001 -4.1414e+001 -6.8032e+000 16718 117529,117607,117555
 1.6000e+000 117633 -1.4821e+002 -3.7514e+001 -1.1017e+000 16718 117503,117607,117529
 1.6000e+000 117782 -1.2900e+002 -9.5805e+000 -7.6774e+000 16520 117704,117756,117730
 1.6000e+000 117983 -1.7379e+002 -1.1277e+002  5.9541e+000 16208 117859,117911,117885
 1.6000e+000 117960 -1.4735e+002 -7.8941e+001 -1.8870e+001 16208 117833,117911,117859
 1.6000e+000 117937 -7.5230e+001 -4.0415e+001 -2.3919e+000 16208 117807,117911,117833
 1.6000e+000 118135 -1.9368e+001  1.0429e+001 -4.1997e+000 15674 118034,118086,118060
 1.6000e+000 118112 -1.1148e+002 -2.5076e+001 -7.0824e+000 15674 118008,118086,118034
 1.6000e+000 118238 -1.5641e+001 -1.8876e+000  1.3006e-001 15355 118160,118212,118186
 1.6000e+000 118341  1.9748e+000 -9.3746e-002 -1.8393e+000 421 118263,118315,118289
 1.7000e+000 68152 -2.5334e+000  2.3918e+001  1.8498e+001 67838 68074,68126,68100
 1.7000e+000 68550 -4.0303e+001 -8.3440e+001  8.7931e-002 67526 68276,68380,68302
 1.7000e+000 68527 -3.4103e+001 -7.2213e+001  7.0630e+000 67526 68276,68406,68380
 1.7000e+000 68504 -3.3523e+001 -6.6287e+001  6.2724e-002 67526 68328,68380,68354
 1.7000e+000 68481 -3.2846e+001 -6.6061e+001 -1.5541e-001 67526 68302,68380,68328
 1.7000e+000 68458 -3.0615e+001 -4.5076e+001  1.7037e+001 67526 68276,68432,68406
 1.7000e+000 68651 -2.2429e-015 -3.7016e-015 -7.2898e-017 67328 68573,68625,68599
 1.7000e+000 68970  2.9927e+001  7.4635e+000  7.9841e+000 67016 68722,68800,68774
 1.7000e+000 68947  1.8871e+001  4.9759e+000 -7.2200e+000 67016 68722,68826,68800
 1.7000e+000 68924 -2.3342e+001  5.5876e+000  2.8546e+000 67016 68696,68826,68722
 1.7000e+000 68901  3.0623e+001 -1.7813e+000  1.2568e+000 67016 68722,68774,68748
 1.7000e+000 68878 -2.2035e+001 -8.5056e-001  6.9423e+000 67016 68696,68852,68826
 1.7000e+000 69291 -5.5946e+001 -1.8300e+001 -1.1818e+001 66654 69069,69147,69095
 1.7000e+000 69268 -1.8153e+001 -1.3645e+001  3.3515e+000 66654 69069,69173,69147
 1.7000e+000 69245 -2.3169e+001 -1.7584e+001  6.4779e+000 66654 69043,69173,69069
 1.7000e+000 69222 -6.8583e+001 -1.8578e+001  5.7295e+000 66654 69095,69147,69121
 1.7000e+000 69199 -1.2239e+001  3.0607e+001 -1.9641e+000 66654 69017,69173,69043
 1.7000e+000 69695  3.1422e+000  1.4143e+001  7.2216e+000 66456 69447,69577,69551
 1.7000e+000 69672  6.2997e+001  2.0958e+001  9.9422e+000 66456 69421,69577,69447
 1.7000e+000 69649  3.7788e+001  9.3564e-001  2.5519e+000 66456 69473,69551,69525
 1.7000e+000 69626  9.4472e+000  2.0947e+001 -3.1497e+000 66456 69447,69551,69473
 1.7000e+000 69603  5.7608e+001  2.6139e+001 -1.9609e+001 66456 69473,69525,69499
 1.7000e+000 70024 -2.1513e+001 -1.5272e+001  2.9640e-001 66258 70047,69851,69825
 1.7000e+000 70001 -4.6345e+001 -4.7651e+001  2.4060e+001 66258 70047,69825,69903
 1.7000e+000 69978 -4.7656e+001 -4.3134e+001  2.3688e+001 66258 69799,69903,69825
 1.7000e+000 69955 -7.1919e+001 -1.2748e+002  1.8283e+001 66258 69799,69929,69903
 1.7000e+000 70073 -3.9286e+001 -4.0044e+001  3.6550e+001 66258 69877,69851,70047
 1.7000e+000 70096 -7.4635e+001 -8.6828e+001  6.2196e+001 66258 69877,70047,69903
 1.7000e+000 70602 -8.0184e+001 -5.9634e-001  2.4497e+001 66060 70305,70435,70331
 1.7000e+000 70579  2.5136e+001 -2.8765e+001 -5.7861e+000 66060 70279,70435,70305
 1.7000e+000 70556 -4.2343e+001  3.7874e+001 -5.5025e+000 66060 70331,70435,70409
 1.7000e+000 70533  2.5876e+001 -1.0768e+001 -2.5999e+001 66060 70279,70461,70435
 1.7000e+000 70510 -6.9476e+001 -4.3416e+000  6.1475e+000 66060 70331,70409,70357
 1.7000e+000 70487 -4.9826e+001  2.8297e+000  7.3972e+000 66060 70357,70409,70383
 1.7000e+000 70703 -4.1888e-001  3.5549e+000  2.3106e+000 65862 70625,70677,70651
 1.7000e+000 71083 -4.8087e+001 -7.7047e+001  8.9240e+000 65664 70887,70965,70939
 1.7000e+000 71060 -5.5637e+001 -6.6605e+001  9.3887e+000 65664 70861,70965,70887
 1.7000e+000 71037 -6.4580e+001 -7.4514e+001  3.7094e+000 65664 70809,70965,70861
 1.7000e+000 71014 -5.6889e+001 -2.2601e+001  1.9653e+001 65664 70809,70861,70835
 1.7000e+000 70991 -4.0695e+001 -6.9066e+001 -1.2590e+000 65664 70887,70939,70913
 1.7000e+000 71611 -2.1387e+000 -3.1520e+001 -5.7099e-001 65260 71288,71444,71314
 1.7000e+000 71588 -1.2457e+001 -2.3845e+001  5.8418e+000 65260 71288,71470,71444
 1.7000e+000 71565 -6.1605e+001 -2.2436e+001 -2.0598e+001 65260 71314,71418,71392
 1.7000e+000 71542  1.2026e-001 -2.9119e+001 -2.9924e+000 65260 71314,71444,71418
 1.7000e+000 71519 -4.8858e+001 -1.1804e+001 -1.2277e+001 65260 71314,71392,71340
 1.7000e+000 71496 -5.7914e+001 -2.1232e+001 -5.7155e+001 65260 71340,71392,71366
 1.7000e+000 72060 -2.4449e+001  3.6084e+000 -3.4743e+000 64870 71737,71893,71789
 1.7000e+000 72037 -3.7925e+001 -1.4955e+000  1.1345e-001 64870 71737,71919,71893
 1.7000e+000 72014 -2.1965e+001 -6.9276e+000 -3.2554e+001 64870 71789,71841,71815
 1.7000e+000 71991 -2.7299e+001  2.2708e+001 -9.2900e+000 64870 71789,71893,71841
 1.7000e+000 71968 -2.4242e+001 -2.9340e+000 -7.0352e+000 64870 71737,71789,71763
 1.7000e+000 71945 -6.0251e+001  6.7539e+000  0.0000e+000 64870 71841,71893,71867
 1.7000e+000 72517 -1.5727e+001  2.3273e+001 -5.0186e+000 64466 72321,72399,72347
 1.7000e+000 72494  3.1306e+001  1.9864e+001  3.0857e+000 64466 72269,72399,72321
 1.7000e+000 72471 -2.4461e+001 -9.1133e-001  3.8640e+000 64466 72347,72399,72373
 1.7000e+000 72448 -6.4090e-001 -7.7323e+000 -2.6502e+001 64466 72243,72399,72269
 1.7000e+000 72425  2.3450e+001  1.0165e+000  3.5271e+000 64466 72269,72321,72295
 1.7000e+000 72944  2.0448e+001  6.1617e+000  6.5537e+000 64062 73111,73039,72699
 1.7000e+000 72921  2.1243e+001  1.2468e+001  3.0776e+000 64062 73183,72967,72647
 1.7000e+000 72898  1.6424e+001 -7.7123e-001 -1.7356e+000 64062 72967,72803,72751
 1.7000e+000 72875  1.3314e+001  3.1103e+000  6.7274e+000 64062 73111,72699,72673
 1.7000e+000 72852  2.8946e+001  5.4511e+000  8.2112e+000 64062 73183,72647,72621
 1.7000e+000 72829  4.0937e+001  3.7806e-001  5.6118e+000 64062 72751,72803,72777
 1.7000e+000 72993  1.8981e+001  1.1154e+001  2.5316e+000 64062 73039,72647,72967
 1.7000e+000 73016  3.9249e+001  8.1676e+000  2.7667e-001 64062 72725,72967,72751
 1.7000e+000 73065  6.9317e+001  2.0644e+001  1.0489e+001 64062 72725,72699,73039
 1.7000e+000 73088  1.3535e+001 -1.3641e-001  4.5798e+000 64062 72725,73039,72967
 1.7000e+000 73137  4.3353e+000  5.3288e+000  5.7039e+000 64062 72647,73039,73111
 1.7000e+000 73160  3.1449e+000  5.0710e+000  5.0890e+000 64062 72647,73111,72673
 1.7000e+000 73209  1.1325e+001  7.0796e+000  5.1458e+000 64062 72803,72967,73183
 1.7000e+000 73232  1.7786e+001 -2.0581e+000  1.1798e+001 64062 72803,73183,72621
 1.7000e+000 73333 -2.5827e+001  1.4556e+001  9.9028e+000 63814 73356,73281,73255
 1.7000e+000 73382 -6.3524e+001 -1.4568e+001  1.9618e+001 63814 73486,73356,73307
 1.7000e+000 73512 -7.8084e+000  9.2237e+000  1.1957e+001 63814 73281,73356,73486
 1.7000e+000 73839 -8.3090e+001 -4.6889e-001  2.6358e+001 63616 73862,73692,73666
 1.7000e+000 73816 -7.0357e+001 -3.5057e+001  1.3494e+001 63616 73934,73862,73666
 1.7000e+000 73793 -6.3155e+001 -1.9281e+001  1.5585e+001 63616 73934,73666,73640
 1.7000e+000 73770 -5.2046e+001 -5.1028e+001 -2.4664e+000 63616 73614,73744,73640
 1.7000e+000 73888 -8.3735e+001 -3.5383e+001  3.0777e+001 63616 73718,73692,73862
 1.7000e+000 73911 -8.4438e+001 -6.3969e+001 -9.4247e+000 63616 73718,73862,73744
 1.7000e+000 73960 -7.3641e+001 -2.3014e+001  1.0784e+000 63616 73744,73862,73934
 1.7000e+000 73983 -7.2599e+001 -1.9747e+001  1.1140e+000 63616 73744,73934,73640
 1.7000e+000 74363  3.6311e+001  1.7692e+001 -5.1120e+000 63390 74386,74115,74089
 1.7000e+000 74340 -1.8223e+001  1.0060e+001  4.0683e+000 63390 74458,74386,74089
 1.7000e+000 74317 -1.9272e+001  9.0876e+000  5.2464e+000 63390 74458,74089,74245
 1.7000e+000 74294 -1.8506e+001 -5.7273e+000  2.5648e+001 63390 74530,74167,74141
 1.7000e+000 74271  1.8774e+001  4.5439e+000  6.0913e+000 63390 74167,74219,74193
 1.7000e+000 74412 -2.2424e+001 -3.8368e+000 -8.3218e+000 63390 74141,74115,74386
 1.7000e+000 74435 -3.4609e+001  7.7642e+000  1.1843e+001 63390 74530,74141,74386
 1.7000e+000 74484 -1.8332e+001  1.3311e+001  6.8666e-001 63390 74219,74386,74458
 1.7000e+000 74507 -2.1369e+001  1.1696e+001  2.1132e+000 63390 74219,74458,74245
 1.7000e+000 74556 -8.6868e-001  5.4047e+000  2.0623e+001 63390 74219,74167,74530
 1.7000e+000 74579 -1.1112e+001  2.2710e+001  5.3250e+000 63390 74219,74530,74386
 1.7000e+000 74680 -6.3918e+000 -4.0642e+000  1.6715e+000 63100 75089,74833,74703
 1.7000e+000 74729 -3.7081e+000 -6.9419e+000 -1.2722e+000 63100 74961,74703,74654
 1.7000e+000 74859 -4.9190e-001 -4.7058e+000  1.5616e+000 63100 74602,74703,74833
 1.7000e+000 74987 -4.6652e+000 -6.1538e+000  3.2224e+000 63100 75089,74703,74961
 1.7000e+000 75115 -1.3218e+001 -6.6583e+000  2.3758e+000 63100 74628,74833,75089
 1.7000e+000 75138 -1.1509e+001 -8.7681e+000  3.9264e+000 63100 74628,75089,74961
 1.7000e+000 75723 -2.0212e+001 -1.2983e+001  8.3384e+000 62532 75746,75504,75426
 1.7000e+000 75700 -4.9946e+001  3.6955e+000  2.5598e+001 62532 75746,75426,75556
 1.7000e+000 75677 -2.3595e+001 -9.9501e+000 -1.2957e-001 62532 75426,75504,75452
 1.7000e+000 75654 -8.9957e+001 -1.8716e+001  3.4886e+001 62532 75400,75556,75426
 1.7000e+000 75631 -8.7528e+001 -3.9734e+001  7.4004e-001 62532 75400,75582,75556
 1.7000e+000 75608 -1.4824e+001 -3.1683e+000 -3.1636e+000 62532 75452,75504,75478
 1.7000e+000 75772 -5.3584e+001 -7.1558e+000  6.3528e+000 62532 75530,75504,75746
 1.7000e+000 75795 -9.7132e+001 -1.2563e+000  2.3888e+001 62532 75530,75746,75556
 1.7000e+000 76301 -2.3384e+001 -3.6606e+000 -5.8339e+000 62192 76324,76082,76030
 1.7000e+000 76278 -1.9019e+001  2.1513e+000 -3.4581e+000 62192 76324,76030,76004
 1.7000e+000 76255 -1.9110e+001 -2.9052e+000 -2.9604e+000 62192 76030,76082,76056
 1.7000e+000 76232 -3.3418e+001  1.1884e+000 -3.0706e+000 62192 76082,76134,76108
 1.7000e+000 76209 -5.7240e+001 -3.1276e+000 -1.1619e+001 62192 76004,76160,76134
 1.7000e+000 76186 -2.1804e+001 -2.7740e+001  1.5565e+000 62192 75978,76160,76004
 1.7000e+000 76350 -3.0994e+001  4.4014e+000 -5.9952e+000 62192 76134,76082,76324
 1.7000e+000 76373 -2.5602e+001  1.2517e+001 -3.5266e+000 62192 76134,76324,76004
 1.7000e+000 76879 -1.9052e+001 -3.2529e+001  1.3480e+001 61788 76902,76660,76582
 1.7000e+000 76856 -4.0937e+001 -2.6305e+001  1.8498e+001 61788 76902,76582,76556
 1.7000e+000 76833 -7.8216e+000 -2.1411e+001  2.3569e+000 61788 76582,76660,76634
 1.7000e+000 76810 -1.1489e+001 -1.8031e+001  1.6252e+000 61788 76582,76634,76608
 1.7000e+000 76787 -2.0874e+001 -1.3096e+001  6.3622e+000 61788 76556,76738,76686
 1.7000e+000 76764 -5.0442e+001 -8.3816e+000  1.0199e+001 61788 76686,76738,76712
 1.7000e+000 76928 -9.0506e+000 -2.8924e+001  1.0955e+001 61788 76686,76660,76902
 1.7000e+000 76951 -2.5331e+001 -1.7007e+001  1.3739e+001 61788 76686,76902,76556
 1.7000e+000 77408  9.5902e-001 -1.9742e+001  2.1332e+001 61498 77212,77264,77238
 1.7000e+000 77385 -5.0823e+000  5.7797e+000 -2.2856e+001 61498 77160,77264,77212
 1.7000e+000 77362 -3.8696e+001 -2.2298e+000 -2.4732e+001 61498 77160,77290,77264
 1.7000e+000 77339 -6.7205e+001 -1.5788e+001 -9.7233e+000 61498 77160,77212,77186
 1.7000e+000 77316 -2.9900e+001 -4.1891e+000  5.5659e+000 61498 77134,77290,77160
 1.7000e+000 77678 -2.2111e+002 -3.3664e+001  2.8958e+000 61129 77479,77557,77505
 1.7000e+000 77655 -2.2453e+002 -9.8880e+001  1.4425e+000 61129 77479,77583,77557
 1.7000e+000 77632 -1.9222e+002 -1.5147e+002  2.1914e+001 61129 77453,77583,77479
 1.7000e+000 77609 -2.2158e+002  2.5821e+001  7.0592e+001 61129 77505,77557,77531
 1.7000e+000 77828 -1.4791e+001 -5.5894e+001  1.7657e+001 60931 77851,77727,77701
 1.7000e+000 77805 -4.4555e+001 -4.5406e+001  1.0867e+001 60931 77851,77701,77779
 1.7000e+000 77877 -3.3338e+001 -3.3347e+001  6.5298e+000 60931 77923,77851,77753
 1.7000e+000 77900 -8.6781e+001 -5.4550e+001 -1.8238e+000 60931 77753,77851,77779
 1.7000e+000 77949 -4.8880e+001 -7.0493e+001  7.8362e+000 60931 77727,77851,77923
 1.7000e+000 78133 -1.1877e+002 -3.8942e+001  6.2344e+000 60377 78055,78107,78081
 1.7000e+000 78535 -7.1023e+001  4.6454e+001 -1.9969e+001 60015 78287,78391,78313
 1.7000e+000 78512 -1.2733e+002 -6.2197e-001  2.9695e-001 60015 78287,78417,78391
 1.7000e+000 78489 -6.2219e+001  2.0549e+001 -2.3768e+000 60015 78261,78417,78287
 1.7000e+000 78466 -2.0819e+002 -6.1291e+001  1.6415e+001 60015 78339,78391,78365
 1.7000e+000 78443 -2.1049e+002 -7.8303e+000 -1.1322e+001 60015 78313,78391,78339
 1.7000e+000 78913 -4.3897e+000  3.7992e+000 -2.2325e+000 59725 78936,78743,78691
 1.7000e+000 78890  4.3655e+000 -4.0359e+000 -4.6062e-001 59725 79008,78936,78691
 1.7000e+000 78867  6.9835e+000  3.0742e+000 -1.5461e+000 59725 79008,78691,78665
 1.7000e+000 78844 -1.2978e+001 -3.5529e+000  4.5459e+000 59725 78691,78743,78717
 1.7000e+000 78821  1.5932e+001  1.2403e+001 -7.9510e+000 59725 78639,78795,78769
 1.7000e+000 78962 -1.5792e+001  1.3699e+000  4.3981e+000 59725 78769,78743,78936
 1.7000e+000 78985  2.6408e+000 -8.7665e+000  3.5336e+000 59725 78769,78936,78639
 1.7000e+000 79034  8.0703e+000 -1.3580e+000 -5.3145e+000 59725 78639,78936,79008
 1.7000e+000 79057  7.5018e+000  5.7482e-001 -6.1147e+000 59725 78639,79008,78665
 1.7000e+000 79386 -7.6576e+000  1.2519e+001  1.2355e+001 59221 79187,79239,79213
 1.7000e+000 79363 -1.0906e+001  5.4467e-001  1.7129e+001 59221 79187,79265,79239
 1.7000e+000 79340  1.4414e+001  5.0521e+000  9.0360e+000 59221 79187,79291,79265
 1.7000e+000 79317  2.4834e+001  2.7178e+001 -4.3938e+000 59221 79161,79291,79187
 1.7000e+000 79813 -1.7979e+002 -5.0393e+001  4.0314e+001 58831 79836,79542,79516
 1.7000e+000 79790 -1.1119e+002 -1.4722e+001  2.7402e+001 58831 79980,79836,79516
 1.7000e+000 79767 -5.4212e+001 -6.4610e+001  2.4144e+001 58831 79908,79646,79568
 1.7000e+000 79744 -1.6303e+002 -4.6002e+001  1.4297e+001 58831 79980,79516,79490
 1.7000e+000 79721 -2.3697e+000 -9.2594e+001 -2.5425e-001 58831 79568,79646,79594
 1.7000e+000 79698 -8.5589e+001 -2.4853e+002 -3.1787e+001 58831 79594,79646,79620
 1.7000e+000 79862 -9.9744e+001 -4.7803e+001  3.9896e+001 58831 79568,79542,79836
 1.7000e+000 79885 -6.2127e+001 -6.5205e+001  1.6476e+001 58831 79908,79568,79836
 1.7000e+000 79934 -4.8646e+001 -6.2734e+001  2.4792e+001 58831 79672,79646,79908
 1.7000e+000 79957 -4.8236e+001 -5.9493e+001  1.6655e+001 58831 79672,79908,79836
 1.7000e+000 80006 -9.9287e+001 -5.4138e+001  6.6531e+000 58831 79672,79836,79980
 1.7000e+000 80029 -1.0966e+002 -5.9305e+001  4.9626e+000 58831 79672,79980,79490
 1.7000e+000 80358  1.8503e+001 -9.2945e-001 -1.6539e+000 58377 80381,80185,80159
 1.7000e+000 80335  1.1858e+001  1.3606e+000 -5.2603e-001 58377 80381,80159,80133
 1.7000e+000 80312  3.2159e+001  7.8941e+000 -5.2903e+000 58377 80133,80263,80237
 1.7000e+000 80289  2.6473e+001 -4.9016e-001 -4.3034e+000 58377 80185,80237,80211
 1.7000e+000 80407  2.7601e+001  8.9271e-001 -3.7747e+000 58377 80237,80185,80381
 1.7000e+000 80430  1.6846e+001  3.2909e-002 -2.4593e+000 58377 80237,80381,80133
 1.7000e+000 80759 -3.1127e+001  1.9148e+001 -9.6623e+000 57873 80782,80586,80560
 1.7000e+000 80736 -3.4213e+001  1.6053e+001 -1.0927e+001 57873 80782,80560,80534
 1.7000e+000 80713  3.6135e+001  9.8445e-001  8.0560e+000 57873 80586,80638,80612
 1.7000e+000 80690  3.0501e+001  8.1746e+000  1.9313e+001 57873 80534,80664,80638
 1.7000e+000 80808 -3.2617e+001  1.6259e+001 -1.1330e+001 57873 80638,80586,80782
 1.7000e+000 80831 -3.2691e+001  1.5576e+001 -1.1860e+001 57873 80638,80782,80534
 1.7000e+000 81337 -3.5666e+001 -5.9466e+001  1.2465e+001 57262 81360,81144,81092
 1.7000e+000 81314 -3.8299e+001 -5.5988e+001  2.8802e+001 57262 81360,81092,81066
 1.7000e+000 81291 -6.4676e+001 -2.5247e+001  2.4465e+001 57262 81014,81196,81066
 1.7000e+000 81268 -3.3844e+001 -5.4737e+001  1.3272e+001 57262 81092,81144,81118
 1.7000e+000 81245 -5.1486e+001 -4.4369e+001  1.9450e-001 57262 81144,81196,81170
 1.7000e+000 81222 -5.6543e+001 -1.3051e+000 -6.6412e+000 57262 81014,81066,81040
 1.7000e+000 81386 -5.5216e+001 -6.7350e+001  1.0352e+001 57262 81196,81144,81360
 1.7000e+000 81409 -5.1538e+001 -6.0930e+001  2.7679e+001 57262 81196,81360,81066
 1.7000e+000 81608 -2.6721e+002 -1.0796e+002 -3.9725e+001 57007 81458,81536,81510
 1.7000e+000 81585 -2.4467e+002 -8.4375e+001 -2.7275e+001 57007 81432,81536,81458
 1.7000e+000 81562 -1.0612e+002 -1.0697e+002 -7.9480e+001 57007 81458,81510,81484
 1.7000e+000 82086 -3.1294e+001 -1.7853e+001  5.5557e+000 56339 81792,81922,81818
 1.7000e+000 82063 -1.6283e+001 -1.1085e+001  7.8664e+000 56339 81714,81922,81792
 1.7000e+000 82040 -4.6524e+001 -7.6187e+000  1.0349e+000 56339 82109,81844,81818
 1.7000e+000 82017 -3.0759e+001 -1.6821e+001  3.3929e+000 56339 82109,81818,81922
 1.7000e+000 81994 -4.4157e+001 -4.5870e+000 -1.3807e+001 56339 81844,81896,81870
 1.7000e+000 81971 -1.3050e+001  2.1988e-001 -1.2529e+000 56339 81714,81792,81766
 1.7000e+000 81948 -3.2843e+000 -1.5621e+000  2.5722e+000 56339 81714,81766,81740
 1.7000e+000 82135 -6.1382e+001 -1.2032e+001  2.5452e+000 56339 81896,81844,82109
 1.7000e+000 82158 -4.2909e+001 -1.9609e+001  6.1247e+000 56339 81896,82109,81922
 1.7000e+000 82536 -7.0105e+001  6.5443e+000 -1.0312e+001 55699 82288,82392,82314
 1.7000e+000 82513 -2.8442e+001  2.7510e+001  1.9081e+000 55699 82288,82418,82392
 1.7000e+000 82490  8.1876e+000 -2.6738e+001  2.4216e+001 55699 82314,82392,82340
 1.7000e+000 82467  1.0045e+001  2.2019e+000  2.1799e+001 55699 82340,82392,82366
 1.7000e+000 82444 -7.6951e+001  1.4136e+001 -9.0924e+000 55699 82262,82418,82288
 1.7000e+000 83091 -3.4003e+001  7.6849e+000 -1.1682e+001 55409 82745,82901,82875
 1.7000e+000 83068 -1.2826e+001 -6.1244e+001 -1.2002e+001 55409 82719,82901,82745
 1.7000e+000 83045 -2.0545e+001 -2.9419e+001 -5.8627e+000 55409 82771,82849,82823
 1.7000e+000 83022 -3.3665e+000 -1.4846e+001  1.2845e+001 55409 82745,82849,82771
 1.7000e+000 82999 -2.3595e+001  1.0413e+001  1.1361e+001 55409 82745,82875,82849
 1.7000e+000 82976 -9.7339e+000 -1.1041e+001 -1.1941e+001 55409 82771,82823,82797
 1.7000e+000 82953 -1.4314e+001 -3.0036e+001 -2.3171e+001 55409 82719,82927,82901
 1.7000e+000 83388 -1.5878e+001  9.8460e+000  6.7830e+000 54905 83411,83218,83166
 1.7000e+000 83365 -2.8609e+001  2.0237e+000  3.4842e+000 54905 83411,83166,83114
 1.7000e+000 83342 -1.4502e+001 -2.9622e-001  1.1345e+000 54905 83483,83270,83244
 1.7000e+000 83319 -6.6306e+001  2.0578e+001 -7.9012e+000 54905 83166,83218,83192
 1.7000e+000 83296 -3.0028e+001  6.0070e-002  2.9025e+000 54905 83114,83166,83140
 1.7000e+000 83437 -1.2774e+001  1.1010e+000  1.7285e+000 54905 83244,83218,83411
 1.7000e+000 83460 -1.6633e+001 -9.1226e-001  9.7685e-001 54905 83483,83244,83411
 1.7000e+000 83509 -1.6274e+001 -1.2244e+000  5.9237e-001 54905 83114,83270,83483
 1.7000e+000 83532 -1.7407e+001 -1.3517e+000  4.6584e-001 54905 83114,83483,83411
 1.7000e+000 83961 -1.7273e+002 -1.4757e+002 -2.0132e+000 54593 83638,83768,83690
 1.7000e+000 83938 -8.8569e+001 -1.1667e+002 -7.8583e+000 54593 83638,83794,83768
 1.7000e+000 83915 -1.1834e+002 -8.2031e+001  3.3210e+001 54593 83690,83768,83742
 1.7000e+000 83892 -1.8830e+002 -1.4390e+002 -1.8205e+001 54593 83638,83820,83794
 1.7000e+000 83869 -1.6955e+002 -1.3498e+002 -3.7353e+000 54593 83638,83690,83664
 1.7000e+000 83846 -1.0107e+002 -9.7648e+001  5.4743e+001 54593 83690,83742,83716
 1.7000e+000 84209 -1.0258e+001  1.1257e+000 -4.5114e-001 54132 84232,84062,83984
 1.7000e+000 84186 -7.9868e-001 -1.5252e+000 -1.3699e+000 54132 84232,83984,84114
 1.7000e+000 84163 -1.1922e+001 -1.8391e+000 -2.9436e+000 54132 83984,84062,84036
 1.7000e+000 84140 -1.1685e+001 -7.3514e+000 -2.1016e+000 54132 83984,84036,84010
 1.7000e+000 84258 -1.4575e+000 -1.1338e+000  1.8604e-001 54132 84088,84062,84232
 1.7000e+000 84281  1.2572e+001 -3.4368e-001 -4.6275e-001 54132 84088,84232,84114
 1.7000e+000 84382 -1.8047e+002 -1.3407e+002 -1.7621e+001 53521 84304,84356,84330
 1.7000e+000 84632 -2.5104e+001 -1.5154e+001  3.8742e-001 53067 84655,84485,84459
 1.7000e+000 84609 -3.0531e+001 -5.0565e+000  4.9650e-002 53067 84655,84459,84407
 1.7000e+000 84586 -3.9878e+001 -2.6254e+001  5.8957e+000 53067 84485,84537,84511
 1.7000e+000 84563 -2.7153e+001  3.8388e-001 -4.4185e+000 53067 84407,84459,84433
 1.7000e+000 84681 -2.5895e+001 -6.3399e+000 -2.1446e+000 53067 84537,84485,84655
 1.7000e+000 84704 -2.6325e+001  7.6100e+000 -4.9859e+000 53067 84537,84655,84407
 1.7000e+000 85214 -1.3451e+002 -6.1607e+001  2.9796e+001 52513 85021,85073,85047
 1.7000e+000 85191 -1.2329e+002 -2.2759e+001  1.9879e+001 52513 84943,85073,85021
 1.7000e+000 85168 -2.7688e+002 -9.7237e+001 -2.0399e+001 52513 84943,85021,84995
 1.7000e+000 85145 -1.5124e+002 -1.0324e+002  3.2517e+001 52513 84917,85073,84943
 1.7000e+000 85122 -2.1192e+002 -1.0710e+002 -2.4099e+001 52513 84943,84995,84969
 1.7000e+000 85099 -3.1371e+001 -6.1635e+001  5.1522e+001 52513 84891,85073,84917
 1.7000e+000 85582 -2.9832e+001  1.3972e+001  3.1975e+000 52037 85605,85311,85285
 1.7000e+000 85559 -4.8482e+001 -4.7543e+000  1.5641e+001 52037 85749,85605,85285
 1.7000e+000 85536 -4.4249e+001  5.9333e+001 -1.6134e+001 52037 85893,85677,85389
 1.7000e+000 85513 -6.7693e+001 -2.5786e+001  2.5250e+001 52037 85749,85285,85259
 1.7000e+000 85490 -1.9468e+001  6.6240e+001 -4.3664e+001 52037 85893,85389,85363
 1.7000e+000 85467 -8.9928e+001  2.7422e+001  1.2013e+001 52037 85259,85441,85415
 1.7000e+000 85631 -4.9649e+001  1.4026e+001  1.2201e+001 52037 85337,85311,85605
 1.7000e+000 85654 -5.0239e+001  1.9852e+001  9.7890e+000 52037 85677,85337,85605
 1.7000e+000 85703 -9.3908e+001  3.1162e+001 -4.1275e+000 52037 85415,85389,85677
 1.7000e+000 85726 -6.0524e+001  2.3069e+001  9.4108e+000 52037 85821,85677,85605
 1.7000e+000 85775 -7.5456e+001  1.8400e+001  1.3281e+001 52037 85821,85605,85749
 1.7000e+000 85798 -9.7285e+001  4.9366e+000  1.0505e+001 52037 85415,85749,85259
 1.7000e+000 85847 -6.1572e+001  2.5424e+001 -2.3918e+000 52037 85415,85677,85821
 1.7000e+000 85870 -6.7147e+001  2.4953e+001  1.5546e+000 52037 85415,85821,85749
 1.7000e+000 85919 -5.5818e+001  1.7109e+001  8.5983e+000 52037 85337,85677,85893
 1.7000e+000 85942 -4.6379e+001  1.3799e+001 -1.6961e+001 52037 85337,85893,85363
 1.7000e+000 86224 -3.4739e+001 -1.4076e+001 -1.3431e+001 51368 86375,86100,86074
 1.7000e+000 86201  2.8060e-001  3.4957e-001 -1.1671e+001 51368 86375,86074,86247
 1.7000e+000 86178 -1.4987e+001 -5.9989e+000  2.3510e+000 51368 86048,86152,86126
 1.7000e+000 86273 -2.9351e+001  1.1119e+001  4.9595e+000 51368 86048,86126,86247
 1.7000e+000 86401 -5.3670e+001  4.0202e+000  3.8184e+000 51368 86126,86100,86375
 1.7000e+000 86424 -3.5994e+001  8.3811e+000  4.7837e+000 51368 86126,86375,86247
 1.7000e+000 86802 -6.1839e+001  3.0262e+000 -4.7331e+000 51028 86528,86632,86580
 1.7000e+000 86779 -1.3269e+001 -2.8629e+000 -1.2729e+001 51028 86528,86684,86632
 1.7000e+000 86756 -6.2470e+001 -4.1966e-002  2.0015e+000 51028 86528,86580,86554
 1.7000e+000 86733  1.6943e+001  8.5915e+000  1.7027e+001 51028 86632,86684,86658
 1.7000e+000 86710 -3.7039e+001  1.6118e-001 -1.5715e+001 51028 86580,86632,86606
 1.7000e+000 87131 -1.8951e+001 -3.0506e+000  9.9473e+000 50624 86958,87036,87010
 1.7000e+000 87108 -3.1044e+001 -2.6997e+000  6.3939e+000 50624 86932,87036,86958
 1.7000e+000 87085 -4.3054e+001 -1.1885e+001  2.0950e+000 50624 86958,87010,86984
 1.7000e+000 87062 -2.6083e+001 -1.2655e+001 -1.4544e+001 50624 86906,87036,86932
 1.7000e+000 87330 -6.8217e+001 -2.5193e+000 -6.6884e+000 50234 87353,87180,87154
 1.7000e+000 87307 -5.8623e+001  1.6407e+000 -8.3472e+000 50234 87353,87154,87258
 1.7000e+000 87284 -4.0019e+001  6.6164e-001  5.5245e-001 50234 87206,87258,87232
 1.7000e+000 87379 -5.9140e+001 -1.5466e+001 -4.1449e-001 50234 87206,87180,87353
 1.7000e+000 87402 -4.2405e+001 -5.8645e+000 -4.7554e+000 50234 87206,87353,87258
 1.7000e+000 87650 -4.1310e+001 -9.8639e-002  7.9904e+000 49730 87673,87503,87451
 1.7000e+000 87627 -4.6239e+001 -1.8879e+000  9.9971e+000 49730 87673,87451,87425
 1.7000e+000 87604 -3.2883e+001 -3.4459e+000  1.4077e+001 49730 87503,87555,87529
 1.7000e+000 87581 -1.2558e+002  6.2428e+000  2.3296e+001 49730 87451,87503,87477
 1.7000e+000 87699 -4.0702e+001  1.7346e-002  7.3254e+000 49730 87555,87503,87673
 1.7000e+000 87722 -4.1969e+001  1.7749e+000  8.4071e+000 49730 87555,87673,87425
 1.7000e+000 88232 -2.3892e+001 -2.2339e+001  2.5067e+001 49176 88255,87935,87909
 1.7000e+000 88209 -5.0736e+000 -1.4276e+001 -2.4629e+000 49176 88255,87909,88065
 1.7000e+000 88186 -8.8422e+001  1.9062e+001  6.0374e+000 49176 87935,88039,87961
 1.7000e+000 88163 -1.3707e+001 -5.3372e+000 -6.2038e+000 49176 87909,88091,88065
 1.7000e+000 88140 -8.6491e+001  1.7758e+001 -2.3462e+001 49176 87961,88039,88013
 1.7000e+000 88117 -9.6411e+001 -4.6231e-001 -1.9731e+001 49176 87961,88013,87987
 1.7000e+000 88281  2.0965e+000 -1.1411e+001  1.4234e+001 49176 88039,87935,88255
 1.7000e+000 88304  2.0246e+001 -4.5772e+000 -1.2986e+001 49176 88039,88255,88065
 1.7000e+000 88503 -2.3224e+001 -2.7006e+001 -2.1643e+001 48772 88526,88379,88353
 1.7000e+000 88480  1.1477e+001  1.5951e+001 -5.5623e+000 48772 88526,88353,88327
 1.7000e+000 88457 -2.6903e+000  2.3885e+001  3.1743e+001 48772 88379,88431,88405
 1.7000e+000 88552 -3.3773e+001  1.3582e+001 -1.8993e+001 48772 88431,88379,88526
 1.7000e+000 88575 -2.5578e+001  2.9588e+001 -1.3551e+001 48772 88431,88526,88327
 1.7000e+000 89083 -4.0127e+001 -8.8577e+001  8.8341e+000 48368 88786,88916,88864
 1.7000e+000 89060 -4.5536e+001 -8.1508e+001  2.1546e+000 48368 88786,88942,88916
 1.7000e+000 89037 -3.9372e+001 -1.1292e+002 -6.4536e-001 48368 88786,88864,88812
 1.7000e+000 89014 -8.1191e+001 -6.3560e+001  8.7729e+000 48368 88864,88916,88890
 1.7000e+000 88991 -4.4065e+001 -6.5916e+001 -3.6806e+001 48368 88812,88864,88838
 1.7000e+000 88968 -4.7685e+001 -9.0363e+001 -9.1713e+000 48368 88760,88942,88786
 1.7000e+000 89331 -1.8011e+002 -1.1265e+002 -5.3340e+001 47928 89158,89236,89210
 1.7000e+000 89308 -1.7169e+002 -7.1871e+001 -4.3583e+001 47928 89132,89236,89158
 1.7000e+000 89285 -8.8165e+001 -1.1199e+002 -2.0650e+001 47928 89158,89210,89184
 1.7000e+000 89262 -1.6673e+002 -5.6846e+001 -3.9120e+001 47928 89106,89236,89132
 1.7000e+000 89662 -1.3491e+001 -1.2116e+000  2.1160e+001 47588 89463,89541,89515
 1.7000e+000 89639  1.8305e+001 -7.1545e+000 -5.9962e+000 47588 89463,89567,89541
 1.7000e+000 89616 -5.6549e+001 -6.5586e+000 -2.4846e+001 47588 89463,89515,89489
 1.7000e+000 89593  2.6584e+001 -1.1549e+001 -7.8093e-001 47588 89437,89567,89463
 1.7000e+000 89763 -4.5892e+002 -1.9389e+002 -2.0196e+001 47390 89685,89737,89711
 1.7000e+000 89913 -3.2454e+002 -1.5183e+002 -2.6988e+001 47078 89786,89838,89812
 1.7000e+000 89890 -2.3268e+002 -1.7304e+002 -2.8250e+001 47078 89786,89864,89838
 1.7000e+000 90163 -2.0568e+001  2.1052e+000  1.0776e+001 46474 89964,90042,89990
 1.7000e+000 90140 -2.6708e+001  6.5373e-001  6.3090e+000 46474 89938,90042,89964
 1.7000e+000 90117  6.7816e-001  9.9907e+000  1.5807e+001 46474 89990,90042,90016
 1.7000e+000 90094 -6.9191e+000  7.8132e-001  1.8078e+000 46474 89938,90068,90042
 1.7000e+000 90364 -1.7450e+001 -2.4651e+001  1.0810e+001 46184 90240,90292,90266
 1.7000e+000 90341 -1.4324e+001 -1.1601e+001  1.7613e+001 46184 90188,90292,90240
 1.7000e+000 90318 -4.8104e+001 -1.6099e+001  4.0783e+000 46184 90188,90240,90214
 1.7000e+000 90565 -1.0518e+002  7.0762e+000 -2.1455e+001 45780 90588,90415,90389
 1.7000e+000 90542 -6.4500e+001  1.3093e+001 -2.0841e+001 45780 90588,90389,90493
 1.7000e+000 90519 -7.8771e+001 -2.6530e+001 -2.7261e+000 45780 90415,90467,90441
 1.7000e+000 90614 -7.3522e+001 -9.8589e+000  5.0900e+000 45780 90467,90415,90588
 1.7000e+000 90637 -2.3160e+001  7.0342e+000  1.0805e+001 45780 90467,90588,90493
 1.7000e+000 91196  3.5396e+000  5.5698e+000  8.1085e+000 45226 91219,90876,90850
 1.7000e+000 91173 -8.6288e+000  2.3557e+000  3.7697e+000 45226 91219,90850,91032
 1.7000e+000 91150  1.1626e+000 -3.1891e+000 -3.5389e+000 45226 90824,91032,90850
 1.7000e+000 91127 -1.0429e+001 -2.8801e+000  9.1052e+000 45226 90876,90980,90902
 1.7000e+000 91104 -1.0096e+001  2.1089e+000  3.7693e+000 45226 90876,91006,90980
 1.7000e+000 91081  1.3900e+000 -4.6485e+000  2.4482e+000 45226 90902,90980,90954
 1.7000e+000 91058  2.2402e+000 -2.1764e+000 -2.4584e-002 45226 90902,90954,90928
 1.7000e+000 91245 -8.2570e+000  3.4532e+000  4.4814e+000 45226 91006,90876,91219
 1.7000e+000 91268 -1.9868e+001  1.5538e+000  9.4321e-001 45226 91006,91219,91032
 1.7000e+000 91516 -7.2381e+001 -2.1369e+001 -1.2521e+001 44836 91539,91421,91395
 1.7000e+000 91493 -1.6080e+002 -1.7074e+001 -3.4988e+001 44836 91317,91421,91343
 1.7000e+000 91470 -1.1272e+002 -3.5662e+001 -7.7357e+000 44836 91539,91395,91369
 1.7000e+000 91447 -8.7960e+001 -7.0566e+001 -7.5023e+001 44836 91291,91421,91317
 1.7000e+000 91565 -8.9626e+001 -1.5098e+001 -3.5866e+001 44836 91343,91421,91539
 1.7000e+000 91588 -1.1171e+002 -2.2508e+001 -3.7326e+001 44836 91343,91539,91369
 1.7000e+000 91787 -3.3792e+001 -3.8614e-001 -5.8483e+000 44432 91810,91637,91611
 1.7000e+000 91764 -2.7379e+000 -8.3233e+000 -1.0038e+001 44432 91810,91611,91715
 1.7000e+000 91741 -1.6981e+001 -4.6902e-001 -5.3881e+000 44432 91637,91689,91663
 1.7000e+000 91836 -8.5725e+000  3.2209e+000 -3.0699e-001 44432 91689,91637,91810
 1.7000e+000 91859  1.4764e+001 -7.8941e+000  3.7791e-001 44432 91689,91810,91715
 1.7000e+000 92207 -1.4336e+002 -5.0875e+001 -6.2218e+001 43864 92230,91936,91910
 1.7000e+000 92184 -1.2739e+002 -7.9786e+001 -6.0689e+001 43864 92230,91910,92040
 1.7000e+000 92161 -3.6099e+001 -3.9411e+001 -5.0869e+001 43864 91884,92040,91910
 1.7000e+000 92138 -1.6634e+002 -3.6056e+001 -1.7128e+000 43864 91936,92014,91988
 1.7000e+000 92115 -3.3319e+001 -4.6337e+000 -1.3205e+000 43864 91936,91988,91962
 1.7000e+000 92092 -4.4806e+001 -5.3911e+001 -4.6388e+001 43864 91884,92066,92040
 1.7000e+000 92256 -1.3445e+002 -1.2651e+001 -5.2552e+001 43864 92014,91936,92230
 1.7000e+000 92279 -1.3332e+002 -5.8406e+001 -5.5317e+001 43864 92014,92230,92040
 1.7000e+000 92529 -7.3087e+001 -9.1780e+000  1.6511e+000 43410 92552,92330,92304
 1.7000e+000 92506 -6.6835e+001  3.6211e+000  2.1098e+001 43410 92552,92304,92408
 1.7000e+000 92483 -2.9048e+001  6.6704e-001  5.7950e+000 43410 92304,92434,92408
 1.7000e+000 92460 -9.6561e+001 -1.4953e+001 -1.3788e+001 43410 92330,92382,92356
 1.7000e+000 92578 -9.2294e+001 -1.5365e+001 -1.3849e+001 43410 92382,92330,92552
 1.7000e+000 92601 -8.9903e+001  8.9300e+000  7.0799e+000 43410 92382,92552,92408
 1.7000e+000 92802 -1.0403e+002 -5.2327e+001  6.2748e+000 43162 92825,92704,92652
 1.7000e+000 92779 -1.1150e+002 -5.3575e+001 -1.1606e+001 43162 92825,92652,92626
 1.7000e+000 92756 -5.4317e+001 -1.7314e+001  2.1998e+001 43162 92652,92704,92678
 1.7000e+000 92851 -9.1212e+001 -4.8876e+001  1.0860e+001 43162 92730,92704,92825
 1.7000e+000 92874 -6.6441e+001 -4.7919e+001 -1.7166e+001 43162 92730,92825,92626
 1.7000e+000 93463 -4.7909e+001  1.4021e+001 -1.8534e+000 42758 93140,93270,93166
 1.7000e+000 93440 -4.0833e+001  1.3346e+000 -1.3145e+001 42758 93140,93296,93270
 1.7000e+000 93417  7.5509e+000  1.4191e+001  7.9984e+000 42758 93166,93270,93218
 1.7000e+000 93394 -6.3355e+001  1.4939e+000  1.4166e+001 42758 93218,93270,93244
 1.7000e+000 93371 -5.3193e+000 -9.9595e+000 -1.3988e+001 42758 93140,93322,93296
 1.7000e+000 93348  2.5612e+000 -1.2336e-001  8.5441e-002 42758 93166,93218,93192
 1.7000e+000 93920 -5.5826e+001  1.0560e+001  6.9526e+000 42304 93943,93672,93646
 1.7000e+000 93897 -4.0402e+001 -3.5575e+000 -2.0823e+001 42304 93943,93646,93802
 1.7000e+000 93874  4.4326e+000  1.3744e+000  2.1908e+000 42304 93724,93802,93776
 1.7000e+000 93851 -1.7338e+001  7.3683e+000  1.3880e+001 42304 93672,93724,93698
 1.7000e+000 93828  3.9622e+000 -5.0077e+000  1.3487e+000 42304 93724,93776,93750
 1.7000e+000 93969 -2.8204e+001  1.5916e+001  5.1352e+000 42304 93724,93672,93943
 1.7000e+000 93992 -3.5377e+000  3.5754e+000 -1.4926e+001 42304 93724,93943,93802
 1.7000e+000 94321 -4.1064e+001 -6.2752e+000 -1.8943e+001 41478 94096,94148,94122
 1.7000e+000 94298 -3.9633e+001 -3.8025e+001 -2.7773e+001 41478 94096,94226,94148
 1.7000e+000 94275 -2.5233e+001 -1.7446e+001 -2.0967e+001 41478 94148,94226,94174
 1.7000e+000 94252 -3.1320e+001 -4.1919e+000 -8.3237e+000 41478 94174,94226,94200
 1.7000e+000 94618 -2.5541e+001 -5.8272e+000  2.2574e+000 40910 94344,94422,94396
 1.7000e+000 94595 -5.9048e+001 -5.5665e+000 -6.2773e+000 40910 94344,94448,94422
 1.7000e+000 94572 -5.6104e+001  5.8855e+000  1.9201e+001 40910 94344,94474,94448
 1.7000e+000 94549 -2.0382e+001 -9.8101e+000 -1.5081e+000 40910 94344,94396,94370
 1.7000e+000 94526 -6.1118e+001  2.4742e+000  2.0908e+001 40910 94344,94500,94474
 1.7000e+000 94866 -4.4283e+001 -5.7284e+000  2.0500e+000 40306 94667,94719,94693
 1.7000e+000 94843 -2.0692e+001 -1.3043e+001  2.2963e+000 40306 94641,94719,94667
 1.7000e+000 94820 -1.5822e+001 -3.4791e+000  6.0603e-001 40306 94641,94745,94719
 1.7000e+000 94797 -1.1650e+001 -4.3852e+000  6.8407e-001 40306 94641,94771,94745
 1.7000e+000 95089 -9.3647e+001 -2.4767e+001 -7.8673e+000 39702 94913,94991,94939
 1.7000e+000 95066 -1.4551e+002 -4.0054e+001 -5.2843e+000 39702 94913,95017,94991
 1.7000e+000 95043 -1.7243e+002 -5.9167e+001 -1.3913e+001 39702 94939,94991,94965
 1.7000e+000 95339 -6.9914e+001  3.4995e+000  1.3096e+000 39248 95140,95218,95166
 1.7000e+000 95316 -9.8138e+001 -1.3316e+001  9.1849e+000 39248 95140,95244,95218
 1.7000e+000 95293 -5.9737e+001 -2.8337e-001  1.2600e+001 39248 95114,95244,95140
 1.7000e+000 95270 -1.3332e+002 -3.4885e+000  1.2313e+001 39248 95166,95218,95192
 1.7000e+000 95770 -5.9184e+001 -5.4949e+001 -1.7749e+001 38694 95551,95629,95577
 1.7000e+000 95747 -1.0854e+002 -3.6167e+001 -2.6405e+001 38694 95447,95629,95551
 1.7000e+000 95724 -1.2965e+002 -7.8390e+001 -1.0915e+001 38694 95447,95551,95473
 1.7000e+000 95701 -1.0472e+002 -6.9993e+001 -1.7908e+001 38694 95473,95551,95499
 1.7000e+000 95678 -1.2185e+002 -8.4262e+001 -3.1719e+000 38694 95499,95551,95525
 1.7000e+000 95655 -2.8570e+001 -3.0799e+000  5.3490e+000 38694 95577,95629,95603
 1.7000e+000 96325 -5.4529e+001 -8.7017e+000 -1.5166e+001 38240 95953,96031,96005
 1.7000e+000 96302 -4.3876e+001 -8.6906e+000 -2.5817e+001 38240 95953,96161,96031
 1.7000e+000 96279 -2.8085e+001  1.1429e+001 -3.7694e+001 38240 96031,96161,96135
 1.7000e+000 96256 -6.7513e+001 -8.5460e+000  9.2536e+000 38240 96348,96109,96057
 1.7000e+000 96233 -6.6225e+001 -6.3695e+001 -4.8694e+001 38240 96348,96057,96031
 1.7000e+000 96210 -3.5998e+001 -1.1297e+001  3.2294e+001 38240 96057,96109,96083
 1.7000e+000 96187 -1.4121e+001 -2.1193e+000  5.8977e+000 38240 95953,96005,95979
 1.7000e+000 96374 -2.0577e+001  4.1978e+001  3.0716e+001 38240 96135,96109,96348
 1.7000e+000 96397 -1.2513e+001 -1.6556e+001 -2.6055e+001 38240 96135,96348,96031
 1.7000e+000 96618 -1.2301e+002 -1.0941e+002 -2.4623e+001 37821 96494,96546,96520
 1.7000e+000 96595 -1.3815e+002 -6.6242e+001 -2.9631e+000 37821 96468,96546,96494
 1.7000e+000 96572 -1.3876e+002 -6.6500e+001 -2.9169e+000 37821 96442,96546,96468
 1.7000e+000 97126 -8.5589e+001 -5.2753e+000  4.2431e-001 37367 97149,96855,96829
 1.7000e+000 97103 -4.1483e+001  8.7925e+000  1.6254e+001 37367 97149,96829,96985
 1.7000e+000 97080 -4.7673e+001  1.4039e+000  1.2857e+001 37367 96803,96985,96829
 1.7000e+000 97057 -4.3678e+001  3.1417e-001  1.6019e+001 37367 96855,96907,96881
 1.7000e+000 97034  3.0561e-001 -4.2805e+001  1.7529e+001 37367 96907,96985,96959
 1.7000e+000 97011 -2.7413e+001 -3.0210e+001 -5.3186e+000 37367 96907,96959,96933
 1.7000e+000 97175 -4.3501e+001  5.6466e+000  2.0132e+001 37367 96907,96855,97149
 1.7000e+000 97198 -1.2177e+001  9.4383e+000  3.4629e+001 37367 96907,97149,96985
 1.7000e+000 97704 -9.7215e+001 -3.2512e+001 -1.4794e+001 36863 97727,97511,97485
 1.7000e+000 97681 -8.6169e+001 -5.7014e+001 -5.5383e+001 36863 97727,97485,97433
 1.7000e+000 97658 -6.3876e+001 -6.7643e+001 -6.3797e+001 36863 97381,97563,97433
 1.7000e+000 97635 -4.9176e+001  1.3422e+000 -2.7018e+001 36863 97511,97563,97537
 1.7000e+000 97612 -1.0434e+002 -4.0669e+001 -6.7115e+001 36863 97433,97485,97459
 1.7000e+000 97589 -8.1102e+001 -4.8680e+000 -3.2898e+001 36863 97381,97433,97407
 1.7000e+000 97753 -6.0490e+001 -1.9867e+001 -1.1371e+001 36863 97563,97511,97727
 1.7000e+000 97776 -3.6021e+001 -3.7264e+001 -4.9119e+001 36863 97563,97727,97433
 1.7000e+000 98331  1.7329e+001 -2.1746e+000  4.6465e+000 36287 98354,98089,98063
 1.7000e+000 98308  1.4520e+001 -1.2075e+001  6.1746e+000 36287 98354,98063,98011
 1.7000e+000 98285  1.9320e+001  7.6342e+000  1.6767e+001 36287 98426,97985,98115
 1.7000e+000 98262  1.1991e+000 -1.9299e+001  1.2253e+001 36287 98011,98063,98037
 1.7000e+000 98239 -2.4104e+001  2.2300e+001 -2.5453e+000 36287 97985,98141,98115
 1.7000e+000 98216 -1.1418e+001 -6.5063e-002 -1.9675e+001 36287 97959,98141,97985
 1.7000e+000 98193 -1.4811e+001 -1.7313e+001 -1.3891e+001 36287 97959,98167,98141
 1.7000e+000 98380 -1.7324e+001 -1.0556e+001  4.7173e+000 36287 98115,98089,98354
 1.7000e+000 98403  1.3227e+001  3.6906e+000  1.2506e+001 36287 98426,98115,98354
 1.7000e+000 98452  2.5748e+001 -3.4977e+000  8.2573e+000 36287 98011,97985,98426
 1.7000e+000 98475  1.9786e+001 -8.3968e+000  4.0879e+000 36287 98011,98426,98354
 1.7000e+000 99030 -6.0996e+001 -2.4767e+001 -1.6701e+001 35726 99053,98736,98710
 1.7000e+000 99007 -4.9689e+001 -1.4427e+001 -1.2081e+001 35726 99053,98710,98684
 1.7000e+000 98984 -5.7746e+001 -1.6195e+001 -1.0005e+001 35726 99125,98814,98736
 1.7000e+000 98961 -4.7307e+001 -4.9071e+001 -2.2823e+001 35726 98736,98814,98788
 1.7000e+000 98938 -1.2647e+002 -4.0096e+001 -6.2486e+000 35726 98684,98866,98840
 1.7000e+000 98915 -7.7180e+001 -5.1864e+001 -5.4098e+001 35726 98736,98788,98762
 1.7000e+000 98892 -2.3485e+001 -5.2260e+000  4.9707e+000 35726 98658,98866,98684
 1.7000e+000 99079 -5.9632e+001 -1.5369e+001 -1.1203e+001 35726 99125,98736,99053
 1.7000e+000 99102 -5.7845e+001 -9.7860e+000 -1.1226e+001 35726 98840,99053,98684
 1.7000e+000 99151 -5.6493e+001 -1.5841e+001 -1.0924e+001 35726 98840,98814,99125
 1.7000e+000 99174 -5.6831e+001 -1.3785e+001 -1.2338e+001 35726 98840,99125,99053
 1.7000e+000 99454 -1.5996e+001  2.4907e+001 -3.7027e+001 35222 99278,99330,99304
 1.7000e+000 99431 -6.2178e+001 -1.7792e+001  7.9977e-001 35222 99278,99382,99330
 1.7000e+000 99408 -8.9490e+001  8.1591e+000 -3.1818e+000 35222 99330,99382,99356
 1.7000e+000 99653 -1.2253e+002 -9.0913e+001  7.8505e+000 34867 99477,99529,99503
 1.7000e+000 99630 -1.1813e+002 -7.6845e+001  3.3626e+000 34867 99477,99581,99529
 1.7000e+000 99607 -1.5166e+002 -1.2982e+002  2.3151e+001 34867 99529,99581,99555
 1.7000e+000 100104 -6.0240e+001  1.0362e+001 -9.8806e+000 34363 99781,99885,99807
 1.7000e+000 100081 -5.4518e+001  6.7957e+000  6.5033e+000 34363 99781,99963,99885
 1.7000e+000 100058 -9.2169e+001  9.3102e+000  1.0055e+001 34363 99885,99963,99911
 1.7000e+000 100035 -1.0086e+002  1.8374e+001 -1.6461e+001 34363 99807,99885,99859
 1.7000e+000 100012 -4.9307e+001  2.1136e+001  4.7130e+001 34363 99911,99963,99937
 1.7000e+000 99989 -9.4958e+001  6.0483e+000 -6.5905e+001 34363 99807,99859,99833
 1.7000e+000 100303 -3.8263e+001 -4.6386e+000  4.5314e+000 33909 100127,100205,100179
 1.7000e+000 100280 -1.5884e+001  7.0062e+000  1.2805e-001 33909 100127,100231,100205
 1.7000e+000 100257 -3.6284e+001 -3.5024e+000 -2.6555e+000 33909 100127,100179,100153
 1.7000e+000 100890 -7.5149e+001 -5.1810e+001 -1.1831e+001 33412 100645,100749,100697
 1.7000e+000 100867 -9.5704e+001 -7.5022e+001 -2.2765e+001 33412 100567,100749,100645
 1.7000e+000 100844 -7.4241e+001 -2.2120e+001 -2.6581e+001 33412 100567,100645,100619
 1.7000e+000 100821 -1.3842e+002 -5.5367e+001 -5.8279e+000 33412 100645,100697,100671
 1.7000e+000 100798 -9.6956e+001 -3.0783e+001 -4.9200e+001 33412 100567,100619,100593
 1.7000e+000 100775 -9.8716e+001 -4.5690e+001 -5.1909e+000 33412 100697,100749,100723
 1.7000e+000 101268 -8.8495e+001 -8.2089e+000 -1.2374e+001 32908 101435,101291,101098
 1.7000e+000 101245 -5.9512e+001 -2.7882e+001 -7.9071e+000 32908 101291,101072,101020
 1.7000e+000 101222 -1.1771e+002 -5.2305e+001 -2.3783e+001 32908 101363,101150,101124
 1.7000e+000 101199 -5.9496e+001 -4.5196e+001 -3.2557e+001 32908 101020,101072,101046
 1.7000e+000 101176 -5.0453e+001 -3.5098e+001 -1.7319e+000 32908 100994,101150,101020
 1.7000e+000 101317 -8.0683e+001 -1.9559e+001 -6.2459e+000 32908 101124,101098,101291
 1.7000e+000 101340 -9.1192e+001 -4.4892e+001 -2.0378e+001 32908 101363,101124,101291
 1.7000e+000 101389 -9.9826e+001 -4.9353e+001 -4.9614e+000 32908 101020,101150,101363
 1.7000e+000 101412 -8.8665e+001 -4.6410e+001  5.6840e-001 32908 101020,101363,101291
 1.7000e+000 101461 -9.5061e+001 -2.2971e+001 -1.0499e+001 32908 101072,101291,101435
 1.7000e+000 101918 -2.6176e+001 -1.5057e+001 -2.3338e+001 32618 101941,101670,101644
 1.7000e+000 101895  2.4208e+001 -7.1635e+000  7.9609e+000 32618 101941,101644,101774
 1.7000e+000 101872 -1.0445e+002 -1.1147e+000  1.3208e+000 32618 102013,101696,101670
 1.7000e+000 101849 -5.8968e+001 -1.3681e+001  1.7451e+001 32618 101696,101748,101722
 1.7000e+000 101826  2.4042e+001  4.0987e+000  1.0889e+001 32618 101644,101800,101774
 1.7000e+000 101967 -9.3851e+001 -8.8866e+000 -1.8771e+001 32618 102013,101670,101941
 1.7000e+000 101990 -2.8689e+001  3.9937e+000 -9.5964e+000 32618 101748,101941,101774
 1.7000e+000 102039 -7.8659e+001 -9.6586e+000 -8.8690e+000 32618 101748,101696,102013
 1.7000e+000 102062 -3.1591e+001  2.6644e+000 -2.4669e+001 32618 101748,102013,101941
 1.7000e+000 102440 -9.5362e+001 -5.8307e+001 -2.9223e+001 32306 102463,102270,102244
 1.7000e+000 102417 -8.7874e+001 -4.2321e+001 -2.4987e+001 32306 102463,102244,102192
 1.7000e+000 102394 -9.1352e+001 -1.1396e+001 -2.4228e+001 32306 102192,102244,102218
 1.7000e+000 102371 -1.3483e+002 -3.7501e+001 -4.2858e+001 32306 102270,102322,102296
 1.7000e+000 102348 -9.2472e+001 -7.2066e+001 -6.7551e+001 32306 102166,102322,102192
 1.7000e+000 102489 -1.0629e+002 -5.4068e+001 -4.6591e+001 32306 102322,102270,102463
 1.7000e+000 102512 -9.4580e+001 -2.7780e+001 -4.1591e+001 32306 102322,102463,102192
 1.7000e+000 102662 -1.2602e+000 -1.2983e+001  1.4327e+001 31852 102943,102587,102561
 1.7000e+000 102639 -3.3382e+001 -1.1284e+000  2.7422e+000 31852 102815,102685,102561
 1.7000e+000 102711 -1.3136e+001 -6.4321e+000  1.7346e+001 31852 102943,102561,102685
 1.7000e+000 102841 -1.8785e+001  4.2401e+000  4.7592e+000 31852 102535,102685,102815
 1.7000e+000 102969  4.4017e+000 -6.8550e+000  5.3231e+000 31852 102613,102587,102943
 1.7000e+000 102992 -8.9068e+000 -2.7965e+000  8.9140e+000 31852 102613,102943,102685
 1.7000e+000 103370 -3.2284e+001 -4.4743e+001  3.0331e+001 31134 103096,103200,103122
 1.7000e+000 103347 -3.5836e+001 -2.7829e+001 -2.2573e+001 31134 103096,103226,103200
 1.7000e+000 103324 -8.9373e+001 -1.4611e+001  5.6629e-001 31134 103122,103200,103174
 1.7000e+000 103301 -8.2897e+001 -3.8994e+001 -7.3622e+000 31134 103096,103252,103226
 1.7000e+000 103278 -9.6681e+001  1.7969e-001  1.3386e+001 31134 103122,103174,103148
 1.7000e+000 103520 -1.8466e+002 -3.1858e+001 -1.9509e+001 30822 103393,103445,103419
 1.7000e+000 103497 -1.9654e+002 -3.9577e+001 -1.2391e+001 30822 103393,103471,103445
 1.7000e+000 103719 -1.0044e+002  9.7296e+000 -7.2046e-001 30182 103742,103621,103569
 1.7000e+000 103696 -1.3307e+002  2.1515e+001 -5.8322e+000 30182 103742,103569,103543
 1.7000e+000 103673 -8.0891e+001  2.8015e+001  3.6743e+001 30182 103569,103621,103595
 1.7000e+000 103768 -8.6783e+001  1.6578e+001 -3.5318e+000 30182 103647,103621,103742
 1.7000e+000 103791 -1.0049e+002  4.2248e+001 -1.4894e+001 30182 103647,103742,103543
 1.7000e+000 104252 -8.1539e+001 -4.4223e+001 -5.3150e+000 29728 104030,104108,104056
 1.7000e+000 104229 -1.0741e+002 -4.6710e+001 -4.1844e+001 29728 104004,104108,104030
 1.7000e+000 104206 -1.2549e+002 -7.1099e+001 -5.1412e+001 29728 104004,104134,104108
 1.7000e+000 104183 -7.3747e+001  1.3609e+001 -1.7035e+001 29728 103978,104134,104004
 1.7000e+000 104160 -4.7261e+001 -3.2237e+001 -1.9728e+001 29728 104056,104108,104082
 1.7000e+000 104630 -3.0629e+001 -5.4881e+000  2.0193e+001 29217 104653,104382,104356
 1.7000e+000 104607 -3.2507e+001 -3.9486e+000 -5.3680e-001 29217 104653,104356,104512
 1.7000e+000 104584  7.7612e-001 -1.1587e+001  4.0851e+000 29217 104434,104512,104486
 1.7000e+000 104561 -2.9808e+000 -3.5051e+000  1.6060e+001 29217 104382,104434,104408
 1.7000e+000 104538 -4.4508e+000 -9.3226e+000  6.2836e+000 29217 104434,104486,104460
 1.7000e+000 104679 -1.6899e+001  2.2037e-001  1.6854e+001 29217 104434,104382,104653
 1.7000e+000 104702 -1.2143e+001  1.3567e+000 -1.7234e+000 29217 104434,104653,104512
 1.7000e+000 105178 -1.0285e+002 -2.9556e+001 -6.4132e+000 28649 105201,104962,104936
 1.7000e+000 105155 -9.7129e+001 -4.0488e+001 -1.0634e+001 28649 105201,104936,104884
 1.7000e+000 105132 -9.2747e+001 -2.2984e+001 -1.2351e+001 28649 105273,104858,105014
 1.7000e+000 105109 -1.0353e+002 -3.4352e+001 -1.0599e+000 28649 104962,105014,104988
 1.7000e+000 105086 -1.3324e+002 -4.0592e+001 -3.4386e+001 28649 104884,104936,104910
 1.7000e+000 105063 -5.9679e+001 -5.2970e+001 -3.3747e+001 28649 104806,105014,104858
 1.7000e+000 105040 -8.4349e+001 -6.3897e+001 -4.5363e+001 28649 104806,104858,104832
 1.7000e+000 105227 -9.5623e+001 -2.5738e+001 -4.9991e+000 28649 105014,104962,105201
 1.7000e+000 105250 -9.2802e+001 -2.6730e+001 -1.1857e+001 28649 105273,105014,105201
 1.7000e+000 105299 -9.1307e+001 -2.6120e+001 -8.1963e+000 28649 104884,104858,105273
 1.7000e+000 105322 -9.2738e+001 -3.1417e+001 -7.4597e+000 28649 104884,105273,105201
 1.7000e+000 105673 -2.2301e+002 -6.4436e+000  1.7856e+000 28351 105474,105578,105552
 1.7000e+000 105650 -1.9092e+002  6.7657e+001  9.3581e+000 28351 105448,105578,105474
 1.7000e+000 105627 -2.1878e+002  2.3094e+000 -1.3924e+001 28351 105500,105552,105526
 1.7000e+000 105604 -2.0571e+002  1.3406e+000  1.9199e-001 28351 105474,105552,105500
 1.7000e+000 106130 -5.2600e+001 -3.5356e+000  9.0438e+000 28004 106153,105882,105856
 1.7000e+000 106107 -7.7679e+001 -1.8723e+001 -6.9007e+000 28004 106153,105856,105986
 1.7000e+000 106084 -3.7974e+001 -1.3808e+001  2.0561e+001 28004 105934,105986,105960
 1.7000e+000 106061 -2.9907e+001 -1.4912e+001 -2.6885e+001 28004 105856,106012,105986
 1.7000e+000 106038 -4.3901e+000 -1.9689e+000  2.2391e-001 28004 105882,105934,105908
 1.7000e+000 106179 -1.1658e+001 -1.1374e+001  2.3526e+001 28004 105934,105882,106153
 1.7000e+000 106202 -4.6390e+001 -2.3670e+001  1.2246e+001 28004 105934,106153,105986
 1.7000e+000 106885 -5.8553e+001  1.5108e+000  3.7125e+000 27564 106908,106620,106516
 1.7000e+000 106862 -1.0048e+002 -7.4589e+000  1.5874e+000 27564 106908,106516,106490
 1.7000e+000 106839 -1.1944e+002 -2.9789e+001  1.8015e+001 27564 106516,106620,106542
 1.7000e+000 106816 -6.3895e+001 -2.4584e+001  3.3524e+001 27564 106620,106672,106646
 1.7000e+000 106793 -1.5366e+002 -3.4589e+001  1.8098e+001 27564 106542,106620,106594
 1.7000e+000 106770 -9.3582e+001 -2.1161e+001 -1.3342e+001 27564 106490,106698,106672
 1.7000e+000 106747 -5.7172e+001 -4.3374e+001  1.9474e+001 27564 106464,106698,106490
 1.7000e+000 106724 -7.1219e+001 -1.0180e+001  2.1214e+001 27564 106542,106594,106568
 1.7000e+000 106934 -3.8912e+001 -5.8705e+000  4.7244e+000 27564 106672,106620,106908
 1.7000e+000 106957 -5.9318e+001  5.9165e-003  4.8059e-002 27564 106672,106908,106490
 1.7000e+000 107463 -8.2582e+001 -4.4492e+001 -8.8277e+000 27053 107218,107322,107296
 1.7000e+000 107440 -6.8118e+001 -6.4565e+000  1.3334e+001 27053 107166,107322,107218
 1.7000e+000 107417 -5.4865e+001  6.8156e+000  3.7968e+000 27053 107218,107296,107244
 1.7000e+000 107394 -4.6370e+001 -1.3464e+001  1.4394e+001 27053 107140,107322,107166
 1.7000e+000 107371 -4.0719e+001 -3.2065e+000  1.0436e+001 27053 107166,107218,107192
 1.7000e+000 107348 -4.4829e+001 -7.0581e+000 -1.2982e+001 27053 107244,107296,107270
 1.7000e+000 108097  1.8833e+001 -5.5297e+000 -2.0633e+001 26549 108192,108120,107803
 1.7000e+000 108074 -2.3149e+001  3.0206e+001 -3.6695e+001 26549 108120,107725,107933
 1.7000e+000 108051 -1.4451e+000 -3.4857e+000 -2.6645e+000 26549 107751,107803,107777
 1.7000e+000 108028  1.5445e+000  2.5185e+000 -5.0939e+000 26549 108192,107803,107751
 1.7000e+000 108005 -7.8468e+001 -1.3862e+001 -5.1228e+001 26549 108264,107855,107803
 1.7000e+000 107982 -1.6451e+001  1.8557e+001 -3.6416e+001 26549 107881,107933,107907
 1.7000e+000 107959 -8.1540e+001 -2.9623e+001 -3.1564e+001 26549 107803,107855,107829
 1.7000e+000 108146  3.3643e+000 -1.2137e+001 -4.6015e+001 26549 108264,107803,108120
 1.7000e+000 108169 -3.3424e+001  1.8409e+000 -2.9632e+001 26549 107881,108120,107933
 1.7000e+000 108218 -1.6782e+001 -1.6338e+001 -2.1531e+001 26549 107725,108120,108192
 1.7000e+000 108241 -3.0509e+001 -5.5572e+000 -6.6930e+000 26549 107725,108192,107751
 1.7000e+000 108290 -1.2818e+002  1.0010e+001 -3.2359e+001 26549 107881,107855,108264
 1.7000e+000 108313 -7.5961e+001 -1.4035e+001 -2.0164e+001 26549 107881,108264,108120
 1.7000e+000 108512 -1.2119e+002 -5.2814e+000  2.3734e+001 26137 108388,108440,108414
 1.7000e+000 108489 -1.3695e+002 -2.6231e+001  8.4990e+000 26137 108362,108440,108388
 1.7000e+000 108466 -1.6491e+002 -4.6685e+001 -5.7272e-001 26137 108336,108440,108362
 1.7000e+000 108662 -9.2324e+001 -3.3856e+001 -5.4764e-001 25733 108817,108685,108535
 1.7000e+000 108639 -9.0558e+001 -1.8968e+001 -8.6687e+000 25733 109017,108817,108535
 1.7000e+000 108711 -7.2750e+001 -1.7898e+001 -1.4288e+001 25733 108561,108535,108685
 1.7000e+000 108843 -9.6226e+001 -2.0015e+001 -3.1896e+000 25733 108587,108685,108817
 1.7000e+000 108866 -1.0403e+002 -3.3976e+001 -7.0405e+000 25733 108889,108817,108613
 1.7000e+000 108915 -1.1146e+002 -4.2423e+001  3.4286e+000 25733 108587,108817,108889
 1.7000e+000 109043 -1.0037e+002 -4.3057e+001 -6.9559e+000 25733 108613,108817,109017
 1.7000e+000 109500 -6.6177e+001 -3.5157e+001 -1.8220e+001 25229 109523,109356,109330
 1.7000e+000 109477 -6.9530e+001 -1.0281e+001 -8.3615e+000 25229 109595,109523,109330
 1.7000e+000 109454 -6.3783e+001 -2.5573e+001  6.5433e+000 25229 109595,109330,109278
 1.7000e+000 109431 -7.5364e+001  1.0477e+001 -3.9504e+001 25229 109667,109226,109382
 1.7000e+000 109408 -1.1441e+002 -1.2806e+001  2.3950e+001 25229 109278,109330,109304
 1.7000e+000 109549 -4.8050e+001 -2.1896e+001 -3.2271e+001 25229 109382,109356,109523
 1.7000e+000 109572 -6.1154e+001 -1.4346e+001 -4.4968e+001 25229 109667,109382,109523
 1.7000e+000 109621 -6.4466e+001  5.1453e+000 -4.9878e+000 25229 109252,109523,109595
 1.7000e+000 109644 -6.0579e+001 -1.0116e+000  5.3749e+000 25229 109739,109595,109278
 1.7000e+000 109693 -1.7829e+002 -1.9465e+001 -1.9438e+001 25229 109252,109226,109667
 1.7000e+000 109716 -1.0740e+002 -6.3376e+000 -2.1015e+001 25229 109252,109667,109523
 1.7000e+000 109765 -5.9488e+001 -8.1818e+000 -7.4209e+000 25229 109252,109595,109739
 1.7000e+000 110478 -9.0140e+001 -2.1638e+001 -2.0114e+001 24917 110158,110236,110184
 1.7000e+000 110455 -5.8074e+001 -3.7383e+000 -6.4858e+000 24917 110158,110288,110236
 1.7000e+000 110432 -6.4304e+001 -8.9594e+000 -4.2469e+000 24917 110236,110288,110262
 1.7000e+000 110409 -6.6849e+001 -2.3609e+001 -1.2174e+001 24917 110184,110236,110210
 1.7000e+000 110386 -5.4635e+001 -3.0729e+001  3.2885e+000 24917 110132,110288,110158
 1.7000e+000 110363 -4.5406e+001 -1.8336e+001  2.2950e+001 24917 110132,110314,110288
 1.7000e+000 110340 -4.1679e+001  1.4379e+000  3.2205e+000 24917 110106,110314,110132
 1.7000e+000 110829 -1.9208e+002 -9.4631e+001  2.4997e+001 24307 110604,110682,110630
 1.7000e+000 110806 -1.6103e+002 -8.5427e+001  6.4711e+000 24307 110604,110708,110682
 1.7000e+000 110783 -1.5561e+002 -7.6256e+001 -1.2748e+001 24307 110604,110734,110708
 1.7000e+000 110760 -2.9017e+002 -1.3670e+002  2.8844e+001 24307 110630,110682,110656
 1.7000e+000 111335 -8.4166e+001 -1.4834e+001  4.8691e+000 23767 111012,111168,111038
 1.7000e+000 111312 -4.3785e+001 -1.1828e+001 -2.3947e+001 23767 111012,111194,111168
 1.7000e+000 111289 -4.4931e+001  1.6517e+001 -2.9542e+001 23767 111358,111064,111038
 1.7000e+000 111266 -6.6084e+001  1.0250e+001 -8.7805e+000 23767 111358,111038,111168
 1.7000e+000 111243 -8.1274e+001 -2.4845e+001 -1.1430e+001 23767 111430,111142,111090
 1.7000e+000 111220 -9.1572e+001 -2.9590e+001 -1.5041e+001 23767 111090,111142,111116
 1.7000e+000 111384 -5.7915e+001  6.7649e+000 -1.1016e+001 23767 111090,111064,111358
 1.7000e+000 111407 -6.0818e+001 -1.2021e+001 -5.5097e+000 23767 111430,111090,111358
 1.7000e+000 111456 -1.0285e+002 -1.6336e+000 -7.3970e+000 23767 111168,111142,111430
 1.7000e+000 111479 -9.2957e+001  2.4890e+000 -4.8266e+000 23767 111168,111430,111358
 1.7000e+000 111985 -1.8271e+001 -2.2310e+001 -4.6651e+000 23477 111688,111844,111818
 1.7000e+000 111962 -6.6228e+000  3.7817e+000 -7.4943e+000 23477 111662,111844,111688
 1.7000e+000 111939 -7.2479e+000 -4.4861e+000  4.7730e+000 23477 111766,111818,111792
 1.7000e+000 111916 -2.1635e+001 -7.1547e+000  6.0849e+000 23477 111740,111818,111766
 1.7000e+000 111893 -1.9262e+001 -3.8289e+000 -1.2105e+000 23477 111688,111818,111740
 1.7000e+000 111870 -3.9407e+001 -1.1735e+001  1.4180e+000 23477 111688,111740,111714
 1.7000e+000 112314 -9.2762e+001 -7.8752e+000 -9.6714e+000 23023 112141,112219,112193
 1.7000e+000 112291 -9.7749e+001 -3.8966e+001 -9.6350e+000 23023 112115,112219,112141
 1.7000e+000 112268 -8.5366e+001 -8.2070e+000 -2.7685e+000 23023 112141,112193,112167
 1.7000e+000 112245 -9.1334e+001 -1.8212e+001 -7.1473e+000 23023 112089,112219,112115
 1.7000e+000 112692 -1.1295e+002 -6.5080e+000 -4.6837e+000 22768 112444,112574,112548
 1.7000e+000 112669 -1.8151e+002 -4.5041e+000 -3.0348e+001 22768 112418,112574,112444
 1.7000e+000 112646 -9.0356e+001 -1.6891e+001 -1.0765e+001 22768 112444,112522,112470
 1.7000e+000 112623 -1.1300e+002 -6.6045e+000 -4.9239e+000 22768 112444,112548,112522
 1.7000e+000 112600 -9.7362e+001 -2.2498e+001  1.0811e+001 22768 112470,112522,112496
 1.7000e+000 113011 -2.0875e+002  2.4947e+001 -3.8109e+001 22314 112763,112867,112789
 1.7000e+000 112988 -2.6011e+002 -2.0796e+001 -1.8638e+001 22314 112763,112893,112867
 1.7000e+000 112965 -2.9136e+002 -2.0795e+001  0.0000e+000 22314 112815,112867,112841
 1.7000e+000 112942 -3.2143e+002 -2.6914e+001 -2.4795e+001 22314 112789,112867,112815
 1.7000e+000 112919 -1.8960e+002 -5.2073e+000 -3.5582e+001 22314 112737,112893,112763
 1.7000e+000 113519  9.1616e+000  7.5743e+000 -3.5557e+000 21924 113614,113542,113248
 1.7000e+000 113496 -9.9817e-001  7.5345e+000 -1.7096e+000 21924 113542,113196,113378
 1.7000e+000 113473  1.9395e+000  3.0560e+000 -1.5674e+000 21924 113614,113248,113222
 1.7000e+000 113450  1.6017e+001 -5.2574e+000  1.2776e+000 21924 113686,113274,113248
 1.7000e+000 113427  1.5431e+001  2.0774e+000  5.6877e+000 21924 113274,113352,113326
 1.7000e+000 113404  4.7928e+000 -1.3286e+000 -1.2908e+000 21924 113274,113326,113300
 1.7000e+000 113568  1.0246e+001  1.8771e+000 -6.4361e+000 21924 113686,113248,113542
 1.7000e+000 113591  6.5777e+000  1.9761e+001 -8.3895e+000 21924 113352,113542,113378
 1.7000e+000 113640  1.9910e+000  1.0556e+001 -6.4372e+000 21924 113196,113542,113614
 1.7000e+000 113663  2.7033e-001  9.6795e+000 -5.9933e+000 21924 113196,113614,113222
 1.7000e+000 113712  2.3736e+001  1.5282e+000 -1.6586e+000 21924 113352,113274,113686
 1.7000e+000 113735  2.2460e+001  1.0342e+001 -1.0225e+001 21924 113352,113686,113542
 1.7000e+000 113885  6.7196e+000  7.1666e+000 -5.9661e+000 21520 113980,113908,113784
 1.7000e+000 113862  1.3275e+000 -8.7715e+000  3.5255e+000 21520 114238,113908,113758
 1.7000e+000 113934 -1.2623e+000 -8.8316e+000  8.4128e+000 21520 114110,113908,113810
 1.7000e+000 113957  5.4195e+000  1.1050e+000  4.4152e+000 21520 113810,113908,113836
 1.7000e+000 114006  6.5095e+000  6.1577e+000 -5.5593e+000 21520 113758,113908,113980
 1.7000e+000 114136 -1.7820e+001  4.1096e+000  1.2416e+000 21520 113784,113908,114110
 1.7000e+000 114264 -6.8851e+000 -4.1894e+000  3.6496e+000 21520 113836,113908,114238
 1.7000e+000 114662 -1.0123e+002 -9.7250e+000  3.3864e+000 21030 114414,114518,114492
 1.7000e+000 114639 -1.2136e+002 -2.3685e+001  1.1612e+001 21030 114414,114544,114518
 1.7000e+000 114616 -3.3707e+001  1.3355e+001  1.1520e+000 21030 114440,114492,114466
 1.7000e+000 114593 -1.0469e+002 -1.7276e+001  4.9977e+000 21030 114414,114492,114440
 1.7000e+000 114570 -1.1291e+002 -1.4024e+001  3.1354e+001 21030 114388,114544,114414
 1.7000e+000 114959 -3.1374e+001  2.8993e+000  2.9032e+000 20512 114982,114711,114685
 1.7000e+000 114936 -2.6505e+001  6.1574e+000 -6.9188e+000 20512 115054,114982,114685
 1.7000e+000 114913 -1.2741e+001  1.6070e+001 -1.2781e+001 20512 115054,114685,114841
 1.7000e+000 114890 -2.7453e+000  6.6227e+000  2.2250e+000 20512 114711,114763,114737
 1.7000e+000 114867 -5.6010e+000  9.7890e+000 -5.9188e+000 20512 114763,114815,114789
 1.7000e+000 115008 -2.2512e+001  4.5301e+000 -7.1411e-001 20512 114763,114711,114982
 1.7000e+000 115031 -1.7881e+001  7.7611e+000 -5.9746e+000 20512 114763,114982,114815
 1.7000e+000 115080 -1.8191e+001  4.0462e+000 -3.2815e+000 20512 114815,114982,115054
 1.7000e+000 115103 -1.7359e+001  3.5482e+000 -3.5043e+000 20512 114815,115054,114841
 1.7000e+000 115507 -4.8213e+001 -1.6589e+001 -1.6691e+001 20143 115285,115389,115363
 1.7000e+000 115484 -7.9806e+001  3.2743e-001  6.7690e+000 20143 115259,115389,115285
 1.7000e+000 115461 -1.1423e+002  6.9848e+000 -3.1605e+001 20143 115233,115389,115259
 1.7000e+000 115438  6.9843e+000 -5.2621e-001  1.0187e-001 20143 115285,115337,115311
 1.7000e+000 115415 -3.0282e+001  3.8248e+000  4.6705e+000 20143 115285,115363,115337
 1.7000e+000 115875 -7.2432e+001 -6.5202e+000 -2.8539e+000 19632 115656,115734,115682
 1.7000e+000 115852 -6.7503e+001 -1.1837e+001  1.3650e-001 19632 115552,115734,115656
 1.7000e+000 115829 -6.5583e+001 -4.6303e+000 -1.3890e+001 19632 115552,115656,115578
 1.7000e+000 115806 -8.1110e+001  3.7779e+000 -7.9041e+000 19632 115578,115656,115630
 1.7000e+000 115783 -5.3734e+001 -1.2163e+001 -2.2393e+001 19632 115682,115734,115708
 1.7000e+000 115760 -6.3870e+001  1.0989e+000  1.3840e+001 19632 115578,115630,115604
 1.7000e+000 116025 -1.0139e+002 -4.4994e+000  1.4169e+001 19178 115898,115950,115924
 1.7000e+000 116002 -9.0475e+001  1.0748e+001  7.8100e+000 19178 115898,115976,115950
 1.7000e+000 116633 -8.8347e+001  7.8478e+000  4.3733e+000 18738 116800,116656,116342
 1.7000e+000 116610 -8.9504e+001  1.7650e+001 -2.1271e+001 18738 116656,116238,116446
 1.7000e+000 116587 -6.8088e+001 -5.2285e+000  2.3329e+000 18738 116728,116368,116342
 1.7000e+000 116564 -9.6638e+001  1.1490e+000  7.4817e+000 18738 116800,116342,116264
 1.7000e+000 116541 -8.4361e+001  1.8215e+002 -7.1398e+001 18738 116212,116446,116238
 1.7000e+000 116518 -8.5316e+001 -2.6026e+001 -2.7040e+001 18738 116394,116446,116420
 1.7000e+000 116495 -2.2739e+002 -5.3825e+001  5.8848e+000 18738 116264,116342,116316
 1.7000e+000 116472 -8.9860e+001  2.8977e+000 -2.3515e+000 18738 116264,116316,116290
 1.7000e+000 116682 -6.8256e+001 -2.7836e+000 -7.8378e+000 18738 116728,116342,116656
 1.7000e+000 116705 -8.8671e+001 -2.6960e+001 -2.7886e+001 18738 116394,116656,116446
 1.7000e+000 116754 -5.3737e+001  1.4216e+000 -1.5134e+000 18738 116394,116368,116728
 1.7000e+000 116777 -5.1815e+001  5.2085e+000 -1.1936e+001 18738 116394,116728,116656
 1.7000e+000 116826 -9.7869e+001  2.5560e+001 -8.0217e+000 18738 116238,116656,116800
 1.7000e+000 116849 -1.1307e+002  1.4923e+001 -3.2068e+000 18738 116238,116800,116264
 1.7000e+000 116999  1.0346e+001 -1.4447e-001 -3.0512e+000 18184 116872,116924,116898
 1.7000e+000 116976  5.5518e+000  1.2522e+001 -3.5258e+000 18184 116872,116950,116924
 1.7000e+000 117330  1.1704e+001  1.2744e+000 -2.6251e-001 17694 117157,117235,117183
 1.7000e+000 117307  9.1812e-001  1.1762e+000 -1.7557e-001 17694 117131,117235,117157
 1.7000e+000 117284  9.2941e-001  1.4202e+000 -5.1722e-002 17694 117105,117235,117131
 1.7000e+000 117261  1.5666e+001  9.5291e+000 -2.2542e+000 17694 117183,117235,117209
 1.7000e+000 117480 -6.8225e+001 -3.3967e+001  1.2557e+001 17290 117353,117405,117379
 1.7000e+000 117457 -2.3300e+001 -8.6181e+000 -7.5273e-001 17290 117353,117431,117405
 1.7000e+000 117679 -1.2225e+002 -6.9988e+001  4.4360e+000 16718 117555,117607,117581
 1.7000e+000 117656 -9.1614e+001 -4.4672e+001 -7.2823e+000 16718 117529,117607,117555
 1.7000e+000 117633 -1.2986e+002 -3.9625e+001 -1.7246e+000 16718 117503,117607,117529
 1.7000e+000 117782 -1.2453e+002 -1.0233e+001 -7.4874e+000 16520 117704,117756,117730
 1.7000e+000 117983 -1.3835e+002 -8.3689e+001  5.6846e+000 16208 117859,117911,117885
 1.7000e+000 117960 -1.3477e+002 -6.2421e+001 -1.4226e+001 16208 117833,117911,117859
 1.7000e+000 117937 -6.3283e+001 -3.3177e+001 -2.0360e+000 16208 117807,117911,117833
 1.7000e+000 118135 -2.0948e+001 -2.9125e+000  2.7649e+000 15674 118034,118086,118060
 1.7000e+000 118112 -1.1115e+002 -4.2785e+001 -6.7223e+000 15674 118008,118086,118034
 1.7000e+000 118238 -8.2162e+000 -7.4676e-001 -4.5286e-001 15355 118160,118212,118186
 1.7000e+000 118341  5.6527e+000  2.1133e+000 -2.7581e+000 421 118263,118315,118289
 1.8000e+000 68152 -1.0647e+001 -1.1735e+001 -4.8163e+000 67838 68074,68126,68100
 1.8000e+000 68550 -4.2862e+000 -9.4467e+001  5.0766e+000 67526 68276,68380,68302
 1.8000e+000 68527  2.7195e+000 -9.8615e+001  1.2602e+000 67526 68276,68406,68380
 1.8000e+000 68504 -1.4576e+001 -9.3626e+001  1.6057e+000 67526 68328,68380,68354
 1.8000e+000 68481 -5.0238e+000 -9.6211e+001  5.1027e+000 67526 68302,68380,68328
 1.8000e+000 68458 -5.2090e+000 -1.0545e+002  7.7748e-001 67526 68276,68432,68406
 1.8000e+000 68651 -1.3928e-015 -2.3454e-015 -6.4546e-017 67328 68573,68625,68599
 1.8000e+000 68970  4.8613e+001 -6.3647e+000 -1.3638e+000 67016 68722,68800,68774
 1.8000e+000 68947  5.2345e+001  1.4363e+001 -7.6539e+000 67016 68722,68826,68800
 1.8000e+000 68924  3.9212e+001 -5.3312e+000 -1.3766e+000 67016 68696,68826,68722
 1.8000e+000 68901  6.3916e+000 -1.3814e+001  9.9523e-001 67016 68722,68774,68748
 1.8000e+000 68878  3.4185e+001  1.2091e+000 -9.5894e+000 67016 68696,68852,68826
 1.8000e+000 69291 -2.2557e+001 -3.3811e+001 -6.8259e+000 66654 69069,69147,69095
 1.8000e+000 69268 -3.3139e+000 -3.3934e+001  8.0035e-001 66654 69069,69173,69147
 1.8000e+000 69245 -2.1021e+001 -4.6100e+001  1.2859e+001 66654 69043,69173,69069
 1.8000e+000 69222 -3.2576e+001 -4.1542e+001  3.1333e+000 66654 69095,69147,69121
 1.8000e+000 69199 -3.5340e+001 -5.3956e+001  1.0542e-001 66654 69017,69173,69043
 1.8000e+000 69695 -6.5665e-001 -1.4333e+001  4.3174e+000 66456 69447,69577,69551
 1.8000e+000 69672 -2.6691e+000 -8.6867e+000  6.1953e-001 66456 69421,69577,69447
 1.8000e+000 69649  4.4939e+001 -1.3403e+001  6.4282e+000 66456 69473,69551,69525
 1.8000e+000 69626  4.1568e+000 -2.5783e+000  4.7053e+000 66456 69447,69551,69473
 1.8000e+000 69603  5.0968e+001  2.9818e-001  5.3467e+000 66456 69473,69525,69499
 1.8000e+000 70024 -2.7411e+001 -1.3532e+001  2.3377e-001 66258 70047,69851,69825
 1.8000e+000 70001 -4.7440e+001 -4.8567e+001  1.2264e+001 66258 70047,69825,69903
 1.8000e+000 69978 -4.4437e+001 -6.1349e+001  1.3456e+001 66258 69799,69903,69825
 1.8000e+000 69955 -5.0572e+001 -1.1415e+002  1.5454e+001 66258 69799,69929,69903
 1.8000e+000 70073 -3.2179e+001 -3.3798e+001  3.7273e+001 66258 69877,69851,70047
 1.8000e+000 70096 -5.9915e+001 -8.2368e+001  5.0771e+001 66258 69877,70047,69903
 1.8000e+000 70602  6.9965e+000  1.4413e+000 -2.5971e+000 66060 70305,70435,70331
 1.8000e+000 70579  1.0050e+000  4.3519e+000 -1.0104e+000 66060 70279,70435,70305
 1.8000e+000 70556  3.9904e+000 -8.7972e-001 -1.0167e+000 66060 70331,70435,70409
 1.8000e+000 70533  6.5216e+000  9.2711e+000  9.2424e+000 66060 70279,70461,70435
 1.8000e+000 70510  6.5394e+000  7.9030e-002 -2.2911e+000 66060 70331,70409,70357
 1.8000e+000 70487  7.7569e+000 -5.3809e-001 -1.9707e-001 66060 70357,70409,70383
 1.8000e+000 70703  6.2582e+000 -9.2312e+000 -5.2231e+000 65862 70625,70677,70651
 1.8000e+000 71083 -3.6452e+001 -1.0106e+002  5.4012e+000 65664 70887,70965,70939
 1.8000e+000 71060 -2.9830e+001 -9.0132e+001  2.1352e+000 65664 70861,70965,70887
 1.8000e+000 71037 -3.1022e+001 -9.7511e+001  3.1011e+000 65664 70809,70965,70861
 1.8000e+000 71014 -2.1149e+001 -7.2907e+001  1.9700e+000 65664 70809,70861,70835
 1.8000e+000 70991 -2.8691e+001 -8.7295e+001 -1.0943e-001 65664 70887,70939,70913
 1.8000e+000 71611 -9.5827e+000 -4.5508e+001 -1.4344e+000 65260 71288,71444,71314
 1.8000e+000 71588 -1.0935e+001 -4.2264e+001  9.3586e-001 65260 71288,71470,71444
 1.8000e+000 71565 -4.4054e+001 -1.9722e+001 -1.2262e+001 65260 71314,71418,71392
 1.8000e+000 71542 -5.0428e+000 -3.5495e+001 -2.4273e+000 65260 71314,71444,71418
 1.8000e+000 71519 -4.6502e+001 -1.9679e+001 -1.0834e+001 65260 71314,71392,71340
 1.8000e+000 71496 -4.9612e+001 -2.2812e+001 -2.2416e+001 65260 71340,71392,71366
 1.8000e+000 72060 -1.2529e+001  3.2307e+000 -4.8239e+000 64870 71737,71893,71789
 1.8000e+000 72037 -2.6063e+001 -1.7124e+000 -3.5824e-001 64870 71737,71919,71893
 1.8000e+000 72014  3.6376e+000 -4.0026e+000 -2.3567e+001 64870 71789,71841,71815
 1.8000e+000 71991 -9.6706e+000  1.6760e+001 -5.3168e+000 64870 71789,71893,71841
 1.8000e+000 71968 -1.4436e+001 -7.5987e-001 -4.3121e+000 64870 71737,71789,71763
 1.8000e+000 71945 -2.1974e+001  2.7009e+000  0.0000e+000 64870 71841,71893,71867
 1.8000e+000 72517  1.1113e+001 -2.2446e+000  1.4237e+000 64466 72321,72399,72347
 1.8000e+000 72494  1.7581e+000 -7.0070e+000 -1.3688e+000 64466 72269,72399,72321
 1.8000e+000 72471  1.1310e+001  6.3709e-001 -2.2611e+000 64466 72347,72399,72373
 1.8000e+000 72448  1.1774e+001  1.3337e+000  6.8464e+000 64466 72243,72399,72269
 1.8000e+000 72425 -2.9633e+000 -5.6155e+000  8.8369e+000 64466 72269,72321,72295
 1.8000e+000 72944  1.3610e+001  6.6253e+000 -1.3240e+000 64062 73111,73039,72699
 1.8000e+000 72921  3.0871e+001  2.5575e+001 -1.2242e+000 64062 73183,72967,72647
 1.8000e+000 72898  5.1823e+000  1.4298e+001 -9.4243e+000 64062 72967,72803,72751
 1.8000e+000 72875  1.3136e+001  6.2713e+000  2.7129e+000 64062 73111,72699,72673
 1.8000e+000 72852  5.3041e+001  8.8762e+000  1.2813e+001 64062 73183,72647,72621
 1.8000e+000 72829 -1.6120e+000  4.4487e-001  2.2011e+000 64062 72751,72803,72777
 1.8000e+000 72993  1.6208e+001  1.7335e+001 -4.5685e+000 64062 73039,72647,72967
 1.8000e+000 73016  2.3469e+001  1.9274e+001 -9.6309e+000 64062 72725,72967,72751
 1.8000e+000 73065  2.6101e+001  8.2069e+000  1.9809e+000 64062 72725,72699,73039
 1.8000e+000 73088  1.0118e+001  3.8331e+000 -3.2611e+000 64062 72725,73039,72967
 1.8000e+000 73137  1.1931e+001  1.6359e+001  2.5181e+000 64062 72647,73039,73111
 1.8000e+000 73160  1.2934e+001  1.5877e+001  4.6436e+000 64062 72647,73111,72673
 1.8000e+000 73209 -4.6963e+000  1.4870e+001 -6.3211e-002 64062 72803,72967,73183
 1.8000e+000 73232  1.9452e+001  7.9798e-001  2.0224e+001 64062 72803,73183,72621
 1.8000e+000 73333 -1.5661e+001  8.9685e+000  7.9402e+000 63814 73356,73281,73255
 1.8000e+000 73382 -2.2569e+001 -9.8840e+000  1.1180e+001 63814 73486,73356,73307
 1.8000e+000 73512  3.1967e+000  1.1325e+000  1.1040e+001 63814 73281,73356,73486
 1.8000e+000 73839 -6.4271e+001 -1.1872e+001  1.6117e+001 63616 73862,73692,73666
 1.8000e+000 73816 -5.7770e+001 -4.1185e+001  4.9009e+000 63616 73934,73862,73666
 1.8000e+000 73793 -5.8263e+001 -4.1666e+001  4.6216e+000 63616 73934,73666,73640
 1.8000e+000 73770 -4.4842e+001 -7.0558e+001  2.4291e-001 63616 73614,73744,73640
 1.8000e+000 73888 -7.0449e+001 -4.3563e+001  2.1619e+001 63616 73718,73692,73862
 1.8000e+000 73911 -5.9606e+001 -5.4849e+001 -6.2345e-001 63616 73718,73862,73744
 1.8000e+000 73960 -5.7016e+001 -4.1032e+001  4.9831e+000 63616 73744,73862,73934
 1.8000e+000 73983 -5.7361e+001 -4.1326e+001  4.7806e+000 63616 73744,73934,73640
 1.8000e+000 74363  4.6693e+001  1.6720e+001 -4.5726e-001 63390 74386,74115,74089
 1.8000e+000 74340  1.8917e+001  1.2707e+001  4.3473e+000 63390 74458,74386,74089
 1.8000e+000 74317  2.1581e+001  1.2827e+001  6.4063e+000 63390 74458,74089,74245
 1.8000e+000 74294  9.8792e+000  1.2853e+001  1.5773e+001 63390 74530,74167,74141
 1.8000e+000 74271  3.4699e+001  1.2812e+001 -8.5069e-001 63390 74167,74219,74193
 1.8000e+000 74412  1.5006e+001  6.6296e+000 -7.6752e-001 63390 74141,74115,74386
 1.8000e+000 74435  6.8213e+000  1.4883e+001  1.3281e+001 63390 74530,74141,74386
 1.8000e+000 74484  2.1716e+001  1.3786e+001  9.6913e+000 63390 74219,74386,74458
 1.8000e+000 74507  2.7854e+001  1.5879e+001  1.1795e+001 63390 74219,74458,74245
 1.8000e+000 74556  1.3288e+001  1.4493e+001  1.5245e+001 63390 74219,74167,74530
 1.8000e+000 74579  1.1229e+001  1.7120e+001  1.2476e+001 63390 74219,74530,74386
 1.8000e+000 74680 -1.1300e+001  2.7710e+000  1.7058e+000 63100 75089,74833,74703
 1.8000e+000 74729 -4.4483e+000 -3.0654e+000  3.7057e+000 63100 74961,74703,74654
 1.8000e+000 74859 -1.2674e+000  1.5889e+000  1.4627e+000 63100 74602,74703,74833
 1.8000e+000 74987 -6.4089e+000 -5.8685e+000  6.5207e+000 63100 75089,74703,74961
 1.8000e+000 75115 -2.0945e+001 -8.1974e+000  7.5571e+000 63100 74628,74833,75089
 1.8000e+000 75138 -1.6090e+001 -1.6888e+001  1.2376e+001 63100 74628,75089,74961
 1.8000e+000 75723 -1.4259e+001 -8.5011e+000  6.6023e+000 62532 75746,75504,75426
 1.8000e+000 75700 -3.1845e+001  2.2545e+000  1.6609e+001 62532 75746,75426,75556
 1.8000e+000 75677 -1.9979e+001 -1.3261e+001 -6.6430e-001 62532 75426,75504,75452
 1.8000e+000 75654 -6.0127e+001 -1.5046e+001  2.4888e+001 62532 75400,75556,75426
 1.8000e+000 75631 -5.7752e+001 -3.3139e+001 -3.5058e+000 62532 75400,75582,75556
 1.8000e+000 75608 -2.7359e+001 -4.0155e+000 -1.9849e+000 62532 75452,75504,75478
 1.8000e+000 75772 -3.4025e+001 -5.7893e+000  5.0878e+000 62532 75530,75504,75746
 1.8000e+000 75795 -5.9656e+001 -1.2751e+000  1.5185e+001 62532 75530,75746,75556
 1.8000e+000 76301 -6.4075e+000 -1.4223e+000 -3.6056e+000 62192 76324,76082,76030
 1.8000e+000 76278  7.1467e+000 -1.8547e-001 -2.5964e+000 62192 76324,76030,76004
 1.8000e+000 76255  1.0335e+000  8.1997e-001 -1.4048e+000 62192 76030,76082,76056
 1.8000e+000 76232 -2.1040e+001 -3.9095e+000 -1.0308e+000 62192 76082,76134,76108
 1.8000e+000 76209 -1.7210e+001 -5.3034e+000 -1.1825e+001 62192 76004,76160,76134
 1.8000e+000 76186 -4.6810e+000 -2.2425e+001 -7.7162e+000 62192 75978,76160,76004
 1.8000e+000 76350 -1.7526e+001  3.4008e+000 -2.2867e+000 62192 76134,76082,76324
 1.8000e+000 76373 -7.2932e+000  2.1636e+000  6.7049e-001 62192 76134,76324,76004
 1.8000e+000 76879 -2.9881e+001 -3.8861e+001  9.4594e+000 61788 76902,76660,76582
 1.8000e+000 76856 -4.4541e+001 -3.1125e+001  1.4757e+001 61788 76902,76582,76556
 1.8000e+000 76833 -1.5782e+001 -3.7338e+001  1.6062e+001 61788 76582,76660,76634
 1.8000e+000 76810 -1.4861e+001 -1.9162e+001  1.0338e+001 61788 76582,76634,76608
 1.8000e+000 76787 -2.8351e+001 -1.3167e+001 -3.0018e+000 61788 76556,76738,76686
 1.8000e+000 76764 -5.1704e+001 -8.6584e+000 -1.3758e-001 61788 76686,76738,76712
 1.8000e+000 76928 -2.5175e+001 -3.2518e+001  7.1942e+000 61788 76686,76660,76902
 1.8000e+000 76951 -3.5495e+001 -1.9998e+001  1.0638e+001 61788 76686,76902,76556
 1.8000e+000 77408 -1.5824e+001 -9.0491e-001 -2.7062e-001 61498 77212,77264,77238
 1.8000e+000 77385 -1.4828e+001 -1.1755e+000  2.6462e+000 61498 77160,77264,77212
 1.8000e+000 77362 -1.0557e+001 -1.0152e+001 -2.6577e+000 61498 77160,77290,77264
 1.8000e+000 77339 -3.4913e+001  2.4274e-001  4.4326e+000 61498 77160,77212,77186
 1.8000e+000 77316 -9.7980e+000 -1.4206e+001  4.7210e+000 61498 77134,77290,77160
 1.8000e+000 77678 -1.0535e+002 -8.6700e+001 -1.1639e+000 61129 77479,77557,77505
 1.8000e+000 77655 -1.1128e+002 -1.0656e+002  9.1194e-001 61129 77479,77583,77557
 1.8000e+000 77632 -8.9990e+001 -1.1576e+002  1.2777e+001 61129 77453,77583,77479
 1.8000e+000 77609 -1.3041e+002 -4.8433e+001  5.2548e+001 61129 77505,77557,77531
 1.8000e+000 77828 -2.0643e+001 -6.2492e+001  2.7256e+000 60931 77851,77727,77701
 1.8000e+000 77805 -3.7346e+001 -7.9406e+001  1.0452e+001 60931 77851,77701,77779
 1.8000e+000 77877 -3.5686e+001 -3.7932e+001 -5.0373e+000 60931 77923,77851,77753
 1.8000e+000 77900 -5.5543e+001 -4.8724e+001  9.4720e+000 60931 77753,77851,77779
 1.8000e+000 77949 -4.6369e+001 -6.0993e+001 -2.2348e+000 60931 77727,77851,77923
 1.8000e+000 78133 -8.6199e+001 -2.4016e+001  5.4275e+000 60377 78055,78107,78081
 1.8000e+000 78535 -4.6794e+001  4.1025e+001 -1.7653e+001 60015 78287,78391,78313
 1.8000e+000 78512 -9.3171e+001 -3.9747e+000  6.7804e-001 60015 78287,78417,78391
 1.8000e+000 78489 -4.2435e+001  1.6894e+001  3.7870e+000 60015 78261,78417,78287
 1.8000e+000 78466 -1.5173e+002 -4.6956e+001  2.1838e+001 60015 78339,78391,78365
 1.8000e+000 78443 -1.5824e+002 -1.1391e+000 -7.5790e+000 60015 78313,78391,78339
 1.8000e+000 78913  4.7072e+000  1.5113e+001 -1.0182e+001 59725 78936,78743,78691
 1.8000e+000 78890  1.8149e+001  2.6893e-001 -7.9012e+000 59725 79008,78936,78691
 1.8000e+000 78867  2.0458e+001  4.5949e+000 -6.3411e+000 59725 79008,78691,78665
 1.8000e+000 78844 -1.1012e+001 -2.0329e+000  8.2924e+000 59725 78691,78743,78717
 1.8000e+000 78821  2.6533e+001  1.9188e+001 -1.8800e+001 59725 78639,78795,78769
 1.8000e+000 78962 -1.0089e+001  6.4026e+000 -2.1301e+000 59725 78769,78743,78936
 1.8000e+000 78985  1.0650e+001 -8.0112e+000 -4.1428e+000 59725 78769,78936,78639
 1.8000e+000 79034  1.5894e+001  1.6312e-001 -1.1394e+001 59725 78639,78936,79008
 1.8000e+000 79057  1.8076e+001  1.5235e+000 -1.0041e+001 59725 78639,79008,78665
 1.8000e+000 79386  1.1083e+001  4.9830e+000  5.2198e+000 59221 79187,79239,79213
 1.8000e+000 79363 -5.7057e+000 -9.6509e-001  8.1931e+000 59221 79187,79265,79239
 1.8000e+000 79340  1.8978e+001  4.6586e+000  1.8603e+000 59221 79187,79291,79265
 1.8000e+000 79317  2.5269e+001  2.0221e+001 -8.6058e-001 59221 79161,79291,79187
 1.8000e+000 79813 -1.3991e+002 -4.6187e+001  3.3669e+001 58831 79836,79542,79516
 1.8000e+000 79790 -9.0001e+001 -2.1277e+001  2.5442e+001 58831 79980,79836,79516
 1.8000e+000 79767 -5.2016e+001 -3.4716e+001  8.4043e+000 58831 79908,79646,79568
 1.8000e+000 79744 -1.1464e+002 -4.4259e+001  1.3326e+001 58831 79980,79516,79490
 1.8000e+000 79721 -1.5211e+001 -4.2894e+001 -1.0574e+000 58831 79568,79646,79594
 1.8000e+000 79698 -1.0031e+002 -6.1158e+001 -4.0401e+001 58831 79594,79646,79620
 1.8000e+000 79862 -8.6194e+001 -5.4736e+001  2.8587e+001 58831 79568,79542,79836
 1.8000e+000 79885 -5.4005e+001 -4.7573e+001  1.0627e+001 58831 79908,79568,79836
 1.8000e+000 79934 -5.1526e+001 -4.0175e+001  1.8711e+001 58831 79672,79646,79908
 1.8000e+000 79957 -5.6521e+001 -5.2905e+001  2.2396e+001 58831 79672,79908,79836
 1.8000e+000 80006 -8.8316e+001 -5.2583e+001  1.5653e+001 58831 79672,79836,79980
 1.8000e+000 80029 -8.8526e+001 -5.7290e+001  9.8721e+000 58831 79672,79980,79490
 1.8000e+000 80358  1.2028e+001 -6.6898e-001 -6.1633e-001 58377 80381,80185,80159
 1.8000e+000 80335  2.2198e+001 -9.8700e-001 -9.1003e-001 58377 80381,80159,80133
 1.8000e+000 80312  1.5845e+000  7.8122e+000 -2.9173e+000 58377 80133,80263,80237
 1.8000e+000 80289 -5.2020e+000 -1.1476e+000  1.1177e+000 58377 80185,80237,80211
 1.8000e+000 80407 -4.0205e+000 -1.8724e-002  2.3040e+000 58377 80237,80185,80381
 1.8000e+000 80430  1.3337e+001  4.6629e+000  2.4896e+000 58377 80237,80381,80133
 1.8000e+000 80759  6.6295e+000  3.6780e+000 -1.7618e+000 57873 80782,80586,80560
 1.8000e+000 80736  2.3832e+000  1.4818e+001  1.9539e+000 57873 80782,80560,80534
 1.8000e+000 80713  4.7243e+001  1.4024e+000  5.7849e+000 57873 80586,80638,80612
 1.8000e+000 80690  4.0913e+001  5.9917e+000  2.6487e+001 57873 80534,80664,80638
 1.8000e+000 80808  1.0699e+001  1.4096e+001 -4.0466e+000 57873 80638,80586,80782
 1.8000e+000 80831  5.5097e+000  1.8238e+001  4.8334e-001 57873 80638,80782,80534
 1.8000e+000 81337 -3.2386e+001 -4.7284e+001  1.2123e+001 57262 81360,81144,81092
 1.8000e+000 81314 -3.6242e+001 -4.5590e+001  3.0447e+001 57262 81360,81092,81066
 1.8000e+000 81291 -7.4707e+001 -1.9357e+001  2.2309e+001 57262 81014,81196,81066
 1.8000e+000 81268 -3.0824e+001 -4.5511e+001  1.2896e+001 57262 81092,81144,81118
 1.8000e+000 81245 -3.2433e+001 -2.3688e+001 -3.3374e+000 57262 81144,81196,81170
 1.8000e+000 81222 -6.7314e+001  2.1769e+000 -1.2366e+000 57262 81014,81066,81040
 1.8000e+000 81386 -5.3789e+001 -5.5045e+001  1.0447e+001 57262 81196,81144,81360
 1.8000e+000 81409 -5.0636e+001 -5.0173e+001  2.9812e+001 57262 81196,81360,81066
 1.8000e+000 81608 -1.4297e+002 -5.8949e+001 -2.5439e+001 57007 81458,81536,81510
 1.8000e+000 81585 -1.2653e+002 -4.8040e+001 -1.5049e+001 57007 81432,81536,81458
 1.8000e+000 81562 -5.0942e+001 -1.1917e+001 -3.8815e+000 57007 81458,81510,81484
 1.8000e+000 82086 -3.3705e+001 -1.0543e+001  4.8773e+000 56339 81792,81922,81818
 1.8000e+000 82063 -2.0351e+001 -9.3448e+000  3.8761e+000 56339 81714,81922,81792
 1.8000e+000 82040 -3.5558e+001 -1.2853e+001  3.1741e+000 56339 82109,81844,81818
 1.8000e+000 82017 -3.4161e+001 -1.1770e+001  3.6782e+000 56339 82109,81818,81922
 1.8000e+000 81994 -2.6878e+001 -3.1285e+000 -7.0774e+000 56339 81844,81896,81870
 1.8000e+000 81971 -1.7491e+001  4.0902e-001 -4.0710e+000 56339 81714,81792,81766
 1.8000e+000 81948 -5.7592e+000  1.3133e+000  6.8428e-001 56339 81714,81766,81740
 1.8000e+000 82135 -3.8475e+001 -1.1772e+001  2.4667e+000 56339 81896,81844,82109
 1.8000e+000 82158 -3.5975e+001 -9.4423e+000  3.4388e+000 56339 81896,82109,81922
 1.8000e+000 82536 -3.8545e+001  7.5278e+000 -1.4382e+001 55699 82288,82392,82314
 1.8000e+000 82513 -1.9654e+001  2.0239e+001  3.3325e+000 55699 82288,82418,82392
 1.8000e+000 82490  1.8188e+001 -1.8006e+001  1.0226e+001 55699 82314,82392,82340
 1.8000e+000 82467 -1.1757e-002 -6.8133e+000  1.6159e+001 55699 82340,82392,82366
 1.8000e+000 82444 -5.1380e+001  1.1113e+001 -3.8264e+000 55699 82262,82418,82288
 1.8000e+000 83091 -3.9901e+001 -1.0881e+001  7.6380e-001 55409 82745,82901,82875
 1.8000e+000 83068 -5.2349e+001 -4.2554e+001 -6.0785e+000 55409 82719,82901,82745
 1.8000e+000 83045 -3.1353e+001 -1.2752e+001 -8.5298e+000 55409 82771,82849,82823
 1.8000e+000 83022 -2.2730e+001 -4.5477e+000  2.8791e+000 55409 82745,82849,82771
 1.8000e+000 82999 -2.6118e+001 -5.1551e+000  3.6340e+000 55409 82745,82875,82849
 1.8000e+000 82976 -1.8036e+001 -1.7902e+001 -9.8419e+000 55409 82771,82823,82797
 1.8000e+000 82953 -2.6720e+001 -1.2202e+001 -1.8973e+001 55409 82719,82927,82901
 1.8000e+000 83388 -5.8590e+000  5.0080e+000  3.1109e+000 54905 83411,83218,83166
 1.8000e+000 83365 -1.1897e+001  1.2454e+000  1.5223e+000 54905 83411,83166,83114
 1.8000e+000 83342 -5.1548e+000 -1.9118e-002  3.8713e-001 54905 83483,83270,83244
 1.8000e+000 83319 -3.1223e+001  1.1903e+001 -5.0868e+000 54905 83166,83218,83192
 1.8000e+000 83296 -1.3570e+001  1.7831e+000 -2.0662e+000 54905 83114,83166,83140
 1.8000e+000 83437 -4.4480e+000  7.5560e-001  6.7570e-001 54905 83244,83218,83411
 1.8000e+000 83460 -6.1742e+000 -2.2254e-001  2.3589e-001 54905 83483,83244,83411
 1.8000e+000 83509 -5.9426e+000 -3.0807e-001  1.6361e-001 54905 83114,83270,83483
 1.8000e+000 83532 -6.4709e+000 -2.2655e-001  6.9301e-003 54905 83114,83483,83411
 1.8000e+000 83961 -1.3222e+002 -1.2551e+002  5.0706e+000 54593 83638,83768,83690
 1.8000e+000 83938 -7.9212e+001 -9.4489e+001 -1.0203e+001 54593 83638,83794,83768
 1.8000e+000 83915 -9.2179e+001 -8.1973e+001  2.7930e+001 54593 83690,83768,83742
 1.8000e+000 83892 -1.5285e+002 -1.4166e+002  1.7522e+001 54593 83638,83820,83794
 1.8000e+000 83869 -1.5140e+002 -1.8883e+002  1.2269e+001 54593 83638,83690,83664
 1.8000e+000 83846 -9.0154e+001 -9.7583e+001  4.4220e+001 54593 83690,83742,83716
 1.8000e+000 84209  6.1039e+000 -4.1701e+000  9.1262e-001 54132 84232,84062,83984
 1.8000e+000 84186 -3.8582e+000 -9.2946e-001  1.7747e+000 54132 84232,83984,84114
 1.8000e+000 84163  6.2656e+000 -2.4837e+000 -3.0192e+000 54132 83984,84062,84036
 1.8000e+000 84140 -4.4740e-001 -5.0196e+000 -6.2619e+000 54132 83984,84036,84010
 1.8000e+000 84258 -3.8583e+000 -1.9726e+000  8.0547e-002 54132 84088,84062,84232
 1.8000e+000 84281 -1.8897e+001 -2.5678e+000  6.5731e-001 54132 84088,84232,84114
 1.8000e+000 84382 -1.0019e+002 -1.1394e+002 -1.3871e+001 53521 84304,84356,84330
 1.8000e+000 84632 -1.3357e+001  4.1665e-001  3.9237e-001 53067 84655,84485,84459
 1.8000e+000 84609 -1.0546e+001  6.0186e-001  1.2074e+000 53067 84655,84459,84407
 1.8000e+000 84586 -1.6821e+001 -6.0850e+000 -7.0775e-001 53067 84485,84537,84511
 1.8000e+000 84563 -9.3043e+000  1.5023e+000 -2.8265e+000 53067 84407,84459,84433
 1.8000e+000 84681 -1.5045e+001  1.1559e+000  3.7826e-001 53067 84537,84485,84655
 1.8000e+000 84704 -1.3725e+001  3.2016e-001  1.4633e+000 53067 84537,84655,84407
 1.8000e+000 85214 -1.1014e+002 -6.6504e+001  2.4213e+001 52513 85021,85073,85047
 1.8000e+000 85191 -9.6058e+001 -3.8582e+001  1.5861e+001 52513 84943,85073,85021
 1.8000e+000 85168 -2.0073e+002 -8.8188e+001 -6.0608e+000 52513 84943,85021,84995
 1.8000e+000 85145 -1.1872e+002 -1.0023e+002  2.2717e+001 52513 84917,85073,84943
 1.8000e+000 85122 -1.6656e+002 -7.6359e+001 -1.3174e+001 52513 84943,84995,84969
 1.8000e+000 85099 -3.1068e+001 -6.4863e+001  3.9533e+001 52513 84891,85073,84917
 1.8000e+000 85582  9.5493e+000  6.7907e+000  1.7952e+000 52037 85605,85311,85285
 1.8000e+000 85559 -6.4419e+000 -1.9936e+000  1.4854e+001 52037 85749,85605,85285
 1.8000e+000 85536 -1.6715e+001  4.0075e+001 -8.6853e+000 52037 85893,85677,85389
 1.8000e+000 85513 -3.1840e+001 -1.9588e+001  2.2512e+001 52037 85749,85285,85259
 1.8000e+000 85490 -6.3668e+000  4.1738e+001 -2.9123e+001 52037 85893,85389,85363
 1.8000e+000 85467 -5.8058e+001  2.3992e+001  1.8488e+001 52037 85259,85441,85415
 1.8000e+000 85631 -4.8499e+000  7.0742e+000  8.5879e+000 52037 85337,85311,85605
 1.8000e+000 85654 -7.9627e+000  1.4682e+001  3.1391e+000 52037 85677,85337,85605
 1.8000e+000 85703 -5.4746e+001  2.4189e+001 -2.1947e+000 52037 85415,85389,85677
 1.8000e+000 85726 -3.1660e+001  1.4722e+001  4.7789e+000 52037 85821,85677,85605
 1.8000e+000 85775 -3.9427e+001  1.3461e+001  9.7488e+000 52037 85821,85605,85749
 1.8000e+000 85798 -5.8169e+001  6.9060e+000  9.3966e+000 52037 85415,85749,85259
 1.8000e+000 85847 -3.0411e+001  1.9944e+001 -8.6662e-001 52037 85415,85677,85821
 1.8000e+000 85870 -3.3599e+001  2.0811e+001  3.8660e+000 52037 85415,85821,85749
 1.8000e+000 85919 -2.8012e+001  8.0241e+000  2.5427e-001 52037 85337,85677,85893
 1.8000e+000 85942 -2.4220e+001  4.0955e+000 -1.8693e+001 52037 85337,85893,85363
 1.8000e+000 86224 -3.2266e+001 -7.4170e+000 -8.2851e+000 51368 86375,86100,86074
 1.8000e+000 86201 -1.9896e+001 -5.7245e+000 -1.2312e+001 51368 86375,86074,86247
 1.8000e+000 86178 -1.0888e+001 -1.0371e+001 -7.4939e+000 51368 86048,86152,86126
 1.8000e+000 86273 -2.9474e+001 -1.1923e+001 -1.6677e+000 51368 86048,86126,86247
 1.8000e+000 86401 -3.7963e+001 -6.9473e+000 -3.9979e+000 51368 86126,86100,86375
 1.8000e+000 86424 -3.1823e+001 -1.1323e+001 -6.9587e+000 51368 86126,86375,86247
 1.8000e+000 86802 -4.1476e+001 -1.8642e+000  2.4474e+000 51028 86528,86632,86580
 1.8000e+000 86779 -6.3978e+000 -1.7177e+000 -4.2635e+000 51028 86528,86684,86632
 1.8000e+000 86756 -4.0516e+001  9.9516e-001  8.9887e-001 51028 86528,86580,86554
 1.8000e+000 86733  6.1526e+000  3.2117e+000  8.0487e+000 51028 86632,86684,86658
 1.8000e+000 86710 -1.7565e+001 -4.6177e-001 -3.9812e+000 51028 86580,86632,86606
 1.8000e+000 87131 -1.7282e+001  5.9473e-001  8.5443e+000 50624 86958,87036,87010
 1.8000e+000 87108 -3.6009e+001 -1.1617e+001  1.6074e+000 50624 86932,87036,86958
 1.8000e+000 87085 -3.5875e+001 -5.8196e+000 -2.9325e-001 50624 86958,87010,86984
 1.8000e+000 87062 -3.0658e+001 -1.0552e+001 -1.9207e-001 50624 86906,87036,86932
 1.8000e+000 87330 -6.0332e+001 -4.1764e+000 -1.0024e+001 50234 87353,87180,87154
 1.8000e+000 87307 -4.7741e+001 -7.9086e-001 -1.1147e+001 50234 87353,87154,87258
 1.8000e+000 87284 -2.5191e+001 -8.4962e-001 -3.1333e-001 50234 87206,87258,87232
 1.8000e+000 87379 -4.8682e+001 -1.7669e+001 -2.1540e+000 50234 87206,87180,87353
 1.8000e+000 87402 -2.7938e+001 -8.4460e+000 -6.4908e+000 50234 87206,87353,87258
 1.8000e+000 87650 -1.8191e+001  1.6846e+000  6.8878e+000 49730 87673,87503,87451
 1.8000e+000 87627 -2.1933e+001 -2.8695e-001  4.2427e+000 49730 87673,87451,87425
 1.8000e+000 87604 -1.4923e+001 -3.8025e+000  7.9031e+000 49730 87503,87555,87529
 1.8000e+000 87581 -6.7599e+001  7.5970e+000  1.5751e+001 49730 87451,87503,87477
 1.8000e+000 87699 -1.7828e+001 -1.1194e+000  5.1728e+000 49730 87555,87503,87673
 1.8000e+000 87722 -1.8319e+001 -3.4211e+000  3.9057e+000 49730 87555,87673,87425
 1.8000e+000 88232 -1.0330e+001 -1.2690e+001  1.3140e+001 49176 88255,87935,87909
 1.8000e+000 88209 -2.3115e+000 -1.5472e+001 -2.3866e+000 49176 88255,87909,88065
 1.8000e+000 88186 -5.1968e+001  1.4032e+001  6.0695e+000 49176 87935,88039,87961
 1.8000e+000 88163 -9.1434e+000 -7.0458e+000 -6.0284e+000 49176 87909,88091,88065
 1.8000e+000 88140 -5.9026e+001  9.2645e+000 -1.0865e+001 49176 87961,88039,88013
 1.8000e+000 88117 -6.3633e+001 -7.2834e+000 -1.2837e+001 49176 87961,88013,87987
 1.8000e+000 88281  3.6835e+000 -6.7179e+000  1.2636e+001 49176 88039,87935,88255
 1.8000e+000 88304  1.1641e+001 -9.5374e+000 -2.7649e+000 49176 88039,88255,88065
 1.8000e+000 88503 -1.8284e+001 -7.0544e+000 -1.0601e+001 48772 88526,88379,88353
 1.8000e+000 88480  1.1009e+001  1.1357e+001 -1.5720e+000 48772 88526,88353,88327
 1.8000e+000 88457 -1.7312e+001  9.9320e+000  1.8212e+001 48772 88379,88431,88405
 1.8000e+000 88552 -2.9434e+001  1.2089e+001 -7.0770e+000 48772 88431,88379,88526
 1.8000e+000 88575 -1.6789e+001  1.5196e+001 -4.5395e+000 48772 88431,88526,88327
 1.8000e+000 89083 -3.5214e+001 -7.2007e+001  4.7206e+000 48368 88786,88916,88864
 1.8000e+000 89060 -5.0320e+001 -7.9448e+001  7.2293e+000 48368 88786,88942,88916
 1.8000e+000 89037 -4.1707e+001 -1.0486e+002 -2.7925e-001 48368 88786,88864,88812
 1.8000e+000 89014 -6.1344e+001 -6.3013e+001  3.1825e+000 48368 88864,88916,88890
 1.8000e+000 88991 -4.0561e+001 -5.4488e+001 -3.7738e+001 48368 88812,88864,88838
 1.8000e+000 88968 -5.3149e+001 -8.8124e+001 -3.4951e+000 48368 88760,88942,88786
 1.8000e+000 89331 -1.4109e+002 -8.5943e+001 -3.2711e+001 47928 89158,89236,89210
 1.8000e+000 89308 -1.3093e+002 -5.6651e+001 -3.1417e+001 47928 89132,89236,89158
 1.8000e+000 89285 -6.8000e+001 -9.5506e+001 -7.3874e+000 47928 89158,89210,89184
 1.8000e+000 89262 -1.2196e+002 -5.2688e+001 -2.8659e+001 47928 89106,89236,89132
 1.8000e+000 89662 -1.9718e+000  1.1235e+001  1.7231e+001 47588 89463,89541,89515
 1.8000e+000 89639  2.1986e+001 -2.1819e+000 -5.0678e+000 47588 89463,89567,89541
 1.8000e+000 89616 -3.0783e+001 -9.5890e-001 -1.0348e+001 47588 89463,89515,89489
 1.8000e+000 89593  1.1609e+001 -8.5887e+000 -2.3094e+000 47588 89437,89567,89463
 1.8000e+000 89763 -3.5372e+002 -1.6422e+002 -1.7246e+001 47390 89685,89737,89711
 1.8000e+000 89913 -2.5778e+002 -1.3446e+002 -2.2711e+001 47078 89786,89838,89812
 1.8000e+000 89890 -1.9667e+002 -1.4952e+002 -2.3608e+001 47078 89786,89864,89838
 1.8000e+000 90163 -1.2996e+001  1.7775e+000  9.5224e+000 46474 89964,90042,89990
 1.8000e+000 90140 -2.4571e+001 -2.5793e+000  7.2289e+000 46474 89938,90042,89964
 1.8000e+000 90117 -1.4396e+000 -6.3506e+000  9.0926e+000 46474 89990,90042,90016
 1.8000e+000 90094 -6.1276e+000  1.6873e+000  2.3881e+000 46474 89938,90068,90042
 1.8000e+000 90364 -2.8518e+001 -3.1001e+001 -6.8397e-001 46184 90240,90292,90266
 1.8000e+000 90341 -3.6583e+001 -8.9663e+000  1.1648e+001 46184 90188,90292,90240
 1.8000e+000 90318 -6.4660e+001 -1.6439e+001  2.3561e-001 46184 90188,90240,90214
 1.8000e+000 90565 -8.0740e+001  5.5533e+000 -1.7397e+001 45780 90588,90415,90389
 1.8000e+000 90542 -4.8662e+001  1.4277e+001 -1.9195e+001 45780 90588,90389,90493
 1.8000e+000 90519 -5.8634e+001 -2.3546e+001 -1.8893e+000 45780 90415,90467,90441
 1.8000e+000 90614 -5.5906e+001 -1.0414e+001  4.2348e+000 45780 90467,90415,90588
 1.8000e+000 90637 -1.7646e+001  3.9594e+000  5.9223e+000 45780 90467,90588,90493
 1.8000e+000 91196  8.3419e+000  7.6736e+000  1.4305e+001 45226 91219,90876,90850
 1.8000e+000 91173 -1.3961e+001  1.5747e+000  6.6197e+000 45226 91219,90850,91032
 1.8000e+000 91150 -2.5034e+000 -7.9604e+000 -4.4204e+000 45226 90824,91032,90850
 1.8000e+000 91127 -2.4047e+001 -1.0948e+001  1.7828e+001 45226 90876,90980,90902
 1.8000e+000 91104 -1.6273e+001  2.1990e+000  6.2132e+000 45226 90876,91006,90980
 1.8000e+000 91081  1.5213e+000 -1.4814e+001  3.6472e+000 45226 90902,90980,90954
 1.8000e+000 91058 -6.0067e-001 -9.9403e+000 -1.8550e+000 45226 90902,90954,90928
 1.8000e+000 91245 -1.3705e+001  4.4250e+000  7.5284e+000 45226 91006,90876,91219
 1.8000e+000 91268 -3.5135e+001  5.9103e-001  1.3023e+000 45226 91006,91219,91032
 1.8000e+000 91516 -6.4094e+001 -2.1409e+001 -5.4620e+000 44836 91539,91421,91395
 1.8000e+000 91493 -1.3468e+002 -3.6526e+001 -2.8056e+001 44836 91317,91421,91343
 1.8000e+000 91470 -9.4619e+001 -2.0014e+001 -8.5365e+000 44836 91539,91395,91369
 1.8000e+000 91447 -7.9970e+001 -7.9644e+001 -5.9828e+001 44836 91291,91421,91317
 1.8000e+000 91565 -7.8861e+001 -2.2380e+001 -2.2801e+001 44836 91343,91421,91539
 1.8000e+000 91588 -1.0013e+002 -2.4915e+001 -3.0856e+001 44836 91343,91539,91369
 1.8000e+000 91787 -3.8734e+001 -3.2078e+000 -5.9330e+000 44432 91810,91637,91611
 1.8000e+000 91764 -1.0154e+001 -9.8141e+000 -9.7878e+000 44432 91810,91611,91715
 1.8000e+000 91741 -2.1079e+001 -2.7965e+000 -1.5367e+001 44432 91637,91689,91663
 1.8000e+000 91836 -1.5259e+001  2.3319e-002 -7.1243e-001 44432 91689,91637,91810
 1.8000e+000 91859  5.9334e+000 -9.7264e+000 -5.5881e-002 44432 91689,91810,91715
 1.8000e+000 92207 -1.0175e+002 -4.5254e+001 -4.1319e+001 43864 92230,91936,91910
 1.8000e+000 92184 -9.9834e+001 -7.2448e+001 -3.6905e+001 43864 92230,91910,92040
 1.8000e+000 92161 -3.2154e+001 -4.5253e+001 -4.7376e+001 43864 91884,92040,91910
 1.8000e+000 92138 -1.4644e+002 -3.2329e+001  8.4247e+000 43864 91936,92014,91988
 1.8000e+000 92115 -3.7773e+001 -4.5300e+000  7.3334e+000 43864 91936,91988,91962
 1.8000e+000 92092 -4.5832e+001 -4.3766e+001 -4.4777e+001 43864 91884,92066,92040
 1.8000e+000 92256 -1.0604e+002 -7.1323e+000 -3.4313e+001 43864 92014,91936,92230
 1.8000e+000 92279 -1.1465e+002 -4.8258e+001 -3.1865e+001 43864 92014,92230,92040
 1.8000e+000 92529 -4.3914e+001 -1.2914e+001 -3.4380e+000 43410 92552,92330,92304
 1.8000e+000 92506 -4.2814e+001 -1.1400e+001  1.1959e+001 43410 92552,92304,92408
 1.8000e+000 92483 -1.5487e+001 -5.4107e+000  7.9006e-001 43410 92304,92434,92408
 1.8000e+000 92460 -6.3834e+001 -9.7121e+000 -7.1153e+000 43410 92330,92382,92356
 1.8000e+000 92578 -5.5520e+001 -1.7744e+001 -4.5374e+000 43410 92382,92330,92552
 1.8000e+000 92601 -6.2389e+001 -1.8630e+001  1.2418e+001 43410 92382,92552,92408
 1.8000e+000 92802 -9.0248e+001 -4.8724e+001  5.0481e+000 43162 92825,92704,92652
 1.8000e+000 92779 -9.6692e+001 -4.9150e+001 -1.0903e+001 43162 92825,92652,92626
 1.8000e+000 92756 -5.2283e+001 -1.5777e+001  1.9025e+001 43162 92652,92704,92678
 1.8000e+000 92851 -7.9975e+001 -4.5579e+001  7.7217e+000 43162 92730,92704,92825
 1.8000e+000 92874 -5.6068e+001 -3.9652e+001 -1.7438e+001 43162 92730,92825,92626
 1.8000e+000 93463 -5.1958e+000  1.5355e+001 -9.1934e+000 42758 93140,93270,93166
 1.8000e+000 93440 -6.8857e+000  2.8503e+000 -1.1614e+001 42758 93140,93296,93270
 1.8000e+000 93417  1.8765e+001  8.3239e+000  3.3735e-001 42758 93166,93270,93218
 1.8000e+000 93394 -1.3137e+001  5.0474e+000  4.9882e+000 42758 93218,93270,93244
 1.8000e+000 93371  1.1448e+001 -2.4376e+000 -1.2155e+001 42758 93140,93322,93296
 1.8000e+000 93348  1.5434e+001  4.4346e-001  1.1932e-001 42758 93166,93218,93192
 1.8000e+000 93920 -3.4671e+001  5.4245e+000  2.7888e+000 42304 93943,93672,93646
 1.8000e+000 93897 -2.3995e+001 -3.9327e+000 -1.5788e+001 42304 93943,93646,93802
 1.8000e+000 93874  7.2592e+000 -1.4316e+000  2.9915e+000 42304 93724,93802,93776
 1.8000e+000 93851 -1.7089e+001  2.3379e+000  6.5249e+000 42304 93672,93724,93698
 1.8000e+000 93828  4.3037e+000 -3.7927e+000  1.8496e+000 42304 93724,93776,93750
 1.8000e+000 93969 -1.6074e+001  8.9735e+000  1.6192e+000 42304 93724,93672,93943
 1.8000e+000 93992  7.5896e-001  8.0428e-001 -1.1761e+001 42304 93724,93943,93802
 1.8000e+000 94321 -4.3495e+001 -2.0575e+001 -2.2581e+001 41478 94096,94148,94122
 1.8000e+000 94298 -5.2138e+001 -4.1404e+001 -2.0434e+001 41478 94096,94226,94148
 1.8000e+000 94275 -4.3756e+001 -3.3059e+001 -1.7051e+001 41478 94148,94226,94174
 1.8000e+000 94252 -4.0161e+001 -8.8213e+000 -1.1335e+001 41478 94174,94226,94200
 1.8000e+000 94618 -2.6317e+001 -1.0001e+001 -1.0512e+000 40910 94344,94422,94396
 1.8000e+000 94595 -5.2897e+001 -1.3320e+001 -8.4285e+000 40910 94344,94448,94422
 1.8000e+000 94572 -4.8930e+001  7.7895e-001  1.5451e+001 40910 94344,94474,94448
 1.8000e+000 94549 -2.3102e+001 -1.6183e+001 -5.9804e+000 40910 94344,94396,94370
 1.8000e+000 94526 -4.7479e+001  7.3925e-002  1.5058e+001 40910 94344,94500,94474
 1.8000e+000 94866 -2.3244e+001 -1.3102e+001  1.2818e+001 40306 94667,94719,94693
 1.8000e+000 94843 -1.6523e+001 -2.5148e+000  8.7573e+000 40306 94641,94719,94667
 1.8000e+000 94820 -1.1118e+001 -1.8030e+000  3.3834e+000 40306 94641,94745,94719
 1.8000e+000 94797 -1.4817e+001  1.3439e-001  2.6024e+000 40306 94641,94771,94745
 1.8000e+000 95089 -6.3551e+001 -1.7184e+001 -8.2720e+000 39702 94913,94991,94939
 1.8000e+000 95066 -9.2142e+001 -2.7004e+001 -5.9278e+000 39702 94913,95017,94991
 1.8000e+000 95043 -1.1331e+002 -3.8733e+001 -1.0661e+001 39702 94939,94991,94965
 1.8000e+000 95339 -5.4000e+001 -4.5400e+000  9.2101e-001 39248 95140,95218,95166
 1.8000e+000 95316 -8.3246e+001 -1.9099e+001  5.7126e+000 39248 95140,95244,95218
 1.8000e+000 95293 -4.6388e+001 -4.0912e+000  1.0579e+001 39248 95114,95244,95140
 1.8000e+000 95270 -1.1658e+002 -6.1714e+000  1.6078e+001 39248 95166,95218,95192
 1.8000e+000 95770 -6.5028e+001 -5.5191e+001 -2.2262e+001 38694 95551,95629,95577
 1.8000e+000 95747 -8.7476e+001 -3.3534e+001 -2.4113e+001 38694 95447,95629,95551
 1.8000e+000 95724 -1.1253e+002 -8.4345e+001 -7.2485e+000 38694 95447,95551,95473
 1.8000e+000 95701 -9.0210e+001 -7.3812e+001 -1.4057e+001 38694 95473,95551,95499
 1.8000e+000 95678 -1.0629e+002 -8.7277e+001 -1.1467e-001 38694 95499,95551,95525
 1.8000e+000 95655 -2.9143e+001  4.7658e+000  5.9527e+000 38694 95577,95629,95603
 1.8000e+000 96325 -3.4648e+001 -5.1110e+000 -9.6965e+000 38240 95953,96031,96005
 1.8000e+000 96302 -3.0957e+001 -5.2289e+000 -1.3551e+001 38240 95953,96161,96031
 1.8000e+000 96279 -1.5161e+001  7.9919e+000 -2.9566e+001 38240 96031,96161,96135
 1.8000e+000 96256 -3.2416e+001 -3.5854e+000  3.0070e+000 38240 96348,96109,96057
 1.8000e+000 96233 -3.2058e+001 -3.9674e+001 -3.3694e+001 38240 96348,96057,96031
 1.8000e+000 96210 -3.8208e+000 -6.0292e+000  2.4016e+001 38240 96057,96109,96083
 1.8000e+000 96187 -8.1569e+000 -2.0636e+000  4.1573e+000 38240 95953,96005,95979
 1.8000e+000 96374 -3.0596e+000  3.0229e+001  1.7291e+001 38240 96135,96109,96348
 1.8000e+000 96397  1.2515e+000 -8.7481e+000 -1.8584e+001 38240 96135,96348,96031
 1.8000e+000 96618 -9.4830e+001 -9.4046e+001 -2.1604e+001 37821 96494,96546,96520
 1.8000e+000 96595 -1.1807e+002 -5.9197e+001 -3.7299e+000 37821 96468,96546,96494
 1.8000e+000 96572 -1.2407e+002 -6.1766e+001 -3.2761e+000 37821 96442,96546,96468
 1.8000e+000 97126 -6.6963e+001 -4.5071e+000  5.9035e+000 37367 97149,96855,96829
 1.8000e+000 97103 -3.3993e+001  7.0283e+000  1.4903e+001 37367 97149,96829,96985
 1.8000e+000 97080 -2.8435e+001 -2.7348e+000  9.9471e+000 37367 96803,96985,96829
 1.8000e+000 97057 -3.9697e+001  2.6163e-001  2.2560e+001 37367 96855,96907,96881
 1.8000e+000 97034 -1.0027e+001 -4.4701e+001  2.0499e+001 37367 96907,96985,96959
 1.8000e+000 97011 -3.1299e+001 -2.3446e+001  3.0693e-001 37367 96907,96959,96933
 1.8000e+000 97175 -3.5461e+001 -5.1521e-001  2.1088e+001 37367 96907,96855,97149
 1.8000e+000 97198 -1.2044e+001  4.0491e+000  2.9418e+001 37367 96907,97149,96985
 1.8000e+000 97704 -9.8114e+001 -3.1377e+001 -5.1818e+000 36863 97727,97511,97485
 1.8000e+000 97681 -8.7824e+001 -3.5473e+001 -2.8118e+001 36863 97727,97485,97433
 1.8000e+000 97658 -5.5319e+001 -4.2226e+001 -2.8822e+001 36863 97381,97563,97433
 1.8000e+000 97635 -6.4808e+001 -1.0446e+001 -2.6433e+001 36863 97511,97563,97537
 1.8000e+000 97612 -1.0097e+002 -4.7079e+001 -2.2630e+001 36863 97433,97485,97459
 1.8000e+000 97589 -5.5691e+001  6.1277e-001 -1.7510e+001 36863 97381,97433,97407
 1.8000e+000 97753 -7.2787e+001 -3.2658e+001 -8.8795e+000 36863 97563,97511,97727
 1.8000e+000 97776 -5.5281e+001 -3.3275e+001 -3.0496e+001 36863 97563,97727,97433
 1.8000e+000 98331  3.0532e+000 -4.7655e+000  8.1906e+000 36287 98354,98089,98063
 1.8000e+000 98308 -1.9938e-001 -7.5515e+000  4.8260e+000 36287 98354,98063,98011
 1.8000e+000 98285  8.2149e+000  5.7592e+000  1.1339e+001 36287 98426,97985,98115
 1.8000e+000 98262 -1.2070e+000 -6.9667e+000  5.2731e+000 36287 98011,98063,98037
 1.8000e+000 98239 -2.3228e+001  1.5746e+001 -2.4242e+000 36287 97985,98141,98115
 1.8000e+000 98216 -1.6086e+001  1.2369e+000 -1.3148e+001 36287 97959,98141,97985
 1.8000e+000 98193 -7.4585e+000 -1.3563e+001 -9.0204e+000 36287 97959,98167,98141
 1.8000e+000 98380 -1.4718e+001 -6.9593e+000  6.7174e+000 36287 98115,98089,98354
 1.8000e+000 98403  4.2117e-001  2.4831e+000  1.1256e+001 36287 98426,98115,98354
 1.8000e+000 98452  1.6993e+001  1.0588e+000  2.5906e+000 36287 98011,97985,98426
 1.8000e+000 98475  9.9812e+000 -1.8081e+000  2.3656e+000 36287 98011,98426,98354
 1.8000e+000 99030 -6.6657e+001 -3.1357e+001 -1.1779e+001 35726 99053,98736,98710
 1.8000e+000 99007 -5.7185e+001 -2.7046e+001 -1.0023e+001 35726 99053,98710,98684
 1.8000e+000 98984 -6.1072e+001 -3.0833e+001 -2.8941e+000 35726 99125,98814,98736
 1.8000e+000 98961 -6.6993e+001 -6.5029e+001 -1.6761e+001 35726 98736,98814,98788
 1.8000e+000 98938 -1.0630e+002 -4.6960e+001 -3.7584e+000 35726 98684,98866,98840
 1.8000e+000 98915 -7.5993e+001 -6.1891e+001 -3.8827e+001 35726 98736,98788,98762
 1.8000e+000 98892 -4.5172e+001 -1.0800e+001  1.1430e+001 35726 98658,98866,98684
 1.8000e+000 99079 -6.7964e+001 -2.9435e+001 -7.0703e+000 35726 99125,98736,99053
 1.8000e+000 99102 -6.2281e+001 -2.6895e+001 -8.9628e+000 35726 98840,99053,98684
 1.8000e+000 99151 -5.5273e+001 -2.8377e+001 -2.9067e+000 35726 98840,98814,99125
 1.8000e+000 99174 -5.7961e+001 -2.4965e+001 -7.9346e+000 35726 98840,99125,99053
 1.8000e+000 99454 -2.4950e+001  3.5478e+000 -2.9208e+001 35222 99278,99330,99304
 1.8000e+000 99431 -5.9122e+001 -2.6776e+001 -9.2464e-001 35222 99278,99382,99330
 1.8000e+000 99408 -7.6664e+001  2.1014e+000 -2.0072e+000 35222 99330,99382,99356
 1.8000e+000 99653 -1.1140e+002 -9.1165e+001  8.7031e+000 34867 99477,99529,99503
 1.8000e+000 99630 -1.0164e+002 -6.5734e+001  3.7831e-001 34867 99477,99581,99529
 1.8000e+000 99607 -1.4058e+002 -1.2717e+002  2.3465e+001 34867 99529,99581,99555
 1.8000e+000 100104 -4.0554e+001  7.3120e+000 -6.9275e+000 34363 99781,99885,99807
 1.8000e+000 100081 -3.5938e+001  5.1806e+000  4.2278e+000 34363 99781,99963,99885
 1.8000e+000 100058 -6.0869e+001  7.3896e+000  6.4207e+000 34363 99885,99963,99911
 1.8000e+000 100035 -6.8324e+001  1.2604e+001 -1.1456e+001 34363 99807,99885,99859
 1.8000e+000 100012 -3.1136e+001  1.5677e+001  3.1581e+001 34363 99911,99963,99937
 1.8000e+000 99989 -6.5074e+001  3.7643e+000 -4.5439e+001 34363 99807,99859,99833
 1.8000e+000 100303 -2.8685e+001 -3.9048e+000  5.9539e+000 33909 100127,100205,100179
 1.8000e+000 100280  7.7433e-001  5.4834e+000  4.3405e+000 33909 100127,100231,100205
 1.8000e+000 100257 -2.5952e+001 -2.0888e+000 -2.3709e+000 33909 100127,100179,100153
 1.8000e+000 100890 -6.9153e+001 -5.1506e+001 -6.6495e+000 33412 100645,100749,100697
 1.8000e+000 100867 -8.0297e+001 -6.2011e+001 -1.3046e+001 33412 100567,100749,100645
 1.8000e+000 100844 -6.6259e+001 -2.3404e+001 -1.4257e+001 33412 100567,100645,100619
 1.8000e+000 100821 -1.1306e+002 -4.6525e+001  2.0759e+000 33412 100645,100697,100671
 1.8000e+000 100798 -8.3624e+001 -3.0079e+001 -3.1660e+001 33412 100567,100619,100593
 1.8000e+000 100775 -8.6169e+001 -4.1279e+001 -2.5232e+000 33412 100697,100749,100723
 1.8000e+000 101268 -7.3871e+001 -2.5939e+000 -5.9147e+000 32908 101435,101291,101098
 1.8000e+000 101245 -4.8676e+001 -2.4467e+001 -1.5272e+000 32908 101291,101072,101020
 1.8000e+000 101222 -1.0204e+002 -5.0446e+001 -2.1601e+001 32908 101363,101150,101124
 1.8000e+000 101199 -4.5436e+001 -3.2494e+001 -2.3164e+001 32908 101020,101072,101046
 1.8000e+000 101176 -3.6723e+001 -3.1688e+001 -2.3906e+000 32908 100994,101150,101020
 1.8000e+000 101317 -6.8235e+001 -1.8293e+001  2.4190e+000 32908 101124,101098,101291
 1.8000e+000 101340 -7.7135e+001 -4.6864e+001 -1.3692e+001 32908 101363,101124,101291
 1.8000e+000 101389 -8.3698e+001 -4.2594e+001 -3.9894e+000 32908 101020,101150,101363
 1.8000e+000 101412 -7.1678e+001 -4.0462e+001  5.6085e+000 32908 101020,101363,101291
 1.8000e+000 101461 -8.0416e+001 -1.6909e+001 -3.0473e+000 32908 101072,101291,101435
 1.8000e+000 101918 -1.0263e+001 -9.4686e+000 -1.2141e+001 32618 101941,101670,101644
 1.8000e+000 101895  2.2618e+001 -2.5849e+000  8.3225e+000 32618 101941,101644,101774
 1.8000e+000 101872 -5.6899e+001  1.9454e-001  7.2622e-001 32618 102013,101696,101670
 1.8000e+000 101849 -3.2630e+001 -6.7779e+000  6.7924e+000 32618 101696,101748,101722
 1.8000e+000 101826  2.1458e+001  2.6476e+000  1.0518e+001 32618 101644,101800,101774
 1.8000e+000 101967 -5.0558e+001 -3.4283e+000 -1.0375e+001 32618 102013,101670,101941
 1.8000e+000 101990 -1.3175e+001  3.7296e+000 -3.0545e+000 32618 101748,101941,101774
 1.8000e+000 102039 -4.1893e+001 -5.2587e+000 -5.3238e+000 32618 101748,101696,102013
 1.8000e+000 102062 -1.5283e+001  2.3288e+000 -1.4161e+001 32618 101748,102013,101941
 1.8000e+000 102440 -8.1951e+001 -4.5927e+001 -2.4642e+001 32306 102463,102270,102244
 1.8000e+000 102417 -7.5681e+001 -3.3302e+001 -1.8998e+001 32306 102463,102244,102192
 1.8000e+000 102394 -7.6416e+001 -1.3787e+001 -1.9138e+001 32306 102192,102244,102218
 1.8000e+000 102371 -1.2409e+002 -5.8440e+001 -2.9147e+001 32306 102270,102322,102296
 1.8000e+000 102348 -7.5587e+001 -5.7669e+001 -5.3704e+001 32306 102166,102322,102192
 1.8000e+000 102489 -9.2921e+001 -4.3325e+001 -3.8857e+001 32306 102322,102270,102463
 1.8000e+000 102512 -8.3350e+001 -2.2286e+001 -3.2474e+001 32306 102322,102463,102192
 1.8000e+000 102662  6.4297e+000 -6.7921e+000  4.0407e+000 31852 102943,102587,102561
 1.8000e+000 102639 -1.3949e+001 -4.3128e-001 -1.3238e+000 31852 102815,102685,102561
 1.8000e+000 102711 -1.9611e+000 -8.0168e-001  6.8136e+000 31852 102943,102561,102685
 1.8000e+000 102841 -8.9108e+000  7.5076e+000  2.4604e+000 31852 102535,102685,102815
 1.8000e+000 102969  1.0900e+001 -1.0445e+000 -2.0660e+000 31852 102613,102587,102943
 1.8000e+000 102992  1.3765e+000  2.9078e+000  1.1472e+000 31852 102613,102943,102685
 1.8000e+000 103370 -2.9510e+001 -4.5840e+001  2.9892e+001 31134 103096,103200,103122
 1.8000e+000 103347 -2.7909e+001 -2.4999e+001 -1.1073e+001 31134 103096,103226,103200
 1.8000e+000 103324 -7.8251e+001 -1.7361e+001  1.3761e+000 31134 103122,103200,103174
 1.8000e+000 103301 -6.2291e+001 -3.2377e+001 -3.1095e-001 31134 103096,103252,103226
 1.8000e+000 103278 -7.5404e+001 -2.1030e+000  3.5204e+000 31134 103122,103174,103148
 1.8000e+000 103520 -1.2737e+002 -2.1834e+001 -1.3680e+001 30822 103393,103445,103419
 1.8000e+000 103497 -1.3558e+002 -2.7699e+001 -8.8537e+000 30822 103393,103471,103445
 1.8000e+000 103719 -8.7514e+001 -1.3427e+001 -5.1645e+000 30182 103742,103621,103569
 1.8000e+000 103696 -1.0882e+002  2.6762e+000 -7.0100e+000 30182 103742,103569,103543
 1.8000e+000 103673 -7.4156e+001 -1.5483e+000  1.8205e+001 30182 103569,103621,103595
 1.8000e+000 103768 -8.4460e+001 -1.3261e+000 -1.1116e+001 30182 103647,103621,103742
 1.8000e+000 103791 -9.0171e+001  2.7960e+001 -1.7987e+001 30182 103647,103742,103543
 1.8000e+000 104252 -7.9558e+001 -5.2069e+001  4.3865e+000 29728 104030,104108,104056
 1.8000e+000 104229 -1.0619e+002 -6.4665e+001 -2.7452e+001 29728 104004,104108,104030
 1.8000e+000 104206 -1.1802e+002 -7.2918e+001 -3.1140e+001 29728 104004,104134,104108
 1.8000e+000 104183 -8.3638e+001 -2.3953e+001 -2.6187e+000 29728 103978,104134,104004
 1.8000e+000 104160 -4.8824e+001 -2.9889e+001 -8.7391e+000 29728 104056,104108,104082
 1.8000e+000 104630 -1.2942e+001 -8.6924e-001  6.7996e+000 29217 104653,104382,104356
 1.8000e+000 104607 -1.2863e+001  1.2666e+000 -5.1667e-002 29217 104653,104356,104512
 1.8000e+000 104584  1.8039e+000 -5.9938e+000  2.3475e+000 29217 104434,104512,104486
 1.8000e+000 104561 -9.4386e-001  5.3264e-002  4.2913e+000 29217 104382,104434,104408
 1.8000e+000 104538 -4.3424e+000 -5.0300e+000  3.8278e+000 29217 104434,104486,104460
 1.8000e+000 104679 -8.0226e+000  1.1350e+000  4.9166e+000 29217 104434,104382,104653
 1.8000e+000 104702 -6.1530e+000  2.1913e+000 -1.2292e+000 29217 104434,104653,104512
 1.8000e+000 105178 -7.9686e+001 -3.1661e+001 -9.7102e+000 28649 105201,104962,104936
 1.8000e+000 105155 -8.4591e+001 -4.1210e+001 -7.7801e+000 28649 105201,104936,104884
 1.8000e+000 105132 -8.5868e+001 -2.6050e+001 -1.0581e+001 28649 105273,104858,105014
 1.8000e+000 105109 -8.4097e+001 -3.5488e+001 -5.2864e+000 28649 104962,105014,104988
 1.8000e+000 105086 -1.0927e+002 -3.9757e+001 -2.6681e+001 28649 104884,104936,104910
 1.8000e+000 105063 -7.1178e+001 -6.4807e+001 -3.5157e+001 28649 104806,105014,104858
 1.8000e+000 105040 -6.7409e+001 -5.5555e+001 -3.3591e+001 28649 104806,104858,104832
 1.8000e+000 105227 -8.4886e+001 -3.1216e+001 -7.4589e+000 28649 105014,104962,105201
 1.8000e+000 105250 -8.3394e+001 -2.8835e+001 -8.5655e+000 28649 105273,105014,105201
 1.8000e+000 105299 -8.7765e+001 -2.8799e+001 -8.2078e+000 28649 104884,104858,105273
 1.8000e+000 105322 -8.7563e+001 -3.3201e+001 -5.7322e+000 28649 104884,105273,105201
 1.8000e+000 105673 -1.5161e+002 -4.2111e+000  1.3932e+000 28351 105474,105578,105552
 1.8000e+000 105650 -1.2950e+002  4.7917e+001  6.2683e+000 28351 105448,105578,105474
 1.8000e+000 105627 -1.4818e+002  1.7608e+000 -6.8842e+000 28351 105500,105552,105526
 1.8000e+000 105604 -1.4172e+002  2.6681e-001  4.2811e-001 28351 105474,105552,105500
 1.8000e+000 106130 -3.2584e+001 -2.5678e+000  6.2254e+000 28004 106153,105882,105856
 1.8000e+000 106107 -4.7903e+001 -1.2729e+001 -3.5078e+000 28004 106153,105856,105986
 1.8000e+000 106084 -2.3775e+001 -8.4462e+000  1.5903e+001 28004 105934,105986,105960
 1.8000e+000 106061 -2.7207e+001 -2.2270e+001 -1.1798e+001 28004 105856,106012,105986
 1.8000e+000 106038 -1.8031e-001  4.3555e+000  1.0842e-001 28004 105882,105934,105908
 1.8000e+000 106179 -7.9860e+000 -8.1537e+000  1.5935e+001 28004 105934,105882,106153
 1.8000e+000 106202 -2.8971e+001 -1.6135e+001  8.9570e+000 28004 105934,106153,105986
 1.8000e+000 106885 -4.9193e+001  6.5568e+000  1.1962e+000 27564 106908,106620,106516
 1.8000e+000 106862 -8.3145e+001 -6.6960e+000 -3.6994e+000 27564 106908,106516,106490
 1.8000e+000 106839 -9.3227e+001 -1.6515e+001  1.2677e+001 27564 106516,106620,106542
 1.8000e+000 106816 -4.4936e+001 -2.5113e+001  1.4380e+001 27564 106620,106672,106646
 1.8000e+000 106793 -1.1112e+002 -2.7322e+001  8.2092e+000 27564 106542,106620,106594
 1.8000e+000 106770 -8.1423e+001 -2.7084e+001 -1.3357e+001 27564 106490,106698,106672
 1.8000e+000 106747 -5.1039e+001 -4.4511e+001  1.4134e+001 27564 106464,106698,106490
 1.8000e+000 106724 -3.2296e+001  2.4593e+000  4.3690e+000 27564 106542,106594,106568
 1.8000e+000 106934 -2.9927e+001 -4.2334e+000  3.4876e+000 27564 106672,106620,106908
 1.8000e+000 106957 -4.7251e+001 -6.7711e+000 -1.5383e+000 27564 106672,106908,106490
 1.8000e+000 107463 -8.4830e+001 -5.4246e+001  6.4744e-001 27053 107218,107322,107296
 1.8000e+000 107440 -7.2587e+001 -2.3854e+001  1.0264e+001 27053 107166,107322,107218
 1.8000e+000 107417 -6.3936e+001 -9.8231e+000  1.0404e+001 27053 107218,107296,107244
 1.8000e+000 107394 -6.4850e+001 -4.1251e+001  6.6441e+000 27053 107140,107322,107166
 1.8000e+000 107371 -5.5054e+001 -1.6373e+001  6.4991e+000 27053 107166,107218,107192
 1.8000e+000 107348 -5.8721e+001 -1.8390e+001  1.0650e+000 27053 107244,107296,107270
 1.8000e+000 108097  1.4200e+001 -3.3867e+000 -1.2502e+001 26549 108192,108120,107803
 1.8000e+000 108074 -9.1912e+000  1.3586e+001 -2.1619e+001 26549 108120,107725,107933
 1.8000e+000 108051 -6.7898e-001 -1.0045e+000 -1.2902e+000 26549 107751,107803,107777
 1.8000e+000 108028  2.7900e+000  2.1930e+000 -2.4139e+000 26549 108192,107803,107751
 1.8000e+000 108005 -4.0280e+001 -3.1015e+000 -2.9185e+001 26549 108264,107855,107803
 1.8000e+000 107982 -1.8388e+000  1.4286e+001 -2.2475e+001 26549 107881,107933,107907
 1.8000e+000 107959 -4.9571e+001 -1.4373e+001 -1.8638e+001 26549 107803,107855,107829
 1.8000e+000 108146  6.5735e+000 -4.7528e+000 -2.6976e+001 26549 108264,107803,108120
 1.8000e+000 108169 -1.4284e+001 -8.3047e-001 -1.7042e+001 26549 107881,108120,107933
 1.8000e+000 108218 -9.1430e+000 -1.0634e+001 -1.3298e+001 26549 107725,108120,108192
 1.8000e+000 108241 -1.8203e+001 -3.2933e+000 -3.6638e+000 26549 107725,108192,107751
 1.8000e+000 108290 -6.7447e+001  7.5203e+000 -1.8984e+001 26549 107881,107855,108264
 1.8000e+000 108313 -3.8197e+001 -9.7677e+000 -1.2309e+001 26549 107881,108264,108120
 1.8000e+000 108512 -9.6997e+001 -1.0185e+001  2.1771e+001 26137 108388,108440,108414
 1.8000e+000 108489 -1.0977e+002 -2.4487e+001  7.0042e+000 26137 108362,108440,108388
 1.8000e+000 108466 -1.2305e+002 -3.9389e+001  1.0210e+000 26137 108336,108440,108362
 1.8000e+000 108662 -8.0977e+001 -4.4532e+001 -2.4922e+000 25733 108817,108685,108535
 1.8000e+000 108639 -7.6901e+001 -4.2520e+001 -3.2954e+000 25733 109017,108817,108535
 1.8000e+000 108711 -7.0734e+001 -2.6876e+001 -6.7920e+000 25733 108561,108535,108685
 1.8000e+000 108843 -7.7555e+001 -2.7085e+001 -1.6264e+000 25733 108587,108685,108817
 1.8000e+000 108866 -7.8027e+001 -4.2571e+001 -3.6784e+000 25733 108889,108817,108613
 1.8000e+000 108915 -8.4274e+001 -4.7507e+001  9.8976e-001 25733 108587,108817,108889
 1.8000e+000 109043 -7.8157e+001 -4.9716e+001 -4.4799e+000 25733 108613,108817,109017
 1.8000e+000 109500 -6.2712e+001 -3.1831e+001 -1.5619e+001 25229 109523,109356,109330
 1.8000e+000 109477 -6.4052e+001 -5.3286e+000 -7.1214e+000 25229 109595,109523,109330
 1.8000e+000 109454 -5.4464e+001 -2.1073e+001  9.2395e+000 25229 109595,109330,109278
 1.8000e+000 109431 -6.8079e+001 -5.8360e+000 -3.2644e+001 25229 109667,109226,109382
 1.8000e+000 109408 -1.0191e+002 -9.0319e+000  2.5557e+001 25229 109278,109330,109304
 1.8000e+000 109549 -4.9560e+001 -2.1084e+001 -2.8562e+001 25229 109382,109356,109523
 1.8000e+000 109572 -5.8816e+001 -2.1577e+001 -3.6109e+001 25229 109667,109382,109523
 1.8000e+000 109621 -5.4006e+001  3.7893e+000 -3.1846e+000 25229 109252,109523,109595
 1.8000e+000 109644 -4.8141e+001  4.7691e+000  9.8683e+000 25229 109739,109595,109278
 1.8000e+000 109693 -1.4835e+002 -2.1653e+001 -1.9181e+001 25229 109252,109226,109667
 1.8000e+000 109716 -9.3910e+001 -7.1083e+000 -1.7489e+001 25229 109252,109667,109523
 1.8000e+000 109765 -4.3883e+001 -4.1175e+000 -7.8895e+000 25229 109252,109595,109739
 1.8000e+000 110478 -9.8123e+001 -3.2461e+001 -2.3867e+001 24917 110158,110236,110184
 1.8000e+000 110455 -7.0367e+001 -1.4293e+001 -3.6523e+000 24917 110158,110288,110236
 1.8000e+000 110432 -7.7600e+001 -7.7278e+000 -4.3788e+000 24917 110236,110288,110262
 1.8000e+000 110409 -8.2562e+001 -3.6216e+001 -1.8775e+001 24917 110184,110236,110210
 1.8000e+000 110386 -7.1808e+001 -3.5731e+001  5.3261e-001 24917 110132,110288,110158
 1.8000e+000 110363 -5.4346e+001 -1.8600e+001  2.3485e+001 24917 110132,110314,110288
 1.8000e+000 110340 -4.4060e+001  1.5081e+001  6.8456e+000 24917 110106,110314,110132
 1.8000e+000 110829 -1.4539e+002 -8.7619e+001  1.8167e+001 24307 110604,110682,110630
 1.8000e+000 110806 -1.2558e+002 -8.9327e+001  5.3786e+000 24307 110604,110708,110682
 1.8000e+000 110783 -1.3142e+002 -8.3259e+001 -1.8566e+001 24307 110604,110734,110708
 1.8000e+000 110760 -2.1353e+002 -1.1684e+002  2.0808e+001 24307 110630,110682,110656
 1.8000e+000 111335 -9.0510e+001 -1.9641e+001  1.0968e+001 23767 111012,111168,111038
 1.8000e+000 111312 -5.4717e+001 -1.1985e+001 -1.3651e+001 23767 111012,111194,111168
 1.8000e+000 111289 -4.9143e+001  6.1101e+000 -1.5699e+001 23767 111358,111064,111038
 1.8000e+000 111266 -6.4398e+001  3.1905e+000 -1.5321e-001 23767 111358,111038,111168
 1.8000e+000 111243 -7.8608e+001 -2.2876e+001 -3.5151e+000 23767 111430,111142,111090
 1.8000e+000 111220 -8.6954e+001 -2.7060e+001 -1.1580e+001 23767 111090,111142,111116
 1.8000e+000 111384 -5.5367e+001  2.1100e-001 -1.4528e+000 23767 111090,111064,111358
 1.8000e+000 111407 -5.8755e+001 -1.3935e+001  1.0913e+000 23767 111430,111090,111358
 1.8000e+000 111456 -9.8883e+001 -5.5168e+000  7.1917e-001 23767 111168,111142,111430
 1.8000e+000 111479 -8.8519e+001 -4.2276e+000  2.6831e+000 23767 111168,111430,111358
 1.8000e+000 111985 -1.2732e+001 -1.0736e+001 -4.0689e+000 23477 111688,111844,111818
 1.8000e+000 111962 -8.0777e+000 -6.4222e-001 -5.8755e+000 23477 111662,111844,111688
 1.8000e+000 111939 -4.2396e+000 -4.3982e+000  2.4325e+000 23477 111766,111818,111792
 1.8000e+000 111916 -1.2485e+001 -4.9593e+000  2.9630e+000 23477 111740,111818,111766
 1.8000e+000 111893 -1.0853e+001 -2.7240e+000 -2.1116e+000 23477 111688,111818,111740
 1.8000e+000 111870 -2.9744e+001 -5.0834e+000 -2.5790e+000 23477 111688,111740,111714
 1.8000e+000 112314 -7.2386e+001 -8.2189e+000 -6.5400e+000 23023 112141,112219,112193
 1.8000e+000 112291 -8.0519e+001 -2.8450e+001 -3.7228e+000 23023 112115,112219,112141
 1.8000e+000 112268 -6.4551e+001 -6.8154e+000  2.9772e-001 23023 112141,112193,112167
 1.8000e+000 112245 -7.5739e+001 -1.7534e+001 -1.7503e+000 23023 112089,112219,112115
 1.8000e+000 112692 -1.0436e+002 -9.2224e+000 -5.8959e-001 22768 112444,112574,112548
 1.8000e+000 112669 -1.5125e+002 -6.6849e+000 -1.8184e+001 22768 112418,112574,112444
 1.8000e+000 112646 -8.5350e+001 -1.5257e+001 -4.7167e+000 22768 112444,112522,112470
 1.8000e+000 112623 -9.4051e+001 -5.7446e+000 -3.0800e+000 22768 112444,112548,112522
 1.8000e+000 112600 -8.6014e+001 -1.7133e+001  8.5608e+000 22768 112470,112522,112496
 1.8000e+000 113011 -1.2441e+002  1.8371e+001 -2.2046e+001 22314 112763,112867,112789
 1.8000e+000 112988 -1.6174e+002 -7.8870e+000 -9.2023e+000 22314 112763,112893,112867
 1.8000e+000 112965 -1.7873e+002 -1.2913e+001  0.0000e+000 22314 112815,112867,112841
 1.8000e+000 112942 -1.9609e+002 -1.4083e+001 -1.4924e+001 22314 112789,112867,112815
 1.8000e+000 112919 -1.2526e+002 -7.1463e-001 -1.9287e+001 22314 112737,112893,112763
 1.8000e+000 113519  7.6886e+000  5.7305e+000 -2.1485e+000 21924 113614,113542,113248
 1.8000e+000 113496  4.0025e-001  8.2424e+000 -2.2321e+000 21924 113542,113196,113378
 1.8000e+000 113473  1.8853e+000  5.7650e-001  7.5141e-002 21924 113614,113248,113222
 1.8000e+000 113450  1.3361e+001 -4.0452e+000  1.0506e+000 21924 113686,113274,113248
 1.8000e+000 113427  1.2311e+001  1.1200e+000  4.3050e+000 21924 113274,113352,113326
 1.8000e+000 113404  4.2553e+000 -3.3213e-001 -1.1734e+000 21924 113274,113326,113300
 1.8000e+000 113568  9.1827e+000  1.9939e+000 -4.8032e+000 21924 113686,113248,113542
 1.8000e+000 113591  4.7597e+000  1.4295e+001 -7.1844e+000 21924 113352,113542,113378
 1.8000e+000 113640  1.9547e+000  9.7138e+000 -4.4194e+000 21924 113196,113542,113614
 1.8000e+000 113663  9.7940e-001  7.8086e+000 -3.7396e+000 21924 113196,113614,113222
 1.8000e+000 113712  1.9000e+001  1.5775e+000 -1.3705e+000 21924 113352,113274,113686
 1.8000e+000 113735  1.8188e+001  8.7627e+000 -7.9398e+000 21924 113352,113686,113542
 1.8000e+000 113885  2.7832e+000  4.4406e+000 -3.0680e+000 21520 113980,113908,113784
 1.8000e+000 113862  3.3678e-001 -3.8087e+000  2.4143e+000 21520 114238,113908,113758
 1.8000e+000 113934 -7.7352e-001 -1.1431e+001  4.9484e+000 21520 114110,113908,113810
 1.8000e+000 113957  7.7071e+000  8.2570e-001 -3.1103e-001 21520 113810,113908,113836
 1.8000e+000 114006  1.8698e+000  1.0299e+000 -1.6900e+000 21520 113758,113908,113980
 1.8000e+000 114136 -1.2318e+001  1.4130e+000 -3.0948e-002 21520 113784,113908,114110
 1.8000e+000 114264 -2.1570e+000 -3.3571e+000  2.1970e+000 21520 113836,113908,114238
 1.8000e+000 114662 -7.8020e+001 -4.3269e+000  5.3313e+000 21030 114414,114518,114492
 1.8000e+000 114639 -8.4931e+001 -1.6608e+001  8.4859e+000 21030 114414,114544,114518
 1.8000e+000 114616 -3.2144e+001  9.0628e+000  2.2625e+000 21030 114440,114492,114466
 1.8000e+000 114593 -8.1704e+001 -1.2560e+001  6.4968e+000 21030 114414,114492,114440
 1.8000e+000 114570 -9.1915e+001 -1.2701e+001  3.0191e+001 21030 114388,114544,114414
 1.8000e+000 114959 -2.3077e+001  9.3010e-001  3.3590e+000 20512 114982,114711,114685
 1.8000e+000 114936 -1.9232e+001  2.6235e+000 -5.4019e+000 20512 115054,114982,114685
 1.8000e+000 114913 -4.0500e+000  9.5023e+000 -1.1806e+001 20512 115054,114685,114841
 1.8000e+000 114890 -3.7494e+000  4.1654e+000  1.9734e+000 20512 114711,114763,114737
 1.8000e+000 114867 -2.7047e+000  6.3648e+000 -2.1335e+000 20512 114763,114815,114789
 1.8000e+000 115008 -1.4701e+001  2.7819e+000  5.3197e-001 20512 114763,114711,114982
 1.8000e+000 115031 -1.2189e+001  3.9098e+000 -2.6920e+000 20512 114763,114982,114815
 1.8000e+000 115080 -9.1285e+000  2.4035e+000 -9.8006e-001 20512 114815,114982,115054
 1.8000e+000 115103 -7.2644e+000  7.7337e-002 -1.3805e+000 20512 114815,115054,114841
 1.8000e+000 115507 -3.9447e+001 -1.5444e+001 -1.4425e+001 20143 115285,115389,115363
 1.8000e+000 115484 -6.5904e+001  2.7392e+000  5.8394e+000 20143 115259,115389,115285
 1.8000e+000 115461 -7.9929e+001  1.0882e+000 -7.6487e+000 20143 115233,115389,115259
 1.8000e+000 115438  1.3125e+001  1.2556e+000 -7.8323e-001 20143 115285,115337,115311
 1.8000e+000 115415 -2.2329e+001  6.1885e+000  3.9849e+000 20143 115285,115363,115337
 1.8000e+000 115875 -7.9552e+001 -1.2123e+001 -4.7887e+000 19632 115656,115734,115682
 1.8000e+000 115852 -8.1746e+001 -3.0326e+001 -4.7394e+000 19632 115552,115734,115656
 1.8000e+000 115829 -7.3161e+001 -8.9816e+000 -1.1190e+001 19632 115552,115656,115578
 1.8000e+000 115806 -7.6235e+001 -1.4926e+000 -1.0153e+001 19632 115578,115656,115630
 1.8000e+000 115783 -6.5106e+001 -2.2247e+001 -2.1684e+001 19632 115682,115734,115708
 1.8000e+000 115760 -5.5827e+001  3.1356e+000  1.2206e+001 19632 115578,115630,115604
 1.8000e+000 116025 -9.1787e+001 -7.7977e+000  1.3921e+001 19178 115898,115950,115924
 1.8000e+000 116002 -8.1606e+001  1.0351e+000  5.7592e+000 19178 115898,115976,115950
 1.8000e+000 116633 -7.7990e+001 -7.1344e-001  8.5373e+000 18738 116800,116656,116342
 1.8000e+000 116610 -7.9684e+001 -5.2169e-001 -9.6957e+000 18738 116656,116238,116446
 1.8000e+000 116587 -6.2766e+001 -1.3911e+001  7.7158e+000 18738 116728,116368,116342
 1.8000e+000 116564 -8.7751e+001 -6.1742e-002  7.0140e+000 18738 116800,116342,116264
 1.8000e+000 116541 -8.5606e+001  8.4471e+001 -4.3987e+001 18738 116212,116446,116238
 1.8000e+000 116518 -7.5075e+001 -3.7957e+001 -1.4117e+001 18738 116394,116446,116420
 1.8000e+000 116495 -2.0498e+002 -4.7972e+001  9.2976e+000 18738 116264,116342,116316
 1.8000e+000 116472 -7.7226e+001  3.2056e+000  3.7035e+000 18738 116264,116316,116290
 1.8000e+000 116682 -6.3476e+001 -1.3267e+001 -6.7389e-001 18738 116728,116342,116656
 1.8000e+000 116705 -7.9612e+001 -3.9348e+001 -1.5013e+001 18738 116394,116656,116446
 1.8000e+000 116754 -5.0674e+001 -8.6075e+000  6.5170e+000 18738 116394,116368,116728
 1.8000e+000 116777 -4.9770e+001 -7.1338e+000 -2.0659e+000 18738 116394,116728,116656
 1.8000e+000 116826 -8.7927e+001  3.7446e+000 -9.3243e-001 18738 116238,116656,116800
 1.8000e+000 116849 -1.0268e+002  1.4846e+000 -1.6825e+000 18738 116238,116800,116264
 1.8000e+000 116999  7.9094e+000 -8.2380e-001 -2.4636e+000 18184 116872,116924,116898
 1.8000e+000 116976  4.0646e+000  9.8487e+000 -2.9177e+000 18184 116872,116950,116924
 1.8000e+000 117330  8.2954e+000  8.5431e-001  9.8491e-002 17694 117157,117235,117183
 1.8000e+000 117307 -1.3890e-002  6.8953e-001  1.2663e-001 17694 117131,117235,117157
 1.8000e+000 117284  4.3518e-002  9.4439e-001  2.5350e-001 17694 117105,117235,117131
 1.8000e+000 117261  1.1215e+001  7.3353e+000 -1.4023e+000 17694 117183,117235,117209
 1.8000e+000 117480 -6.7322e+001 -3.0081e+001  9.8813e+000 17290 117353,117405,117379
 1.8000e+000 117457 -3.2656e+001 -9.9120e+000 -5.5235e-001 17290 117353,117431,117405
 1.8000e+000 117679 -1.0567e+002 -5.6346e+001  4.5955e+000 16718 117555,117607,117581
 1.8000e+000 117656 -8.8918e+001 -3.8466e+001 -4.1751e+000 16718 117529,117607,117555
 1.8000e+000 117633 -1.1846e+002 -3.7070e+001 -1.2380e+000 16718 117503,117607,117529
 1.8000e+000 117782 -1.1528e+002 -3.4144e+001 -5.8464e+000 16520 117704,117756,117730
 1.8000e+000 117983 -1.3123e+002 -7.8764e+001  6.2231e+000 16208 117859,117911,117885
 1.8000e+000 117960 -1.1866e+002 -5.8001e+001 -1.0201e+001 16208 117833,117911,117859
 1.8000e+000 117937 -6.2208e+001 -3.7556e+001 -1.7838e+000 16208 117807,117911,117833
 1.8000e+000 118135 -2.9140e+001 -3.3421e+001  1.8156e+000 15674 118034,118086,118060
 1.8000e+000 118112 -9.8138e+001 -6.3205e+001 -5.1260e+000 15674 118008,118086,118034
 1.8000e+000 118238 -3.1494e+000  4.1598e+000 -1.2811e-002 15355 118160,118212,118186
 1.8000e+000 118341  8.6386e+000  2.1524e+000 -6.3664e+000 421 118263,118315,118289
 1.9000e+000 68152  1.0354e+001  1.5675e+001  9.8944e+000 67838 68074,68126,68100
 1.9000e+000 68550  2.3156e+000 -1.4438e+002  2.1178e+000 67526 68276,68380,68302
 1.9000e+000 68527  5.0750e+000 -1.4726e+002 -8.8633e-002 67526 68276,68406,68380
 1.9000e+000 68504  2.7484e+001 -1.3924e+002 -3.5523e+000 67526 68328,68380,68354
 1.9000e+000 68481 -2.2992e+000 -1.5517e+002  2.2730e+000 67526 68302,68380,68328
 1.9000e+000 68458  5.0151e+000 -1.3584e+002 -3.2174e+000 67526 68276,68432,68406
 1.9000e+000 68651  9.7766e-015  3.0167e-015  4.2960e-017 67328 68573,68625,68599
 1.9000e+000 68970  7.7650e+000 -5.3718e+000 -1.9703e+000 67016 68722,68800,68774
 1.9000e+000 68947  9.4605e+000  2.8927e+000 -4.1785e+000 67016 68722,68826,68800
 1.9000e+000 68924  3.4490e+000 -8.5936e-001 -2.1546e+000 67016 68696,68826,68722
 1.9000e+000 68901  2.8102e-002 -6.0268e+000 -9.9521e-001 67016 68722,68774,68748
 1.9000e+000 68878  4.9217e+000  3.8116e-001 -9.2933e-001 67016 68696,68852,68826
 1.9000e+000 69291 -9.2804e+000 -4.1038e+001 -2.4756e+000 66654 69069,69147,69095
 1.9000e+000 69268 -4.6403e+000 -5.7263e+001 -1.1258e+000 66654 69069,69173,69147
 1.9000e+000 69245 -2.3758e+001 -6.5413e+001  1.3251e+001 66654 69043,69173,69069
 1.9000e+000 69222 -2.2037e+001 -6.1426e+001  4.5866e+000 66654 69095,69147,69121
 1.9000e+000 69199 -3.2040e+001 -4.6734e+001 -5.6398e+000 66654 69017,69173,69043
 1.9000e+000 69695  1.1907e+000 -3.7232e-001 -1.2346e-001 66456 69447,69577,69551
 1.9000e+000 69672  6.1038e-001  1.1878e+000 -1.1635e+000 66456 69421,69577,69447
 1.9000e+000 69649  1.0453e+000 -6.2418e-001  3.3192e-001 66456 69473,69551,69525
 1.9000e+000 69626  1.3055e+000 -2.3054e-002  8.0295e-002 66456 69447,69551,69473
 1.9000e+000 69603  1.2962e+000 -7.1087e-001 -5.0630e-001 66456 69473,69525,69499
 1.9000e+000 70024 -6.8939e+000 -3.9605e+001  5.2430e+000 66258 70047,69851,69825
 1.9000e+000 70001 -1.1300e+001 -4.8139e+001  7.2167e+000 66258 70047,69825,69903
 1.9000e+000 69978 -1.7126e+001 -6.2862e+001  1.0908e+001 66258 69799,69903,69825
 1.9000e+000 69955 -1.1758e+001 -9.6129e+001  1.7684e+001 66258 69799,69929,69903
 1.9000e+000 70073 -7.8470e+000 -4.4595e+001  1.4414e+001 66258 69877,69851,70047
 1.9000e+000 70096 -1.3927e+001 -5.6382e+001  1.6718e+001 66258 69877,70047,69903
 1.9000e+000 70602  5.0046e+000  1.9566e+000 -1.0713e+000 66060 70305,70435,70331
 1.9000e+000 70579 -3.6905e-001  1.4924e+000  6.6362e-001 66060 70279,70435,70305
 1.9000e+000 70556 -1.6088e+000 -2.5845e+000  1.6394e+000 66060 70331,70435,70409
 1.9000e+000 70533  1.4056e+000  2.9307e+000  4.1676e+000 66060 70279,70461,70435
 1.9000e+000 70510  3.0324e+000  4.9435e-001 -6.0467e-001 66060 70331,70409,70357
 1.9000e+000 70487 -5.1606e+000 -6.5122e+000  6.9158e+000 66060 70357,70409,70383
 1.9000e+000 70703  3.2213e+000 -8.2633e-001 -1.2147e+000 65862 70625,70677,70651
 1.9000e+000 71083 -3.0774e+001 -1.2252e+002  1.2407e+001 65664 70887,70965,70939
 1.9000e+000 71060 -9.2945e+000 -1.0498e+002  4.3457e+000 65664 70861,70965,70887
 1.9000e+000 71037 -5.2940e+000 -1.2107e+002  1.2170e+001 65664 70809,70965,70861
 1.9000e+000 71014  1.2963e+001 -9.9406e+001 -1.9313e+000 65664 70809,70861,70835
 1.9000e+000 70991 -2.3165e+001 -1.1766e+002 -1.4890e+000 65664 70887,70939,70913
 1.9000e+000 71611 -1.6193e+001 -5.2643e+001 -1.0757e+000 65260 71288,71444,71314
 1.9000e+000 71588 -9.6993e-001 -4.7091e+001  5.4932e-001 65260 71288,71470,71444
 1.9000e+000 71565 -1.8377e+001 -2.5473e+001  1.9164e+000 65260 71314,71418,71392
 1.9000e+000 71542 -1.4579e+001 -4.6157e+001  7.4537e-001 65260 71314,71444,71418
 1.9000e+000 71519 -1.5313e+001 -2.9340e+001 -5.4436e+000 65260 71314,71392,71340
 1.9000e+000 71496 -1.4296e+001 -2.9368e+001  7.1536e+000 65260 71340,71392,71366
 1.9000e+000 72060  7.1025e+000  1.6564e+000 -4.9091e+000 64870 71737,71893,71789
 1.9000e+000 72037  6.5054e-001 -2.5950e-001 -3.2707e-001 64870 71737,71919,71893
 1.9000e+000 72014  3.7726e+001 -5.0056e-001 -8.6764e+000 64870 71789,71841,71815
 1.9000e+000 71991  1.6003e+001  6.2906e+000  7.8411e-001 64870 71789,71893,71841
 1.9000e+000 71968  2.5966e+000  3.1470e-001  3.8327e-001 64870 71737,71789,71763
 1.9000e+000 71945  3.0128e+001 -9.9652e-001  0.0000e+000 64870 71841,71893,71867
 1.9000e+000 72517  4.8475e+000 -8.0426e-001 -1.2806e+000 64466 72321,72399,72347
 1.9000e+000 72494  7.7596e-002 -1.8429e+000 -2.3721e+000 64466 72269,72399,72321
 1.9000e+000 72471  4.6016e+000 -3.6861e-001 -1.5552e+000 64466 72347,72399,72373
 1.9000e+000 72448  7.3071e+000  2.2501e+000  4.3697e-002 64466 72243,72399,72269
 1.9000e+000 72425 -2.3841e+000 -3.0631e+000  1.6899e+000 64466 72269,72321,72295
 1.9000e+000 72944 -6.6172e-002  1.3153e+000 -1.8288e+000 64062 73111,73039,72699
 1.9000e+000 72921 -1.3006e+000  2.6924e+000 -1.0264e+000 64062 73183,72967,72647
 1.9000e+000 72898  1.0533e-001  4.3267e+000 -1.3716e+000 64062 72967,72803,72751
 1.9000e+000 72875 -4.0252e-001  1.1832e+000 -1.8745e+000 64062 73111,72699,72673
 1.9000e+000 72852 -1.4178e-001  1.1892e+000 -1.9737e-001 64062 73183,72647,72621
 1.9000e+000 72829 -7.2625e-001  1.1041e+000  1.6113e+000 64062 72751,72803,72777
 1.9000e+000 72993  3.0160e-001  1.2644e+000 -2.0368e+000 64062 73039,72647,72967
 1.9000e+000 73016  3.6635e+000  3.2097e+000 -3.0575e+000 64062 72725,72967,72751
 1.9000e+000 73065 -3.3281e+000 -1.3686e+000 -2.7460e-001 64062 72725,72699,73039
 1.9000e+000 73088  2.0249e-001  1.0219e+000 -2.0732e+000 64062 72725,73039,72967
 1.9000e+000 73137  4.4527e-001  1.3456e+000 -1.7946e+000 64062 72647,73039,73111
 1.9000e+000 73160 -3.9858e-002  1.1393e+000 -1.8119e+000 64062 72647,73111,72673
 1.9000e+000 73209 -2.0815e+000  1.4066e+000 -2.2962e-001 64062 72803,72967,73183
 1.9000e+000 73232 -1.6365e+000 -1.2720e+000  6.4396e-001 64062 72803,73183,72621
 1.9000e+000 73333 -1.5180e+000 -2.3958e+000  5.4968e+000 63814 73356,73281,73255
 1.9000e+000 73382  3.6183e+000 -6.0243e+000 -3.9740e+000 63814 73486,73356,73307
 1.9000e+000 73512 -3.3385e+000 -9.0196e+000  8.3113e+000 63814 73281,73356,73486
 1.9000e+000 73839 -3.6811e+001 -7.0693e+001  3.3090e+000 63616 73862,73692,73666
 1.9000e+000 73816 -4.1225e+001 -7.5877e+001  1.1279e+000 63616 73934,73862,73666
 1.9000e+000 73793 -4.8757e+001 -7.6307e+001 -5.2600e+000 63616 73934,73666,73640
 1.9000e+000 73770 -3.1063e+001 -7.0560e+001 -1.7747e+000 63616 73614,73744,73640
 1.9000e+000 73888 -4.2212e+001 -7.3702e+001  5.2327e+000 63616 73718,73692,73862
 1.9000e+000 73911 -2.9709e+001 -6.8004e+001  6.5691e+000 63616 73718,73862,73744
 1.9000e+000 73960 -2.9946e+001 -7.3811e+001  2.5651e+000 63616 73744,73862,73934
 1.9000e+000 73983 -3.4957e+001 -7.1149e+001 -2.6448e+000 63616 73744,73934,73640
 1.9000e+000 74363 -1.2170e-001  4.9882e+000 -2.4882e+000 63390 74386,74115,74089
 1.9000e+000 74340 -2.1875e+000  5.3874e-001 -1.0042e+000 63390 74458,74386,74089
 1.9000e+000 74317 -1.1459e+000  6.6808e-001 -3.8071e-001 63390 74458,74089,74245
 1.9000e+000 74294  3.5411e-001  2.8720e+001 -8.8183e+000 63390 74530,74167,74141
 1.9000e+000 74271  3.1334e+001  2.0064e+001 -1.8672e+001 63390 74167,74219,74193
 1.9000e+000 74412 -6.1866e+000 -4.3947e+000 -9.1005e+000 63390 74141,74115,74386
 1.9000e+000 74435 -2.2345e-002  1.6932e+001 -7.0368e+000 63390 74530,74141,74386
 1.9000e+000 74484 -1.1383e+000  7.8269e-001  1.1861e+000 63390 74219,74386,74458
 1.9000e+000 74507  1.3044e+000  1.6599e+000  1.8108e+000 63390 74219,74458,74245
 1.9000e+000 74556  4.3258e+000  1.8959e+001  7.9507e-001 63390 74219,74167,74530
 1.9000e+000 74579  1.4619e+000  3.9527e+000  2.7451e+000 63390 74219,74530,74386
 1.9000e+000 74680 -2.4262e+001 -1.4114e+001 -2.5438e-001 63100 75089,74833,74703
 1.9000e+000 74729 -2.1478e+001 -2.9957e+001  5.4601e+000 63100 74961,74703,74654
 1.9000e+000 74859 -9.8293e+000 -4.2438e+000  4.0722e+000 63100 74602,74703,74833
 1.9000e+000 74987 -1.8737e+001 -2.3748e+001  5.0695e+000 63100 75089,74703,74961
 1.9000e+000 75115 -3.4189e+001 -2.6795e+001  6.6442e+000 63100 74628,74833,75089
 1.9000e+000 75138 -2.8717e+001 -3.6500e+001  1.1974e+001 63100 74628,75089,74961
 1.9000e+000 75723 -2.2487e+001 -1.7269e+001  3.1480e+000 62532 75746,75504,75426
 1.9000e+000 75700 -2.3299e+001 -1.9997e+001  3.4345e+000 62532 75746,75426,75556
 1.9000e+000 75677 -2.8073e+001 -2.5066e+001 -1.5852e+000 62532 75426,75504,75452
 1.9000e+000 75654 -2.4402e+001 -2.4093e+001  7.7155e+000 62532 75400,75556,75426
 1.9000e+000 75631 -2.6599e+001 -2.8158e+001  8.8376e+000 62532 75400,75582,75556
 1.9000e+000 75608 -3.5057e+001 -4.7617e+000 -5.8634e+000 62532 75452,75504,75478
 1.9000e+000 75772 -2.4553e+001 -1.3115e+001  4.1069e+000 62532 75530,75504,75746
 1.9000e+000 75795 -2.6058e+001 -1.6788e+001  4.8746e+000 62532 75530,75746,75556
 1.9000e+000 76301 -1.7195e+001 -1.2881e+001  6.5233e+000 62192 76324,76082,76030
 1.9000e+000 76278 -2.4436e+001 -1.3716e+001  5.9553e+000 62192 76324,76030,76004
 1.9000e+000 76255 -1.9538e+001 -1.3331e+001  5.1662e+000 62192 76030,76082,76056
 1.9000e+000 76232 -1.0929e+001 -1.5176e+001  4.3738e+000 62192 76082,76134,76108
 1.9000e+000 76209 -1.4490e+001 -1.3656e+001  4.6439e+000 62192 76004,76160,76134
 1.9000e+000 76186 -1.3741e+001 -2.7384e+001  4.3488e+000 62192 75978,76160,76004
 1.9000e+000 76350 -1.1337e+001 -1.5213e+001  5.7416e+000 62192 76134,76082,76324
 1.9000e+000 76373 -1.6824e+001 -1.4758e+001  4.1617e+000 62192 76134,76324,76004
 1.9000e+000 76879 -1.7252e+001 -3.2424e+001  3.9106e+000 61788 76902,76660,76582
 1.9000e+000 76856 -1.3396e+001 -3.6074e+001  1.6055e+000 61788 76902,76582,76556
 1.9000e+000 76833 -1.4582e+001 -3.7398e+001  1.3650e+001 61788 76582,76660,76634
 1.9000e+000 76810 -2.3502e+001 -2.2005e+001  9.8825e+000 61788 76582,76634,76608
 1.9000e+000 76787 -2.0001e+001 -4.3048e+001  4.3290e+000 61788 76556,76738,76686
 1.9000e+000 76764 -1.5430e+001 -3.3069e+001  1.2443e+000 61788 76686,76738,76712
 1.9000e+000 76928 -1.7294e+001 -3.4999e+001  4.5068e+000 61788 76686,76660,76902
 1.9000e+000 76951 -1.4844e+001 -4.0370e+001  2.8465e+000 61788 76686,76902,76556
 1.9000e+000 77408 -3.8519e+000  1.3407e+000  2.0316e-001 61498 77212,77264,77238
 1.9000e+000 77385 -5.0552e+000 -4.0054e+000  2.6244e+000 61498 77160,77264,77212
 1.9000e+000 77362 -6.0061e+000 -2.3657e+000  3.6513e+000 61498 77160,77290,77264
 1.9000e+000 77339 -1.1727e+001  1.9064e-001  2.1954e+000 61498 77160,77212,77186
 1.9000e+000 77316 -4.4191e+000  6.0154e-001  4.6632e+000 61498 77134,77290,77160
 1.9000e+000 77678 -5.0135e+001 -1.4516e+002  3.8032e+000 61129 77479,77557,77505
 1.9000e+000 77655 -4.8797e+001 -1.2604e+002  4.1774e+000 61129 77479,77583,77557
 1.9000e+000 77632 -2.5196e+001 -9.7488e+001  1.4873e+001 61129 77453,77583,77479
 1.9000e+000 77609 -3.7071e+001 -1.2869e+002  1.8042e+001 61129 77505,77557,77531
 1.9000e+000 77828 -1.6410e+001 -8.6423e+001 -5.6710e+000 60931 77851,77727,77701
 1.9000e+000 77805 -3.5662e+001 -1.1039e+002  5.4851e+000 60931 77851,77701,77779
 1.9000e+000 77877 -4.8691e+001 -8.5201e+001  1.6129e+000 60931 77923,77851,77753
 1.9000e+000 77900 -3.3966e+001 -8.0248e+001  9.9175e+000 60931 77753,77851,77779
 1.9000e+000 77949 -3.8074e+001 -6.9969e+001 -6.8807e+000 60931 77727,77851,77923
 1.9000e+000 78133 -1.0611e+001  1.3049e+001  4.1041e+000 60377 78055,78107,78081
 1.9000e+000 78535 -2.4096e+000  4.1537e+000  5.1442e-002 60015 78287,78391,78313
 1.9000e+000 78512 -8.6886e+000  8.1172e+000 -1.1282e-001 60015 78287,78417,78391
 1.9000e+000 78489  3.8519e+000  9.2952e+000 -4.0471e+000 60015 78261,78417,78287
 1.9000e+000 78466 -1.6494e+001 -6.8065e+000 -7.0859e-001 60015 78339,78391,78365
 1.9000e+000 78443 -1.6402e+001 -2.7028e+000 -2.7068e+000 60015 78313,78391,78339
 1.9000e+000 78913 -1.3041e+000  1.6799e-001 -2.1734e+000 59725 78936,78743,78691
 1.9000e+000 78890  2.6223e+000  9.0941e-001 -9.3390e-001 59725 79008,78936,78691
 1.9000e+000 78867  3.2790e+000  9.9496e-001  9.9950e-001 59725 79008,78691,78665
 1.9000e+000 78844  1.1634e+000 -2.0131e+000  3.0840e+000 59725 78691,78743,78717
 1.9000e+000 78821  5.0002e-001  4.5867e-001 -7.1873e-001 59725 78639,78795,78769
 1.9000e+000 78962 -3.5034e+000  8.4202e-001 -7.4640e-001 59725 78769,78743,78936
 1.9000e+000 78985 -9.9255e-001  4.4428e-001 -5.8585e-001 59725 78769,78936,78639
 1.9000e+000 79034 -1.2047e+000 -5.8678e-001 -1.4469e+000 59725 78639,78936,79008
 1.9000e+000 79057  1.0400e+000 -3.6267e-001  1.7536e-001 59725 78639,79008,78665
 1.9000e+000 79386 -3.5495e+000  4.6337e+000  2.0927e+000 59221 79187,79239,79213
 1.9000e+000 79363  1.8878e+001  6.3309e+000  4.6574e-001 59221 79187,79265,79239
 1.9000e+000 79340  1.0704e+000  3.3551e+000  6.7992e+000 59221 79187,79291,79265
 1.9000e+000 79317  5.3062e+000  1.3006e+001 -1.0964e+000 59221 79161,79291,79187
 1.9000e+000 79813 -6.9259e+001 -6.1354e+001  7.9223e+000 58831 79836,79542,79516
 1.9000e+000 79790 -4.7294e+001 -5.3858e+001  8.1576e+000 58831 79980,79836,79516
 1.9000e+000 79767 -5.1137e+001 -4.8880e+001  7.2269e+000 58831 79908,79646,79568
 1.9000e+000 79744 -3.5913e+001 -5.3452e+001  6.3395e+000 58831 79980,79516,79490
 1.9000e+000 79721 -4.3932e+001 -6.3340e+001 -2.2391e+000 58831 79568,79646,79594
 1.9000e+000 79698 -2.8514e+001 -3.4228e+001  7.6743e+000 58831 79594,79646,79620
 1.9000e+000 79862 -5.3905e+001 -5.9127e+001  8.6234e+000 58831 79568,79542,79836
 1.9000e+000 79885 -5.1996e+001 -5.4029e+001  8.0300e+000 58831 79908,79568,79836
 1.9000e+000 79934 -5.0454e+001 -5.0881e+001  1.1335e+001 58831 79672,79646,79908
 1.9000e+000 79957 -5.2440e+001 -5.5949e+001  1.2726e+001 58831 79672,79908,79836
 1.9000e+000 80006 -5.2896e+001 -5.4622e+001  1.2891e+001 58831 79672,79836,79980
 1.9000e+000 80029 -4.7048e+001 -5.5386e+001  9.1928e+000 58831 79672,79980,79490
 1.9000e+000 80358 -6.4445e+000 -3.9010e+000 -4.1185e+000 58377 80381,80185,80159
 1.9000e+000 80335 -2.3558e+000 -3.3237e+000 -3.9093e+000 58377 80381,80159,80133
 1.9000e+000 80312 -4.0583e+000  5.6584e+000 -6.7841e+000 58377 80133,80263,80237
 1.9000e+000 80289 -1.7840e+001 -1.1501e+001 -4.3044e+000 58377 80185,80237,80211
 1.9000e+000 80407 -1.3417e+001 -2.7996e+000 -3.0457e+000 58377 80237,80185,80381
 1.9000e+000 80430 -6.2291e+000 -1.5776e-001 -2.4588e+000 58377 80237,80381,80133
 1.9000e+000 80759 -5.5846e+000  9.2805e+000 -2.4051e+000 57873 80782,80586,80560
 1.9000e+000 80736 -1.9159e+001 -2.8775e+000 -7.5295e+000 57873 80782,80560,80534
 1.9000e+000 80713  7.6280e+000  3.5765e+000 -2.6771e+000 57873 80586,80638,80612
 1.9000e+000 80690  1.8927e+001 -2.4400e+000 -1.9109e+000 57873 80534,80664,80638
 1.9000e+000 80808 -1.1373e+001 -1.8868e+000 -9.1185e+000 57873 80638,80586,80782
 1.9000e+000 80831 -1.3392e+001 -4.9968e+000 -1.1139e+001 57873 80638,80782,80534
 1.9000e+000 81337 -3.8398e+001 -8.0195e+001  4.7461e-001 57262 81360,81144,81092
 1.9000e+000 81314 -4.2532e+001 -8.5466e+001  8.3294e+000 57262 81360,81092,81066
 1.9000e+000 81291 -7.0398e+001 -1.1087e+002  3.4125e+000 57262 81014,81196,81066
 1.9000e+000 81268 -4.7313e+001 -7.3730e+001 -3.8167e+000 57262 81092,81144,81118
 1.9000e+000 81245 -4.0829e+001 -6.9297e+001  4.1502e-002 57262 81144,81196,81170
 1.9000e+000 81222 -8.7786e+001 -1.5102e+002  9.2796e+000 57262 81014,81066,81040
 1.9000e+000 81386 -4.9355e+001 -7.8240e+001  3.9703e+000 57262 81196,81144,81360
 1.9000e+000 81409 -5.0690e+001 -8.2517e+001  1.2081e+001 57262 81196,81360,81066
 1.9000e+000 81608 -9.1442e+001 -1.0728e+002 -4.5056e+000 57007 81458,81536,81510
 1.9000e+000 81585 -9.4759e+001 -1.6796e+002  5.7838e+000 57007 81432,81536,81458
 1.9000e+000 81562 -6.3790e+001 -1.0414e+002 -3.7040e+000 57007 81458,81510,81484
 1.9000e+000 82086 -3.8934e+001 -2.2239e+001  7.8585e+000 56339 81792,81922,81818
 1.9000e+000 82063 -2.8276e+001 -1.6801e+001  9.9296e+000 56339 81714,81922,81792
 1.9000e+000 82040 -3.6731e+001 -2.7655e+001  1.0087e+001 56339 82109,81844,81818
 1.9000e+000 82017 -4.0821e+001 -2.6459e+001  9.2444e+000 56339 82109,81818,81922
 1.9000e+000 81994 -2.5367e+001 -1.8581e+001  5.9204e+000 56339 81844,81896,81870
 1.9000e+000 81971 -2.2006e+001  1.3824e+000  2.3641e-001 56339 81714,81792,81766
 1.9000e+000 81948 -5.9743e+000 -2.9845e+000  6.4116e+000 56339 81714,81766,81740
 1.9000e+000 82135 -3.1912e+001 -2.6995e+001  1.0003e+001 56339 81896,81844,82109
 1.9000e+000 82158 -3.7094e+001 -2.6695e+001  8.6794e+000 56339 81896,82109,81922
 1.9000e+000 82536 -1.3662e+001  2.0318e-002 -2.3183e+000 55699 82288,82392,82314
 1.9000e+000 82513 -7.6235e+000  3.2989e+000  6.9355e-001 55699 82288,82418,82392
 1.9000e+000 82490  4.1916e-001 -7.7169e+000  3.6222e+000 55699 82314,82392,82340
 1.9000e+000 82467 -2.0225e+000 -1.0048e+000  4.0887e+000 55699 82340,82392,82366
 1.9000e+000 82444 -2.0069e+001  2.7591e+000 -1.2108e+000 55699 82262,82418,82288
 1.9000e+000 83091 -4.5442e+001 -6.2049e+001  1.5635e+000 55409 82745,82901,82875
 1.9000e+000 83068 -4.6300e+001 -6.0961e+001  1.4255e+000 55409 82719,82901,82745
 1.9000e+000 83045 -4.6923e+001 -5.6038e+001 -1.6065e+001 55409 82771,82849,82823
 1.9000e+000 83022 -5.1134e+001 -5.0878e+001  7.6925e-001 55409 82745,82849,82771
 1.9000e+000 82999 -4.6813e+001 -6.2692e+001  2.5008e+000 55409 82745,82875,82849
 1.9000e+000 82976 -5.2004e+001 -3.6186e+001 -1.9685e+001 55409 82771,82823,82797
 1.9000e+000 82953 -2.0895e+001 -2.6120e+001 -1.3188e+001 55409 82719,82927,82901
 1.9000e+000 83388 -5.3682e+000 -7.0546e-001 -4.0799e+000 54905 83411,83218,83166
 1.9000e+000 83365 -2.0564e+001 -2.9032e+000 -3.8788e+000 54905 83411,83166,83114
 1.9000e+000 83342  1.6726e+001  4.3590e+000  2.0860e+000 54905 83483,83270,83244
 1.9000e+000 83319 -2.0059e+001 -5.9596e+000 -2.7483e+000 54905 83166,83218,83192
 1.9000e+000 83296 -1.7314e+001 -1.0397e+000  2.9294e+000 54905 83114,83166,83140
 1.9000e+000 83437 -5.4606e+000 -3.5282e+000 -4.8014e+000 54905 83244,83218,83411
 1.9000e+000 83460  1.4343e-001  1.1659e+000 -1.3515e+000 54905 83483,83244,83411
 1.9000e+000 83509 -5.4083e+000 -5.2751e+000 -3.9122e+000 54905 83114,83270,83483
 1.9000e+000 83532 -8.8539e+000 -1.0021e+000 -7.7084e+000 54905 83114,83483,83411
 1.9000e+000 83961 -9.8875e+001 -1.4544e+002 -4.0850e+000 54593 83638,83768,83690
 1.9000e+000 83938 -8.0183e+001 -1.2292e+002 -2.2028e+001 54593 83638,83794,83768
 1.9000e+000 83915 -9.4134e+001 -1.1341e+002  1.6270e+001 54593 83690,83768,83742
 1.9000e+000 83892 -9.3698e+001 -1.4096e+002 -2.4597e+000 54593 83638,83820,83794
 1.9000e+000 83869 -1.0933e+002 -1.7216e+002 -3.9566e+000 54593 83638,83690,83664
 1.9000e+000 83846 -7.7503e+001 -9.7571e+001  5.8795e+000 54593 83690,83742,83716
 1.9000e+000 84209 -3.0316e+000 -1.2981e+000 -1.3972e+000 54132 84232,84062,83984
 1.9000e+000 84186 -8.7111e+000 -1.2483e+000 -4.8852e-001 54132 84232,83984,84114
 1.9000e+000 84163 -1.9762e+000  1.2487e+000 -7.2008e-001 54132 83984,84062,84036
 1.9000e+000 84140 -2.7554e-001  3.1388e+000  3.6809e-001 54132 83984,84036,84010
 1.9000e+000 84258 -9.3700e+000  1.7527e+000 -1.5117e+000 54132 84088,84062,84232
 1.9000e+000 84281 -1.7998e+001 -3.8483e-001 -4.6046e-001 54132 84088,84232,84114
 1.9000e+000 84382 -8.1690e+001 -1.3971e+002 -9.3900e+000 53521 84304,84356,84330
 1.9000e+000 84632 -9.4584e+000 -4.4420e+000 -4.9540e-001 53067 84655,84485,84459
 1.9000e+000 84609 -1.1448e+001 -3.3208e+000 -8.6608e-001 53067 84655,84459,84407
 1.9000e+000 84586 -1.1364e+001 -7.7365e+000  2.8948e-001 53067 84485,84537,84511
 1.9000e+000 84563 -9.8147e+000 -1.8593e-001 -2.8975e+000 53067 84407,84459,84433
 1.9000e+000 84681 -8.8661e+000 -3.4685e+000 -8.3879e-001 53067 84537,84485,84655
 1.9000e+000 84704 -9.5885e+000 -1.4344e+000 -1.6514e+000 53067 84537,84655,84407
 1.9000e+000 85214 -9.0425e+001 -9.6301e+001  1.3448e+001 52513 85021,85073,85047
 1.9000e+000 85191 -6.5879e+001 -8.3549e+001  6.0280e+000 52513 84943,85073,85021
 1.9000e+000 85168 -1.1480e+002 -1.0676e+002 -3.8413e+000 52513 84943,85021,84995
 1.9000e+000 85145 -8.4287e+001 -1.2230e+002  1.0376e-001 52513 84917,85073,84943
 1.9000e+000 85122 -1.2463e+002 -1.0028e+002 -4.9159e+000 52513 84943,84995,84969
 1.9000e+000 85099 -8.4219e+001 -5.2394e+001  3.2204e+001 52513 84891,85073,84917
 1.9000e+000 85582 -8.6141e+000 -4.9541e+000 -1.3564e+000 52037 85605,85311,85285
 1.9000e+000 85559 -7.1927e+000 -2.0019e-001 -1.2035e+000 52037 85749,85605,85285
 1.9000e+000 85536 -8.8037e+000  1.6010e+001 -1.0378e+001 52037 85893,85677,85389
 1.9000e+000 85513 -1.1903e+001 -2.8938e+000 -7.2784e-002 52037 85749,85285,85259
 1.9000e+000 85490 -6.2176e+000  1.5429e+001 -2.2853e+001 52037 85893,85389,85363
 1.9000e+000 85467 -1.2930e+001  6.5249e+000  1.2853e+000 52037 85259,85441,85415
 1.9000e+000 85631 -3.1728e+000 -5.2429e+000 -4.1525e+000 52037 85337,85311,85605
 1.9000e+000 85654 -5.5693e+000 -6.5487e-001 -7.9581e+000 52037 85677,85337,85605
 1.9000e+000 85703 -2.6934e+001  4.8615e+000 -5.5942e+000 52037 85415,85389,85677
 1.9000e+000 85726 -1.4988e+001 -3.1446e+000 -6.4537e+000 52037 85821,85677,85605
 1.9000e+000 85775 -1.3971e+001 -1.3523e+000 -2.9962e+000 52037 85821,85605,85749
 1.9000e+000 85798 -1.3151e+001  1.5690e+000 -7.8107e-001 52037 85415,85749,85259
 1.9000e+000 85847 -1.2637e+001  1.8067e+000 -4.9730e+000 52037 85415,85677,85821
 1.9000e+000 85870 -1.2659e+001  3.2220e+000 -1.8798e+000 52037 85415,85821,85749
 1.9000e+000 85919 -1.7000e+001 -3.9823e+000 -9.4021e+000 52037 85337,85677,85893
 1.9000e+000 85942 -1.6089e+001 -7.0023e+000 -2.0950e+001 52037 85337,85893,85363
 1.9000e+000 86224 -5.6328e+001 -6.2845e+001 -6.2537e+000 51368 86375,86100,86074
 1.9000e+000 86201 -4.8285e+001 -6.1822e+001 -8.9533e+000 51368 86375,86074,86247
 1.9000e+000 86178 -4.8871e+001 -6.1244e+001  7.1546e+000 51368 86048,86152,86126
 1.9000e+000 86273 -3.8821e+001 -6.1637e+001  4.1171e+000 51368 86048,86126,86247
 1.9000e+000 86401 -5.9809e+001 -6.2940e+001 -3.7057e+000 51368 86126,86100,86375
 1.9000e+000 86424 -5.5667e+001 -6.5813e+001 -5.6450e+000 51368 86126,86375,86247
 1.9000e+000 86802 -2.6478e+001 -6.2627e+000  6.4673e+000 51028 86528,86632,86580
 1.9000e+000 86779 -5.9974e+000 -4.5144e+000  2.1447e+000 51028 86528,86684,86632
 1.9000e+000 86756 -2.2568e+001  4.4936e+000  1.4973e+000 51028 86528,86580,86554
 1.9000e+000 86733 -1.0947e+001 -7.2067e+000 -2.3275e+000 51028 86632,86684,86658
 1.9000e+000 86710  4.8969e+000  6.8467e+000  9.1759e+000 51028 86580,86632,86606
 1.9000e+000 87131 -3.5812e+001 -1.4053e+001  4.1148e+000 50624 86958,87036,87010
 1.9000e+000 87108 -4.0168e+001 -2.9864e+001  1.1529e+000 50624 86932,87036,86958
 1.9000e+000 87085 -4.4596e+001 -1.4390e+001 -1.6357e+001 50624 86958,87010,86984
 1.9000e+000 87062 -4.0734e+001 -3.0733e+001  5.3967e-002 50624 86906,87036,86932
 1.9000e+000 87330 -5.3812e+001 -7.4921e+000 -1.0487e+000 50234 87353,87180,87154
 1.9000e+000 87307 -4.4413e+001  2.8038e+000 -5.7956e+000 50234 87353,87154,87258
 1.9000e+000 87284 -1.8746e+001 -3.2708e+000  1.4246e+000 50234 87206,87258,87232
 1.9000e+000 87379 -4.3380e+001 -3.2488e+001  7.2663e+000 50234 87206,87180,87353
 1.9000e+000 87402 -2.2277e+001 -1.2254e+001 -1.3345e+000 50234 87206,87353,87258
 1.9000e+000 87650 -1.3257e+001 -1.8431e-001  1.4304e+000 49730 87673,87503,87451
 1.9000e+000 87627 -1.4920e+001 -8.1429e-001  2.2538e+000 49730 87673,87451,87425
 1.9000e+000 87604 -9.5156e+000  4.2535e+000  2.8580e+000 49730 87503,87555,87529
 1.9000e+000 87581 -3.8616e+001  3.8813e+000  5.9653e+000 49730 87451,87503,87477
 1.9000e+000 87699 -1.2817e+001  3.8994e-001  1.1574e+000 49730 87555,87503,87673
 1.9000e+000 87722 -1.3203e+001  1.0180e+000  1.5647e+000 49730 87555,87673,87425
 1.9000e+000 88232 -9.2344e+000 -8.7232e+000  9.9961e+000 49176 88255,87935,87909
 1.9000e+000 88209 -2.9972e+000 -8.6344e+000 -3.5595e-001 49176 88255,87909,88065
 1.9000e+000 88186 -2.2333e+001  7.1574e+000  3.8146e+000 49176 87935,88039,87961
 1.9000e+000 88163 -5.4663e+000 -3.7338e+000 -2.5186e+000 49176 87909,88091,88065
 1.9000e+000 88140 -2.8383e+001  3.6531e+000 -3.7796e+000 49176 87961,88039,88013
 1.9000e+000 88117 -2.8129e+001 -1.6016e+000 -6.5875e+000 49176 87961,88013,87987
 1.9000e+000 88281  3.5231e-001 -4.7260e+000  8.0577e+000 49176 88039,87935,88255
 1.9000e+000 88304  6.4546e+000 -4.8273e+000 -2.2058e+000 49176 88039,88255,88065
 1.9000e+000 88503 -1.6162e+001  8.7339e+000 -7.6078e+000 48772 88526,88379,88353
 1.9000e+000 88480  2.8274e+000  4.9226e+000 -5.7201e+000 48772 88526,88353,88327
 1.9000e+000 88457 -1.9050e+001  4.6982e+000  1.0426e+001 48772 88379,88431,88405
 1.9000e+000 88552 -2.5093e+001  7.9663e+000 -4.1684e+000 48772 88431,88379,88526
 1.9000e+000 88575 -1.1823e+001  8.0316e-001 -4.2667e+000 48772 88431,88526,88327
 1.9000e+000 89083 -6.2993e+001 -9.1279e+001 -4.1195e+000 48368 88786,88916,88864
 1.9000e+000 89060 -4.6368e+001 -9.2676e+001  4.5420e-001 48368 88786,88942,88916
 1.9000e+000 89037 -6.5590e+001 -8.6634e+001  2.4738e-001 48368 88786,88864,88812
 1.9000e+000 89014 -6.4649e+001 -5.6831e+001  4.4513e+000 48368 88864,88916,88890
 1.9000e+000 88991 -9.2324e+001 -7.9666e+001 -1.0572e+001 48368 88812,88864,88838
 1.9000e+000 88968 -6.0967e+001 -1.0304e+002 -6.3340e+000 48368 88760,88942,88786
 1.9000e+000 89331 -1.0076e+002 -7.6154e+001 -5.2033e+000 47928 89158,89236,89210
 1.9000e+000 89308 -9.3793e+001 -6.8463e+001 -1.0823e+001 47928 89132,89236,89158
 1.9000e+000 89285 -6.7438e+001 -8.3102e+001  6.4002e+000 47928 89158,89210,89184
 1.9000e+000 89262 -1.1069e+002 -5.8219e+001 -1.1377e+001 47928 89106,89236,89132
 1.9000e+000 89662 -1.2759e+000  1.2149e+001  1.3462e+001 47588 89463,89541,89515
 1.9000e+000 89639  1.2181e+001 -4.4666e+000 -1.0821e+000 47588 89463,89567,89541
 1.9000e+000 89616 -4.9929e+000  6.0872e+000  1.1719e+001 47588 89463,89515,89489
 1.9000e+000 89593 -1.1800e+001 -8.4925e+000 -3.1804e+000 47588 89437,89567,89463
 1.9000e+000 89763 -2.0473e+002 -1.5288e+002 -1.3327e+001 47390 89685,89737,89711
 1.9000e+000 89913 -1.3316e+002 -9.9911e+001 -1.8869e+001 47078 89786,89838,89812
 1.9000e+000 89890 -1.4911e+002 -1.2733e+002 -9.2870e+000 47078 89786,89864,89838
 1.9000e+000 90163 -2.2472e+001 -6.0404e+000  3.0133e+000 46474 89964,90042,89990
 1.9000e+000 90140 -3.2886e+001 -1.1625e+001  8.3793e+000 46474 89938,90042,89964
 1.9000e+000 90117 -1.9588e+001 -8.4308e+000  2.8603e+000 46474 89990,90042,90016
 1.9000e+000 90094 -1.0394e+001 -2.3398e+000  1.8245e+000 46474 89938,90068,90042
 1.9000e+000 90364 -4.3514e+001 -4.8491e+001 -8.7630e+000 46184 90240,90292,90266
 1.9000e+000 90341 -5.3127e+001 -2.4517e+001  4.6099e+000 46184 90188,90292,90240
 1.9000e+000 90318 -7.9446e+001 -2.7646e+001 -6.0493e+000 46184 90188,90240,90214
 1.9000e+000 90565 -5.0524e+001 -3.3663e+000 -1.3102e+001 45780 90588,90415,90389
 1.9000e+000 90542 -3.1634e+001  1.4961e+001 -2.2024e+001 45780 90588,90389,90493
 1.9000e+000 90519 -4.8160e+001 -1.9983e+001  2.2404e+000 45780 90415,90467,90441
 1.9000e+000 90614 -3.5836e+001 -2.0990e+001  1.4494e+000 45780 90467,90415,90588
 1.9000e+000 90637 -1.8244e+001 -9.2984e+000 -7.2303e+000 45780 90467,90588,90493
 1.9000e+000 91196  1.4127e+000  9.4083e+000  1.6803e+001 45226 91219,90876,90850
 1.9000e+000 91173 -2.5950e+001  1.8658e+000  7.4022e+000 45226 91219,90850,91032
 1.9000e+000 91150 -1.4506e+001 -1.1952e+001 -7.2203e+000 45226 90824,91032,90850
 1.9000e+000 91127 -3.6106e+001 -8.0059e+000  2.0129e+001 45226 90876,90980,90902
 1.9000e+000 91104 -2.7391e+001  5.1712e+000  8.7750e+000 45226 90876,91006,90980
 1.9000e+000 91081 -9.1786e+000 -1.3125e+001  4.1780e+000 45226 90902,90980,90954
 1.9000e+000 91058 -4.5722e+001 -1.9970e+001 -5.0449e-001 45226 90902,90954,90928
 1.9000e+000 91245 -2.5615e+001  5.3931e+000  8.4495e+000 45226 91006,90876,91219
 1.9000e+000 91268 -5.1935e+001  6.0575e-001  8.3027e-001 45226 91006,91219,91032
 1.9000e+000 91516 -7.9468e+001 -7.1157e+001  8.3548e+000 44836 91539,91421,91395
 1.9000e+000 91493 -1.1313e+002 -1.0532e+002 -1.0676e+001 44836 91317,91421,91343
 1.9000e+000 91470 -9.7237e+001 -4.4182e+001 -7.7872e+000 44836 91539,91395,91369
 1.9000e+000 91447 -1.1905e+002 -1.2098e+002 -1.9272e+001 44836 91291,91421,91317
 1.9000e+000 91565 -9.1371e+001 -8.3139e+001 -7.6752e-001 44836 91343,91421,91539
 1.9000e+000 91588 -1.1358e+002 -7.7962e+001 -2.0437e+001 44836 91343,91539,91369
 1.9000e+000 91787 -5.1258e+001 -1.3831e+001 -4.5031e+000 44432 91810,91637,91611
 1.9000e+000 91764 -3.4076e+001 -2.5154e+001 -5.1217e+000 44432 91810,91611,91715
 1.9000e+000 91741 -4.2916e+001 -1.1158e+001 -2.4326e+001 44432 91637,91689,91663
 1.9000e+000 91836 -3.8815e+001 -8.6040e+000 -9.7892e-001 44432 91689,91637,91810
 1.9000e+000 91859 -2.3568e+001 -1.8784e+001  5.6969e-001 44432 91689,91810,91715
 1.9000e+000 92207 -8.9400e+001 -4.7495e+001 -1.8452e+001 43864 92230,91936,91910
 1.9000e+000 92184 -8.5720e+001 -5.6679e+001 -1.7581e+001 43864 92230,91910,92040
 1.9000e+000 92161 -4.3048e+001 -3.9840e+001 -2.5245e+001 43864 91884,92040,91910
 1.9000e+000 92138 -1.2095e+002 -5.1532e+001  6.7354e+000 43864 91936,92014,91988
 1.9000e+000 92115 -5.8662e+001 -1.9666e+001 -5.1343e+000 43864 91936,91988,91962
 1.9000e+000 92092 -4.6123e+001 -3.6766e+001 -2.5273e+001 43864 91884,92066,92040
 1.9000e+000 92256 -8.8763e+001 -3.3766e+001 -1.5558e+001 43864 92014,91936,92230
 1.9000e+000 92279 -8.9586e+001 -4.8343e+001 -1.5749e+001 43864 92014,92230,92040
 1.9000e+000 92529 -3.6042e+001 -1.6118e+001  6.3667e+000 43410 92552,92330,92304
 1.9000e+000 92506 -3.5939e+001 -1.5955e+001  9.2026e+000 43410 92552,92304,92408
 1.9000e+000 92483 -1.9685e+001 -3.1707e+001  3.2547e+000 43410 92304,92434,92408
 1.9000e+000 92460 -3.8807e+001 -2.1207e+000  7.3331e-001 43410 92330,92382,92356
 1.9000e+000 92578 -3.8136e+001 -1.7010e+001  6.3189e+000 43410 92382,92330,92552
 1.9000e+000 92601 -3.9586e+001 -1.7475e+001  9.4355e+000 43410 92382,92552,92408
 1.9000e+000 92802 -9.8861e+001 -6.6565e+001 -2.8776e+000 43162 92825,92704,92652
 1.9000e+000 92779 -1.0476e+002 -7.3014e+001 -1.1047e+001 43162 92825,92652,92626
 1.9000e+000 92756 -5.2076e+001 -6.0956e+001  3.1674e+000 43162 92652,92704,92678
 1.9000e+000 92851 -8.6974e+001 -6.6025e+001  7.9620e+000 43162 92730,92704,92825
 1.9000e+000 92874 -8.9238e+001 -1.0015e+002 -3.4737e+000 43162 92730,92825,92626
 1.9000e+000 93463  5.3740e+000  8.5883e+000 -7.1632e+000 42758 93140,93270,93166
 1.9000e+000 93440  7.4277e+000  2.9817e+000 -1.0995e+001 42758 93140,93296,93270
 1.9000e+000 93417  1.4246e+001  5.4152e+000 -3.2094e+000 42758 93166,93270,93218
 1.9000e+000 93394  7.4824e+000  3.3540e+000 -3.3023e+000 42758 93218,93270,93244
 1.9000e+000 93371  1.8527e+001 -3.0446e-001 -1.1287e+001 42758 93140,93322,93296
 1.9000e+000 93348  1.1750e+001  8.0974e-001  3.0006e-001 42758 93166,93218,93192
 1.9000e+000 93920 -1.7147e+001 -1.1845e+000  5.3699e-001 42304 93943,93672,93646
 1.9000e+000 93897 -1.1316e+001  1.5232e+000 -5.6949e+000 42304 93943,93646,93802
 1.9000e+000 93874  2.3765e+000  4.5445e-001  2.8798e+000 42304 93724,93802,93776
 1.9000e+000 93851 -1.3462e+001 -2.5636e+000 -2.1751e+000 42304 93672,93724,93698
 1.9000e+000 93828  4.7832e+000 -7.9449e+000  2.7648e+000 42304 93724,93776,93750
 1.9000e+000 93969 -8.8427e+000 -1.8613e+000 -1.6657e+000 42304 93724,93672,93943
 1.9000e+000 93992 -2.9037e+000 -2.0232e+000 -5.8549e+000 42304 93724,93943,93802
 1.9000e+000 94321 -4.8548e+001 -3.6901e+001 -1.9482e+001 41478 94096,94148,94122
 1.9000e+000 94298 -6.1488e+001 -3.7512e+001 -9.1930e+000 41478 94096,94226,94148
 1.9000e+000 94275 -5.3304e+001 -3.7664e+001 -7.1929e+000 41478 94148,94226,94174
 1.9000e+000 94252 -4.6265e+001 -1.6511e+001 -6.9099e+000 41478 94174,94226,94200
 1.9000e+000 94618 -5.1249e+001 -1.8731e+001 -3.9326e+000 40910 94344,94422,94396
 1.9000e+000 94595 -6.0921e+001 -3.0835e+001 -8.1756e+000 40910 94344,94448,94422
 1.9000e+000 94572 -5.8739e+001 -2.2436e+001  6.2680e+000 40910 94344,94474,94448
 1.9000e+000 94549 -4.4962e+001 -3.0547e+001 -1.3289e+001 40910 94344,94396,94370
 1.9000e+000 94526 -6.7421e+001 -1.7378e+001  7.7066e+000 40910 94344,94500,94474
 1.9000e+000 94866 -2.4106e+001 -1.2211e+001  1.6522e+001 40306 94667,94719,94693
 1.9000e+000 94843 -2.1105e+001 -5.4344e+000  1.3987e+001 40306 94641,94719,94667
 1.9000e+000 94820 -1.0269e+001 -1.4298e+000  4.3930e+000 40306 94641,94745,94719
 1.9000e+000 94797 -2.4230e+001 -9.8193e+000  7.9676e+000 40306 94641,94771,94745
 1.9000e+000 95089 -5.1098e+001 -1.7517e+001 -9.8355e+000 39702 94913,94991,94939
 1.9000e+000 95066 -6.0648e+001 -2.2878e+001 -7.6862e+000 39702 94913,95017,94991
 1.9000e+000 95043 -8.1753e+001 -3.0544e+001 -9.2969e+000 39702 94939,94991,94965
 1.9000e+000 95339 -4.9395e+001 -2.4966e+001  2.1776e+000 39248 95140,95218,95166
 1.9000e+000 95316 -7.2201e+001 -3.3089e+001  2.0072e+000 39248 95140,95244,95218
 1.9000e+000 95293 -3.7932e+001 -2.4837e+001  3.1301e+000 39248 95114,95244,95140
 1.9000e+000 95270 -1.0800e+002 -1.8808e+001  2.2543e+001 39248 95166,95218,95192
 1.9000e+000 95770 -8.5285e+001 -8.0104e+001 -2.2412e+001 38694 95551,95629,95577
 1.9000e+000 95747 -8.2364e+001 -6.1825e+001 -1.8758e+001 38694 95447,95629,95551
 1.9000e+000 95724 -1.0881e+002 -1.1854e+002 -7.1491e+000 38694 95447,95551,95473
 1.9000e+000 95701 -9.8170e+001 -1.1307e+002 -1.0491e+001 38694 95473,95551,95499
 1.9000e+000 95678 -1.0837e+002 -1.2999e+002  1.5208e+001 38694 95499,95551,95525
 1.9000e+000 95655 -3.7934e+001  8.0070e+000  5.5109e+000 38694 95577,95629,95603
 1.9000e+000 96325 -1.6859e+001 -1.7986e+000 -5.1503e+000 38240 95953,96031,96005
 1.9000e+000 96302 -1.5783e+001 -6.8856e-001 -6.0094e+000 38240 95953,96161,96031
 1.9000e+000 96279 -4.8041e+000  8.6776e+000 -1.7140e+001 38240 96031,96161,96135
 1.9000e+000 96256 -9.8010e+000  4.5261e-001  2.7487e-001 38240 96348,96109,96057
 1.9000e+000 96233 -1.0565e+001 -2.0987e+001 -1.9480e+001 38240 96348,96057,96031
 1.9000e+000 96210  6.7441e+000 -2.9640e+000  1.2774e+001 38240 96057,96109,96083
 1.9000e+000 96187 -3.9212e+000 -6.3234e-001  1.5976e+000 38240 95953,96005,95979
 1.9000e+000 96374  5.1913e+000  2.1636e+001  9.1339e+000 38240 96135,96109,96348
 1.9000e+000 96397  6.0364e+000 -2.4777e+000 -9.9837e+000 38240 96135,96348,96031
 1.9000e+000 96618 -1.1091e+002 -1.3924e+002 -1.9448e+001 37821 96494,96546,96520
 1.9000e+000 96595 -1.1698e+002 -9.2894e+001  3.4664e+000 37821 96468,96546,96494
 1.9000e+000 96572 -1.0713e+002 -8.8675e+001  2.7190e+000 37821 96442,96546,96468
 1.9000e+000 97126 -4.9641e+001 -5.7767e+000  5.5193e+000 37367 97149,96855,96829
 1.9000e+000 97103 -2.2977e+001  4.1806e+000  1.0757e+001 37367 97149,96829,96985
 1.9000e+000 97080 -1.7473e+001 -8.5259e+000  4.4737e+000 37367 96803,96985,96829
 1.9000e+000 97057 -3.9910e+001 -1.5677e+000  2.3726e+001 37367 96855,96907,96881
 1.9000e+000 97034 -1.5693e+001 -4.6047e+001  2.3141e+001 37367 96907,96985,96959
 1.9000e+000 97011 -3.3548e+001 -3.0548e+001  6.4810e+000 37367 96907,96959,96933
 1.9000e+000 97175 -2.4108e+001 -4.9101e+000  1.8099e+001 37367 96907,96855,97149
 1.9000e+000 97198 -5.1206e+000 -4.7964e-002  2.2998e+001 37367 96907,97149,96985
 1.9000e+000 97704 -7.6446e+001 -3.6000e+001  7.0248e-001 36863 97727,97511,97485
 1.9000e+000 97681 -7.3195e+001 -3.7874e+001 -6.9688e+000 36863 97727,97485,97433
 1.9000e+000 97658 -5.8170e+001 -1.8948e+001 -7.8862e+000 36863 97381,97563,97433
 1.9000e+000 97635 -5.9141e+001 -7.0729e+000 -2.4002e+001 36863 97511,97563,97537
 1.9000e+000 97612 -8.6832e+001 -5.1436e+001 -3.6780e-001 36863 97433,97485,97459
 1.9000e+000 97589 -4.4087e+001  1.2855e+001 -1.1820e+001 36863 97381,97433,97407
 1.9000e+000 97753 -6.8153e+001 -3.6251e+001 -3.8024e-001 36863 97563,97511,97727
 1.9000e+000 97776 -6.2424e+001 -3.6906e+001 -7.6044e+000 36863 97563,97727,97433
 1.9000e+000 98331 -6.6602e+000 -7.4331e+000  1.0730e+001 36287 98354,98089,98063
 1.9000e+000 98308 -9.7878e+000 -7.1351e+000  5.6615e+000 36287 98354,98063,98011
 1.9000e+000 98285 -1.3293e+000  6.5928e+000  1.2315e+001 36287 98426,97985,98115
 1.9000e+000 98262 -1.1692e+001 -1.3304e+001  6.3843e+000 36287 98011,98063,98037
 1.9000e+000 98239 -2.8319e+001  1.2229e+001  2.5641e+000 36287 97985,98141,98115
 1.9000e+000 98216 -3.6501e+001 -2.5658e+000 -5.9492e+000 36287 97959,98141,97985
 1.9000e+000 98193 -1.6639e+001 -1.0313e+001 -4.9541e+000 36287 97959,98167,98141
 1.9000e+000 98380 -1.6784e+001 -5.8430e+000  7.8731e+000 36287 98115,98089,98354
 1.9000e+000 98403 -8.3430e+000  3.3892e+000  1.1493e+001 36287 98426,98115,98354
 1.9000e+000 98452  5.9244e+000  8.7202e-001  4.6831e+000 36287 98011,97985,98426
 1.9000e+000 98475 -4.9208e-001 -2.1963e+000  3.7691e+000 36287 98011,98426,98354
 1.9000e+000 99030 -7.1625e+001 -2.3100e+001 -4.2558e-001 35726 99053,98736,98710
 1.9000e+000 99007 -7.3485e+001 -4.6020e+001 -1.1603e+001 35726 99053,98710,98684
 1.9000e+000 98984 -7.4591e+001 -4.9772e+001  1.0376e+000 35726 99125,98814,98736
 1.9000e+000 98961 -7.5667e+001 -7.5187e+001 -9.1895e+000 35726 98736,98814,98788
 1.9000e+000 98938 -9.4962e+001 -7.1134e+001 -1.2678e+000 35726 98684,98866,98840
 1.9000e+000 98915 -8.0430e+001 -7.1792e+001 -2.6448e+001 35726 98736,98788,98762
 1.9000e+000 98892 -6.7485e+001 -1.9081e+001  2.5309e+001 35726 98658,98866,98684
 1.9000e+000 99079 -8.0578e+001 -4.7457e+001 -2.6953e+000 35726 99125,98736,99053
 1.9000e+000 99102 -6.9989e+001 -5.7895e+001 -1.0182e+001 35726 98840,99053,98684
 1.9000e+000 99151 -6.9965e+001 -4.8208e+001 -1.1604e+000 35726 98840,98814,99125
 1.9000e+000 99174 -7.1386e+001 -4.2541e+001 -5.6186e+000 35726 98840,99125,99053
 1.9000e+000 99454 -4.7513e+001 -2.2180e+001 -1.0425e+001 35222 99278,99330,99304
 1.9000e+000 99431 -5.9956e+001 -2.6339e+001  2.7991e+000 35222 99278,99382,99330
 1.9000e+000 99408 -7.5856e+001 -1.3830e+001 -2.5264e-002 35222 99330,99382,99356
 1.9000e+000 99653 -1.1254e+002 -1.1472e+002  1.1692e+001 34867 99477,99529,99503
 1.9000e+000 99630 -1.1682e+002 -9.9139e+001  7.8871e+000 34867 99477,99581,99529
 1.9000e+000 99607 -1.4328e+002 -1.3873e+002  2.4626e+001 34867 99529,99581,99555
 1.9000e+000 100104 -2.7543e+001  5.2011e+000 -4.7934e+000 34363 99781,99885,99807
 1.9000e+000 100081 -2.5582e+001  3.1872e+000  2.9912e+000 34363 99781,99963,99885
 1.9000e+000 100058 -4.2405e+001  5.0966e+000  4.3500e+000 34363 99885,99963,99911
 1.9000e+000 100035 -4.6495e+001  8.8324e+000 -7.8743e+000 34363 99807,99885,99859
 1.9000e+000 100012 -2.3108e+001  1.0126e+001  2.2682e+001 34363 99911,99963,99937
 1.9000e+000 99989 -4.3841e+001  2.9781e+000 -3.1038e+001 34363 99807,99859,99833
 1.9000e+000 100303 -2.6052e+001 -1.8180e+000 -4.2240e-001 33909 100127,100205,100179
 1.9000e+000 100280 -4.9180e-001  9.8359e-001  2.0752e+000 33909 100127,100231,100205
 1.9000e+000 100257 -2.4905e+001 -7.3739e-001 -3.1804e+000 33909 100127,100179,100153
 1.9000e+000 100890 -6.6375e+001 -4.8468e+001 -6.2490e-001 33412 100645,100749,100697
 1.9000e+000 100867 -6.9262e+001 -4.7095e+001 -3.1606e+000 33412 100567,100749,100645
 1.9000e+000 100844 -6.2031e+001 -2.6269e+001 -3.4890e+000 33412 100567,100645,100619
 1.9000e+000 100821 -9.6109e+001 -4.0247e+001  8.2911e+000 33412 100645,100697,100671
 1.9000e+000 100798 -6.9745e+001 -2.9203e+001 -1.1211e+001 33412 100567,100619,100593
 1.9000e+000 100775 -7.0571e+001 -4.8259e+001  6.2034e-001 33412 100697,100749,100723
 1.9000e+000 101268 -6.1374e+001 -1.0602e+001 -7.3295e+000 32908 101435,101291,101098
 1.9000e+000 101245 -5.0403e+001 -2.4767e+001 -1.0938e+000 32908 101291,101072,101020
 1.9000e+000 101222 -8.5900e+001 -3.9938e+001 -1.3688e+001 32908 101363,101150,101124
 1.9000e+000 101199 -5.0662e+001 -3.2345e+001 -1.0524e+001 32908 101020,101072,101046
 1.9000e+000 101176 -4.9392e+001 -2.9921e+001  2.0001e+000 32908 100994,101150,101020
 1.9000e+000 101317 -5.4144e+001 -1.8316e+001 -2.9689e+000 32908 101124,101098,101291
 1.9000e+000 101340 -6.6961e+001 -3.4541e+001 -1.1268e+001 32908 101363,101124,101291
 1.9000e+000 101389 -7.3360e+001 -3.7780e+001 -2.2095e-001 32908 101020,101150,101363
 1.9000e+000 101412 -6.5383e+001 -3.5580e+001  3.6816e+000 32908 101020,101363,101291
 1.9000e+000 101461 -6.8239e+001 -2.5231e+001 -3.3257e+000 32908 101072,101291,101435
 1.9000e+000 101918 -1.2049e+000 -5.4724e+000 -4.9542e+000 32618 101941,101670,101644
 1.9000e+000 101895  1.3503e+001 -1.3592e+000  4.1146e+000 32618 101941,101644,101774
 1.9000e+000 101872 -2.3187e+001 -1.0216e-001  9.2256e-001 32618 102013,101696,101670
 1.9000e+000 101849 -1.4811e+001 -4.3768e+000  3.5374e+000 32618 101696,101748,101722
 1.9000e+000 101826  1.2443e+001  2.4377e+000  5.8505e+000 32618 101644,101800,101774
 1.9000e+000 101967 -2.0170e+001 -2.0168e+000 -4.3705e+000 32618 102013,101670,101941
 1.9000e+000 101990 -2.1337e+000  2.4920e+000 -1.7796e+000 32618 101748,101941,101774
 1.9000e+000 102039 -1.6100e+001 -2.6148e+000 -1.8344e+000 32618 101748,101696,102013
 1.9000e+000 102062 -3.3521e+000  8.6468e-001 -6.0042e+000 32618 101748,102013,101941
 1.9000e+000 102440 -7.3508e+001 -4.5012e+001 -2.1600e+001 32306 102463,102270,102244
 1.9000e+000 102417 -6.9977e+001 -4.0590e+001 -1.1060e+001 32306 102463,102244,102192
 1.9000e+000 102394 -6.0399e+001 -2.7588e+001 -1.5250e+001 32306 102192,102244,102218
 1.9000e+000 102371 -1.2548e+002 -7.2994e+001 -1.4509e+001 32306 102270,102322,102296
 1.9000e+000 102348 -8.1722e+001 -5.0812e+001 -2.3609e+001 32306 102166,102322,102192
 1.9000e+000 102489 -8.5800e+001 -4.6818e+001 -2.8045e+001 32306 102322,102270,102463
 1.9000e+000 102512 -8.1343e+001 -3.8671e+001 -1.6743e+001 32306 102322,102463,102192
 1.9000e+000 102662  2.0275e+000 -1.3803e+000 -1.2574e+000 31852 102943,102587,102561
 1.9000e+000 102639  1.0193e+000 -3.5824e-001 -2.6760e+000 31852 102815,102685,102561
 1.9000e+000 102711  3.7447e+000 -4.0587e-001 -8.5354e-001 31852 102943,102561,102685
 1.9000e+000 102841 -2.1739e+000  3.6208e+000 -4.5785e-001 31852 102535,102685,102815
 1.9000e+000 102969  1.8925e+000 -4.2280e-001  3.7926e-001 31852 102613,102587,102943
 1.9000e+000 102992  3.6560e+000  5.2725e-001  7.5005e-001 31852 102613,102943,102685
 1.9000e+000 103370 -2.6178e+001 -3.3675e+001  2.4563e+001 31134 103096,103200,103122
 1.9000e+000 103347 -2.5107e+001 -1.9769e+001 -5.9350e+000 31134 103096,103226,103200
 1.9000e+000 103324 -7.1266e+001 -1.9076e+001  5.7595e+000 31134 103122,103200,103174
 1.9000e+000 103301 -5.2868e+001 -3.4176e+001  3.6440e+000 31134 103096,103252,103226
 1.9000e+000 103278 -5.3655e+001 -5.5792e+000 -7.2096e+000 31134 103122,103174,103148
 1.9000e+000 103520 -8.6140e+001 -1.4804e+001 -8.0976e+000 30822 103393,103445,103419
 1.9000e+000 103497 -9.0621e+001 -1.8619e+001 -5.5784e+000 30822 103393,103471,103445
 1.9000e+000 103719 -1.0396e+002 -8.3112e+001 -9.1193e+000 30182 103742,103621,103569
 1.9000e+000 103696 -1.0935e+002 -6.3670e+001 -6.8476e+000 30182 103742,103569,103543
 1.9000e+000 103673 -9.4585e+001 -7.7284e+001 -2.0802e+000 30182 103569,103621,103595
 1.9000e+000 103768 -1.1504e+002 -6.3365e+001 -1.9582e+001 30182 103647,103621,103742
 1.9000e+000 103791 -1.1027e+002 -3.2645e+001 -2.0202e+001 30182 103647,103742,103543
 1.9000e+000 104252 -8.0561e+001 -6.9257e+001  4.7845e+000 29728 104030,104108,104056
 1.9000e+000 104229 -9.6961e+001 -8.4450e+001 -1.0656e+001 29728 104004,104108,104030
 1.9000e+000 104206 -1.1897e+002 -8.3718e+001 -1.2122e+001 29728 104004,104134,104108
 1.9000e+000 104183 -9.9663e+001 -6.9232e+001  1.4064e+001 29728 103978,104134,104004
 1.9000e+000 104160 -6.5166e+001 -4.9401e+001 -1.9271e+000 29728 104056,104108,104082
 1.9000e+000 104630 -1.9647e+000 -2.5335e+000 -1.1346e+000 29217 104653,104382,104356
 1.9000e+000 104607 -5.7644e-001 -5.7545e-002  1.5583e+000 29217 104653,104356,104512
 1.9000e+000 104584  9.1529e-002 -4.6352e+000  2.0074e+000 29217 104434,104512,104486
 1.9000e+000 104561 -4.5258e+000 -3.3943e+000 -1.7166e+000 29217 104382,104434,104408
 1.9000e+000 104538 -4.6587e+000 -3.5214e+000  3.3874e+000 29217 104434,104486,104460
 1.9000e+000 104679 -3.2543e+000 -3.1314e+000 -1.9437e+000 29217 104434,104382,104653
 1.9000e+000 104702 -3.3790e+000 -2.1178e+000  4.5555e-001 29217 104434,104653,104512
 1.9000e+000 105178 -7.5509e+001 -4.6504e+001 -6.3687e+000 28649 105201,104962,104936
 1.9000e+000 105155 -7.8405e+001 -4.6422e+001 -4.7294e+000 28649 105201,104936,104884
 1.9000e+000 105132 -7.8130e+001 -4.1888e+001 -7.3991e+000 28649 105273,104858,105014
 1.9000e+000 105109 -7.8584e+001 -5.3164e+001 -7.7609e+000 28649 104962,105014,104988
 1.9000e+000 105086 -8.8606e+001 -4.6742e+001 -1.1209e+001 28649 104884,104936,104910
 1.9000e+000 105063 -8.0323e+001 -7.4981e+001 -2.6808e+001 28649 104806,105014,104858
 1.9000e+000 105040 -7.1828e+001 -5.8683e+001 -2.3188e+001 28649 104806,104858,104832
 1.9000e+000 105227 -7.9861e+001 -5.0626e+001 -9.0737e+000 28649 105014,104962,105201
 1.9000e+000 105250 -7.8066e+001 -4.3890e+001 -7.0748e+000 28649 105273,105014,105201
 1.9000e+000 105299 -7.7558e+001 -4.3615e+001 -5.1972e+000 28649 104884,104858,105273
 1.9000e+000 105322 -7.8278e+001 -4.6466e+001 -4.7316e+000 28649 104884,105273,105201
 1.9000e+000 105673 -1.0290e+002 -1.6544e+000  8.0998e-001 28351 105474,105578,105552
 1.9000e+000 105650 -9.1867e+001  2.3630e+001  3.4617e+000 28351 105448,105578,105474
 1.9000e+000 105627 -1.0072e+002  1.3481e+000 -1.1112e+000 28351 105500,105552,105526
 1.9000e+000 105604 -9.9759e+001 -1.9815e-001  4.3708e-001 28351 105474,105552,105500
 1.9000e+000 106130 -3.4092e+001 -5.8175e+000  1.2649e+001 28004 106153,105882,105856
 1.9000e+000 106107 -4.6483e+001 -9.7096e+000  3.7800e+000 28004 106153,105856,105986
 1.9000e+000 106084 -2.0969e+001 -5.9055e+000  1.3419e+001 28004 105934,105986,105960
 1.9000e+000 106061 -2.4307e+001 -1.7047e+001 -5.0658e+000 28004 105856,106012,105986
 1.9000e+000 106038 -7.1268e+000 -1.8009e+000  1.6255e+000 28004 105882,105934,105908
 1.9000e+000 106179 -1.1809e+001 -6.5106e+000  1.8107e+001 28004 105934,105882,106153
 1.9000e+000 106202 -3.1293e+001 -1.0851e+001  1.1956e+001 28004 105934,106153,105986
 1.9000e+000 106885 -5.1093e+001 -4.6790e+000  2.8501e+000 27564 106908,106620,106516
 1.9000e+000 106862 -7.6543e+001 -1.9401e+001 -3.3050e+000 27564 106908,106516,106490
 1.9000e+000 106839 -8.9831e+001 -2.2091e+001  6.4050e+000 27564 106516,106620,106542
 1.9000e+000 106816 -4.0026e+001 -2.5700e+001  1.1177e+001 27564 106620,106672,106646
 1.9000e+000 106793 -1.0012e+002 -2.7261e+001  4.4420e+000 27564 106542,106620,106594
 1.9000e+000 106770 -7.1643e+001 -3.8833e+001 -5.5213e+000 27564 106490,106698,106672
 1.9000e+000 106747 -4.8269e+001 -4.3754e+001  1.3935e+001 27564 106464,106698,106490
 1.9000e+000 106724 -4.6140e+001 -8.2512e-001 -4.9237e+000 27564 106542,106594,106568
 1.9000e+000 106934 -3.3598e+001 -1.7637e+001  6.0464e+000 27564 106672,106620,106908
 1.9000e+000 106957 -4.7028e+001 -2.5084e+001  1.4275e+000 27564 106672,106908,106490
 1.9000e+000 107463 -1.0520e+002 -9.0908e+001  1.7055e+000 27053 107218,107322,107296
 1.9000e+000 107440 -9.9659e+001 -7.8328e+001 -3.7650e-001 27053 107166,107322,107218
 1.9000e+000 107417 -9.3889e+001 -6.5794e+001  7.0461e+000 27053 107218,107296,107244
 1.9000e+000 107394 -8.5062e+001 -9.2455e+001 -2.1887e+000 27053 107140,107322,107166
 1.9000e+000 107371 -9.3674e+001 -7.4638e+001 -2.0690e+000 27053 107166,107218,107192
 1.9000e+000 107348 -7.9345e+001 -2.7487e+001  5.9606e+000 27053 107244,107296,107270
 1.9000e+000 108097  9.2834e+000 -9.8519e-001 -4.6667e+000 26549 108192,108120,107803
 1.9000e+000 108074 -1.3628e+000  4.1951e+000 -8.1442e+000 26549 108120,107725,107933
 1.9000e+000 108051  1.3061e-001  6.9793e-001 -8.0272e-002 26549 107751,107803,107777
 1.9000e+000 108028  4.1085e+000  1.6945e+000 -1.3464e-001 26549 108192,107803,107751
 1.9000e+000 108005 -1.4512e+001  3.6863e+000 -1.2074e+001 26549 108264,107855,107803
 1.9000e+000 107982  1.0370e+000  2.9078e+000 -9.0704e+000 26549 107881,107933,107907
 1.9000e+000 107959 -2.8032e+001 -5.0952e+000 -7.0763e+000 26549 107803,107855,107829
 1.9000e+000 108146  6.6294e+000  8.1565e-001 -1.1768e+001 26549 108264,107803,108120
 1.9000e+000 108169 -3.4119e+000 -1.0135e+000 -7.3689e+000 26549 107881,108120,107933
 1.9000e+000 108218 -1.1365e+000 -4.3790e+000 -5.1666e+000 26549 107725,108120,108192
 1.9000e+000 108241 -5.2601e+000 -9.4340e-001 -8.2980e-001 26549 107725,108192,107751
 1.9000e+000 108290 -2.5878e+001  6.0913e+000 -7.7874e+000 26549 107881,107855,108264
 1.9000e+000 108313 -1.3082e+001 -4.4981e+000 -5.0977e+000 26549 107881,108264,108120
 1.9000e+000 108512 -9.4912e+001 -6.4954e+001  9.0088e+000 26137 108388,108440,108414
 1.9000e+000 108489 -1.0030e+002 -7.3800e+001  3.9361e+000 26137 108362,108440,108388
 1.9000e+000 108466 -1.0599e+002 -7.9997e+001  1.4248e+000 26137 108336,108440,108362
 1.9000e+000 108662 -7.1190e+001 -5.4110e+001 -2.1383e+000 25733 108817,108685,108535
 1.9000e+000 108639 -6.8167e+001 -6.6279e+001  4.9141e+000 25733 109017,108817,108535
 1.9000e+000 108711 -6.9008e+001 -4.7193e+001 -2.0838e+000 25733 108561,108535,108685
 1.9000e+000 108843 -6.4825e+001 -3.7944e+001  2.8325e-001 25733 108587,108685,108817
 1.9000e+000 108866 -5.9215e+001 -5.2092e+001  2.3605e+000 25733 108889,108817,108613
 1.9000e+000 108915 -6.2550e+001 -5.1673e+001 -1.1842e+000 25733 108587,108817,108889
 1.9000e+000 109043 -6.1679e+001 -5.8699e+001  9.2654e-001 25733 108613,108817,109017
 1.9000e+000 109500 -5.3103e+001 -2.4759e+001 -2.0704e+001 25229 109523,109356,109330
 1.9000e+000 109477 -7.0528e+001 -2.7392e+001 -6.0528e+000 25229 109595,109523,109330
 1.9000e+000 109454 -7.1964e+001 -3.7329e+001  2.3176e+000 25229 109595,109330,109278
 1.9000e+000 109431 -7.2190e+001 -2.6926e+001 -1.6074e+001 25229 109667,109226,109382
 1.9000e+000 109408 -8.8751e+001 -2.4754e+001  1.3845e+001 25229 109278,109330,109304
 1.9000e+000 109549 -6.9741e+001 -3.2560e+001 -1.8334e+001 25229 109382,109356,109523
 1.9000e+000 109572 -6.8888e+001 -3.3131e+001 -1.7465e+001 25229 109667,109382,109523
 1.9000e+000 109621 -7.3831e+001 -2.0551e+001 -6.1224e+000 25229 109252,109523,109595
 1.9000e+000 109644 -7.0477e+001 -2.1869e+001  1.2150e+000 25229 109739,109595,109278
 1.9000e+000 109693 -1.0811e+002 -3.1380e+001 -1.0914e+001 25229 109252,109226,109667
 1.9000e+000 109716 -8.4311e+001 -2.3701e+001 -9.2585e+000 25229 109252,109667,109523
 1.9000e+000 109765 -7.4006e+001 -2.7640e+001 -6.1137e+000 25229 109252,109595,109739
 1.9000e+000 110478 -1.1514e+002 -7.6940e+001 -7.8211e+000 24917 110158,110236,110184
 1.9000e+000 110455 -9.9758e+001 -6.8469e+001 -1.5419e+000 24917 110158,110288,110236
 1.9000e+000 110432 -1.0182e+002 -3.2970e+001 -1.0550e+001 24917 110236,110288,110262
 1.9000e+000 110409 -1.0302e+002 -7.5979e+001 -3.5664e+000 24917 110184,110236,110210
 1.9000e+000 110386 -1.0398e+002 -8.0746e+001 -2.0192e+000 24917 110132,110288,110158
 1.9000e+000 110363 -9.9458e+001 -6.7587e+001  2.4111e+001 24917 110132,110314,110288
 1.9000e+000 110340 -7.3038e+001  7.0920e+000  1.7857e+000 24917 110106,110314,110132
 1.9000e+000 110829 -1.1395e+002 -1.0800e+002  7.0510e+000 24307 110604,110682,110630
 1.9000e+000 110806 -1.0246e+002 -9.8541e+001  1.0424e+000 24307 110604,110708,110682
 1.9000e+000 110783 -1.1300e+002 -9.4775e+001 -2.2952e+001 24307 110604,110734,110708
 1.9000e+000 110760 -1.4368e+002 -1.2075e+002  8.1805e+000 24307 110630,110682,110656
 1.9000e+000 111335 -8.8471e+001 -3.9653e+001  1.0698e+001 23767 111012,111168,111038
 1.9000e+000 111312 -5.9185e+001 -2.5677e+001 -7.9630e+000 23767 111012,111194,111168
 1.9000e+000 111289 -6.8315e+001 -2.4280e+001 -4.2019e-001 23767 111358,111064,111038
 1.9000e+000 111266 -7.0992e+001 -2.3598e+001  2.7437e+000 23767 111358,111038,111168
 1.9000e+000 111243 -7.6788e+001 -4.2116e+001  1.1646e+000 23767 111430,111142,111090
 1.9000e+000 111220 -7.8111e+001 -4.3341e+001 -7.5505e+000 23767 111090,111142,111116
 1.9000e+000 111384 -6.0500e+001 -2.2865e+001  7.8654e+000 23767 111090,111064,111358
 1.9000e+000 111407 -6.7796e+001 -3.5078e+001  4.2193e+000 23767 111430,111090,111358
 1.9000e+000 111456 -8.6564e+001 -2.9994e+001  2.7969e+000 23767 111168,111142,111430
 1.9000e+000 111479 -8.2520e+001 -2.7090e+001  4.1454e+000 23767 111168,111430,111358
 1.9000e+000 111985 -5.4277e+000 -3.5328e+000 -1.2941e+000 23477 111688,111844,111818
 1.9000e+000 111962 -3.2023e+000 -1.7955e-001 -5.1337e+000 23477 111662,111844,111688
 1.9000e+000 111939 -2.8335e+000 -3.3945e+000  2.3149e+000 23477 111766,111818,111792
 1.9000e+000 111916 -7.5243e+000 -3.7244e+000  2.8907e+000 23477 111740,111818,111766
 1.9000e+000 111893 -6.6853e+000 -3.1491e+000 -1.4779e+000 23477 111688,111818,111740
 1.9000e+000 111870 -2.4654e+001 -2.7345e+000 -3.4741e+000 23477 111688,111740,111714
 1.9000e+000 112314 -5.2448e+001 -8.7091e+000 -4.5006e+000 23023 112141,112219,112193
 1.9000e+000 112291 -6.8152e+001 -3.7122e+001  1.8851e+000 23023 112115,112219,112141
 1.9000e+000 112268 -4.5324e+001 -5.3057e+000  1.1004e+000 23023 112141,112193,112167
 1.9000e+000 112245 -6.4747e+001 -2.4375e+001  3.1508e+000 23023 112089,112219,112115
 1.9000e+000 112692 -9.1740e+001 -3.0530e+001  4.4594e+000 22768 112444,112574,112548
 1.9000e+000 112669 -1.1398e+002 -3.0814e+001 -3.9932e+000 22768 112418,112574,112444
 1.9000e+000 112646 -8.2934e+001 -3.1381e+001 -3.3932e+000 22768 112444,112522,112470
 1.9000e+000 112623 -8.1015e+001 -2.9025e+001 -4.2268e+000 22768 112444,112548,112522
 1.9000e+000 112600 -6.7642e+001 -2.4066e+001 -1.0424e+001 22768 112470,112522,112496
 1.9000e+000 113011 -6.7513e+001  1.0663e+001 -1.0055e+001 22314 112763,112867,112789
 1.9000e+000 112988 -9.3475e+001 -1.4635e+000 -2.2657e+000 22314 112763,112893,112867
 1.9000e+000 112965 -1.0007e+002 -6.3739e+000  0.0000e+000 22314 112815,112867,112841
 1.9000e+000 112942 -1.0920e+002 -7.4962e+000 -7.6923e+000 22314 112789,112867,112815
 1.9000e+000 112919 -7.0211e+001  5.8265e+000 -4.6515e+000 22314 112737,112893,112763
 1.9000e+000 113519  4.7723e+000  1.9242e+000 -3.4207e-001 21924 113614,113542,113248
 1.9000e+000 113496 -2.8405e-001  5.0993e+000 -9.9043e-001 21924 113542,113196,113378
 1.9000e+000 113473 -3.0424e-001 -2.7390e+000  1.6661e+000 21924 113614,113248,113222
 1.9000e+000 113450  8.2935e+000 -4.7064e+000  1.5615e+000 21924 113686,113274,113248
 1.9000e+000 113427  5.6967e+000 -1.5412e+000  4.5828e+000 21924 113274,113352,113326
 1.9000e+000 113404 -2.0796e-001 -3.9338e-002  1.1367e-001 21924 113274,113326,113300
 1.9000e+000 113568  5.9053e+000 -1.7442e-001 -2.1207e+000 21924 113686,113248,113542
 1.9000e+000 113591  2.7109e+000  1.0155e+001 -3.4035e+000 21924 113352,113542,113378
 1.9000e+000 113640 -3.0179e-001  5.6060e+000 -2.3486e+000 21924 113196,113542,113614
 1.9000e+000 113663 -1.0630e+000  3.8551e+000 -1.7380e+000 21924 113196,113614,113222
 1.9000e+000 113712  1.1713e+001 -3.3089e-001 -3.0805e-001 21924 113352,113274,113686
 1.9000e+000 113735  1.1359e+001  4.6986e+000 -4.5225e+000 21924 113352,113686,113542
 1.9000e+000 113885  1.0792e+000  4.8509e+000 -1.9783e+000 21520 113980,113908,113784
 1.9000e+000 113862  7.8868e-002  1.1029e+000  2.4435e+000 21520 114238,113908,113758
 1.9000e+000 113934 -1.8768e+000 -1.6687e+001  2.6345e+000 21520 114110,113908,113810
 1.9000e+000 113957  9.0604e+000  1.9752e+000 -2.6909e+000 21520 113810,113908,113836
 1.9000e+000 114006  2.7862e-001  2.6278e+000 -1.0724e+000 21520 113758,113908,113980
 1.9000e+000 114136 -1.0706e+001  1.2257e+000 -1.1622e+000 21520 113784,113908,114110
 1.9000e+000 114264 -7.4101e-001 -2.1468e+000  1.4597e+000 21520 113836,113908,114238
 1.9000e+000 114662 -6.4042e+001 -6.2323e+000  1.3119e+000 21030 114414,114518,114492
 1.9000e+000 114639 -6.5958e+001 -2.0111e+001  2.6486e+000 21030 114414,114544,114518
 1.9000e+000 114616 -2.9138e+001  2.9413e+000 -2.3958e+000 21030 114440,114492,114466
 1.9000e+000 114593 -6.7487e+001 -1.3994e+001  2.2290e+000 21030 114414,114492,114440
 1.9000e+000 114570 -8.0349e+001 -1.6310e+001  3.3452e+001 21030 114388,114544,114414
 1.9000e+000 114959 -1.9258e+001 -3.1422e+000  4.2311e+000 20512 114982,114711,114685
 1.9000e+000 114936 -1.5136e+001 -5.4060e-001 -4.2282e+000 20512 115054,114982,114685
 1.9000e+000 114913  1.7540e+000  6.6627e+000 -1.1342e+001 20512 115054,114685,114841
 1.9000e+000 114890 -8.6862e+000 -4.9693e-002 -1.3395e+000 20512 114711,114763,114737
 1.9000e+000 114867 -3.7482e-001  2.7255e+000 -2.9139e+000 20512 114763,114815,114789
 1.9000e+000 115008 -1.1347e+001 -2.2932e+000 -1.2111e-001 20512 114763,114711,114982
 1.9000e+000 115031 -8.0379e+000  2.5254e+000 -2.3541e+000 20512 114763,114982,114815
 1.9000e+000 115080 -3.7786e+000 -5.4615e-001  7.4828e-001 20512 114815,114982,115054
 1.9000e+000 115103 -1.6267e+000 -3.3410e+000  2.9596e-001 20512 114815,115054,114841
 1.9000e+000 115507 -4.1038e+001 -1.9616e+001 -1.6806e+001 20143 115285,115389,115363
 1.9000e+000 115484 -6.8279e+001  2.6744e+000  4.5890e+000 20143 115259,115389,115285
 1.9000e+000 115461 -7.2207e+001 -4.1966e+000  3.7023e+000 20143 115233,115389,115259
 1.9000e+000 115438  1.7014e+001  2.2606e+000 -1.7743e+000 20143 115285,115337,115311
 1.9000e+000 115415 -2.1124e+001  7.1693e+000  3.1481e+000 20143 115285,115363,115337
 1.9000e+000 115875 -9.1907e+001 -5.1342e+001 -1.3226e+000 19632 115656,115734,115682
 1.9000e+000 115852 -1.0063e+002 -7.2637e+001 -4.5435e+000 19632 115552,115734,115656
 1.9000e+000 115829 -8.9025e+001 -4.5340e+001 -5.4695e+000 19632 115552,115656,115578
 1.9000e+000 115806 -9.4678e+001 -5.4351e+001 -2.9655e+000 19632 115578,115656,115630
 1.9000e+000 115783 -7.9876e+001 -5.6260e+001 -1.4305e+001 19632 115682,115734,115708
 1.9000e+000 115760 -8.4212e+001 -4.8713e+001  7.1554e+000 19632 115578,115630,115604
 1.9000e+000 116025 -7.4159e+001 -7.0536e+000  5.2626e+000 19178 115898,115950,115924
 1.9000e+000 116002 -7.0389e+001 -1.3109e+001 -1.6576e+000 19178 115898,115976,115950
 1.9000e+000 116633 -1.0275e+002 -6.4047e+001  3.3100e+000 18738 116800,116656,116342
 1.9000e+000 116610 -9.8778e+001 -5.9927e+001  1.8744e+000 18738 116656,116238,116446
 1.9000e+000 116587 -9.5069e+001 -5.8095e+001  1.2269e+001 18738 116728,116368,116342
 1.9000e+000 116564 -1.0605e+002 -6.2909e+001  2.2217e+000 18738 116800,116342,116264
 1.9000e+000 116541 -1.1454e+002 -7.0390e+001 -1.0286e+001 18738 116212,116446,116238
 1.9000e+000 116518 -1.0121e+002 -8.2550e+001 -2.4830e+000 18738 116394,116446,116420
 1.9000e+000 116495 -1.5266e+002 -7.9089e+001  1.1110e+001 18738 116264,116342,116316
 1.9000e+000 116472 -9.8687e+001 -5.2259e+001 -3.0362e+000 18738 116264,116316,116290
 1.9000e+000 116682 -9.8510e+001 -6.2990e+001  1.0241e+000 18738 116728,116342,116656
 1.9000e+000 116705 -1.0119e+002 -8.3765e+001  1.9193e-001 18738 116394,116656,116446
 1.9000e+000 116754 -7.7856e+001 -5.2013e+001  2.0931e+001 18738 116394,116368,116728
 1.9000e+000 116777 -7.9742e+001 -5.7272e+001  9.5017e+000 18738 116394,116728,116656
 1.9000e+000 116826 -1.0635e+002 -6.3991e+001  2.6547e-001 18738 116238,116656,116800
 1.9000e+000 116849 -1.1116e+002 -6.3737e+001 -6.4935e-001 18738 116238,116800,116264
 1.9000e+000 116999  4.1675e+000 -3.6210e-001 -9.5916e-001 18184 116872,116924,116898
 1.9000e+000 116976  2.3487e+000  5.1948e+000 -1.2483e+000 18184 116872,116950,116924
 1.9000e+000 117330  5.9771e+000  3.8568e-001 -7.9090e-002 17694 117157,117235,117183
 1.9000e+000 117307 -1.1205e+000  1.1596e-001 -1.1223e-001 17694 117131,117235,117157
 1.9000e+000 117284 -1.2335e+000 -9.8011e-002 -2.1940e-001 17694 117105,117235,117131
 1.9000e+000 117261  7.7711e+000  3.8689e+000 -9.5816e-001 17694 117183,117235,117209
 1.9000e+000 117480 -6.8118e+001 -5.2971e+001  7.5548e+000 17290 117353,117405,117379
 1.9000e+000 117457 -4.7711e+001 -4.0795e+001  1.3180e+000 17290 117353,117431,117405
 1.9000e+000 117679 -4.9848e+001 -4.5777e+001  4.4190e-001 16718 117555,117607,117581
 1.9000e+000 117656 -8.3330e+001 -5.0664e+001 -1.1020e-001 16718 117529,117607,117555
 1.9000e+000 117633 -9.5754e+001 -4.9247e+001  1.5844e+000 16718 117503,117607,117529
 1.9000e+000 117782 -1.1628e+002 -8.2366e+001 -1.8536e+000 16520 117704,117756,117730
 1.9000e+000 117983 -1.0457e+002 -7.6778e+001  4.6852e+000 16208 117859,117911,117885
 1.9000e+000 117960 -9.9858e+001 -6.2417e+001 -7.9590e+000 16208 117833,117911,117859
 1.9000e+000 117937 -9.9767e+001 -5.2962e+001 -3.5710e+000 16208 117807,117911,117833
 1.9000e+000 118135 -8.1968e+001 -6.2519e+001  1.3951e+001 15674 118034,118086,118060
 1.9000e+000 118112 -1.1120e+002 -8.4210e+001 -1.7347e+000 15674 118008,118086,118034
 1.9000e+000 118238 -2.1531e+000 -4.8662e+000 -3.5815e-001 15355 118160,118212,118186
 1.9000e+000 118341 -7.5080e+001 -3.0620e+001 -2.5355e+001 421 118263,118315,118289
 2.0000e+000 68152 -2.0265e+001  4.3793e+001  7.3771e+000 67838 68074,68126,68100
 2.0000e+000 68550  8.7383e+000 -1.9250e+002 -7.6749e-001 67526 68276,68380,68302
 2.0000e+000 68527 -3.2381e+000 -1.9727e+002 -1.8098e+000 67526 68276,68406,68380
 2.0000e+000 68504  8.1766e+001 -1.7876e+002 -1.0305e+001 67526 68328,68380,68354
 2.0000e+000 68481 -3.2714e-001 -2.1368e+002 -4.6813e-001 67526 68302,68380,68328
 2.0000e+000 68458  4.5602e+000 -1.5126e+002  1.3354e+001 67526 68276,68432,68406
 2.0000e+000 68651 -1.5962e-015 -2.1922e-015 -1.9067e-018 67328 68573,68625,68599
 2.0000e+000 68970 -2.4366e+000 -2.8448e+000 -1.2536e+000 67016 68722,68800,68774
 2.0000e+000 68947  1.0659e+000  5.3819e-001  2.0321e+000 67016 68722,68826,68800
 2.0000e+000 68924  4.6192e+000 -3.9085e+000  1.8382e+000 67016 68696,68826,68722
 2.0000e+000 68901  6.6777e+000  3.0113e+000  1.3517e+000 67016 68722,68774,68748
 2.0000e+000 68878  5.1714e+000  1.2773e-002  9.7154e-001 67016 68696,68852,68826
 2.0000e+000 69291 -2.2636e+001 -8.5705e+001 -9.9816e-001 66654 69069,69147,69095
 2.0000e+000 69268 -1.6293e+001 -1.2330e+002  4.3049e-001 66654 69069,69173,69147
 2.0000e+000 69245 -4.1617e+001 -1.1862e+002  2.3792e+001 66654 69043,69173,69069
 2.0000e+000 69222 -5.0122e+001 -1.3154e+002  1.3168e+001 66654 69095,69147,69121
 2.0000e+000 69199 -5.7339e+001 -1.2090e+002  7.1582e+000 66654 69017,69173,69043
 2.0000e+000 69695  5.9678e-001 -2.8334e+001  1.7570e+000 66456 69447,69577,69551
 2.0000e+000 69672  4.2117e+000 -2.8329e+001  2.1470e+000 66456 69421,69577,69447
 2.0000e+000 69649  8.1561e+000 -1.6102e+001 -2.0654e+000 66456 69473,69551,69525
 2.0000e+000 69626  2.8458e+000 -2.3678e+001  9.5430e-001 66456 69447,69551,69473
 2.0000e+000 69603  7.6536e+000 -2.6347e+001 -1.1041e+001 66456 69473,69525,69499
 2.0000e+000 70024  7.7917e+000 -7.8566e+001 -1.2625e+000 66258 70047,69851,69825
 2.0000e+000 70001  7.7899e+000 -6.1141e+001  1.3406e+001 66258 70047,69825,69903
 2.0000e+000 69978  1.3180e+001 -1.0759e+002  1.9106e+001 66258 69799,69903,69825
 2.0000e+000 69955  2.0761e+001 -1.5285e+002  2.8477e+001 66258 69799,69929,69903
 2.0000e+000 70073 -9.4730e+000 -7.7869e+001 -1.6427e+001 66258 69877,69851,70047
 2.0000e+000 70096 -1.0817e+001 -5.6520e+001 -1.5911e+000 66258 69877,70047,69903
 2.0000e+000 70602  3.9294e+001 -2.1243e+001 -5.7321e+000 66060 70305,70435,70331
 2.0000e+000 70579  2.7503e+000 -5.0424e+001  8.4758e+000 66060 70279,70435,70305
 2.0000e+000 70556 -6.0153e+000 -3.6696e+001 -7.2817e+000 66060 70331,70435,70409
 2.0000e+000 70533  1.6455e+001 -3.1766e+001  2.6084e+001 66060 70279,70461,70435
 2.0000e+000 70510  1.1915e+001 -1.3065e+000 -1.4505e+001 66060 70331,70409,70357
 2.0000e+000 70487 -2.6495e-001 -1.1070e+001 -4.6599e+000 66060 70357,70409,70383
 2.0000e+000 70703 -3.8763e+001 -1.0476e+002 -6.1687e+000 65862 70625,70677,70651
 2.0000e+000 71083 -1.7591e+001 -1.1965e+002  1.1921e+001 65664 70887,70965,70939
 2.0000e+000 71060  5.3193e+000 -1.2510e+002  6.7168e+000 65664 70861,70965,70887
 2.0000e+000 71037  3.0415e+001 -1.1545e+002  2.5959e+001 65664 70809,70965,70861
 2.0000e+000 71014  3.3342e+001 -1.6734e+002 -5.2250e+000 65664 70809,70861,70835
 2.0000e+000 70991  9.4552e-001 -1.0050e+002 -1.4495e+001 65664 70887,70939,70913
 2.0000e+000 71611 -1.1390e+001 -1.2121e+002 -6.3806e+000 65260 71288,71444,71314
 2.0000e+000 71588 -1.9837e+001 -1.1015e+002  2.0046e+000 65260 71288,71470,71444
 2.0000e+000 71565  1.2660e+001 -5.0620e+001 -2.1278e-001 65260 71314,71418,71392
 2.0000e+000 71542 -1.0128e+000 -9.9768e+001 -9.7351e+000 65260 71314,71444,71418
 2.0000e+000 71519 -2.2825e+001 -6.4244e+001 -2.4513e-001 65260 71314,71392,71340
 2.0000e+000 71496 -1.7307e+001 -5.8448e+001  2.8931e+001 65260 71340,71392,71366
 2.0000e+000 72060  7.7146e+000 -1.6890e+000  6.7893e-001 64870 71737,71893,71789
 2.0000e+000 72037  1.0845e+001 -7.2088e-001 -2.5336e-001 64870 71737,71919,71893
 2.0000e+000 72014  3.7809e+000  1.5704e+000  1.1203e+001 64870 71789,71841,71815
 2.0000e+000 71991  9.1154e+000 -8.0642e+000  2.9561e+000 64870 71789,71893,71841
 2.0000e+000 71968  7.4416e+000  1.5930e-001  1.9137e+000 64870 71737,71789,71763
 2.0000e+000 71945  2.0731e+001 -3.9364e+000  0.0000e+000 64870 71841,71893,71867
 2.0000e+000 72517 -1.8557e+000 -1.1646e+001  3.5533e+000 64466 72321,72399,72347
 2.0000e+000 72494 -8.4925e+000 -1.0635e+000  4.6855e+000 64466 72269,72399,72321
 2.0000e+000 72471 -2.4802e-001 -5.4994e+000  9.0808e-001 64466 72347,72399,72373
 2.0000e+000 72448 -1.0467e+001 -1.2930e+000  5.9133e+000 64466 72243,72399,72269
 2.0000e+000 72425 -9.8159e+000 -1.3975e+001 -3.5562e+000 64466 72269,72321,72295
 2.0000e+000 72944 -4.5687e+000 -1.6706e+001  9.3279e+000 64062 73111,73039,72699
 2.0000e+000 72921 -8.1704e+000 -4.2752e+000  5.7232e+000 64062 73183,72967,72647
 2.0000e+000 72898 -5.9593e+000 -3.8173e+000  7.7864e+000 64062 72967,72803,72751
 2.0000e+000 72875 -9.5420e+000 -1.8946e+001  1.4234e+001 64062 73111,72699,72673
 2.0000e+000 72852 -1.0608e+001 -2.6035e+000  4.1707e+000 64062 73183,72647,72621
 2.0000e+000 72829 -3.7053e+000 -4.0419e+000  8.7790e+000 64062 72751,72803,72777
 2.0000e+000 72993 -6.0150e+000 -3.6536e+000  5.8664e+000 64062 73039,72647,72967
 2.0000e+000 73016 -1.9200e-001 -4.2668e+000  6.1495e+000 64062 72725,72967,72751
 2.0000e+000 73065  3.5632e+000 -1.4308e+000 -6.1895e+000 64062 72725,72699,73039
 2.0000e+000 73088 -1.1637e+001 -1.3440e+001  1.0119e+001 64062 72725,73039,72967
 2.0000e+000 73137 -1.5743e+001 -6.8566e+000  1.2819e+001 64062 72647,73039,73111
 2.0000e+000 73160 -1.5723e+001 -7.8122e+000  1.5213e+001 64062 72647,73111,72673
 2.0000e+000 73209 -3.3634e+000 -2.9320e+000  5.6590e+000 64062 72803,72967,73183
 2.0000e+000 73232 -6.2232e+000 -1.8124e+000  3.3035e+000 64062 72803,73183,72621
 2.0000e+000 73333 -3.5486e+001 -8.5460e+001  8.7673e+000 63814 73356,73281,73255
 2.0000e+000 73382 -2.3456e+001 -5.4517e+001  2.7402e+000 63814 73486,73356,73307
 2.0000e+000 73512 -4.1894e+001 -6.2435e+001 -7.9208e-001 63814 73281,73356,73486
 2.0000e+000 73839 -2.7708e+001 -1.1226e+002 -2.4274e+000 63616 73862,73692,73666
 2.0000e+000 73816 -2.3977e+001 -1.1020e+002 -1.4997e+000 63616 73934,73862,73666
 2.0000e+000 73793 -1.9185e+001 -9.9253e+001 -1.9927e-001 63616 73934,73666,73640
 2.0000e+000 73770 -2.1790e+001 -1.0636e+002 -1.0693e+001 63616 73614,73744,73640
 2.0000e+000 73888 -2.7513e+001 -1.0855e+002 -2.8981e+000 63616 73718,73692,73862
 2.0000e+000 73911 -3.0868e+001 -1.1453e+002 -9.8496e+000 63616 73718,73862,73744
 2.0000e+000 73960 -2.5947e+001 -1.0206e+002 -9.6379e+000 63616 73744,73862,73934
 2.0000e+000 73983 -2.5207e+001 -9.9319e+001 -9.6991e+000 63616 73744,73934,73640
 2.0000e+000 74363  2.1512e+000  1.4366e+000 -2.8055e+000 63390 74386,74115,74089
 2.0000e+000 74340 -3.7528e+000  3.2798e+000 -2.5181e+000 63390 74458,74386,74089
 2.0000e+000 74317 -1.9702e+000  3.1473e+000 -6.7101e-001 63390 74458,74089,74245
 2.0000e+000 74294 -4.7110e+000 -4.4173e+000  6.3868e+000 63390 74530,74167,74141
 2.0000e+000 74271  4.5987e+000  1.7491e+000  3.4487e+000 63390 74167,74219,74193
 2.0000e+000 74412 -5.6331e+000 -3.2476e+000 -4.8255e+000 63390 74141,74115,74386
 2.0000e+000 74435 -1.0104e+001 -6.6317e-001  1.9456e+000 63390 74530,74141,74386
 2.0000e+000 74484 -1.6206e+000  4.7287e+000  1.0082e+000 63390 74219,74386,74458
 2.0000e+000 74507  2.4903e+000  6.0132e+000  2.9370e+000 63390 74219,74458,74245
 2.0000e+000 74556  1.3220e+000 -1.3475e+000  5.3106e+000 63390 74219,74167,74530
 2.0000e+000 74579 -2.2737e+000  3.4980e+000  3.7901e-001 63390 74219,74530,74386
 2.0000e+000 74680 -5.3023e+000 -3.9964e+001  3.5757e+000 63100 75089,74833,74703
 2.0000e+000 74729 -1.0136e+001 -4.4259e+001  1.4301e+001 63100 74961,74703,74654
 2.0000e+000 74859 -8.9796e+000 -5.7023e+000  1.7428e+001 63100 74602,74703,74833
 2.0000e+000 74987 -2.9939e+000 -3.3988e+001  4.1841e+000 63100 75089,74703,74961
 2.0000e+000 75115 -1.1016e+001 -3.1979e+001 -2.4844e+000 63100 74628,74833,75089
 2.0000e+000 75138 -8.7535e+000 -2.6055e+001 -1.8746e+000 63100 74628,75089,74961
 2.0000e+000 75723 -1.6293e+001 -1.3981e+001  1.0647e+001 62532 75746,75504,75426
 2.0000e+000 75700 -1.1583e+001 -1.8774e+001  7.9415e+000 62532 75746,75426,75556
 2.0000e+000 75677 -2.3096e+001 -2.2360e+001  3.9642e+000 62532 75426,75504,75452
 2.0000e+000 75654 -1.8022e+001 -2.4570e+001  1.2008e+001 62532 75400,75556,75426
 2.0000e+000 75631 -1.5956e+001 -3.3676e+001 -4.1622e+000 62532 75400,75582,75556
 2.0000e+000 75608 -2.6816e+001 -1.4807e+001  2.5050e+000 62532 75452,75504,75478
 2.0000e+000 75772 -1.1618e+001 -1.2457e+001  1.1657e+001 62532 75530,75504,75746
 2.0000e+000 75795 -4.9624e+000 -1.5959e+001  9.2236e+000 62532 75530,75746,75556
 2.0000e+000 76301 -1.5706e+001 -3.5965e+001  1.4655e+001 62192 76324,76082,76030
 2.0000e+000 76278 -4.1130e+001 -2.7404e+001  1.7108e+001 62192 76324,76030,76004
 2.0000e+000 76255  4.9032e+000 -2.2401e+001  1.8185e+000 62192 76030,76082,76056
 2.0000e+000 76232  2.5274e+000 -1.6098e+001  1.0662e+001 62192 76082,76134,76108
 2.0000e+000 76209 -2.4579e+000 -4.9846e+000  6.7436e+000 62192 76004,76160,76134
 2.0000e+000 76186 -1.7884e+001  2.7082e-002  1.0416e+000 62192 75978,76160,76004
 2.0000e+000 76350 -3.8046e+000 -3.0929e+001  1.1206e+001 62192 76134,76082,76324
 2.0000e+000 76373 -1.8527e+001 -1.1188e+001  8.9664e+000 62192 76134,76324,76004
 2.0000e+000 76879 -4.9130e+000 -5.1740e+001 -7.6606e+000 61788 76902,76660,76582
 2.0000e+000 76856 -2.8510e+001 -5.9659e+001 -1.0151e+001 61788 76902,76582,76556
 2.0000e+000 76833 -9.0597e+000 -4.9495e+001 -1.3974e+001 61788 76582,76660,76634
 2.0000e+000 76810 -1.7362e+001 -2.9801e+001 -1.9009e+001 61788 76582,76634,76608
 2.0000e+000 76787  2.5874e+000 -7.6057e+001  2.8497e+001 61788 76556,76738,76686
 2.0000e+000 76764  1.7949e+001 -2.3027e+001  1.3492e+001 61788 76686,76738,76712
 2.0000e+000 76928  1.4866e+001 -6.1643e+001 -8.8211e+000 61788 76686,76660,76902
 2.0000e+000 76951 -5.1687e+000 -6.7498e+001 -1.2267e+001 61788 76686,76902,76556
 2.0000e+000 77408 -1.6082e+001 -1.4043e+001  1.4809e+001 61498 77212,77264,77238
 2.0000e+000 77385 -2.1047e+001 -1.5916e+001  4.7995e+000 61498 77160,77264,77212
 2.0000e+000 77362 -1.5870e+001 -3.8306e-001  1.3210e+001 61498 77160,77290,77264
 2.0000e+000 77339 -2.9365e+001 -2.5123e+001  8.3421e+000 61498 77160,77212,77186
 2.0000e+000 77316 -1.9277e+001 -2.1202e+000  5.7846e+000 61498 77134,77290,77160
 2.0000e+000 77678 -1.5684e+001 -1.4523e+002 -5.4486e+000 61129 77479,77557,77505
 2.0000e+000 77655 -3.3550e+001 -1.5868e+002  3.0296e+000 61129 77479,77583,77557
 2.0000e+000 77632 -5.9339e+000 -1.5351e+002  1.7317e+001 61129 77453,77583,77479
 2.0000e+000 77609  8.5967e+000 -1.4436e+002 -1.3435e+001 61129 77505,77557,77531
 2.0000e+000 77828  1.3396e+001 -1.0538e+002  7.2072e+000 60931 77851,77727,77701
 2.0000e+000 77805 -1.9286e+001 -1.2797e+002  1.7024e+001 60931 77851,77701,77779
 2.0000e+000 77877 -4.4265e+001 -1.2522e+002  2.8019e+001 60931 77923,77851,77753
 2.0000e+000 77900 -7.3153e+000 -1.0844e+002  2.2867e+001 60931 77753,77851,77779
 2.0000e+000 77949 -1.5587e+001 -8.3178e+001  5.5795e+000 60931 77727,77851,77923
 2.0000e+000 78133  3.9387e+001  1.6616e+001 -4.2199e+000 60377 78055,78107,78081
 2.0000e+000 78535  1.4960e+001  2.7484e+000 -2.7771e+000 60015 78287,78391,78313
 2.0000e+000 78512  1.6255e+001  4.3219e+000 -3.3683e+000 60015 78287,78417,78391
 2.0000e+000 78489  1.7140e+001  2.7804e+000 -5.5559e+000 60015 78261,78417,78287
 2.0000e+000 78466  9.9319e+000  1.8800e+000 -3.5407e-001 60015 78339,78391,78365
 2.0000e+000 78443  6.4042e+000 -1.1197e+000 -3.6320e+000 60015 78313,78391,78339
 2.0000e+000 78913 -2.0878e+001 -1.7901e+001  1.5406e+001 59725 78936,78743,78691
 2.0000e+000 78890 -1.5507e+001 -1.0674e+001  1.7796e+001 59725 79008,78936,78691
 2.0000e+000 78867 -1.3401e+001 -6.9243e+000  1.9531e+001 59725 79008,78691,78665
 2.0000e+000 78844 -9.7909e+000 -6.2532e+000  2.9568e+000 59725 78691,78743,78717
 2.0000e+000 78821 -1.6305e+001 -1.1592e+001  2.0749e+001 59725 78639,78795,78769
 2.0000e+000 78962 -2.3880e+001 -1.0243e+001  1.8106e+001 59725 78769,78743,78936
 2.0000e+000 78985 -1.8109e+001 -8.7992e+000  1.9185e+001 59725 78769,78936,78639
 2.0000e+000 79034 -1.7745e+001 -1.0859e+001  1.4466e+001 59725 78639,78936,79008
 2.0000e+000 79057 -1.5451e+001 -9.8239e+000  1.5983e+001 59725 78639,79008,78665
 2.0000e+000 79386 -3.2684e+000  4.3921e+000  4.0837e+000 59221 79187,79239,79213
 2.0000e+000 79363  3.0456e-001  1.0157e+000  5.2150e+000 59221 79187,79265,79239
 2.0000e+000 79340  2.3186e+000  2.1753e-001  2.7150e+000 59221 79187,79291,79265
 2.0000e+000 79317  4.2250e+000  5.7522e+000  5.7793e-001 59221 79161,79291,79187
 2.0000e+000 79813  2.9466e+000 -6.0410e+001 -6.7473e+000 58831 79836,79542,79516
 2.0000e+000 79790 -9.8726e+000 -5.9197e+001 -1.3060e+001 58831 79980,79836,79516
 2.0000e+000 79767 -3.8081e+001 -8.8836e+001 -1.2530e+000 58831 79908,79646,79568
 2.0000e+000 79744  4.1130e+000 -4.6296e+001 -6.2223e+000 58831 79980,79516,79490
 2.0000e+000 79721 -1.6806e+001 -9.8090e+001 -9.1942e+000 58831 79568,79646,79594
 2.0000e+000 79698 -4.4572e+001 -2.0051e+002 -1.4526e+001 58831 79594,79646,79620
 2.0000e+000 79862 -7.2265e+000 -4.7718e+001 -6.2550e-001 58831 79568,79542,79836
 2.0000e+000 79885 -2.2177e+001 -6.4443e+001  6.4416e+000 58831 79908,79568,79836
 2.0000e+000 79934 -4.7573e+001 -8.0090e+001 -2.3577e+001 58831 79672,79646,79908
 2.0000e+000 79957 -3.9269e+001 -6.2460e+001 -1.7793e+001 58831 79672,79908,79836
 2.0000e+000 80006 -1.0258e+001 -4.0197e+001 -7.4723e+000 58831 79672,79836,79980
 2.0000e+000 80029 -1.0335e+001 -3.7866e+001 -4.4002e+000 58831 79672,79980,79490
 2.0000e+000 80358 -2.5684e+000 -1.1100e-001 -1.5126e-001 58377 80381,80185,80159
 2.0000e+000 80335  3.2924e+000 -5.6016e-001 -4.1716e-001 58377 80381,80159,80133
 2.0000e+000 80312 -1.2630e+001  1.0999e+000 -2.7172e-001 58377 80133,80263,80237
 2.0000e+000 80289 -1.4198e+001 -3.1745e+000 -3.6680e+000 58377 80185,80237,80211
 2.0000e+000 80407 -1.1445e+001 -3.5373e-002  1.4826e+000 58377 80237,80185,80381
 2.0000e+000 80430 -1.5711e+000  2.3583e+000  1.4196e+000 58377 80237,80381,80133
 2.0000e+000 80759  3.8459e+000  1.1007e+001  4.4135e-001 57873 80782,80586,80560
 2.0000e+000 80736 -4.6283e+000  4.3481e-001 -3.7915e+000 57873 80782,80560,80534
 2.0000e+000 80713  9.3619e+000  3.1060e+000 -3.3370e-001 57873 80586,80638,80612
 2.0000e+000 80690  1.2586e+001  3.2812e+000 -6.1961e+000 57873 80534,80664,80638
 2.0000e+000 80808 -9.1913e-001  1.2890e+000 -3.7134e+000 57873 80638,80586,80782
 2.0000e+000 80831 -1.2415e+000 -1.6618e+000 -5.9844e+000 57873 80638,80782,80534
 2.0000e+000 81337 -1.5169e+001 -9.0729e+001 -8.6325e+000 57262 81360,81144,81092
 2.0000e+000 81314 -2.2111e+001 -1.0470e+002 -4.3234e+000 57262 81360,81092,81066
 2.0000e+000 81291 -3.8604e+001 -1.3386e+002 -1.2127e+000 57262 81014,81196,81066
 2.0000e+000 81268 -3.6577e+001 -8.7423e+001 -1.8695e+001 57262 81092,81144,81118
 2.0000e+000 81245 -2.6759e+001 -6.4428e+001 -7.3366e+000 57262 81144,81196,81170
 2.0000e+000 81222 -3.3539e+001 -1.2275e+002  1.1943e+001 57262 81014,81066,81040
 2.0000e+000 81386 -2.3641e+001 -8.1176e+001 -7.2366e-003 57262 81196,81144,81360
 2.0000e+000 81409 -2.9403e+001 -9.5242e+001  4.1047e+000 57262 81196,81360,81066
 2.0000e+000 81608 -4.1854e+001 -1.6462e+002  7.0074e+000 57007 81458,81536,81510
 2.0000e+000 81585 -4.5266e+001 -2.1173e+002  1.4268e+001 57007 81432,81536,81458
 2.0000e+000 81562 -9.9060e+001 -1.6592e+002  2.7866e+001 57007 81458,81510,81484
 2.0000e+000 82086 -3.6769e+001 -7.9225e+001 -5.9919e+000 56339 81792,81922,81818
 2.0000e+000 82063 -3.2647e+001 -8.9994e+001 -1.3341e+001 56339 81714,81922,81792
 2.0000e+000 82040 -3.9603e+001 -8.0295e+001  3.7224e+000 56339 82109,81844,81818
 2.0000e+000 82017 -3.9863e+001 -8.5210e+001  2.8949e+000 56339 82109,81818,81922
 2.0000e+000 81994 -2.3313e+001 -7.6449e+001 -3.7111e+000 56339 81844,81896,81870
 2.0000e+000 81971 -5.0267e+001 -1.2316e+002 -3.7088e+001 56339 81714,81792,81766
 2.0000e+000 81948 -3.9859e+001 -2.1251e+002 -3.6928e+001 56339 81714,81766,81740
 2.0000e+000 82135 -3.5018e+001 -8.4495e+001  6.1243e+000 56339 81896,81844,82109
 2.0000e+000 82158 -3.7740e+001 -9.2561e+001  4.2636e+000 56339 81896,82109,81922
 2.0000e+000 82536 -3.0281e+001 -3.5260e+001  7.4596e+000 55699 82288,82392,82314
 2.0000e+000 82513 -3.5964e+001 -3.5590e+001  1.5948e+001 55699 82288,82418,82392
 2.0000e+000 82490 -2.4074e+001 -2.7694e+001  1.0160e+001 55699 82314,82392,82340
 2.0000e+000 82467 -1.6891e+001 -1.6418e+001  6.8344e+000 55699 82340,82392,82366
 2.0000e+000 82444 -4.2776e+001 -2.3934e+001  1.7955e+001 55699 82262,82418,82288
 2.0000e+000 83091 -3.9119e+001 -8.8301e+001  1.3343e+000 55409 82745,82901,82875
 2.0000e+000 83068 -3.3678e+001 -5.9464e+001  5.6983e+000 55409 82719,82901,82745
 2.0000e+000 83045 -5.0439e+001 -8.1964e+001  1.0336e+000 55409 82771,82849,82823
 2.0000e+000 83022 -6.7282e+001 -8.4604e+001  1.1492e+001 55409 82745,82849,82771
 2.0000e+000 82999 -3.8828e+001 -8.8492e+001  7.0434e+000 55409 82745,82875,82849
 2.0000e+000 82976 -6.3468e+001 -9.9613e+001  7.1238e+000 55409 82771,82823,82797
 2.0000e+000 82953 -1.1848e+001 -1.3465e+001 -1.2879e+001 55409 82719,82927,82901
 2.0000e+000 83388 -9.6853e+000 -3.9130e+000 -5.1657e+000 54905 83411,83218,83166
 2.0000e+000 83365 -1.5230e+001 -1.3852e+000 -3.1827e+000 54905 83411,83166,83114
 2.0000e+000 83342  7.3538e+000  5.7932e+000  3.1905e+000 54905 83483,83270,83244
 2.0000e+000 83319 -8.6177e+000 -7.8996e+000 -2.4312e+000 54905 83166,83218,83192
 2.0000e+000 83296 -1.2766e+001 -2.8331e-001  2.6403e+000 54905 83114,83166,83140
 2.0000e+000 83437 -1.0965e+001 -1.2391e+000 -3.2761e+000 54905 83244,83218,83411
 2.0000e+000 83460 -4.9801e+000  3.6923e+000  2.7750e-001 54905 83483,83244,83411
 2.0000e+000 83509 -9.1900e+000 -2.0782e+000 -1.4674e+000 54905 83114,83270,83483
 2.0000e+000 83532 -1.1883e+001  1.2955e+000 -4.4765e+000 54905 83114,83483,83411
 2.0000e+000 83961 -6.6127e+001 -1.6230e+002 -7.8262e+000 54593 83638,83768,83690
 2.0000e+000 83938 -4.7914e+001 -1.5639e+002 -1.1610e+001 54593 83638,83794,83768
 2.0000e+000 83915 -6.4506e+001 -1.3891e+002  7.3118e+000 54593 83690,83768,83742
 2.0000e+000 83892 -5.5237e+001 -1.5341e+002 -1.5012e+001 54593 83638,83820,83794
 2.0000e+000 83869 -6.4069e+001 -1.7845e+002  4.2796e+000 54593 83638,83690,83664
 2.0000e+000 83846 -5.4856e+001 -1.1783e+002 -1.0640e+001 54593 83690,83742,83716
 2.0000e+000 84209 -5.5788e+000 -6.5722e-001  4.4688e-001 54132 84232,84062,83984
 2.0000e+000 84186 -1.0300e+001 -2.0346e-001  1.0970e+000 54132 84232,83984,84114
 2.0000e+000 84163 -7.3811e+000 -5.4638e+000  3.8422e+000 54132 83984,84062,84036
 2.0000e+000 84140 -7.0449e+000 -6.6318e-001  3.9404e+000 54132 83984,84036,84010
 2.0000e+000 84258 -1.1181e+001  2.9614e+000  5.7247e-001 54132 84088,84062,84232
 2.0000e+000 84281 -1.8617e+001  1.3045e+000  1.3961e+000 54132 84088,84232,84114
 2.0000e+000 84382 -6.2587e+001 -1.6695e+002 -6.2659e+000 53521 84304,84356,84330
 2.0000e+000 84632 -2.4964e+001 -4.8808e+001  1.6238e+001 53067 84655,84485,84459
 2.0000e+000 84609 -3.0828e+001 -5.6858e+001  1.3588e+001 53067 84655,84459,84407
 2.0000e+000 84586 -7.5608e+000 -3.4694e+001  1.5521e+001 53067 84485,84537,84511
 2.0000e+000 84563 -2.8142e+001 -5.8940e+001 -2.8850e+000 53067 84407,84459,84433
 2.0000e+000 84681 -1.8229e+001 -5.8315e+001  1.8069e+001 53067 84537,84485,84655
 2.0000e+000 84704 -2.2491e+001 -6.5653e+001  1.6345e+001 53067 84537,84655,84407
 2.0000e+000 85214 -5.1542e+001 -1.1754e+002  2.3364e+000 52513 85021,85073,85047
 2.0000e+000 85191 -3.2729e+001 -9.9499e+001 -5.0037e+000 52513 84943,85073,85021
 2.0000e+000 85168 -3.8589e+001 -1.0331e+002 -9.9760e+000 52513 84943,85021,84995
 2.0000e+000 85145 -3.2505e+001 -1.0079e+002 -2.9302e+000 52513 84917,85073,84943
 2.0000e+000 85122  9.3918e+000 -1.1388e+002 -1.1265e+001 52513 84943,84995,84969
 2.0000e+000 85099 -1.9662e+000 -1.2496e+002 -1.1284e+001 52513 84891,85073,84917
 2.0000e+000 85582  3.9033e+000 -4.6077e+000 -1.7919e+000 52037 85605,85311,85285
 2.0000e+000 85559  4.8410e+000  4.2995e+000  1.8356e-001 52037 85749,85605,85285
 2.0000e+000 85536 -3.2714e+000 -1.1588e+000 -2.4733e+000 52037 85893,85677,85389
 2.0000e+000 85513 -1.6144e+000  6.8204e+000 -1.3867e+000 52037 85749,85285,85259
 2.0000e+000 85490 -8.7104e+000 -3.6681e+000 -3.8862e+000 52037 85893,85389,85363
 2.0000e+000 85467 -2.7285e+000  7.8315e+000  9.1262e-001 52037 85259,85441,85415
 2.0000e+000 85631  3.9018e+000 -9.0479e+000 -7.2157e+000 52037 85337,85311,85605
 2.0000e+000 85654  5.5716e+000 -1.7589e+000 -7.9270e+000 52037 85677,85337,85605
 2.0000e+000 85703 -6.8804e+000 -1.2631e-001 -3.0765e+000 52037 85415,85389,85677
 2.0000e+000 85726 -5.6561e+000 -5.0952e+000 -6.0097e+000 52037 85821,85677,85605
 2.0000e+000 85775 -2.2386e+000 -2.3171e+000 -2.5826e+000 52037 85821,85605,85749
 2.0000e+000 85798 -2.0273e+000  4.6265e+000 -1.5092e+000 52037 85415,85749,85259
 2.0000e+000 85847 -2.8049e+000  2.5569e-001 -2.5274e+000 52037 85415,85677,85821
 2.0000e+000 85870 -1.9889e+000  1.9705e+000  4.6517e-001 52037 85415,85821,85749
 2.0000e+000 85919 -6.1561e+000 -4.1730e+000 -8.9769e+000 52037 85337,85677,85893
 2.0000e+000 85942 -8.2748e+000 -5.4530e+000 -1.0277e+001 52037 85337,85893,85363
 2.0000e+000 86224 -1.9368e+001 -1.1140e+002 -1.1196e+001 51368 86375,86100,86074
 2.0000e+000 86201 -5.9706e+001 -1.1234e+002  8.3590e+000 51368 86375,86074,86247
 2.0000e+000 86178 -2.1614e+001 -6.5255e+001 -1.2498e+000 51368 86048,86152,86126
 2.0000e+000 86273 -9.4393e+000 -7.4217e+001 -4.0214e+000 51368 86048,86126,86247
 2.0000e+000 86401 -1.1588e+000 -9.9787e+001 -2.2384e+001 51368 86126,86100,86375
 2.0000e+000 86424 -2.1457e+001 -7.7968e+001 -8.5042e+000 51368 86126,86375,86247
 2.0000e+000 86802 -3.2804e+001 -2.9157e+001  4.1578e-001 51028 86528,86632,86580
 2.0000e+000 86779 -2.5792e+001 -2.7088e+001 -1.3625e+000 51028 86528,86684,86632
 2.0000e+000 86756 -3.0445e+001 -2.4962e+001  6.1344e+000 51028 86528,86580,86554
 2.0000e+000 86733 -2.0366e+001 -6.2725e+000 -3.4982e+000 51028 86632,86684,86658
 2.0000e+000 86710 -5.9907e+000 -1.9071e+001  1.6512e+000 51028 86580,86632,86606
 2.0000e+000 87131 -4.5220e+001 -6.5098e+001  8.1326e+000 50624 86958,87036,87010
 2.0000e+000 87108 -5.3115e+001 -5.6551e+001  6.6405e+000 50624 86932,87036,86958
 2.0000e+000 87085 -5.0808e+001 -6.5924e+001 -1.5716e+000 50624 86958,87010,86984
 2.0000e+000 87062 -4.0357e+001 -5.3992e+001  2.4300e+000 50624 86906,87036,86932
 2.0000e+000 87330 -4.8675e+001 -5.6106e+001  3.6890e+000 50234 87353,87180,87154
 2.0000e+000 87307 -3.5835e+001 -6.4066e+001  8.3412e+000 50234 87353,87154,87258
 2.0000e+000 87284 -2.8027e+001 -5.8743e+001  1.8157e+001 50234 87206,87258,87232
 2.0000e+000 87379 -3.9778e+001 -4.7556e+001  8.0057e+000 50234 87206,87180,87353
 2.0000e+000 87402 -2.7023e+001 -5.7856e+001  1.1604e+001 50234 87206,87353,87258
 2.0000e+000 87650 -2.2940e+001 -2.7836e+001  9.6625e+000 49730 87673,87503,87451
 2.0000e+000 87627 -3.6898e+001 -3.4083e+001  7.1458e+000 49730 87673,87451,87425
 2.0000e+000 87604 -1.5723e+001 -3.1972e+001  9.2347e+000 49730 87503,87555,87529
 2.0000e+000 87581 -2.5747e+001 -3.0711e+001  1.0687e+001 49730 87451,87503,87477
 2.0000e+000 87699 -2.1540e+001 -3.3235e+001  5.2311e+000 49730 87555,87503,87673
 2.0000e+000 87722 -2.4143e+001 -3.5466e+001  4.1853e+000 49730 87555,87673,87425
 2.0000e+000 88232 -2.0826e+001 -9.8065e+000  5.3022e+000 49176 88255,87935,87909
 2.0000e+000 88209 -1.5213e+001 -8.4781e+000 -3.0182e+000 49176 88255,87909,88065
 2.0000e+000 88186 -2.0204e+001 -9.0505e+000  4.1126e+000 49176 87935,88039,87961
 2.0000e+000 88163 -1.7283e+001 -8.0864e+000 -3.2209e+000 49176 87909,88091,88065
 2.0000e+000 88140 -3.5478e+001 -1.4976e+001  8.2465e+000 49176 87961,88039,88013
 2.0000e+000 88117 -3.1110e+001 -2.6805e+001 -1.7466e+000 49176 87961,88013,87987
 2.0000e+000 88281 -1.3503e+001 -6.8179e+000  3.1128e+000 49176 88039,87935,88255
 2.0000e+000 88304 -8.0357e+000 -5.7042e+000 -5.1392e+000 49176 88039,88255,88065
 2.0000e+000 88503 -1.3589e+001  1.3683e+001 -1.3389e+000 48772 88526,88379,88353
 2.0000e+000 88480 -2.0108e+001 -8.2719e+000 -7.8617e+000 48772 88526,88353,88327
 2.0000e+000 88457 -1.5434e+001 -8.8814e+000 -2.8213e+000 48772 88379,88431,88405
 2.0000e+000 88552 -1.3094e+001 -5.6957e+000 -7.2935e-001 48772 88431,88379,88526
 2.0000e+000 88575 -1.0132e+001 -1.6746e+001 -3.2604e+000 48772 88431,88526,88327
 2.0000e+000 89083 -4.5643e+001 -1.0977e+002 -1.7275e+001 48368 88786,88916,88864
 2.0000e+000 89060 -5.3267e+001 -1.2116e+002 -1.0132e+001 48368 88786,88942,88916
 2.0000e+000 89037 -6.9180e+001 -1.2082e+002  3.5847e+000 48368 88786,88864,88812
 2.0000e+000 89014 -4.7123e+001 -1.0371e+002 -1.5635e+001 48368 88864,88916,88890
 2.0000e+000 88991 -4.8243e+001 -1.1058e+002 -6.2306e-001 48368 88812,88864,88838
 2.0000e+000 88968 -4.6022e+001 -1.1465e+002 -4.8664e+000 48368 88760,88942,88786
 2.0000e+000 89331 -5.2449e+001 -1.1476e+002  1.0799e+001 47928 89158,89236,89210
 2.0000e+000 89308 -5.3597e+001 -1.3431e+002  2.1513e+000 47928 89132,89236,89158
 2.0000e+000 89285 -5.4183e+001 -1.1218e+002  1.0467e+001 47928 89158,89210,89184
 2.0000e+000 89262 -6.4752e+001 -7.9450e+001  1.2319e+001 47928 89106,89236,89132
 2.0000e+000 89662 -2.8935e+001 -3.6981e+001  8.7502e+000 47588 89463,89541,89515
 2.0000e+000 89639 -1.3893e+001 -2.8264e+001 -1.2959e+000 47588 89463,89567,89541
 2.0000e+000 89616 -2.7581e+001 -2.9147e+001  7.1857e+000 47588 89463,89515,89489
 2.0000e+000 89593 -2.6346e+001 -2.6126e+001 -5.7122e+000 47588 89437,89567,89463
 2.0000e+000 89763 -4.2924e+001 -9.4892e+001  2.1740e+000 47390 89685,89737,89711
 2.0000e+000 89913 -6.4756e+001 -1.4140e+002 -9.0463e+000 47078 89786,89838,89812
 2.0000e+000 89890 -1.1909e+002 -1.6999e+002  4.2329e+000 47078 89786,89864,89838
 2.0000e+000 90163 -3.3084e+001 -4.1817e+001  1.3488e+001 46474 89964,90042,89990
 2.0000e+000 90140 -3.2754e+001 -4.2397e+001  1.6949e+001 46474 89938,90042,89964
 2.0000e+000 90117 -3.0815e+001 -4.9191e+001  1.2026e+001 46474 89990,90042,90016
 2.0000e+000 90094 -2.6521e+001 -3.6576e+001  1.4449e+001 46474 89938,90068,90042
 2.0000e+000 90364 -5.0969e+001 -7.7397e+001  1.2312e+000 46184 90240,90292,90266
 2.0000e+000 90341 -4.8183e+001 -6.1816e+001  9.3506e+000 46184 90188,90292,90240
 2.0000e+000 90318 -5.7079e+001 -8.1882e+001  5.2755e+000 46184 90188,90240,90214
 2.0000e+000 90565 -4.3144e+001 -3.7064e+001 -2.4229e+000 45780 90588,90415,90389
 2.0000e+000 90542 -3.8272e+001 -3.8607e+001 -9.6972e-001 45780 90588,90389,90493
 2.0000e+000 90519 -2.7598e+001 -3.2373e+001  2.8438e+000 45780 90415,90467,90441
 2.0000e+000 90614 -3.9379e+001 -3.7711e+001  5.5425e-001 45780 90467,90415,90588
 2.0000e+000 90637 -3.2431e+001 -3.6161e+001  2.9400e+000 45780 90467,90588,90493
 2.0000e+000 91196 -2.5391e+001 -3.1421e+001 -6.5942e-001 45226 91219,90876,90850
 2.0000e+000 91173 -3.3295e+001 -3.4908e+001 -9.3319e-002 45226 91219,90850,91032
 2.0000e+000 91150 -3.9909e+001 -3.4655e+001  1.8275e+000 45226 90824,91032,90850
 2.0000e+000 91127 -5.4318e+001 -4.2617e+001  2.2588e+001 45226 90876,90980,90902
 2.0000e+000 91104 -3.8054e+001 -2.0926e+001  4.8776e+000 45226 90876,91006,90980
 2.0000e+000 91081 -2.3556e+001 -3.7744e+001  1.6028e+001 45226 90902,90980,90954
 2.0000e+000 91058 -3.1975e+001 -2.9438e+001  5.6276e+000 45226 90902,90954,90928
 2.0000e+000 91245 -3.4339e+001 -2.7811e+001 -2.7997e+000 45226 91006,90876,91219
 2.0000e+000 91268 -4.2701e+001 -3.1667e+001 -1.8475e+000 45226 91006,91219,91032
 2.0000e+000 91516 -5.2072e+001 -1.3654e+002  1.7949e+001 44836 91539,91421,91395
 2.0000e+000 91493 -7.1766e+001 -1.5967e+002 -2.1041e+000 44836 91317,91421,91343
 2.0000e+000 91470 -7.7537e+001 -1.1695e+002  5.3329e+000 44836 91539,91395,91369
 2.0000e+000 91447 -8.8987e+001 -1.5976e+002 -1.2390e-001 44836 91291,91421,91317
 2.0000e+000 91565 -6.6552e+001 -1.4552e+002  4.4456e+000 44836 91343,91421,91539
 2.0000e+000 91588 -9.1493e+001 -1.4307e+002 -1.2746e+001 44836 91343,91539,91369
 2.0000e+000 91787 -5.2395e+001 -5.1816e+001  2.1072e+000 44432 91810,91637,91611
 2.0000e+000 91764 -4.2300e+001 -5.3454e+001  6.3563e-001 44432 91810,91611,91715
 2.0000e+000 91741 -4.2068e+001 -5.0470e+001 -3.5966e+000 44432 91637,91689,91663
 2.0000e+000 91836 -4.4344e+001 -5.1094e+001  3.8558e+000 44432 91689,91637,91810
 2.0000e+000 91859 -3.6923e+001 -5.4004e+001  3.9860e+000 44432 91689,91810,91715
 2.0000e+000 92207 -7.4108e+001 -1.0414e+002  2.2653e+000 43864 92230,91936,91910
 2.0000e+000 92184 -6.4326e+001 -1.0888e+002  1.0016e+000 43864 92230,91910,92040
 2.0000e+000 92161 -5.7530e+001 -1.0423e+002  1.1598e+001 43864 91884,92040,91910
 2.0000e+000 92138 -5.5450e+001 -9.2398e+001 -2.7793e+000 43864 91936,92014,91988
 2.0000e+000 92115 -2.9808e+001 -7.7701e+001 -8.9284e+000 43864 91936,91988,91962
 2.0000e+000 92092 -6.0547e+001 -9.7784e+001  1.0870e+001 43864 91884,92066,92040
 2.0000e+000 92256 -6.6024e+001 -9.8170e+001  5.0898e+000 43864 92014,91936,92230
 2.0000e+000 92279 -6.0586e+001 -1.0683e+002  2.0336e+000 43864 92014,92230,92040
 2.0000e+000 92529 -3.7844e+001 -3.5795e+001  1.0395e+001 43410 92552,92330,92304
 2.0000e+000 92506 -4.0056e+001 -4.0944e+001  1.1564e+001 43410 92552,92304,92408
 2.0000e+000 92483 -3.5927e+001 -5.2371e+001  1.0312e+001 43410 92304,92434,92408
 2.0000e+000 92460 -2.7367e+001 -1.2836e+001  7.5812e+000 43410 92330,92382,92356
 2.0000e+000 92578 -3.6844e+001 -3.5968e+001  1.6826e+001 43410 92382,92330,92552
 2.0000e+000 92601 -4.2444e+001 -4.7934e+001  1.8417e+001 43410 92382,92552,92408
 2.0000e+000 92802 -7.2027e+001 -1.1194e+002  9.1059e+000 43162 92825,92704,92652
 2.0000e+000 92779 -8.0452e+001 -1.2234e+002 -1.1767e+000 43162 92825,92652,92626
 2.0000e+000 92756 -4.9364e+001 -1.1514e+002  1.0104e+001 43162 92652,92704,92678
 2.0000e+000 92851 -5.4173e+001 -1.1144e+002  2.5972e+001 43162 92730,92704,92825
 2.0000e+000 92874 -6.1992e+001 -1.6728e+002  1.1932e+001 43162 92730,92825,92626
 2.0000e+000 93463  5.5150e+000  4.0770e+000 -6.9648e+000 42758 93140,93270,93166
 2.0000e+000 93440 -2.5309e+000 -2.2706e+000 -1.1960e+000 42758 93140,93296,93270
 2.0000e+000 93417  3.8307e+000 -1.5360e+000 -3.1746e+000 42758 93166,93270,93218
 2.0000e+000 93394 -9.7228e+000 -5.1449e-002  1.0556e+000 42758 93218,93270,93244
 2.0000e+000 93371  1.5731e+000 -8.8769e+000  2.8945e-001 42758 93140,93322,93296
 2.0000e+000 93348  3.4399e+000 -1.0491e+000  5.9445e-001 42758 93166,93218,93192
 2.0000e+000 93920 -3.1609e+001 -3.9978e+001  1.4170e+001 42304 93943,93672,93646
 2.0000e+000 93897 -2.8019e+001 -3.7705e+001  1.0670e+001 42304 93943,93646,93802
 2.0000e+000 93874 -8.7060e+000 -6.2179e+000  1.2292e+001 42304 93724,93802,93776
 2.0000e+000 93851 -3.5162e+001 -5.2217e+001  2.0128e+001 42304 93672,93724,93698
 2.0000e+000 93828  8.9956e+000 -2.5075e+001  1.5949e+001 42304 93724,93776,93750
 2.0000e+000 93969 -2.6847e+001 -4.0586e+001  1.2769e+001 42304 93724,93672,93943
 2.0000e+000 93992 -2.3383e+001 -4.0239e+001  1.0428e+001 42304 93724,93943,93802
 2.0000e+000 94321 -6.0008e+001 -8.6147e+001  4.9582e+000 41478 94096,94148,94122
 2.0000e+000 94298 -5.5493e+001 -7.1710e+001  4.6354e+000 41478 94096,94226,94148
 2.0000e+000 94275 -5.8250e+001 -8.3583e+001  2.1360e+000 41478 94148,94226,94174
 2.0000e+000 94252 -5.7568e+001 -6.5019e+001  8.6728e+000 41478 94174,94226,94200
 2.0000e+000 94618 -4.0898e+001 -6.4817e+001  1.6472e+001 40910 94344,94422,94396
 2.0000e+000 94595 -5.3188e+001 -6.6991e+001  1.2899e+001 40910 94344,94448,94422
 2.0000e+000 94572 -5.6601e+001 -7.5467e+001  1.0788e+001 40910 94344,94474,94448
 2.0000e+000 94549 -3.9122e+001 -6.5868e+001  1.5566e+001 40910 94344,94396,94370
 2.0000e+000 94526 -6.2924e+001 -6.9642e+001  1.1432e+001 40910 94344,94500,94474
 2.0000e+000 94866 -3.0299e+001 -5.3046e+001  1.9391e+001 40306 94667,94719,94693
 2.0000e+000 94843 -4.0669e+001 -4.8074e+001  1.8361e+001 40306 94641,94719,94667
 2.0000e+000 94820 -4.8472e+001 -4.9873e+001  2.5516e+001 40306 94641,94745,94719
 2.0000e+000 94797 -2.2262e+001 -4.2188e+001  2.1692e+001 40306 94641,94771,94745
 2.0000e+000 95089 -1.9600e+001 -8.8035e+000 -5.8794e+000 39702 94913,94991,94939
 2.0000e+000 95066 -1.8585e+001 -9.2704e+000 -5.4238e+000 39702 94913,95017,94991
 2.0000e+000 95043 -3.2325e+001 -1.4178e+001 -5.3806e+000 39702 94939,94991,94965
 2.0000e+000 95339 -5.5756e+001 -6.0316e+001  1.2818e+001 39248 95140,95218,95166
 2.0000e+000 95316 -6.5838e+001 -6.5890e+001  1.5169e+001 39248 95140,95244,95218
 2.0000e+000 95293 -5.2454e+001 -6.1934e+001  1.6092e+001 39248 95114,95244,95140
 2.0000e+000 95270 -8.1027e+001 -4.6379e+001  3.0994e+001 39248 95166,95218,95192
 2.0000e+000 95770 -1.0007e+002 -1.2198e+002 -1.1938e+001 38694 95551,95629,95577
 2.0000e+000 95747 -7.1119e+001 -1.1475e+002 -3.8765e+000 38694 95447,95629,95551
 2.0000e+000 95724 -8.2691e+001 -1.4097e+002 -1.7361e+000 38694 95447,95551,95473
 2.0000e+000 95701 -7.1708e+001 -1.4638e+002 -3.1748e+000 38694 95473,95551,95499
 2.0000e+000 95678 -7.9920e+001 -1.6014e+002  1.7809e+001 38694 95499,95551,95525
 2.0000e+000 95655 -7.5573e+001 -8.2275e+001  9.0184e+000 38694 95577,95629,95603
 2.0000e+000 96325 -1.9661e+001 -2.9474e+000 -3.5205e+000 38240 95953,96031,96005
 2.0000e+000 96302 -2.2638e+001  1.1201e+000  6.4059e-001 38240 95953,96161,96031
 2.0000e+000 96279 -1.2232e+001  3.9979e+000 -1.3329e+001 38240 96031,96161,96135
 2.0000e+000 96256 -1.4086e+001 -4.7255e+000  6.9258e-001 38240 96348,96109,96057
 2.0000e+000 96233 -1.5168e+001 -2.3493e+001 -1.5247e+001 38240 96348,96057,96031
 2.0000e+000 96210 -4.7948e+000 -1.7709e+000  6.8829e+000 38240 96057,96109,96083
 2.0000e+000 96187 -7.2679e+000  4.7136e+000  2.5740e+000 38240 95953,96005,95979
 2.0000e+000 96374 -2.3213e+000  1.4428e+001  8.6127e+000 38240 96135,96109,96348
 2.0000e+000 96397 -2.4102e+000 -7.1669e+000 -6.6764e+000 38240 96135,96348,96031
 2.0000e+000 96618 -8.8769e+001 -1.7365e+002 -1.0768e+001 37821 96494,96546,96520
 2.0000e+000 96595 -7.4057e+001 -1.3351e+002  8.3037e+000 37821 96468,96546,96494
 2.0000e+000 96572 -6.1304e+001 -1.2804e+002  7.3312e+000 37821 96442,96546,96468
 2.0000e+000 97126 -3.8848e+001 -2.2441e+001  1.3785e+001 37367 97149,96855,96829
 2.0000e+000 97103 -2.6574e+001 -1.8022e+001  1.6995e+001 37367 97149,96829,96985
 2.0000e+000 97080 -1.9639e+001 -2.1679e+001  1.5063e+001 37367 96803,96985,96829
 2.0000e+000 97057 -7.0107e+001 -1.0597e+001  3.5397e+001 37367 96855,96907,96881
 2.0000e+000 97034 -4.3412e+001 -6.5772e+001  3.2295e+001 37367 96907,96985,96959
 2.0000e+000 97011 -5.3451e+001 -4.0064e+001  1.9353e+001 37367 96907,96959,96933
 2.0000e+000 97175 -2.7063e+001 -2.0925e+001  1.9601e+001 37367 96907,96855,97149
 2.0000e+000 97198 -1.8324e+001 -1.9036e+001  2.2576e+001 37367 96907,97149,96985
 2.0000e+000 97704 -6.0054e+001 -7.5943e+001  1.1356e+001 36863 97727,97511,97485
 2.0000e+000 97681 -6.0501e+001 -7.5724e+001  1.2358e+001 36863 97727,97485,97433
 2.0000e+000 97658 -6.6302e+001 -8.1027e+001  9.6816e+000 36863 97381,97563,97433
 2.0000e+000 97635 -6.6317e+001 -7.6044e+001  9.4249e+000 36863 97511,97563,97537
 2.0000e+000 97612 -3.8938e+001 -8.8597e+001  2.2390e+001 36863 97433,97485,97459
 2.0000e+000 97589 -8.1763e+001 -8.8462e+001  2.0899e+001 36863 97381,97433,97407
 2.0000e+000 97753 -6.0895e+001 -7.6316e+001  1.1233e+001 36863 97563,97511,97727
 2.0000e+000 97776 -6.1649e+001 -7.6239e+001  1.2176e+001 36863 97563,97727,97433
 2.0000e+000 98331 -1.1065e+001 -6.7466e+000  7.8070e+000 36287 98354,98089,98063
 2.0000e+000 98308 -1.2531e+001 -6.0667e+000  5.1154e+000 36287 98354,98063,98011
 2.0000e+000 98285 -9.6683e+000 -8.7445e-001  9.2286e+000 36287 98426,97985,98115
 2.0000e+000 98262 -1.4332e+001 -2.0005e+001  5.6192e+000 36287 98011,98063,98037
 2.0000e+000 98239 -2.4796e+001 -3.4971e-001  5.7609e+000 36287 97985,98141,98115
 2.0000e+000 98216 -3.0069e+001 -9.4034e+000  6.3407e-001 36287 97959,98141,97985
 2.0000e+000 98193 -4.3061e+001 -9.4222e+000  1.3301e+000 36287 97959,98167,98141
 2.0000e+000 98380 -8.9928e+000 -4.8119e+000  6.8106e+000 36287 98115,98089,98354
 2.0000e+000 98403 -1.0348e+001 -1.7622e+000  7.4653e+000 36287 98426,98115,98354
 2.0000e+000 98452 -8.9758e+000 -4.4835e+000  7.7107e+000 36287 98011,97985,98426
 2.0000e+000 98475 -9.7715e+000 -5.8499e+000  6.0232e+000 36287 98011,98426,98354
 2.0000e+000 99030 -7.3434e+001 -9.4514e+001 -2.2267e+000 35726 99053,98736,98710
 2.0000e+000 99007 -4.9543e+001 -9.8199e+001 -4.9806e+000 35726 99053,98710,98684
 2.0000e+000 98984 -7.7312e+001 -9.7610e+001  3.8728e+000 35726 99125,98814,98736
 2.0000e+000 98961 -7.7069e+001 -9.8710e+001  3.4394e+000 35726 98736,98814,98788
 2.0000e+000 98938 -6.3190e+001 -1.0916e+002  1.5291e+001 35726 98684,98866,98840
 2.0000e+000 98915 -8.3513e+001 -9.7631e+001 -8.7208e+000 35726 98736,98788,98762
 2.0000e+000 98892 -3.3913e+001 -8.8819e+001  2.4290e+001 35726 98658,98866,98684
 2.0000e+000 99079 -7.7065e+001 -9.6808e+001  3.9352e+000 35726 99125,98736,99053
 2.0000e+000 99102 -6.6469e+001 -1.0575e+002  8.0619e-002 35726 98840,99053,98684
 2.0000e+000 99151 -7.7972e+001 -9.8252e+001  1.8864e+000 35726 98840,98814,99125
 2.0000e+000 99174 -7.7064e+001 -9.6069e+001  2.0124e+000 35726 98840,99125,99053
 2.0000e+000 99454 -5.7389e+001 -7.9367e+001  4.9396e+000 35222 99278,99330,99304
 2.0000e+000 99431 -5.9887e+001 -7.8949e+001  8.1282e+000 35222 99278,99382,99330
 2.0000e+000 99408 -6.3872e+001 -6.3117e+001  9.0166e+000 35222 99330,99382,99356
 2.0000e+000 99653 -8.4631e+001 -1.3254e+002  1.0302e+001 34867 99477,99529,99503
 2.0000e+000 99630 -9.9051e+001 -1.1606e+002  7.5354e+000 34867 99477,99581,99529
 2.0000e+000 99607 -1.2243e+002 -1.5378e+002  2.0530e+001 34867 99529,99581,99555
 2.0000e+000 100104 -1.1607e+001  1.5958e+000 -2.1506e+000 34363 99781,99885,99807
 2.0000e+000 100081 -1.1569e+001  4.2620e-001  1.0965e+000 34363 99781,99963,99885
 2.0000e+000 100058 -1.7324e+001  1.4193e+000  1.4655e+000 34363 99885,99963,99911
 2.0000e+000 100035 -1.9012e+001  3.6967e+000 -3.2107e+000 34363 99807,99885,99859
 2.0000e+000 100012 -1.0937e+001  2.9021e+000  8.6393e+000 34363 99911,99963,99937
 2.0000e+000 99989 -1.8439e+001  8.2786e-001 -1.3538e+001 34363 99807,99859,99833
 2.0000e+000 100303 -3.4963e+001 -2.8879e+001  7.0361e+000 33909 100127,100205,100179
 2.0000e+000 100280 -4.5751e+001 -2.6776e+001  3.4813e+000 33909 100127,100231,100205
 2.0000e+000 100257 -3.2424e+001 -2.1528e+001  8.9747e+000 33909 100127,100179,100153
 2.0000e+000 100890 -6.1298e+001 -6.5647e+001  4.4912e+000 33412 100645,100749,100697
 2.0000e+000 100867 -5.8260e+001 -6.0482e+001  5.7485e+000 33412 100567,100749,100645
 2.0000e+000 100844 -6.2742e+001 -7.2503e+001  6.2403e+000 33412 100567,100645,100619
 2.0000e+000 100821 -6.1930e+001 -6.2652e+001  6.4708e+000 33412 100645,100697,100671
 2.0000e+000 100798 -5.7393e+001 -7.4958e+001  1.3582e+001 33412 100567,100619,100593
 2.0000e+000 100775 -5.5101e+001 -5.3110e+001  1.2958e+000 33412 100697,100749,100723
 2.0000e+000 101268 -6.1426e+001 -7.0012e+001 -2.4889e+000 32908 101435,101291,101098
 2.0000e+000 101245 -6.0891e+001 -6.1081e+001  2.5843e+000 32908 101291,101072,101020
 2.0000e+000 101222 -7.3682e+001 -5.7871e+001 -5.6940e+000 32908 101363,101150,101124
 2.0000e+000 101199 -6.7013e+001 -6.9683e+001  1.0713e+001 32908 101020,101072,101046
 2.0000e+000 101176 -7.3876e+001 -4.8554e+001  3.0999e+000 32908 100994,101150,101020
 2.0000e+000 101317 -6.3150e+001 -6.1727e+001 -6.7583e+000 32908 101124,101098,101291
 2.0000e+000 101340 -6.8105e+001 -5.7305e+001 -3.5839e+000 32908 101363,101124,101291
 2.0000e+000 101389 -6.9174e+001 -5.5587e+001 -1.4815e+000 32908 101020,101150,101363
 2.0000e+000 101412 -6.6581e+001 -5.5228e+001  9.9201e-001 32908 101020,101363,101291
 2.0000e+000 101461 -6.1139e+001 -6.8252e+001  5.1906e-001 32908 101072,101291,101435
 2.0000e+000 101918 -7.8035e+000 -4.8612e+000 -5.0592e+000 32618 101941,101670,101644
 2.0000e+000 101895  3.7080e+000 -2.8535e+000  2.3075e+000 32618 101941,101644,101774
 2.0000e+000 101872 -3.0127e+001 -4.5829e-001  2.9098e+000 32618 102013,101696,101670
 2.0000e+000 101849 -2.3812e+001 -6.7709e+000  1.1482e+001 32618 101696,101748,101722
 2.0000e+000 101826  4.2746e+000  5.6810e-002  2.4920e+000 32618 101644,101800,101774
 2.0000e+000 101967 -2.6971e+001 -4.4672e+000 -3.5565e+000 32618 102013,101670,101941
 2.0000e+000 101990 -7.4917e+000 -1.8863e-001 -1.9473e+000 32618 101748,101941,101774
 2.0000e+000 102039 -2.2429e+001 -1.8370e+000  8.7390e-001 32618 101748,101696,102013
 2.0000e+000 102062 -7.2819e+000  7.9772e-001 -3.8502e+000 32618 101748,102013,101941
 2.0000e+000 102440 -6.8568e+001 -9.4337e+001 -5.1947e+000 32306 102463,102270,102244
 2.0000e+000 102417 -6.7257e+001 -9.3681e+001  1.5395e+000 32306 102463,102244,102192
 2.0000e+000 102394 -4.7893e+001 -9.1862e+001 -6.3434e+000 32306 102192,102244,102218
 2.0000e+000 102371 -1.1518e+002 -1.2354e+002  5.8626e+000 32306 102270,102322,102296
 2.0000e+000 102348 -6.3263e+001 -9.1981e+001 -4.2332e-001 32306 102166,102322,102192
 2.0000e+000 102489 -7.5828e+001 -9.5999e+001 -7.8151e+000 32306 102322,102270,102463
 2.0000e+000 102512 -7.4346e+001 -9.3891e+001 -6.3605e-001 32306 102322,102463,102192
 2.0000e+000 102662 -4.9094e+000 -1.3061e+001  7.3369e+000 31852 102943,102587,102561
 2.0000e+000 102639 -2.3862e+001  1.5678e+000  3.3939e-001 31852 102815,102685,102561
 2.0000e+000 102711 -1.0517e+001 -6.1518e+000  1.0507e+001 31852 102943,102561,102685
 2.0000e+000 102841 -1.7582e+001 -1.7062e+000 -1.6489e+000 31852 102535,102685,102815
 2.0000e+000 102969 -8.5958e-001 -6.1214e+000  3.9192e+000 31852 102613,102587,102943
 2.0000e+000 102992 -7.4655e+000 -1.1474e+000  7.4598e+000 31852 102613,102943,102685
 2.0000e+000 103370 -4.7837e+001 -4.8014e+001  1.1157e+001 31134 103096,103200,103122
 2.0000e+000 103347 -4.2418e+001 -3.1992e+001  9.0384e-001 31134 103096,103226,103200
 2.0000e+000 103324 -5.3335e+001 -4.1168e+001  4.9663e+000 31134 103122,103200,103174
 2.0000e+000 103301 -7.2363e+001 -4.8055e+001  1.1195e+001 31134 103096,103252,103226
 2.0000e+000 103278 -3.4023e+001 -1.8893e+001 -6.5623e+000 31134 103122,103174,103148
 2.0000e+000 103520 -3.7957e+001 -6.6437e+000 -2.4900e+000 30822 103393,103445,103419
 2.0000e+000 103497 -3.8871e+001 -8.4612e+000 -2.1763e+000 30822 103393,103471,103445
 2.0000e+000 103719 -9.9443e+001 -1.1906e+002 -2.6332e+000 30182 103742,103621,103569
 2.0000e+000 103696 -9.6796e+001 -1.1229e+002 -8.3617e-001 30182 103742,103569,103543
 2.0000e+000 103673 -9.2514e+001 -1.1714e+002 -6.3474e+000 30182 103569,103621,103595
 2.0000e+000 103768 -1.0640e+002 -1.1145e+002 -6.8162e+000 30182 103647,103621,103742
 2.0000e+000 103791 -1.0215e+002 -1.0180e+002 -5.3349e+000 30182 103647,103742,103543
 2.0000e+000 104252 -7.2386e+001 -8.1513e+001  7.0242e+000 29728 104030,104108,104056
 2.0000e+000 104229 -8.2017e+001 -9.8283e+001  2.3420e+000 29728 104004,104108,104030
 2.0000e+000 104206 -8.5251e+001 -8.7913e+001  5.5831e+000 29728 104004,104134,104108
 2.0000e+000 104183 -9.5846e+001 -1.2158e+002  1.1304e+001 29728 103978,104134,104004
 2.0000e+000 104160 -7.3042e+001 -5.2581e+001  6.8513e+000 29728 104056,104108,104082
 2.0000e+000 104630 -2.5123e+001 -2.0255e+001  1.4851e+001 29217 104653,104382,104356
 2.0000e+000 104607 -1.9253e+001 -5.1065e+000  9.9089e+000 29217 104653,104356,104512
 2.0000e+000 104584 -5.3792e+000 -1.9837e+001  6.9320e+000 29217 104434,104512,104486
 2.0000e+000 104561 -2.3472e+001 -2.1436e+001  8.6110e+000 29217 104382,104434,104408
 2.0000e+000 104538 -8.8164e+000 -1.3443e+001  1.1569e+001 29217 104434,104486,104460
 2.0000e+000 104679 -1.8823e+001 -1.7975e+001  7.0692e+000 29217 104434,104382,104653
 2.0000e+000 104702 -1.5040e+001 -1.1456e+001  2.6152e+000 29217 104434,104653,104512
 2.0000e+000 105178 -7.1375e+001 -6.4708e+001  4.4001e+000 28649 105201,104962,104936
 2.0000e+000 105155 -6.3313e+001 -5.4002e+001  7.7278e-001 28649 105201,104936,104884
 2.0000e+000 105132 -5.9637e+001 -6.8194e+001  2.3173e+000 28649 105273,104858,105014
 2.0000e+000 105109 -6.7950e+001 -7.6626e+001  4.9629e+000 28649 104962,105014,104988
 2.0000e+000 105086 -6.3848e+001 -5.0813e+001 -5.2303e+000 28649 104884,104936,104910
 2.0000e+000 105063 -7.0790e+001 -7.6473e+001 -1.4023e+000 28649 104806,105014,104858
 2.0000e+000 105040 -7.7340e+001 -5.7848e+001 -5.3171e+000 28649 104806,104858,104832
 2.0000e+000 105227 -6.2699e+001 -6.6124e+001 -4.7880e-002 28649 105014,104962,105201
 2.0000e+000 105250 -6.2811e+001 -6.6363e+001 -1.0387e-002 28649 105273,105014,105201
 2.0000e+000 105299 -5.6509e+001 -6.6329e+001  1.4627e+000 28649 104884,104858,105273
 2.0000e+000 105322 -5.7474e+001 -6.3229e+001 -1.3433e+000 28649 104884,105273,105201
 2.0000e+000 105673 -4.6897e+001  5.0205e-001 -3.2243e-002 28351 105474,105578,105552
 2.0000e+000 105650 -4.5258e+001  2.2852e+000  9.7004e-001 28351 105448,105578,105474
 2.0000e+000 105627 -5.0434e+001  6.1207e-001 -1.6975e+000 28351 105500,105552,105526
 2.0000e+000 105604 -4.9229e+001 -4.1130e-001 -8.4618e-002 28351 105474,105552,105500
 2.0000e+000 106130 -4.8132e+001 -3.2861e+001  5.2398e+000 28004 106153,105882,105856
 2.0000e+000 106107 -4.9307e+001 -3.1952e+001  4.1119e+000 28004 106153,105856,105986
 2.0000e+000 106084 -3.8232e+001 -3.0868e+001  1.4783e+000 28004 105934,105986,105960
 2.0000e+000 106061 -2.7925e+001 -1.8239e+001 -4.9233e+000 28004 105856,106012,105986
 2.0000e+000 106038 -3.0180e+001  3.9831e+000  6.6761e+000 28004 105882,105934,105908
 2.0000e+000 106179 -4.5299e+001 -3.2062e+001  5.2384e+000 28004 105934,105882,106153
 2.0000e+000 106202 -4.7834e+001 -3.1764e+001  4.5388e+000 28004 105934,106153,105986
 2.0000e+000 106885 -5.6948e+001 -2.2590e+001  7.4458e+000 27564 106908,106620,106516
 2.0000e+000 106862 -7.6265e+001 -3.4861e+001  2.2160e+000 27564 106908,106516,106490
 2.0000e+000 106839 -8.4985e+001 -3.0687e+001 -1.0347e-001 27564 106516,106620,106542
 2.0000e+000 106816 -4.3543e+001 -3.4003e+001  1.0202e+001 27564 106620,106672,106646
 2.0000e+000 106793 -1.1455e+002 -3.5983e+001 -6.4957e-001 27564 106542,106620,106594
 2.0000e+000 106770 -6.2427e+001 -4.3867e+001  6.0874e+000 27564 106490,106698,106672
 2.0000e+000 106747 -5.5155e+001 -3.8769e+001  1.0738e+001 27564 106464,106698,106490
 2.0000e+000 106724 -4.4041e+001 -3.1679e+000 -1.1038e+001 27564 106542,106594,106568
 2.0000e+000 106934 -4.3017e+001 -3.3112e+001  1.0012e+001 27564 106672,106620,106908
 2.0000e+000 106957 -5.3410e+001 -4.0168e+001  6.2858e+000 27564 106672,106908,106490
 2.0000e+000 107463 -8.7745e+001 -1.0241e+002  1.0797e+000 27053 107218,107322,107296
 2.0000e+000 107440 -9.0703e+001 -1.1015e+002 -3.5869e+000 27053 107166,107322,107218
 2.0000e+000 107417 -9.0122e+001 -1.0363e+002  1.2133e-001 27053 107218,107296,107244
 2.0000e+000 107394 -6.2822e+001 -1.3402e+002 -6.2371e+000 27053 107140,107322,107166
 2.0000e+000 107371 -7.6798e+001 -9.7565e+001 -8.9209e+000 27053 107166,107218,107192
 2.0000e+000 107348 -8.0189e+001 -8.9744e+001 -5.6203e+000 27053 107244,107296,107270
 2.0000e+000 108097 -5.8541e+000 -1.5846e+000 -4.2365e+000 26549 108192,108120,107803
 2.0000e+000 108074 -1.0502e+001 -7.7749e+000 -3.1378e+000 26549 108120,107725,107933
 2.0000e+000 108051 -1.4001e+000 -2.7452e+000 -1.8483e+000 26549 107751,107803,107777
 2.0000e+000 108028 -7.1497e+000 -2.3940e-001 -2.9760e+000 26549 108192,107803,107751
 2.0000e+000 108005 -1.2003e+001 -6.3808e+000 -7.0829e+000 26549 108264,107855,107803
 2.0000e+000 107982 -2.3469e+000 -6.3556e+000 -1.6938e+000 26549 107881,107933,107907
 2.0000e+000 107959 -2.2269e+001 -7.6956e+000 -1.0727e+001 26549 107803,107855,107829
 2.0000e+000 108146 -7.9511e+000 -4.5192e+000 -6.1686e+000 26549 108264,107803,108120
 2.0000e+000 108169 -6.5006e+000  1.1355e+000 -2.0306e+000 26549 107881,108120,107933
 2.0000e+000 108218 -8.4680e+000 -3.1632e+000 -4.8994e+000 26549 107725,108120,108192
 2.0000e+000 108241 -9.5661e+000 -1.7992e+000 -3.6473e+000 26549 107725,108192,107751
 2.0000e+000 108290 -1.5113e+001 -3.2363e+000 -6.0218e+000 26549 107881,107855,108264
 2.0000e+000 108313 -1.2316e+001 -2.1479e+000 -5.0608e+000 26549 107881,108264,108120
 2.0000e+000 108512 -1.1037e+002 -1.5922e+002 -8.4994e+000 26137 108388,108440,108414
 2.0000e+000 108489 -1.0362e+002 -1.4772e+002 -6.5388e+000 26137 108362,108440,108388
 2.0000e+000 108466 -9.8378e+001 -1.2983e+002 -3.2480e-001 26137 108336,108440,108362
 2.0000e+000 108662 -6.1211e+001 -6.0437e+001  2.9361e+000 25733 108817,108685,108535
 2.0000e+000 108639 -6.6807e+001 -7.4245e+001  1.0165e+001 25733 109017,108817,108535
 2.0000e+000 108711 -6.0862e+001 -5.7642e+001  3.4665e+000 25733 108561,108535,108685
 2.0000e+000 108843 -6.4710e+001 -5.8994e+001  1.0853e+000 25733 108587,108685,108817
 2.0000e+000 108866 -6.2116e+001 -5.9315e+001  7.6927e+000 25733 108889,108817,108613
 2.0000e+000 108915 -5.6696e+001 -5.1958e+001 -2.5384e+000 25733 108587,108817,108889
 2.0000e+000 109043 -6.1772e+001 -6.9314e+001  6.7381e+000 25733 108613,108817,109017
 2.0000e+000 109500 -6.6971e+001 -7.1570e+001 -1.3323e+001 25229 109523,109356,109330
 2.0000e+000 109477 -7.6277e+001 -7.1074e+001 -5.0394e+000 25229 109595,109523,109330
 2.0000e+000 109454 -8.5095e+001 -8.1880e+001  2.1344e+000 25229 109595,109330,109278
 2.0000e+000 109431 -8.1224e+001 -6.5326e+001 -5.5775e+000 25229 109667,109226,109382
 2.0000e+000 109408 -6.7660e+001 -7.4890e+001  4.0838e+000 25229 109278,109330,109304
 2.0000e+000 109549 -8.8355e+001 -8.0235e+001 -1.3693e+001 25229 109382,109356,109523
 2.0000e+000 109572 -7.7143e+001 -7.0674e+001 -6.6302e+000 25229 109667,109382,109523
 2.0000e+000 109621 -8.7788e+001 -8.5158e+001 -1.0028e+001 25229 109252,109523,109595
 2.0000e+000 109644 -7.7601e+001 -6.1402e+001  4.1759e+000 25229 109739,109595,109278
 2.0000e+000 109693 -8.6243e+001 -7.8942e+001 -9.1166e-001 25229 109252,109226,109667
 2.0000e+000 109716 -8.1492e+001 -8.4389e+001 -5.0747e+000 25229 109252,109667,109523
 2.0000e+000 109765 -8.5867e+001 -7.3665e+001 -1.0783e+001 25229 109252,109595,109739
 2.0000e+000 110478 -9.1030e+001 -1.1382e+002  7.0496e+000 24917 110158,110236,110184
 2.0000e+000 110455 -9.3755e+001 -1.1699e+002  7.5097e-001 24917 110158,110288,110236
 2.0000e+000 110432 -8.6583e+001 -8.9190e+001 -7.5384e+000 24917 110236,110288,110262
 2.0000e+000 110409 -8.1949e+001 -1.1476e+002  1.0128e+001 24917 110184,110236,110210
 2.0000e+000 110386 -9.8223e+001 -1.1301e+002 -4.0155e+000 24917 110132,110288,110158
 2.0000e+000 110363 -8.4865e+001 -1.0497e+002  2.6077e+000 24917 110132,110314,110288
 2.0000e+000 110340 -8.9579e+001 -1.1869e+002  9.9948e+000 24917 110106,110314,110132
 2.0000e+000 110829 -9.5212e+001 -1.2120e+002 -1.1180e+000 24307 110604,110682,110630
 2.0000e+000 110806 -1.0914e+002 -1.4771e+002  4.3218e+000 24307 110604,110708,110682
 2.0000e+000 110783 -1.0171e+002 -1.4772e+002  9.3929e+000 24307 110604,110734,110708
 2.0000e+000 110760 -9.0177e+001 -1.1904e+002 -1.3085e+000 24307 110630,110682,110656
 2.0000e+000 111335 -8.4195e+001 -8.2816e+001  3.7219e+000 23767 111012,111168,111038
 2.0000e+000 111312 -7.0066e+001 -7.0374e+001 -4.2300e+000 23767 111012,111194,111168
 2.0000e+000 111289 -8.5064e+001 -8.8434e+001  1.1804e+001 23767 111358,111064,111038
 2.0000e+000 111266 -7.3747e+001 -7.9347e+001  2.9471e+000 23767 111358,111038,111168
 2.0000e+000 111243 -6.9563e+001 -8.4564e+001  7.1002e-001 23767 111430,111142,111090
 2.0000e+000 111220 -6.5723e+001 -8.2944e+001  3.1647e+000 23767 111090,111142,111116
 2.0000e+000 111384 -6.8862e+001 -8.0485e+001  7.1430e+000 23767 111090,111064,111358
 2.0000e+000 111407 -7.4411e+001 -8.2755e+001  8.7734e-001 23767 111430,111090,111358
 2.0000e+000 111456 -6.5365e+001 -8.2546e+001 -7.6205e-001 23767 111168,111142,111430
 2.0000e+000 111479 -6.8814e+001 -7.9853e+001 -6.7059e-001 23767 111168,111430,111358
 2.0000e+000 111985 -2.9981e+001 -2.4732e+001 -4.7635e+000 23477 111688,111844,111818
 2.0000e+000 111962 -2.9841e+001 -2.6519e+001 -9.1904e+000 23477 111662,111844,111688
 2.0000e+000 111939 -5.5348e+000 -7.7538e-001  4.2258e+000 23477 111766,111818,111792
 2.0000e+000 111916 -2.4303e+001 -2.7466e+000  5.0430e+000 23477 111740,111818,111766
 2.0000e+000 111893 -2.9262e+001 -1.6776e+001 -3.0425e+000 23477 111688,111818,111740
 2.0000e+000 111870 -6.5034e+001 -9.2517e+000 -1.0754e+001 23477 111688,111740,111714
 2.0000e+000 112314 -5.8239e+001 -4.6862e+001 -3.3626e+000 23023 112141,112219,112193
 2.0000e+000 112291 -6.1926e+001 -5.1801e+001 -1.7095e+000 23023 112115,112219,112141
 2.0000e+000 112268 -5.0876e+001 -2.4695e+001 -3.0944e+000 23023 112141,112193,112167
 2.0000e+000 112245 -6.0785e+001 -5.7923e+001 -1.0050e+000 23023 112089,112219,112115
 2.0000e+000 112692 -8.1310e+001 -7.7233e+001 -1.9573e+000 22768 112444,112574,112548
 2.0000e+000 112669 -7.8339e+001 -6.3466e+001 -2.0741e-001 22768 112418,112574,112444
 2.0000e+000 112646 -7.7589e+001 -7.5477e+001  1.3110e+000 22768 112444,112522,112470
 2.0000e+000 112623 -6.8735e+001 -7.1907e+001 -1.7356e+000 22768 112444,112548,112522
 2.0000e+000 112600 -7.0087e+001 -7.1432e+001 -6.3501e+000 22768 112470,112522,112496
 2.0000e+000 113011 -4.2385e+001  2.8937e+000 -6.7678e+000 22314 112763,112867,112789
 2.0000e+000 112988 -5.2960e+001 -7.5105e+000 -2.5906e+000 22314 112763,112893,112867
 2.0000e+000 112965 -5.7630e+001 -3.0180e+000  0.0000e+000 22314 112815,112867,112841
 2.0000e+000 112942 -6.3559e+001 -6.9260e+000 -4.1261e+000 22314 112789,112867,112815
 2.0000e+000 112919 -3.6597e+001 -4.7581e+000 -7.7774e+000 22314 112737,112893,112763
 2.0000e+000 113519 -9.8714e-001 -4.6321e+000  1.5944e+000 21924 113614,113542,113248
 2.0000e+000 113496 -6.6092e-002 -1.1004e+000  5.1275e-001 21924 113542,113196,113378
 2.0000e+000 113473 -1.6968e+000 -7.2795e+000  2.6924e+000 21924 113614,113248,113222
 2.0000e+000 113450 -7.7105e-001 -1.8753e+000  7.7003e-001 21924 113686,113274,113248
 2.0000e+000 113427 -1.9313e+000 -1.7554e+000  1.3291e+000 21924 113274,113352,113326
 2.0000e+000 113404 -1.8295e+000 -5.8386e-001  1.2308e+000 21924 113274,113326,113300
 2.0000e+000 113568 -1.2918e-001 -2.2915e+000  1.5062e+000 21924 113686,113248,113542
 2.0000e+000 113591 -1.0868e+000 -2.3240e+000  1.8909e+000 21924 113352,113542,113378
 2.0000e+000 113640 -1.7540e+000 -2.1110e+000  1.3315e+000 21924 113196,113542,113614
 2.0000e+000 113663 -1.2976e+000 -3.9233e+000  1.8330e+000 21924 113196,113614,113222
 2.0000e+000 113712 -1.5573e+000 -2.1634e+000  9.0427e-001 21924 113352,113274,113686
 2.0000e+000 113735 -1.3899e+000 -2.8473e+000  1.6912e+000 21924 113352,113686,113542
 2.0000e+000 113885 -3.1282e-001  8.6212e+000 -9.7075e+000 21520 113980,113908,113784
 2.0000e+000 113862 -1.9346e+001 -1.0937e+001  2.9767e+000 21520 114238,113908,113758
 2.0000e+000 113934 -2.1427e+001 -2.6607e+001  2.3809e+000 21520 114110,113908,113810
 2.0000e+000 113957 -1.3385e+001 -2.7802e+000  3.6522e+000 21520 113810,113908,113836
 2.0000e+000 114006 -1.6259e+001 -1.0561e+000 -5.3915e+000 21520 113758,113908,113980
 2.0000e+000 114136 -2.9557e+001  4.9830e+000 -1.0545e+000 21520 113784,113908,114110
 2.0000e+000 114264 -1.4432e+001 -3.2053e+000  5.7209e+000 21520 113836,113908,114238
 2.0000e+000 114662 -6.7698e+001 -6.8268e+001  4.3354e+000 21030 114414,114518,114492
 2.0000e+000 114639 -5.3571e+001 -5.2585e+001 -1.6834e+000 21030 114414,114544,114518
 2.0000e+000 114616 -7.7882e+001 -7.5473e+001 -2.3694e+000 21030 114440,114492,114466
 2.0000e+000 114593 -6.9702e+001 -7.3011e+001  4.2158e+000 21030 114414,114492,114440
 2.0000e+000 114570 -6.8055e+001 -5.2674e+001  1.7559e+001 21030 114388,114544,114414
 2.0000e+000 114959 -3.8643e+001 -6.7314e+000 -1.6465e+000 20512 114982,114711,114685
 2.0000e+000 114936 -3.6491e+001 -4.9495e+000 -5.6150e+000 20512 115054,114982,114685
 2.0000e+000 114913 -3.0779e+001  2.9312e+000 -8.0964e+000 20512 115054,114685,114841
 2.0000e+000 114890 -1.8752e+001 -1.7504e+000 -5.5610e-001 20512 114711,114763,114737
 2.0000e+000 114867 -2.5151e+001 -5.3464e+000 -2.0720e+000 20512 114763,114815,114789
 2.0000e+000 115008 -3.4104e+001 -4.8863e+000 -1.5994e+000 20512 114763,114711,114982
 2.0000e+000 115031 -3.4601e+001 -9.2173e+000 -3.4426e+000 20512 114763,114982,114815
 2.0000e+000 115080 -3.3860e+001 -7.6087e+000 -4.4778e+000 20512 114815,114982,115054
 2.0000e+000 115103 -3.4280e+001 -5.9836e+000 -4.4747e+000 20512 114815,115054,114841
 2.0000e+000 115507 -5.5479e+001 -3.2410e+001 -1.6273e+001 20143 115285,115389,115363
 2.0000e+000 115484 -9.0180e+001 -2.1963e+001  8.2815e+000 20143 115259,115389,115285
 2.0000e+000 115461 -8.5345e+001 -1.3605e+001  1.1147e+001 20143 115233,115389,115259
 2.0000e+000 115438 -1.0404e+001 -1.0756e+001  8.7490e+000 20143 115285,115337,115311
 2.0000e+000 115415 -3.7704e+001 -1.5497e+001  7.9212e+000 20143 115285,115363,115337
 2.0000e+000 115875 -8.5364e+001 -9.1428e+001 -3.8440e+000 19632 115656,115734,115682
 2.0000e+000 115852 -8.4638e+001 -9.7947e+001 -3.0163e+000 19632 115552,115734,115656
 2.0000e+000 115829 -7.9379e+001 -8.5519e+001 -3.7216e+000 19632 115552,115656,115578
 2.0000e+000 115806 -8.2787e+001 -9.9816e+001 -1.9764e+000 19632 115578,115656,115630
 2.0000e+000 115783 -9.2302e+001 -1.0569e+002 -1.6456e+000 19632 115682,115734,115708
 2.0000e+000 115760 -8.3681e+001 -9.6541e+001 -4.4780e+000 19632 115578,115630,115604
 2.0000e+000 116025 -7.0752e+001 -7.2135e+001  1.4262e+000 19178 115898,115950,115924
 2.0000e+000 116002 -6.2577e+001 -6.5384e+001 -5.2749e+000 19178 115898,115976,115950
 2.0000e+000 116633 -1.0022e+002 -1.1465e+002  2.0852e+000 18738 116800,116656,116342
 2.0000e+000 116610 -1.0005e+002 -1.1578e+002  2.8586e+000 18738 116656,116238,116446
 2.0000e+000 116587 -9.9905e+001 -1.1304e+002  3.6109e+000 18738 116728,116368,116342
 2.0000e+000 116564 -1.0307e+002 -1.1176e+002 -2.2787e-002 18738 116800,116342,116264
 2.0000e+000 116541 -1.0664e+002 -1.4324e+002  5.4830e+000 18738 116212,116446,116238
 2.0000e+000 116518 -8.1012e+001 -1.0901e+002  5.5389e+000 18738 116394,116446,116420
 2.0000e+000 116495 -1.0815e+002 -1.1625e+002 -4.3988e+000 18738 116264,116342,116316
 2.0000e+000 116472 -8.4879e+001 -1.1132e+002 -2.2241e+000 18738 116264,116316,116290
 2.0000e+000 116682 -1.0054e+002 -1.1416e+002  2.3098e+000 18738 116728,116342,116656
 2.0000e+000 116705 -1.0055e+002 -1.1577e+002  3.1493e+000 18738 116394,116656,116446
 2.0000e+000 116754 -9.7783e+001 -1.1242e+002  5.4145e+000 18738 116394,116368,116728
 2.0000e+000 116777 -9.8262e+001 -1.1367e+002  4.0965e+000 18738 116394,116728,116656
 2.0000e+000 116826 -1.0293e+002 -1.1854e+002  7.7185e-001 18738 116238,116656,116800
 2.0000e+000 116849 -1.0628e+002 -1.1595e+002 -1.4889e+000 18738 116238,116800,116264
 2.0000e+000 116999 -7.8433e-001 -2.3415e-002 -1.9840e-001 18184 116872,116924,116898
 2.0000e+000 116976 -4.3000e-001 -1.2167e+000 -1.3001e-001 18184 116872,116950,116924
 2.0000e+000 117330  1.1341e-001 -3.8611e-001 -3.0388e-001 17694 117157,117235,117183
 2.0000e+000 117307 -8.9503e-001 -7.2583e-002 -1.4423e-001 17694 117131,117235,117157
 2.0000e+000 117284 -1.0543e+000 -1.6988e-001 -1.8795e-001 17694 117105,117235,117131
 2.0000e+000 117261 -1.7684e+000 -1.5901e+000  4.1544e-001 17694 117183,117235,117209
 2.0000e+000 117480 -7.3177e+001 -9.2004e+001 -5.4933e+000 17290 117353,117405,117379
 2.0000e+000 117457 -7.9145e+001 -1.0315e+002 -1.9028e+000 17290 117353,117431,117405
 2.0000e+000 117679 -6.8006e+001 -7.5711e+001 -3.6170e+000 16718 117555,117607,117581
 2.0000e+000 117656 -7.6173e+001 -8.8123e+001  2.9562e+000 16718 117529,117607,117555
 2.0000e+000 117633 -6.2476e+001 -9.0190e+001  8.3953e-001 16718 117503,117607,117529
 2.0000e+000 117782 -1.0667e+002 -1.2512e+002  4.2636e-001 16520 117704,117756,117730
 2.0000e+000 117983 -5.5714e+001 -6.4351e+001 -1.4996e+000 16208 117859,117911,117885
 2.0000e+000 117960 -6.9926e+001 -6.7996e+001 -2.3487e+000 16208 117833,117911,117859
 2.0000e+000 117937 -6.9962e+001 -7.0373e+001 -3.4027e+000 16208 117807,117911,117833
 2.0000e+000 118135 -1.1300e+002 -1.3036e+002 -6.8508e+000 15674 118034,118086,118060
 2.0000e+000 118112 -1.0750e+002 -1.2133e+002  2.7320e-001 15674 118008,118086,118034
 2.0000e+000 118238 -3.1621e+001  1.7573e+001 -1.6551e+000 15355 118160,118212,118186
 2.0000e+000 118341 -9.5592e+001 -1.0022e+002 -2.0378e+000 421 118263,118315,118289
 2.1000e+000 68152  4.7434e+000 -6.1588e+001  3.6054e+000 67838 68074,68126,68100
 2.1000e+000 68550 -4.2983e+000 -3.2632e+002  7.0579e+000 67526 68276,68380,68302
 2.1000e+000 68527  4.7725e+000 -3.4347e+002 -6.1123e+000 67526 68276,68406,68380
 2.1000e+000 68504  6.2109e+000 -2.8754e+002  8.9861e-001 67526 68328,68380,68354
 2.1000e+000 68481  9.1863e+000 -2.9489e+002  6.6066e+000 67526 68302,68380,68328
 2.1000e+000 68458  7.0034e+000 -3.1543e+002  1.7491e+000 67526 68276,68432,68406
 2.1000e+000 68651 -3.0669e+001 -7.4073e+001  2.5215e+001 67328 68573,68625,68599
 2.1000e+000 68970 -3.6276e+000 -5.8905e+001 -3.5397e+000 67016 68722,68800,68774
 2.1000e+000 68947  8.3452e+000 -3.1093e+001 -1.6347e+000 67016 68722,68826,68800
 2.1000e+000 68924 -2.1473e+000 -5.8837e+001  5.2746e+000 67016 68696,68826,68722
 2.1000e+000 68901 -5.0030e+000 -5.4947e+001 -3.8799e-001 67016 68722,68774,68748
 2.1000e+000 68878 -1.5302e+001 -5.6502e+001 -1.0472e+001 67016 68696,68852,68826
 2.1000e+000 69291 -2.4782e+001 -1.1961e+002 -9.3926e+000 66654 69069,69147,69095
 2.1000e+000 69268 -1.4472e+001 -1.7874e+002 -7.0143e+000 66654 69069,69173,69147
 2.1000e+000 69245 -2.7172e+001 -1.8996e+002  7.8276e-001 66654 69043,69173,69069
 2.1000e+000 69222 -6.5228e+001 -1.8485e+002  1.2605e+001 66654 69095,69147,69121
 2.1000e+000 69199 -4.7322e+001 -2.2573e+002 -6.9896e-001 66654 69017,69173,69043
 2.1000e+000 69695  5.7050e+000 -1.0387e+002  4.2021e+000 66456 69447,69577,69551
 2.1000e+000 69672  1.8379e+000 -9.9740e+001  1.2045e+000 66456 69421,69577,69447
 2.1000e+000 69649  1.0200e+001 -6.2633e+001 -4.2458e+000 66456 69473,69551,69525
 2.1000e+000 69626  1.2347e+001 -8.7687e+001  4.6568e+000 66456 69447,69551,69473
 2.1000e+000 69603  2.1477e+001 -5.4941e+001 -2.3784e+001 66456 69473,69525,69499
 2.1000e+000 70024  1.5747e+001 -1.1147e+002 -7.2833e+000 66258 70047,69851,69825
 2.1000e+000 70001  1.6731e+001 -8.8338e+001  1.0188e+001 66258 70047,69825,69903
 2.1000e+000 69978  1.1236e+001 -1.6652e+002  2.3423e+001 66258 69799,69903,69825
 2.1000e+000 69955  1.9344e+001 -2.0297e+002  3.2238e+001 66258 69799,69929,69903
 2.1000e+000 70073 -5.9551e+000 -1.0963e+002 -2.8175e+001 66258 69877,69851,70047
 2.1000e+000 70096 -6.1567e+000 -8.0824e+001 -1.0529e+001 66258 69877,70047,69903
 2.1000e+000 70602  4.9927e+001 -4.2039e+001 -1.4717e+000 66060 70305,70435,70331
 2.1000e+000 70579  3.3374e+000 -8.1188e+001  1.6816e+001 66060 70279,70435,70305
 2.1000e+000 70556 -1.5849e+001 -5.6939e+001 -1.3342e+001 66060 70331,70435,70409
 2.1000e+000 70533  2.5482e+001 -5.1583e+001  4.6006e+001 66060 70279,70461,70435
 2.1000e+000 70510  3.5857e+000 -1.1734e+001 -2.0731e+001 66060 70331,70409,70357
 2.1000e+000 70487 -8.1519e-001 -2.2422e+001 -2.3768e+000 66060 70357,70409,70383
 2.1000e+000 70703 -6.4800e+001 -1.6681e+002 -1.0322e+001 65862 70625,70677,70651
 2.1000e+000 71083 -1.4579e+001 -1.4550e+002 -3.4502e+000 65664 70887,70965,70939
 2.1000e+000 71060 -6.2913e+000 -1.9085e+002  8.2098e-001 65664 70861,70965,70887
 2.1000e+000 71037 -2.1045e+000 -1.7950e+002  1.4972e+000 65664 70809,70965,70861
 2.1000e+000 71014 -5.1135e+000 -2.0259e+002 -6.5997e+000 65664 70809,70861,70835
 2.1000e+000 70991 -1.4344e+001 -1.5945e+002 -1.8680e+001 65664 70887,70939,70913
 2.1000e+000 71611 -2.3346e+001 -1.9072e+002 -1.6066e+001 65260 71288,71444,71314
 2.1000e+000 71588 -4.5816e+001 -1.6185e+002  5.7359e+000 65260 71288,71470,71444
 2.1000e+000 71565  4.9775e+001 -6.4558e+001 -1.2448e+000 65260 71314,71418,71392
 2.1000e+000 71542  5.7868e-001 -1.4212e+002 -2.4456e+001 65260 71314,71444,71418
 2.1000e+000 71519 -1.4517e+001 -9.1853e+001 -5.0853e+000 65260 71314,71392,71340
 2.1000e+000 71496  4.0404e+000 -5.2914e+001  1.4299e+001 65260 71340,71392,71366
 2.1000e+000 72060  2.3141e+001 -3.7418e+001  7.7079e+000 64870 71737,71893,71789
 2.1000e+000 72037  7.9572e+001 -1.5254e+001  3.3632e-001 64870 71737,71919,71893
 2.1000e+000 72014  7.9018e+000  3.3833e+000  3.3778e+001 64870 71789,71841,71815
 2.1000e+000 71991  9.2833e+000 -4.3901e+001 -1.3426e+000 64870 71789,71893,71841
 2.1000e+000 71968  3.7064e+001 -1.0240e+001  2.6601e+000 64870 71737,71789,71763
 2.1000e+000 71945 -1.6116e+001 -3.0956e+001  0.0000e+000 64870 71841,71893,71867
 2.1000e+000 72517  7.6086e-001 -8.7167e+000 -4.3218e-002 64466 72321,72399,72347
 2.1000e+000 72494  2.5947e+000  1.2205e+000  2.4781e+000 64466 72269,72399,72321
 2.1000e+000 72471  3.2903e+000 -5.4793e+000  6.8549e+000 64466 72347,72399,72373
 2.1000e+000 72448 -4.5024e+000  4.4435e-001  6.8891e+000 64466 72243,72399,72269
 2.1000e+000 72425 -1.0545e+001 -3.4675e+001 -5.7940e-001 64466 72269,72321,72295
 2.1000e+000 72944 -3.3877e+000 -3.9777e+001  1.0462e+001 64062 73111,73039,72699
 2.1000e+000 72921 -6.5946e+000 -1.7616e+001  1.0812e+001 64062 73183,72967,72647
 2.1000e+000 72898 -2.6909e+000 -1.1856e+001  4.2839e+000 64062 72967,72803,72751
 2.1000e+000 72875  1.0430e+000 -3.7952e+001  1.8647e+001 64062 73111,72699,72673
 2.1000e+000 72852 -1.2396e+001 -9.4406e+000  6.5855e+000 64062 73183,72647,72621
 2.1000e+000 72829 -3.1301e+000 -6.0094e+000 -1.9730e+000 64062 72751,72803,72777
 2.1000e+000 72993  5.2824e+000 -2.1149e+001  7.6283e+000 64062 73039,72647,72967
 2.1000e+000 73016  9.1132e+000 -1.7591e+001 -2.7676e+000 64062 72725,72967,72751
 2.1000e+000 73065  3.4395e+001 -2.8753e+001  1.3756e+001 64062 72725,72699,73039
 2.1000e+000 73088 -2.8808e+000 -4.1530e+001  6.8314e+000 64062 72725,73039,72967
 2.1000e+000 73137  4.1397e+000 -2.0042e+001  1.8368e+001 64062 72647,73039,73111
 2.1000e+000 73160  7.3343e+000 -2.0628e+001  2.3309e+001 64062 72647,73111,72673
 2.1000e+000 73209 -3.6064e+000 -9.9512e+000  5.6223e+000 64062 72803,72967,73183
 2.1000e+000 73232 -4.6989e+000  6.0826e+000  1.5141e+000 64062 72803,73183,72621
 2.1000e+000 73333 -4.5726e+001 -1.5119e+002  9.3209e+000 63814 73356,73281,73255
 2.1000e+000 73382 -2.5464e+001 -7.4505e+001 -2.9943e-001 63814 73486,73356,73307
 2.1000e+000 73512 -6.6396e+001 -9.1931e+001 -1.5096e+001 63814 73281,73356,73486
 2.1000e+000 73839 -4.0150e+001 -1.9774e+002 -3.3569e+001 63616 73862,73692,73666
 2.1000e+000 73816 -4.2138e+001 -1.5908e+002 -1.8222e+001 63616 73934,73862,73666
 2.1000e+000 73793 -3.8524e+001 -1.5470e+002 -1.6226e+001 63616 73934,73666,73640
 2.1000e+000 73770 -2.4614e+001 -1.5248e+002 -1.7641e+001 63616 73614,73744,73640
 2.1000e+000 73888 -4.2972e+001 -1.5561e+002 -3.7240e+001 63616 73718,73692,73862
 2.1000e+000 73911 -4.3549e+001 -1.3872e+002 -1.1396e+001 63616 73718,73862,73744
 2.1000e+000 73960 -4.4363e+001 -1.5502e+002 -2.2638e+001 63616 73744,73862,73934
 2.1000e+000 73983 -4.3180e+001 -1.5528e+002 -2.1477e+001 63616 73744,73934,73640
 2.1000e+000 74363 -4.0886e+000 -3.0637e+001  1.8757e+000 63390 74386,74115,74089
 2.1000e+000 74340 -4.7651e+000 -1.0782e+001 -3.3880e+000 63390 74458,74386,74089
 2.1000e+000 74317 -3.4770e+000 -1.1022e+001 -1.7644e+000 63390 74458,74089,74245
 2.1000e+000 74294 -3.3653e+000 -6.8151e+001  1.2916e+001 63390 74530,74167,74141
 2.1000e+000 74271  6.9393e+000 -4.1778e+001 -6.6523e+000 63390 74167,74219,74193
 2.1000e+000 74412  1.3304e+000 -3.1461e+001 -3.2434e-001 63390 74141,74115,74386
 2.1000e+000 74435 -8.9369e+000 -4.7005e+001  5.3923e+000 63390 74530,74141,74386
 2.1000e+000 74484 -3.2481e+000 -8.8283e+000 -1.7642e+000 63390 74219,74386,74458
 2.1000e+000 74507 -8.1762e-001 -8.2235e+000 -6.1793e-003 63390 74219,74458,74245
 2.1000e+000 74556 -1.6002e+000 -5.0403e+001 -1.9421e+000 63390 74219,74167,74530
 2.1000e+000 74579 -1.7561e+000 -2.3649e+001 -1.0241e+001 63390 74219,74530,74386
 2.1000e+000 74680  1.9920e-001 -5.6027e+001  3.8144e+000 63100 75089,74833,74703
 2.1000e+000 74729 -9.3088e+000 -7.1012e+001 -1.6393e+001 63100 74961,74703,74654
 2.1000e+000 74859 -1.5135e+001 -4.3690e+001  8.7699e+000 63100 74602,74703,74833
 2.1000e+000 74987  1.0940e+000 -3.5542e+001  1.2824e+000 63100 75089,74703,74961
 2.1000e+000 75115 -5.6944e+000 -2.7911e+001 -1.4901e+001 63100 74628,74833,75089
 2.1000e+000 75138 -4.9512e+000 -7.6287e+000 -1.7415e+001 63100 74628,75089,74961
 2.1000e+000 75723 -8.5702e+000 -5.5815e+001  1.5107e+001 62532 75746,75504,75426
 2.1000e+000 75700 -9.9328e+000 -4.5634e+001  1.6416e+001 62532 75746,75426,75556
 2.1000e+000 75677 -3.2652e+001 -8.9901e+001 -5.3922e+000 62532 75426,75504,75452
 2.1000e+000 75654 -3.4944e+001 -3.6868e+001 -4.1542e+000 62532 75400,75556,75426
 2.1000e+000 75631 -3.8954e+001 -5.7641e+001 -1.7251e+001 62532 75400,75582,75556
 2.1000e+000 75608 -6.5586e+001 -3.0180e+001 -1.6485e+001 62532 75452,75504,75478
 2.1000e+000 75772 -8.1034e+000 -6.5824e+001  1.2344e+001 62532 75530,75504,75746
 2.1000e+000 75795 -9.4581e+000 -5.4683e+001  1.2557e+001 62532 75530,75746,75556
 2.1000e+000 76301 -2.6878e+001 -9.0231e+001  6.8842e+000 62192 76324,76082,76030
 2.1000e+000 76278 -4.2899e+001 -7.7980e+001  1.1138e+001 62192 76324,76030,76004
 2.1000e+000 76255  1.5176e+001 -7.5201e+001  1.2756e+001 62192 76030,76082,76056
 2.1000e+000 76232 -1.9487e+001 -8.6692e+001 -2.0394e+001 62192 76082,76134,76108
 2.1000e+000 76209 -1.6685e+001 -5.2404e+001 -6.4687e+000 62192 76004,76160,76134
 2.1000e+000 76186 -1.7607e+001 -4.4300e+001 -6.4581e+000 62192 75978,76160,76004
 2.1000e+000 76350 -2.3887e+001 -7.8700e+001  4.0691e+000 62192 76134,76082,76324
 2.1000e+000 76373 -3.0543e+001 -5.5464e+001  4.6750e+000 62192 76134,76324,76004
 2.1000e+000 76879 -2.3186e+001 -1.0189e+002 -2.7766e+001 61788 76902,76660,76582
 2.1000e+000 76856 -1.5572e+001 -9.7157e+001 -2.5753e+001 61788 76902,76582,76556
 2.1000e+000 76833 -9.3363e+000 -1.0189e+002 -1.9449e+001 61788 76582,76660,76634
 2.1000e+000 76810 -3.2280e+001 -5.8171e+001 -2.9503e+001 61788 76582,76634,76608
 2.1000e+000 76787 -5.7300e+000 -1.0038e+002  2.4966e+001 61788 76556,76738,76686
 2.1000e+000 76764  1.1064e+000 -3.6519e+001  9.4013e+000 61788 76686,76738,76712
 2.1000e+000 76928 -2.9801e+001 -9.6168e+001 -2.7816e+001 61788 76686,76660,76902
 2.1000e+000 76951 -2.2927e+001 -9.1469e+001 -2.5718e+001 61788 76686,76902,76556
 2.1000e+000 77408 -2.0204e+001 -5.0864e+001 -2.8783e+000 61498 77212,77264,77238
 2.1000e+000 77385 -1.3969e+001 -3.7206e+001 -1.3875e+000 61498 77160,77264,77212
 2.1000e+000 77362 -2.3673e+001 -3.9071e+001 -1.5472e+000 61498 77160,77290,77264
 2.1000e+000 77339 -1.2654e+001 -4.1855e+001 -3.3085e-001 61498 77160,77212,77186
 2.1000e+000 77316 -2.0313e+001 -4.0349e+001  9.0763e+000 61498 77134,77290,77160
 2.1000e+000 77678 -2.8319e+001 -2.0623e+002 -2.8428e+001 61129 77479,77557,77505
 2.1000e+000 77655 -6.3519e+001 -2.0938e+002 -1.0690e+001 61129 77479,77583,77557
 2.1000e+000 77632 -2.1524e+001 -1.7996e+002  9.6913e+000 61129 77453,77583,77479
 2.1000e+000 77609 -2.2606e+001 -2.0587e+002 -2.9308e+001 61129 77505,77557,77531
 2.1000e+000 77828 -1.4987e+001 -1.6199e+002 -2.2899e+000 60931 77851,77727,77701
 2.1000e+000 77805 -3.6939e+001 -1.8454e+002  8.0142e+000 60931 77851,77701,77779
 2.1000e+000 77877 -7.4695e+001 -2.1111e+002  3.1205e+001 60931 77923,77851,77753
 2.1000e+000 77900 -1.0187e+001 -1.8073e+002  1.5762e+001 60931 77753,77851,77779
 2.1000e+000 77949 -2.4297e+001 -1.2165e+002  3.6639e+000 60931 77727,77851,77923
 2.1000e+000 78133  2.5158e+000  4.0590e+001  1.1088e+001 60377 78055,78107,78081
 2.1000e+000 78535 -3.5985e+001 -4.3323e+001 -1.0236e+001 60015 78287,78391,78313
 2.1000e+000 78512 -1.0718e+001 -6.2998e+001 -8.5995e+000 60015 78287,78417,78391
 2.1000e+000 78489  9.3743e+000 -6.7053e+001 -2.1914e+001 60015 78261,78417,78287
 2.1000e+000 78466 -1.3978e+001 -3.1983e+001  5.5371e+000 60015 78339,78391,78365
 2.1000e+000 78443 -1.5144e+001 -2.9686e+001  2.7901e+000 60015 78313,78391,78339
 2.1000e+000 78913 -5.0799e+001 -6.6408e+001  2.0142e+001 59725 78936,78743,78691
 2.1000e+000 78890 -4.6692e+001 -6.0059e+001  2.2058e+001 59725 79008,78936,78691
 2.1000e+000 78867 -4.6052e+001 -6.4764e+001  3.0347e+001 59725 79008,78691,78665
 2.1000e+000 78844 -1.8112e+001 -4.7986e+001  1.0637e+001 59725 78691,78743,78717
 2.1000e+000 78821 -5.8972e+001 -6.6823e+001  9.9257e+000 59725 78639,78795,78769
 2.1000e+000 78962 -4.2283e+001 -6.5839e+001  1.5047e+001 59725 78769,78743,78936
 2.1000e+000 78985 -6.1633e+001 -6.9669e+001  1.1693e+001 59725 78769,78936,78639
 2.1000e+000 79034 -6.3904e+001 -6.7661e+001  2.3434e+001 59725 78639,78936,79008
 2.1000e+000 79057 -5.4836e+001 -6.8219e+001  3.0347e+001 59725 78639,79008,78665
 2.1000e+000 79386 -3.3131e+001 -5.1803e+001  3.6996e+000 59221 79187,79239,79213
 2.1000e+000 79363 -3.5984e+001 -4.4210e+001  9.8694e-001 59221 79187,79265,79239
 2.1000e+000 79340 -2.9873e+001 -3.5613e+001  1.1008e+001 59221 79187,79291,79265
 2.1000e+000 79317 -2.1562e+001 -1.6840e+001 -1.6385e-001 59221 79161,79291,79187
 2.1000e+000 79813 -2.6802e+000 -1.3183e+002 -1.4573e+001 58831 79836,79542,79516
 2.1000e+000 79790 -1.6710e+001 -1.1925e+002 -3.3911e+001 58831 79980,79836,79516
 2.1000e+000 79767 -6.5324e+001 -1.8484e+002  1.5786e+000 58831 79908,79646,79568
 2.1000e+000 79744  2.2664e+001 -8.0707e+001 -1.3039e+001 58831 79980,79516,79490
 2.1000e+000 79721 -1.7252e+000 -1.8382e+002 -5.7622e+000 58831 79568,79646,79594
 2.1000e+000 79698 -1.6521e+002 -5.7829e+002 -6.6577e+001 58831 79594,79646,79620
 2.1000e+000 79862 -1.1051e+001 -1.2907e+002 -1.3130e+001 58831 79568,79542,79836
 2.1000e+000 79885 -4.5065e+001 -1.3682e+002  5.9268e+000 58831 79908,79568,79836
 2.1000e+000 79934 -7.6318e+001 -1.6630e+002 -3.8348e+001 58831 79672,79646,79908
 2.1000e+000 79957 -5.8944e+001 -1.2551e+002 -3.8469e+001 58831 79672,79908,79836
 2.1000e+000 80006 -1.7471e+001 -6.5485e+001 -1.8229e+001 58831 79672,79836,79980
 2.1000e+000 80029 -1.8142e+001 -5.7696e+001 -7.7110e+000 58831 79672,79980,79490
 2.1000e+000 80358  4.7615e+000 -5.9063e+001  3.0759e+000 58377 80381,80185,80159
 2.1000e+000 80335  1.0944e+000 -5.0933e+001  6.7252e+000 58377 80381,80159,80133
 2.1000e+000 80312  7.0314e+000 -4.0654e+001  4.9750e+000 58377 80133,80263,80237
 2.1000e+000 80289  4.9898e+000 -5.4336e+001  8.9220e+000 58377 80185,80237,80211
 2.1000e+000 80407  5.8167e+000 -5.0486e+001  1.0202e+000 58377 80237,80185,80381
 2.1000e+000 80430  1.3773e+000 -4.3965e+001  6.3826e+000 58377 80237,80381,80133
 2.1000e+000 80759  2.3186e+001 -3.6326e+001  4.3633e+000 57873 80782,80586,80560
 2.1000e+000 80736  2.3614e+001 -3.1469e+001  6.1174e+000 57873 80782,80560,80534
 2.1000e+000 80713  9.8296e+000 -3.0027e+001 -1.4412e-001 57873 80586,80638,80612
 2.1000e+000 80690  4.1714e+001 -1.6799e+001 -1.6751e+000 57873 80534,80664,80638
 2.1000e+000 80808  2.5131e+001 -3.1837e+001  4.4451e+000 57873 80638,80586,80782
 2.1000e+000 80831  2.3982e+001 -3.0119e+001  6.0704e+000 57873 80638,80782,80534
 2.1000e+000 81337 -4.5008e+001 -1.8106e+002 -2.0167e+001 57262 81360,81144,81092
 2.1000e+000 81314 -5.7246e+001 -2.0816e+002 -1.6933e+001 57262 81360,81092,81066
 2.1000e+000 81291 -6.1224e+001 -2.3233e+002  1.3296e+000 57262 81014,81196,81066
 2.1000e+000 81268 -6.7726e+001 -1.4382e+002 -3.1730e+001 57262 81092,81144,81118
 2.1000e+000 81245 -5.9711e+001 -1.2936e+002 -1.4233e+001 57262 81144,81196,81170
 2.1000e+000 81222 -7.0605e+001 -2.5582e+002  1.9737e+001 57262 81014,81066,81040
 2.1000e+000 81386 -5.6022e+001 -1.5842e+002 -1.4960e+000 57262 81196,81144,81360
 2.1000e+000 81409 -6.7924e+001 -1.8658e+002  1.1073e+000 57262 81196,81360,81066
 2.1000e+000 81608 -4.4842e+001 -2.4556e+002  1.3411e+001 57007 81458,81536,81510
 2.1000e+000 81585 -4.4871e+001 -2.8869e+002  2.2409e+001 57007 81432,81536,81458
 2.1000e+000 81562 -1.3393e+002 -2.3748e+002  5.1868e+001 57007 81458,81510,81484
 2.1000e+000 82086 -7.1747e+001 -1.7820e+002 -2.6166e+001 56339 81792,81922,81818
 2.1000e+000 82063 -5.1430e+001 -2.1301e+002 -5.0942e+001 56339 81714,81922,81792
 2.1000e+000 82040 -6.8021e+001 -1.5120e+002 -7.7691e+000 56339 82109,81844,81818
 2.1000e+000 82017 -6.7481e+001 -1.6594e+002 -9.9027e+000 56339 82109,81818,81922
 2.1000e+000 81994 -4.3483e+001 -1.7044e+002 -1.8069e+001 56339 81844,81896,81870
 2.1000e+000 81971 -9.6400e+001 -3.0683e+002 -8.4022e+001 56339 81714,81792,81766
 2.1000e+000 81948 -1.0537e+002 -5.6759e+002 -1.0036e+002 56339 81714,81766,81740
 2.1000e+000 82135 -5.6166e+001 -1.6256e+002 -1.2705e+000 56339 81896,81844,82109
 2.1000e+000 82158 -6.2205e+001 -1.8578e+002 -6.1220e+000 56339 81896,82109,81922
 2.1000e+000 82536 -5.6408e+001 -1.1623e+002  7.9094e-001 55699 82288,82392,82314
 2.1000e+000 82513 -5.8822e+001 -1.1766e+002 -8.1594e-001 55699 82288,82418,82392
 2.1000e+000 82490 -6.4918e+001 -1.3485e+002 -2.9553e+000 55699 82314,82392,82340
 2.1000e+000 82467 -2.5498e+001 -1.3828e+002 -1.7149e+001 55699 82340,82392,82366
 2.1000e+000 82444 -6.4011e+001 -1.2868e+002 -4.2717e+000 55699 82262,82418,82288
 2.1000e+000 83091 -4.7549e+001 -1.5311e+002  1.3886e+001 55409 82745,82901,82875
 2.1000e+000 83068 -5.4630e+001 -8.7127e+001  1.7218e+001 55409 82719,82901,82745
 2.1000e+000 83045 -7.7199e+001 -1.6984e+002  9.7744e+000 55409 82771,82849,82823
 2.1000e+000 83022 -1.2828e+002 -1.8225e+002  3.0786e+001 55409 82745,82849,82771
 2.1000e+000 82999 -5.3524e+001 -1.5557e+002  1.1273e+001 55409 82745,82875,82849
 2.1000e+000 82976 -9.0364e+001 -1.8248e+002  1.4730e+001 55409 82771,82823,82797
 2.1000e+000 82953 -9.5055e+000 -2.9465e+001 -7.1683e+000 55409 82719,82927,82901
 2.1000e+000 83388 -2.0533e+001 -8.1126e+001 -5.6707e+000 54905 83411,83218,83166
 2.1000e+000 83365 -2.9313e+001 -7.5155e+001 -1.3615e+000 54905 83411,83166,83114
 2.1000e+000 83342 -5.3955e+001 -8.3427e+001 -2.3712e+001 54905 83483,83270,83244
 2.1000e+000 83319 -5.3358e+001 -9.0110e+001 -4.4511e+000 54905 83166,83218,83192
 2.1000e+000 83296 -3.0391e+001 -8.1495e+001  3.3123e+000 54905 83114,83166,83140
 2.1000e+000 83437 -1.1012e+001 -7.8152e+001 -1.3430e+001 54905 83244,83218,83411
 2.1000e+000 83460 -3.3641e+001 -8.5515e+001 -1.2009e+001 54905 83483,83244,83411
 2.1000e+000 83509 -2.8262e+001 -5.7767e+001 -1.3445e+001 54905 83114,83270,83483
 2.1000e+000 83532 -1.9610e+001 -6.6766e+001 -5.1944e+000 54905 83114,83483,83411
 2.1000e+000 83961 -6.2768e+001 -2.2611e+002 -1.4120e+001 54593 83638,83768,83690
 2.1000e+000 83938 -4.8091e+001 -2.2631e+002 -1.3791e+001 54593 83638,83794,83768
 2.1000e+000 83915 -8.2933e+001 -2.0495e+002  2.5969e+000 54593 83690,83768,83742
 2.1000e+000 83892 -4.8479e+001 -2.0778e+002 -3.3303e+001 54593 83638,83820,83794
 2.1000e+000 83869 -5.6420e+001 -2.4068e+002  3.2578e+000 54593 83638,83690,83664
 2.1000e+000 83846 -8.3812e+001 -1.7012e+002 -3.2699e+001 54593 83690,83742,83716
 2.1000e+000 84209 -3.2173e+001 -1.0822e+002  7.3678e+000 54132 84232,84062,83984
 2.1000e+000 84186 -2.7112e+001 -9.2212e+001  2.6674e+000 54132 84232,83984,84114
 2.1000e+000 84163 -4.0373e+001 -1.2231e+002 -1.4222e+001 54132 83984,84062,84036
 2.1000e+000 84140 -4.6016e+001 -1.1969e+002 -1.7272e+001 54132 83984,84036,84010
 2.1000e+000 84258 -1.9235e+001 -1.2734e+002  4.3747e+000 54132 84088,84062,84232
 2.1000e+000 84281 -1.0770e+001 -1.0918e+002 -3.2502e+000 54132 84088,84232,84114
 2.1000e+000 84382 -4.4075e+001 -2.2125e+002 -3.5733e+000 53521 84304,84356,84330
 2.1000e+000 84632 -4.1492e+001 -1.1727e+002  1.0935e+001 53067 84655,84485,84459
 2.1000e+000 84609 -2.7167e+001 -1.3476e+002  1.2461e+001 53067 84655,84459,84407
 2.1000e+000 84586 -3.5473e+001 -1.0211e+002  1.9737e+001 53067 84485,84537,84511
 2.1000e+000 84563 -3.3988e+001 -1.5998e+002 -5.2412e+000 53067 84407,84459,84433
 2.1000e+000 84681 -4.2264e+001 -1.3114e+002  1.4953e+001 53067 84537,84485,84655
 2.1000e+000 84704 -3.9198e+001 -1.5745e+002  2.1394e+001 53067 84537,84655,84407
 2.1000e+000 85214 -7.1041e+001 -2.1303e+002  2.1306e-001 52513 85021,85073,85047
 2.1000e+000 85191 -5.4762e+001 -1.5587e+002 -1.4504e+001 52513 84943,85073,85021
 2.1000e+000 85168 -5.9250e+001 -1.5771e+002 -1.3986e+001 52513 84943,85021,84995
 2.1000e+000 85145 -7.9357e+001 -2.0529e+002 -2.4851e+001 52513 84917,85073,84943
 2.1000e+000 85122 -5.0267e+001 -1.5304e+002 -1.6360e+001 52513 84943,84995,84969
 2.1000e+000 85099 -7.5225e+001 -2.2486e+002 -3.0862e+001 52513 84891,85073,84917
 2.1000e+000 85582 -8.3922e+000 -7.8834e+001 -2.2739e+000 52037 85605,85311,85285
 2.1000e+000 85559 -1.0345e+001 -8.1043e+001 -1.0648e+000 52037 85749,85605,85285
 2.1000e+000 85536 -1.0396e+001 -7.8271e+001 -1.6415e+000 52037 85893,85677,85389
 2.1000e+000 85513 -9.5056e+000 -8.3091e+001 -4.6105e-003 52037 85749,85285,85259
 2.1000e+000 85490 -9.1382e+000 -7.7601e+001 -6.9486e-001 52037 85893,85389,85363
 2.1000e+000 85467 -7.8082e+000 -6.7485e+001  4.7719e+000 52037 85259,85441,85415
 2.1000e+000 85631 -1.2977e+001 -8.0615e+001 -2.4369e+000 52037 85337,85311,85605
 2.1000e+000 85654 -1.0717e+001 -7.8661e+001 -8.5477e-001 52037 85677,85337,85605
 2.1000e+000 85703 -1.1921e+001 -7.9071e+001 -1.3188e+000 52037 85415,85389,85677
 2.1000e+000 85726 -9.8440e+000 -7.9097e+001 -7.6926e-001 52037 85821,85677,85605
 2.1000e+000 85775 -1.0307e+001 -7.9288e+001 -7.6941e-001 52037 85821,85605,85749
 2.1000e+000 85798 -9.3096e+000 -8.0605e+001  3.0468e-002 52037 85415,85749,85259
 2.1000e+000 85847 -9.9316e+000 -7.9147e+001 -1.1323e+000 52037 85415,85677,85821
 2.1000e+000 85870 -1.0102e+001 -7.9210e+001 -1.1208e+000 52037 85415,85821,85749
 2.1000e+000 85919 -9.3186e+000 -7.6708e+001 -4.0900e-004 52037 85337,85677,85893
 2.1000e+000 85942 -8.8380e+000 -7.6250e+001  8.7778e-001 52037 85337,85893,85363
 2.1000e+000 86224 -2.0482e+001 -1.4480e+002  2.1837e+000 51368 86375,86100,86074
 2.1000e+000 86201 -1.2591e+002 -1.6638e+002  2.7214e+001 51368 86375,86074,86247
 2.1000e+000 86178 -2.0415e+001 -1.3953e+002 -2.7563e+001 51368 86048,86152,86126
 2.1000e+000 86273 -5.1122e+001 -1.4237e+002 -1.8136e+001 51368 86048,86126,86247
 2.1000e+000 86401  2.9896e+001 -1.5521e+002 -3.6873e+001 51368 86126,86100,86375
 2.1000e+000 86424 -2.2264e+001 -1.3004e+002 -1.8823e+001 51368 86126,86375,86247
 2.1000e+000 86802 -5.3367e+001 -9.9104e+001  2.3410e+000 51028 86528,86632,86580
 2.1000e+000 86779 -5.6921e+001 -9.5535e+001  2.2551e+000 51028 86528,86684,86632
 2.1000e+000 86756 -6.8446e+001 -1.3543e+002  7.7630e+000 51028 86528,86580,86554
 2.1000e+000 86733 -5.2304e+001 -1.0393e+002  1.0968e+001 51028 86632,86684,86658
 2.1000e+000 86710 -5.4439e+001 -1.2065e+002 -1.8370e+001 51028 86580,86632,86606
 2.1000e+000 87131 -5.9906e+001 -1.6031e+002  2.1038e+001 50624 86958,87036,87010
 2.1000e+000 87108 -7.6815e+001 -1.3699e+002  1.8329e+001 50624 86932,87036,86958
 2.1000e+000 87085 -7.6762e+001 -1.6414e+002  8.8998e-001 50624 86958,87010,86984
 2.1000e+000 87062 -5.8900e+001 -1.2760e+002  2.2237e+001 50624 86906,87036,86932
 2.1000e+000 87330 -8.6576e+001 -1.6900e+002  4.3922e+000 50234 87353,87180,87154
 2.1000e+000 87307 -7.0193e+001 -1.7367e+002  7.5729e+000 50234 87353,87154,87258
 2.1000e+000 87284 -5.6606e+001 -1.7895e+002  1.5111e+001 50234 87206,87258,87232
 2.1000e+000 87379 -7.3900e+001 -1.6902e+002  1.1709e+001 50234 87206,87180,87353
 2.1000e+000 87402 -5.3574e+001 -1.7268e+002  1.2466e+001 50234 87206,87353,87258
 2.1000e+000 87650 -6.1334e+001 -1.4107e+002  5.1629e+000 49730 87673,87503,87451
 2.1000e+000 87627 -5.3275e+001 -1.3715e+002  9.3124e+000 49730 87673,87451,87425
 2.1000e+000 87604 -5.1270e+001 -1.1139e+002  1.1496e+001 49730 87503,87555,87529
 2.1000e+000 87581 -7.3240e+001 -1.1469e+002  2.5790e+000 49730 87451,87503,87477
 2.1000e+000 87699 -6.1913e+001 -1.3602e+002  8.3371e+000 49730 87555,87503,87673
 2.1000e+000 87722 -6.0434e+001 -1.3234e+002  1.0342e+001 49730 87555,87673,87425
 2.1000e+000 88232 -3.7604e+001 -9.0463e+001 -6.6891e-001 49176 88255,87935,87909
 2.1000e+000 88209 -4.8877e+001 -1.0494e+002  8.6254e+000 49176 88255,87909,88065
 2.1000e+000 88186 -4.1892e+001 -8.9569e+001  1.0352e+001 49176 87935,88039,87961
 2.1000e+000 88163 -2.0116e+001 -7.7194e+001 -3.5243e+000 49176 87909,88091,88065
 2.1000e+000 88140 -4.7188e+001 -9.2787e+001  3.5163e+000 49176 87961,88039,88013
 2.1000e+000 88117 -3.6869e+001 -8.9002e+001 -7.0198e+000 49176 87961,88013,87987
 2.1000e+000 88281 -4.7883e+001 -9.4083e+001  1.2371e+001 49176 88039,87935,88255
 2.1000e+000 88304 -5.8703e+001 -1.0730e+002  2.1510e+001 49176 88039,88255,88065
 2.1000e+000 88503 -2.1239e+001 -7.4389e+001 -2.7944e+000 48772 88526,88379,88353
 2.1000e+000 88480 -2.2955e+001 -6.0667e+001  3.8841e-001 48772 88526,88353,88327
 2.1000e+000 88457 -2.3134e+001 -8.2799e+001  2.7563e+000 48772 88379,88431,88405
 2.1000e+000 88552 -1.8609e+001 -6.2872e+001 -4.2718e+000 48772 88431,88379,88526
 2.1000e+000 88575 -2.3935e+001 -5.4398e+001 -2.7619e+000 48772 88431,88526,88327
 2.1000e+000 89083 -5.4662e+001 -1.5851e+002 -3.0943e+001 48368 88786,88916,88864
 2.1000e+000 89060 -5.8716e+001 -1.6593e+002 -2.6137e+001 48368 88786,88942,88916
 2.1000e+000 89037 -8.6681e+001 -1.5695e+002  3.6274e+000 48368 88786,88864,88812
 2.1000e+000 89014 -1.1089e+002 -1.9572e+002 -4.8389e+001 48368 88864,88916,88890
 2.1000e+000 88991 -3.1792e+001 -1.4024e+002  1.0056e+000 48368 88812,88864,88838
 2.1000e+000 88968 -3.3811e+001 -1.3929e+002 -2.0882e+000 48368 88760,88942,88786
 2.1000e+000 89331 -7.6283e+001 -2.1619e+002 -7.4823e+000 47928 89158,89236,89210
 2.1000e+000 89308 -9.2412e+001 -2.4386e+002  4.0944e-001 47928 89132,89236,89158
 2.1000e+000 89285 -6.8779e+001 -1.6598e+002 -1.6310e+000 47928 89158,89210,89184
 2.1000e+000 89262 -1.0743e+002 -1.6314e+002  1.5753e+001 47928 89106,89236,89132
 2.1000e+000 89662 -6.7967e+001 -1.2593e+002 -9.3463e-001 47588 89463,89541,89515
 2.1000e+000 89639 -5.1240e+001 -9.3487e+001 -6.9678e+000 47588 89463,89567,89541
 2.1000e+000 89616 -6.0775e+001 -1.2289e+002  6.1150e+000 47588 89463,89515,89489
 2.1000e+000 89593 -6.1066e+001 -9.5186e+001 -7.8234e+000 47588 89437,89567,89463
 2.1000e+000 89763  5.1769e+001 -8.4758e+001  1.0185e+001 47390 89685,89737,89711
 2.1000e+000 89913 -2.0219e+001 -1.9493e+002 -1.0288e+001 47078 89786,89838,89812
 2.1000e+000 89890 -1.3018e+002 -2.5683e+002  1.8594e+001 47078 89786,89864,89838
 2.1000e+000 90163 -6.1337e+001 -1.2249e+002  6.6907e+000 46474 89964,90042,89990
 2.1000e+000 90140 -5.2923e+001 -1.2030e+002  1.3587e+001 46474 89938,90042,89964
 2.1000e+000 90117 -6.0968e+001 -1.2452e+002  6.2816e+000 46474 89990,90042,90016
 2.1000e+000 90094 -5.5983e+001 -1.1299e+002  1.2669e+001 46474 89938,90068,90042
 2.1000e+000 90364 -7.1180e+001 -1.9337e+002  8.1071e+000 46184 90240,90292,90266
 2.1000e+000 90341 -8.2474e+001 -1.6937e+002  2.1700e+001 46184 90188,90292,90240
 2.1000e+000 90318 -9.0567e+001 -1.8265e+002  1.8128e+001 46184 90188,90240,90214
 2.1000e+000 90565 -5.7711e+001 -1.3479e+002  5.3585e+000 45780 90588,90415,90389
 2.1000e+000 90542 -6.2035e+001 -1.5015e+002  1.4126e+001 45780 90588,90389,90493
 2.1000e+000 90519 -6.0983e+001 -1.1353e+002  5.0054e+000 45780 90415,90467,90441
 2.1000e+000 90614 -6.0727e+001 -1.2295e+002  6.0649e-001 45780 90467,90415,90588
 2.1000e+000 90637 -6.0350e+001 -1.2806e+002  1.0836e+001 45780 90467,90588,90493
 2.1000e+000 91196 -6.4935e+001 -1.0918e+002 -1.4291e+001 45226 91219,90876,90850
 2.1000e+000 91173 -4.0636e+001 -1.0505e+002  2.0091e-001 45226 91219,90850,91032
 2.1000e+000 91150 -3.5577e+001 -1.1382e+002 -8.5257e+000 45226 90824,91032,90850
 2.1000e+000 91127 -4.5581e+001 -8.6398e+001 -6.7462e-001 45226 90876,90980,90902
 2.1000e+000 91104 -4.4878e+001 -8.7943e+001  1.3084e+000 45226 90876,91006,90980
 2.1000e+000 91081 -4.1254e+001 -8.4268e+001  6.2679e-002 45226 90902,90980,90954
 2.1000e+000 91058 -4.8940e+001 -8.8794e+001  1.1658e+000 45226 90902,90954,90928
 2.1000e+000 91245 -4.4042e+001 -9.6140e+001 -6.7541e+000 45226 91006,90876,91219
 2.1000e+000 91268 -2.2482e+001 -9.6895e+001  5.9146e+000 45226 91006,91219,91032
 2.1000e+000 91516 -6.3093e+001 -2.5834e+002  2.3921e+001 44836 91539,91421,91395
 2.1000e+000 91493 -6.0121e+001 -2.5039e+002  8.4716e+000 44836 91317,91421,91343
 2.1000e+000 91470 -9.8381e+001 -2.5403e+002  1.8998e+001 44836 91539,91395,91369
 2.1000e+000 91447 -8.4735e+001 -2.3137e+002  2.2733e+001 44836 91291,91421,91317
 2.1000e+000 91565 -8.0162e+001 -2.6018e+002  4.3541e+000 44836 91343,91421,91539
 2.1000e+000 91588 -1.0606e+002 -2.6250e+002 -6.4288e+000 44836 91343,91539,91369
 2.1000e+000 91787 -7.9102e+001 -1.4753e+002  4.6270e+000 44432 91810,91637,91611
 2.1000e+000 91764 -7.7535e+001 -1.6437e+002  8.0168e+000 44432 91810,91611,91715
 2.1000e+000 91741 -4.0668e+001 -1.2189e+002  5.8529e+000 44432 91637,91689,91663
 2.1000e+000 91836 -8.0250e+001 -1.3873e+002  6.1725e+000 44432 91689,91637,91810
 2.1000e+000 91859 -7.3605e+001 -1.4883e+002  8.5832e+000 44432 91689,91810,91715
 2.1000e+000 92207 -1.3634e+002 -1.9746e+002  5.3660e+000 43864 92230,91936,91910
 2.1000e+000 92184 -1.1038e+002 -2.1321e+002  2.5293e+000 43864 92230,91910,92040
 2.1000e+000 92161 -9.2028e+001 -2.0167e+002  2.4991e+001 43864 91884,92040,91910
 2.1000e+000 92138 -6.5346e+001 -1.5402e+002  4.0159e+000 43864 91936,92014,91988
 2.1000e+000 92115 -6.7115e+001 -1.9075e+002  2.8816e+001 43864 91936,91988,91962
 2.1000e+000 92092 -7.7735e+001 -1.8966e+002  1.9560e+001 43864 91884,92066,92040
 2.1000e+000 92256 -1.1518e+002 -1.7687e+002  1.3732e+001 43864 92014,91936,92230
 2.1000e+000 92279 -1.0206e+002 -2.0474e+002  5.9293e+000 43864 92014,92230,92040
 2.1000e+000 92529 -7.5034e+001 -1.4033e+002  1.7883e+001 43410 92552,92330,92304
 2.1000e+000 92506 -7.2855e+001 -1.3528e+002  9.4546e+000 43410 92552,92304,92408
 2.1000e+000 92483 -7.0339e+001 -1.2800e+002  8.1605e+000 43410 92304,92434,92408
 2.1000e+000 92460 -6.0163e+001 -1.2568e+002  6.2263e+000 43410 92330,92382,92356
 2.1000e+000 92578 -7.0927e+001 -1.3800e+002  1.1416e+001 43410 92382,92330,92552
 2.1000e+000 92601 -6.1423e+001 -1.2454e+002  1.8312e+000 43410 92382,92552,92408
 2.1000e+000 92802 -7.7343e+001 -2.0875e+002  1.2911e+001 43162 92825,92704,92652
 2.1000e+000 92779 -6.7794e+001 -2.1073e+002  3.8054e+001 43162 92825,92652,92626
 2.1000e+000 92756 -5.1723e+001 -2.2614e+002  9.5088e+000 43162 92652,92704,92678
 2.1000e+000 92851 -9.2024e+001 -2.1423e+002  1.1454e+001 43162 92730,92704,92825
 2.1000e+000 92874 -1.3423e+002 -2.3649e+002  5.2215e+001 43162 92730,92825,92626
 2.1000e+000 93463  4.7999e+000 -5.8446e+001 -2.0848e+001 42758 93140,93270,93166
 2.1000e+000 93440 -2.4014e+001 -9.0314e+001 -2.9606e+000 42758 93140,93296,93270
 2.1000e+000 93417 -2.6332e+001 -7.9778e+001 -1.1116e+001 42758 93166,93270,93218
 2.1000e+000 93394  2.8265e-001 -7.5347e+001 -1.3597e+001 42758 93218,93270,93244
 2.1000e+000 93371 -9.8606e+000 -9.3030e+001 -3.7745e+000 42758 93140,93322,93296
 2.1000e+000 93348 -2.4497e+001 -7.5690e+001 -1.1745e+001 42758 93166,93218,93192
 2.1000e+000 93920 -6.8307e+001 -1.0746e+002  6.5278e+000 42304 93943,93672,93646
 2.1000e+000 93897 -5.5720e+001 -8.2744e+001  2.1218e+000 42304 93943,93646,93802
 2.1000e+000 93874 -4.5928e+001 -1.0765e+002  5.1889e+000 42304 93724,93802,93776
 2.1000e+000 93851 -6.4400e+001 -1.3060e+002  6.9984e+000 42304 93672,93724,93698
 2.1000e+000 93828 -7.4603e+001 -1.1438e+002 -4.4647e+000 42304 93724,93776,93750
 2.1000e+000 93969 -5.4631e+001 -1.1599e+002 -2.4537e+000 42304 93724,93672,93943
 2.1000e+000 93992 -4.9885e+001 -1.0650e+002 -4.1714e+000 42304 93724,93943,93802
 2.1000e+000 94321 -7.7701e+001 -1.7629e+002  7.9068e+000 41478 94096,94148,94122
 2.1000e+000 94298 -9.2365e+001 -1.9519e+002  1.5391e+001 41478 94096,94226,94148
 2.1000e+000 94275 -1.1099e+002 -1.9863e+002  1.0345e+001 41478 94148,94226,94174
 2.1000e+000 94252 -9.1514e+001 -1.9647e+002 -1.1648e+001 41478 94174,94226,94200
 2.1000e+000 94618 -5.8825e+001 -1.5466e+002  1.3764e+001 40910 94344,94422,94396
 2.1000e+000 94595 -8.3369e+001 -1.5931e+002  6.5958e+000 40910 94344,94448,94422
 2.1000e+000 94572 -8.1466e+001 -1.5337e+002  1.2516e+001 40910 94344,94474,94448
 2.1000e+000 94549 -5.8523e+001 -1.5594e+002  1.3008e+001 40910 94344,94396,94370
 2.1000e+000 94526 -8.8991e+001 -1.8039e+002  1.8225e+001 40910 94344,94500,94474
 2.1000e+000 94866 -6.4300e+001 -1.1699e+002 -2.0430e+000 40306 94667,94719,94693
 2.1000e+000 94843 -7.4070e+001 -1.2281e+002  6.3443e-001 40306 94641,94719,94667
 2.1000e+000 94820 -8.0373e+001 -1.2013e+002  7.7180e+000 40306 94641,94745,94719
 2.1000e+000 94797 -6.9276e+001 -1.1789e+002  6.3726e+000 40306 94641,94771,94745
 2.1000e+000 95089 -1.6403e+001 -8.3974e+001 -1.7645e+000 39702 94913,94991,94939
 2.1000e+000 95066 -1.3947e+001 -8.4029e+001 -1.3733e+000 39702 94913,95017,94991
 2.1000e+000 95043 -1.5978e+001 -8.3696e+001 -9.5427e-001 39702 94939,94991,94965
 2.1000e+000 95339 -6.3653e+001 -1.2677e+002  4.3231e+000 39248 95140,95218,95166
 2.1000e+000 95316 -7.6942e+001 -1.3272e+002  5.6919e+000 39248 95140,95244,95218
 2.1000e+000 95293 -6.1555e+001 -1.4187e+002 -1.4191e+000 39248 95114,95244,95140
 2.1000e+000 95270 -5.9634e+001 -1.3072e+002 -1.7430e-002 39248 95166,95218,95192
 2.1000e+000 95770 -1.2704e+002 -1.8701e+002  4.7346e+000 38694 95551,95629,95577
 2.1000e+000 95747 -8.9045e+001 -2.2528e+002  7.4926e+000 38694 95447,95629,95551
 2.1000e+000 95724 -7.6570e+001 -2.0279e+002 -7.1218e+000 38694 95447,95551,95473
 2.1000e+000 95701 -6.8242e+001 -2.0461e+002 -8.6412e+000 38694 95473,95551,95499
 2.1000e+000 95678 -5.6330e+001 -2.0949e+002  1.0696e+001 38694 95499,95551,95525
 2.1000e+000 95655 -1.2974e+002 -2.0632e+002  1.8614e+001 38694 95577,95629,95603
 2.1000e+000 96325 -5.1162e+001 -9.4792e+001 -1.3958e+000 38240 95953,96031,96005
 2.1000e+000 96302 -4.6357e+001 -7.7478e+001 -5.3866e-001 38240 95953,96161,96031
 2.1000e+000 96279 -4.1307e+001 -7.1904e+001 -4.8203e+000 38240 96031,96161,96135
 2.1000e+000 96256 -2.4449e+001 -8.1824e+001  1.0453e+000 38240 96348,96109,96057
 2.1000e+000 96233 -2.3390e+001 -7.2059e+001  8.2739e+000 38240 96348,96057,96031
 2.1000e+000 96210 -2.7017e+001 -9.8337e+001  2.1887e+000 38240 96057,96109,96083
 2.1000e+000 96187 -5.2991e+001 -8.1454e+001 -3.1347e+000 38240 95953,96005,95979
 2.1000e+000 96374 -2.9149e+001 -9.2624e+001 -3.4105e+000 38240 96135,96109,96348
 2.1000e+000 96397 -2.8050e+001 -8.0768e+001  3.3814e+000 38240 96135,96348,96031
 2.1000e+000 96618 -1.1519e+002 -3.0362e+002 -1.4564e+001 37821 96494,96546,96520
 2.1000e+000 96595 -7.9656e+001 -2.3507e+002  1.7742e+001 37821 96468,96546,96494
 2.1000e+000 96572 -5.0445e+001 -2.2253e+002  1.5498e+001 37821 96442,96546,96468
 2.1000e+000 97126 -4.2659e+001 -9.9306e+001  5.4475e+000 37367 97149,96855,96829
 2.1000e+000 97103 -5.7060e+001 -1.0396e+002 -6.3639e-001 37367 97149,96829,96985
 2.1000e+000 97080 -5.9146e+001 -1.0223e+002  2.5607e-001 37367 96803,96985,96829
 2.1000e+000 97057 -3.7722e+001 -9.6977e+001 -5.3261e-001 37367 96855,96907,96881
 2.1000e+000 97034 -7.1229e+001 -1.0405e+002 -4.2134e+000 37367 96907,96985,96959
 2.1000e+000 97011 -7.8820e+001 -1.0550e+002 -9.6500e+000 37367 96907,96959,96933
 2.1000e+000 97175 -5.6716e+001 -1.0311e+002 -1.4775e+000 37367 96907,96855,97149
 2.1000e+000 97198 -6.6843e+001 -1.0419e+002 -7.0946e+000 37367 96907,97149,96985
 2.1000e+000 97704 -9.4726e+001 -1.6801e+002  2.1100e+001 36863 97727,97511,97485
 2.1000e+000 97681 -9.2838e+001 -1.5541e+002  2.7175e+001 36863 97727,97485,97433
 2.1000e+000 97658 -1.1153e+002 -1.8171e+002  1.3003e+001 36863 97381,97563,97433
 2.1000e+000 97635 -1.0024e+002 -1.7457e+002  1.1748e+001 36863 97511,97563,97537
 2.1000e+000 97612 -5.7910e+001 -1.2705e+002  1.3946e+001 36863 97433,97485,97459
 2.1000e+000 97589 -1.3229e+002 -1.7984e+002  3.1211e+001 36863 97381,97433,97407
 2.1000e+000 97753 -9.6303e+001 -1.7751e+002  1.5530e+001 36863 97563,97511,97727
 2.1000e+000 97776 -9.6703e+001 -1.6636e+002  2.0942e+001 36863 97563,97727,97433
 2.1000e+000 98331 -8.6671e+001 -1.5020e+002  4.3049e+000 36287 98354,98089,98063
 2.1000e+000 98308 -8.2973e+001 -1.4017e+002  4.0005e+000 36287 98354,98063,98011
 2.1000e+000 98285 -9.2307e+001 -1.2143e+002  1.3502e+001 36287 98426,97985,98115
 2.1000e+000 98262 -8.1395e+001 -1.6129e+002  2.7434e+000 36287 98011,98063,98037
 2.1000e+000 98239 -8.2083e+001 -1.0549e+002  3.5068e+000 36287 97985,98141,98115
 2.1000e+000 98216 -6.9158e+001 -1.0591e+002  1.4172e+000 36287 97959,98141,97985
 2.1000e+000 98193 -4.3886e+001 -1.1956e+002  4.0334e+000 36287 97959,98167,98141
 2.1000e+000 98380 -7.9746e+001 -1.3647e+002 -4.1017e+000 36287 98115,98089,98354
 2.1000e+000 98403 -8.2797e+001 -1.2227e+002 -5.6590e-001 36287 98426,98115,98354
 2.1000e+000 98452 -1.0346e+002 -1.4029e+002  1.8186e+001 36287 98011,97985,98426
 2.1000e+000 98475 -9.6376e+001 -1.4580e+002  4.9750e+000 36287 98011,98426,98354
 2.1000e+000 99030 -1.0603e+002 -2.3042e+002 -1.0202e+001 35726 99053,98736,98710
 2.1000e+000 99007 -7.1270e+001 -2.0289e+002  1.9699e+000 35726 99053,98710,98684
 2.1000e+000 98984 -1.1544e+002 -1.9851e+002 -7.6233e+000 35726 99125,98814,98736
 2.1000e+000 98961 -1.0500e+002 -1.7133e+002  3.5941e+000 35726 98736,98814,98788
 2.1000e+000 98938 -9.7982e+001 -1.9093e+002  1.9772e+001 35726 98684,98866,98840
 2.1000e+000 98915 -9.7396e+001 -1.6819e+002  3.6539e+000 35726 98736,98788,98762
 2.1000e+000 98892 -7.3612e+001 -1.9228e+002  1.7068e+001 35726 98658,98866,98684
 2.1000e+000 99079 -9.8255e+001 -1.9834e+002  2.2864e+000 35726 99125,98736,99053
 2.1000e+000 99102 -1.0183e+002 -1.8811e+002  5.9735e+000 35726 98840,99053,98684
 2.1000e+000 99151 -1.3093e+002 -2.0614e+002 -1.3660e+001 35726 98840,98814,99125
 2.1000e+000 99174 -1.2133e+002 -2.0634e+002 -1.6178e+000 35726 98840,99125,99053
 2.1000e+000 99454 -6.2281e+001 -1.4008e+002 -3.4185e+000 35222 99278,99330,99304
 2.1000e+000 99431 -7.1352e+001 -1.4121e+002  6.9981e+000 35222 99278,99382,99330
 2.1000e+000 99408 -9.2640e+001 -1.4058e+002  1.1419e+000 35222 99330,99382,99356
 2.1000e+000 99653 -8.6752e+001 -2.4785e+002  1.3035e+001 34867 99477,99529,99503
 2.1000e+000 99630 -1.2079e+002 -2.1885e+002  9.3683e+000 34867 99477,99581,99529
 2.1000e+000 99607 -1.2186e+002 -2.6520e+002 -1.7754e+001 34867 99529,99581,99555
 2.1000e+000 100104 -3.2586e+001 -8.7958e+001  6.9794e-001 34363 99781,99885,99807
 2.1000e+000 100081 -3.9266e+001 -9.1388e+001  2.4805e+000 34363 99781,99963,99885
 2.1000e+000 100058 -2.4183e+001 -7.8860e+001 -2.8945e+000 34363 99885,99963,99911
 2.1000e+000 100035 -2.1211e+001 -8.5845e+001  3.4148e+000 34363 99807,99885,99859
 2.1000e+000 100012 -8.8838e+000 -7.1575e+001 -7.1330e+000 34363 99911,99963,99937
 2.1000e+000 99989  8.3383e+000 -7.4681e+001 -7.1863e-001 34363 99807,99859,99833
 2.1000e+000 100303 -7.1806e+001 -1.3676e+002 -2.0164e+000 33909 100127,100205,100179
 2.1000e+000 100280 -1.0048e+002 -1.3888e+002 -5.9074e+000 33909 100127,100231,100205
 2.1000e+000 100257 -8.0843e+001 -1.4133e+002  2.3042e+001 33909 100127,100179,100153
 2.1000e+000 100890 -7.2323e+001 -1.5842e+002 -3.2341e+000 33412 100645,100749,100697
 2.1000e+000 100867 -7.3565e+001 -1.7091e+002 -1.5114e+000 33412 100567,100749,100645
 2.1000e+000 100844 -7.6910e+001 -1.7741e+002 -3.3407e-001 33412 100567,100645,100619
 2.1000e+000 100821 -3.9701e+001 -1.6133e+002 -9.1810e+000 33412 100645,100697,100671
 2.1000e+000 100798 -8.8160e+001 -2.2038e+002  4.5833e+000 33412 100567,100619,100593
 2.1000e+000 100775 -8.6184e+001 -1.6154e+002  1.2687e+000 33412 100697,100749,100723
 2.1000e+000 101268 -8.2243e+001 -1.7272e+002  2.8927e+000 32908 101435,101291,101098
 2.1000e+000 101245 -8.6950e+001 -1.6300e+002  5.2801e+000 32908 101291,101072,101020
 2.1000e+000 101222 -9.3429e+001 -1.6715e+002 -5.8985e+000 32908 101363,101150,101124
 2.1000e+000 101199 -1.0321e+002 -1.7735e+002  3.8445e+001 32908 101020,101072,101046
 2.1000e+000 101176 -6.7939e+001 -1.6577e+002 -5.8944e+000 32908 100994,101150,101020
 2.1000e+000 101317 -7.0866e+001 -1.6544e+002 -1.9750e-001 32908 101124,101098,101291
 2.1000e+000 101340 -8.6874e+001 -1.6864e+002 -4.1452e-001 32908 101363,101124,101291
 2.1000e+000 101389 -8.7391e+001 -1.6125e+002 -1.3788e+000 32908 101020,101150,101363
 2.1000e+000 101412 -8.3007e+001 -1.6106e+002  4.3260e+000 32908 101020,101363,101291
 2.1000e+000 101461 -7.8610e+001 -1.6291e+002  6.3319e+000 32908 101072,101291,101435
 2.1000e+000 101918 -4.1565e+001 -1.0450e+002 -1.2016e+000 32618 101941,101670,101644
 2.1000e+000 101895 -4.2071e+001 -1.1110e+002 -5.6814e-001 32618 101941,101644,101774
 2.1000e+000 101872 -3.1681e+001 -1.0846e+002 -2.0366e+000 32618 102013,101696,101670
 2.1000e+000 101849 -2.6450e+001 -9.5040e+001 -1.7332e+001 32618 101696,101748,101722
 2.1000e+000 101826 -3.1592e+001 -1.2361e+002 -1.1858e+001 32618 101644,101800,101774
 2.1000e+000 101967 -3.3485e+001 -1.0967e+002 -1.8073e-001 32618 102013,101670,101941
 2.1000e+000 101990 -4.6038e+001 -1.2259e+002  7.3164e+000 32618 101748,101941,101774
 2.1000e+000 102039 -3.5669e+001 -1.0596e+002  1.6332e-001 32618 101748,101696,102013
 2.1000e+000 102062 -4.0794e+001 -1.0901e+002  2.0017e+000 32618 101748,102013,101941
 2.1000e+000 102440 -1.1072e+002 -2.1626e+002  1.1382e+001 32306 102463,102270,102244
 2.1000e+000 102417 -1.1149e+002 -2.1664e+002  7.4279e+000 32306 102463,102244,102192
 2.1000e+000 102394 -9.6397e+001 -1.8660e+002  5.7707e-001 32306 102192,102244,102218
 2.1000e+000 102371 -1.3580e+002 -2.3357e+002  2.2305e+001 32306 102270,102322,102296
 2.1000e+000 102348 -7.5888e+001 -2.2336e+002  1.1706e+000 32306 102166,102322,102192
 2.1000e+000 102489 -1.0626e+002 -2.1495e+002  1.2388e+001 32306 102322,102270,102463
 2.1000e+000 102512 -1.0703e+002 -2.1592e+002  8.1773e+000 32306 102322,102463,102192
 2.1000e+000 102662 -4.2758e+001 -1.2638e+002 -5.5892e+000 31852 102943,102587,102561
 2.1000e+000 102639 -3.2790e+001 -1.1069e+002 -6.2855e-001 31852 102815,102685,102561
 2.1000e+000 102711 -4.5360e+001 -1.2815e+002 -6.3798e+000 31852 102943,102561,102685
 2.1000e+000 102841 -4.1422e+001 -9.5092e+001  7.9484e+000 31852 102535,102685,102815
 2.1000e+000 102969 -4.2682e+001 -1.2832e+002 -8.3181e+000 31852 102613,102587,102943
 2.1000e+000 102992 -4.5348e+001 -1.3004e+002 -9.0627e+000 31852 102613,102943,102685
 2.1000e+000 103370 -9.1315e+001 -1.6339e+002  6.1393e+000 31134 103096,103200,103122
 2.1000e+000 103347 -9.4536e+001 -1.7350e+002  1.4417e+001 31134 103096,103226,103200
 2.1000e+000 103324 -8.8541e+001 -1.5156e+002 -2.2202e+000 31134 103122,103200,103174
 2.1000e+000 103301 -5.2249e+001 -1.5569e+002  5.4054e-001 31134 103096,103252,103226
 2.1000e+000 103278 -6.8523e+001 -1.6654e+002 -2.5232e+001 31134 103122,103174,103148
 2.1000e+000 103520 -1.8383e+001 -1.2528e+002 -2.5292e+000 30822 103393,103445,103419
 2.1000e+000 103497 -2.8522e+001 -1.1299e+002  7.0163e+000 30822 103393,103471,103445
 2.1000e+000 103719 -1.0114e+002 -2.1140e+002  1.4164e+000 30182 103742,103621,103569
 2.1000e+000 103696 -1.0487e+002 -2.0666e+002  1.4403e+000 30182 103742,103569,103543
 2.1000e+000 103673 -9.9820e+001 -2.1174e+002 -1.9019e+000 30182 103569,103621,103595
 2.1000e+000 103768 -1.0246e+002 -2.0673e+002 -1.0123e+000 30182 103647,103621,103742
 2.1000e+000 103791 -1.0263e+002 -1.9859e+002 -2.0497e+000 30182 103647,103742,103543
 2.1000e+000 104252 -1.0859e+002 -1.8146e+002  6.7583e+000 29728 104030,104108,104056
 2.1000e+000 104229 -8.2031e+001 -1.4149e+002  2.3145e+001 29728 104004,104108,104030
 2.1000e+000 104206 -9.0111e+001 -1.5408e+002  1.8272e+001 29728 104004,104134,104108
 2.1000e+000 104183 -1.0541e+002 -1.7476e+002  4.8310e+000 29728 103978,104134,104004
 2.1000e+000 104160 -9.0682e+001 -1.7017e+002 -8.5815e-001 29728 104056,104108,104082
 2.1000e+000 104630 -5.2018e+001 -1.1321e+002 -1.7053e+001 29217 104653,104382,104356
 2.1000e+000 104607 -4.8620e+001 -1.0843e+002 -6.7819e+000 29217 104653,104356,104512
 2.1000e+000 104584 -5.8500e+001 -1.2417e+002 -8.4844e+000 29217 104434,104512,104486
 2.1000e+000 104561 -6.7410e+001 -1.4558e+002 -8.6646e+000 29217 104382,104434,104408
 2.1000e+000 104538 -4.2419e+001 -1.0837e+002 -4.3772e-001 29217 104434,104486,104460
 2.1000e+000 104679 -5.7987e+001 -1.1581e+002 -1.8008e+001 29217 104434,104382,104653
 2.1000e+000 104702 -5.9258e+001 -1.1402e+002 -8.8303e+000 29217 104434,104653,104512
 2.1000e+000 105178 -8.4269e+001 -1.6742e+002  6.4139e+000 28649 105201,104962,104936
 2.1000e+000 105155 -8.3616e+001 -1.5433e+002  7.1937e+000 28649 105201,104936,104884
 2.1000e+000 105132 -8.3633e+001 -1.6410e+002  1.2611e+000 28649 105273,104858,105014
 2.1000e+000 105109 -9.1162e+001 -1.7953e+002  2.1015e+000 28649 104962,105014,104988
 2.1000e+000 105086 -8.0168e+001 -1.5177e+002  4.7935e+000 28649 104884,104936,104910
 2.1000e+000 105063 -9.7782e+001 -1.6259e+002  3.6707e+000 28649 104806,105014,104858
 2.1000e+000 105040 -1.0856e+002 -1.5450e+002 -1.9147e+000 28649 104806,104858,104832
 2.1000e+000 105227 -8.3655e+001 -1.7383e+002 -3.5993e-001 28649 105014,104962,105201
 2.1000e+000 105250 -8.1494e+001 -1.6493e+002  2.7656e+000 28649 105273,105014,105201
 2.1000e+000 105299 -8.5855e+001 -1.6513e+002  1.5412e+000 28649 104884,104858,105273
 2.1000e+000 105322 -8.5087e+001 -1.6670e+002  3.3387e+000 28649 104884,105273,105201
 2.1000e+000 105673 -3.2548e+001 -1.1578e+002 -1.2127e+000 28351 105474,105578,105552
 2.1000e+000 105650 -2.2548e+001 -9.7181e+001  2.5577e+000 28351 105448,105578,105474
 2.1000e+000 105627 -3.7215e+001 -1.3044e+002 -7.7607e-001 28351 105500,105552,105526
 2.1000e+000 105604 -3.1456e+001 -1.1597e+002  5.0339e-002 28351 105474,105552,105500
 2.1000e+000 106130 -7.6953e+001 -1.1942e+002 -3.2449e+000 28004 106153,105882,105856
 2.1000e+000 106107 -7.0635e+001 -1.2586e+002  3.0949e+000 28004 106153,105856,105986
 2.1000e+000 106084 -9.4151e+001 -1.3458e+002  8.2411e-001 28004 105934,105986,105960
 2.1000e+000 106061 -8.2965e+001 -1.0848e+002  7.7139e+000 28004 105856,106012,105986
 2.1000e+000 106038 -1.0634e+002 -1.5711e+002 -2.2895e+000 28004 105882,105934,105908
 2.1000e+000 106179 -9.2997e+001 -1.2566e+002 -1.8560e+000 28004 105934,105882,106153
 2.1000e+000 106202 -7.8446e+001 -1.2786e+002  2.0734e+000 28004 105934,106153,105986
 2.1000e+000 106885 -9.2276e+001 -1.3802e+002 -4.5485e-001 27564 106908,106620,106516
 2.1000e+000 106862 -9.5024e+001 -1.3198e+002  2.8784e+000 27564 106908,106516,106490
 2.1000e+000 106839 -7.7932e+001 -1.2692e+002 -1.2206e+001 27564 106516,106620,106542
 2.1000e+000 106816 -8.9969e+001 -1.2373e+002 -4.0941e+000 27564 106620,106672,106646
 2.1000e+000 106793 -5.2742e+001 -1.4085e+002 -2.1733e+001 27564 106542,106620,106594
 2.1000e+000 106770 -9.3802e+001 -1.2124e+002  3.8275e+000 27564 106490,106698,106672
 2.1000e+000 106747 -7.4831e+001 -1.4256e+002  2.3220e+001 27564 106464,106698,106490
 2.1000e+000 106724  1.6227e+001 -8.2212e+001 -5.9610e+001 27564 106542,106594,106568
 2.1000e+000 106934 -9.4795e+001 -1.3293e+002 -2.0106e+000 27564 106672,106620,106908
 2.1000e+000 106957 -9.5312e+001 -1.2457e+002 -1.0009e+000 27564 106672,106908,106490
 2.1000e+000 107463 -1.1409e+002 -1.8774e+002 -3.1621e-001 27053 107218,107322,107296
 2.1000e+000 107440 -1.2183e+002 -2.0583e+002 -3.6038e-001 27053 107166,107322,107218
 2.1000e+000 107417 -1.1492e+002 -2.0260e+002 -1.2449e+000 27053 107218,107296,107244
 2.1000e+000 107394 -1.1145e+002 -1.9599e+002  3.8013e+000 27053 107140,107322,107166
 2.1000e+000 107371 -1.1535e+002 -2.0203e+002 -2.1340e+000 27053 107166,107218,107192
 2.1000e+000 107348 -1.2626e+002 -2.5551e+002 -9.7617e+000 27053 107244,107296,107270
 2.1000e+000 108097 -5.7305e+001 -1.2537e+002 -5.4653e+000 26549 108192,108120,107803
 2.1000e+000 108074 -5.1851e+001 -1.3689e+002  4.7355e+000 26549 108120,107725,107933
 2.1000e+000 108051 -3.1453e+001 -1.4618e+002 -1.4529e+000 26549 107751,107803,107777
 2.1000e+000 108028 -5.4115e+001 -1.3170e+002 -9.1285e+000 26549 108192,107803,107751
 2.1000e+000 108005 -4.3316e+001 -1.0221e+002 -2.3320e-001 26549 108264,107855,107803
 2.1000e+000 107982 -3.4712e+001 -1.0050e+002 -4.4405e+000 26549 107881,107933,107907
 2.1000e+000 107959 -3.7073e+001 -1.1418e+002  1.9798e+001 26549 107803,107855,107829
 2.1000e+000 108146 -5.0239e+001 -1.1024e+002 -3.5046e+000 26549 108264,107803,108120
 2.1000e+000 108169 -4.5699e+001 -1.2106e+002  1.6352e+000 26549 107881,108120,107933
 2.1000e+000 108218 -5.0726e+001 -1.1868e+002 -1.8174e+000 26549 107725,108120,108192
 2.1000e+000 108241 -4.7796e+001 -1.2441e+002 -5.6186e+000 26549 107725,108192,107751
 2.1000e+000 108290 -3.6095e+001 -1.1305e+002 -2.5291e+000 26549 107881,107855,108264
 2.1000e+000 108313 -4.1585e+001 -1.2121e+002 -5.0446e+000 26549 107881,108264,108120
 2.1000e+000 108512 -1.0840e+002 -2.7402e+002 -1.5983e+001 26137 108388,108440,108414
 2.1000e+000 108489 -8.9069e+001 -2.4848e+002 -1.2761e+000 26137 108362,108440,108388
 2.1000e+000 108466 -1.0901e+002 -2.4691e+002 -2.5562e+000 26137 108336,108440,108362
 2.1000e+000 108662 -7.9729e+001 -1.5995e+002  1.1227e+000 25733 108817,108685,108535
 2.1000e+000 108639 -8.4287e+001 -1.6753e+002  4.9591e+000 25733 109017,108817,108535
 2.1000e+000 108711 -8.5207e+001 -1.6474e+002  4.8479e+000 25733 108561,108535,108685
 2.1000e+000 108843 -7.3521e+001 -1.5591e+002  4.0843e+000 25733 108587,108685,108817
 2.1000e+000 108866 -7.1574e+001 -1.5943e+002 -2.7572e+000 25733 108889,108817,108613
 2.1000e+000 108915 -6.6268e+001 -1.5902e+002  5.4198e-001 25733 108587,108817,108889
 2.1000e+000 109043 -7.1067e+001 -1.4614e+002 -1.1636e+000 25733 108613,108817,109017
 2.1000e+000 109500 -1.1736e+002 -1.8979e+002  1.5374e+001 25229 109523,109356,109330
 2.1000e+000 109477 -9.7086e+001 -1.7371e+002  1.9811e+000 25229 109595,109523,109330
 2.1000e+000 109454 -1.0331e+002 -1.6704e+002 -5.7327e+000 25229 109595,109330,109278
 2.1000e+000 109431 -1.0162e+002 -1.5816e+002  4.3457e+000 25229 109667,109226,109382
 2.1000e+000 109408 -7.1482e+001 -1.8349e+002 -2.2409e+001 25229 109278,109330,109304
 2.1000e+000 109549 -1.0452e+002 -1.7956e+002  2.9546e+000 25229 109382,109356,109523
 2.1000e+000 109572 -9.9006e+001 -1.6261e+002  3.3742e+000 25229 109667,109382,109523
 2.1000e+000 109621 -1.0470e+002 -1.9258e+002 -2.4786e+000 25229 109252,109523,109595
 2.1000e+000 109644 -1.0008e+002 -1.7563e+002 -2.5004e+000 25229 109739,109595,109278
 2.1000e+000 109693 -7.8633e+001 -1.7242e+002  6.3434e+000 25229 109252,109226,109667
 2.1000e+000 109716 -9.1332e+001 -1.8737e+002 -1.5311e+000 25229 109252,109667,109523
 2.1000e+000 109765 -1.0825e+002 -1.7774e+002 -7.9890e-001 25229 109252,109595,109739
 2.1000e+000 110478 -8.5429e+001 -1.7948e+002  1.9378e+001 24917 110158,110236,110184
 2.1000e+000 110455 -1.1691e+002 -1.9772e+002  3.6208e+000 24917 110158,110288,110236
 2.1000e+000 110432 -1.0329e+002 -2.1262e+002  5.5885e+000 24917 110236,110288,110262
 2.1000e+000 110409 -1.0364e+002 -2.2065e+002  1.0228e+001 24917 110184,110236,110210
 2.1000e+000 110386 -1.3173e+002 -2.0868e+002 -6.1165e+000 24917 110132,110288,110158
 2.1000e+000 110363 -1.2348e+002 -1.9725e+002  1.3174e+001 24917 110132,110314,110288
 2.1000e+000 110340 -1.5239e+002 -2.6866e+002  2.5948e+001 24917 110106,110314,110132
 2.1000e+000 110829 -1.0080e+002 -2.0466e+002 -6.1658e+000 24307 110604,110682,110630
 2.1000e+000 110806 -1.5031e+002 -2.7874e+002  1.5636e+001 24307 110604,110708,110682
 2.1000e+000 110783 -8.1962e+001 -2.5642e+002  2.8223e+001 24307 110604,110734,110708
 2.1000e+000 110760 -7.0376e+001 -1.9162e+002 -7.2978e+000 24307 110630,110682,110656
 2.1000e+000 111335 -8.4659e+001 -1.6274e+002 -8.2406e+000 23767 111012,111168,111038
 2.1000e+000 111312 -1.0588e+002 -1.8588e+002  2.8547e+000 23767 111012,111194,111168
 2.1000e+000 111289 -1.2254e+002 -1.9213e+002  1.9885e+001 23767 111358,111064,111038
 2.1000e+000 111266 -9.7894e+001 -1.7671e+002 -9.8497e-001 23767 111358,111038,111168
 2.1000e+000 111243 -8.4024e+001 -1.6006e+002 -3.1469e+000 23767 111430,111142,111090
 2.1000e+000 111220 -6.3593e+001 -1.5116e+002  3.1420e+000 23767 111090,111142,111116
 2.1000e+000 111384 -1.0031e+002 -1.7838e+002  1.3117e+000 23767 111090,111064,111358
 2.1000e+000 111407 -1.0204e+002 -1.6660e+002 -6.8153e+000 23767 111430,111090,111358
 2.1000e+000 111456 -6.6155e+001 -1.7341e+002 -7.0821e+000 23767 111168,111142,111430
 2.1000e+000 111479 -7.5891e+001 -1.7339e+002 -8.6506e+000 23767 111168,111430,111358
 2.1000e+000 111985 -7.0728e+001 -1.0266e+002  4.6643e+000 23477 111688,111844,111818
 2.1000e+000 111962 -7.2085e+001 -1.1135e+002 -6.8788e+000 23477 111662,111844,111688
 2.1000e+000 111939 -5.3231e+001 -1.4306e+002  9.7630e+000 23477 111766,111818,111792
 2.1000e+000 111916 -7.0102e+001 -1.3781e+002  7.1108e+000 23477 111740,111818,111766
 2.1000e+000 111893 -5.4211e+001 -1.0027e+002  8.4421e+000 23477 111688,111818,111740
 2.1000e+000 111870 -7.1882e+001 -1.1521e+002  1.5351e+001 23477 111688,111740,111714
 2.1000e+000 112314 -7.4890e+001 -1.4067e+002 -4.1750e-001 23023 112141,112219,112193
 2.1000e+000 112291 -7.9357e+001 -1.3906e+002  2.2596e+000 23023 112115,112219,112141
 2.1000e+000 112268 -8.5337e+001 -1.6230e+002 -3.7174e+000 23023 112141,112193,112167
 2.1000e+000 112245 -8.6835e+001 -1.4615e+002 -1.0960e+000 23023 112089,112219,112115
 2.1000e+000 112692 -7.5711e+001 -1.5474e+002  4.0636e+000 22768 112444,112574,112548
 2.1000e+000 112669 -7.2816e+001 -1.8475e+002  3.9480e+000 22768 112418,112574,112444
 2.1000e+000 112646 -1.0414e+002 -1.7397e+002  2.4580e-001 22768 112444,112522,112470
 2.1000e+000 112623 -9.2533e+001 -1.6460e+002 -4.2478e+000 22768 112444,112548,112522
 2.1000e+000 112600 -8.5227e+001 -1.6410e+002 -1.5614e+001 22768 112470,112522,112496
 2.1000e+000 113011 -2.4400e+001 -1.2495e+002 -2.9598e+000 22314 112763,112867,112789
 2.1000e+000 112988 -3.7686e+001 -1.2158e+002 -7.6572e-001 22314 112763,112893,112867
 2.1000e+000 112965 -3.8063e+001 -1.2920e+002  0.0000e+000 22314 112815,112867,112841
 2.1000e+000 112942 -4.5098e+001 -1.3256e+002 -5.2428e+000 22314 112789,112867,112815
 2.1000e+000 112919 -3.7652e+001 -1.0853e+002  1.8533e+001 22314 112737,112893,112763
 2.1000e+000 113519 -4.5294e+001 -1.1637e+002  8.3813e+000 21924 113614,113542,113248
 2.1000e+000 113496 -4.9270e+001 -1.1630e+002  4.9567e+000 21924 113542,113196,113378
 2.1000e+000 113473 -4.1955e+001 -1.1684e+002  8.5131e+000 21924 113614,113248,113222
 2.1000e+000 113450 -5.4110e+001 -1.3946e+002  7.3979e+000 21924 113686,113274,113248
 2.1000e+000 113427 -6.4164e+001 -1.5548e+002 -9.9930e-001 21924 113274,113352,113326
 2.1000e+000 113404 -7.9180e+001 -1.7510e+002 -8.2139e+000 21924 113274,113326,113300
 2.1000e+000 113568 -4.8853e+001 -1.2684e+002  8.5008e+000 21924 113686,113248,113542
 2.1000e+000 113591 -4.6230e+001 -1.0875e+002  5.2012e+000 21924 113352,113542,113378
 2.1000e+000 113640 -4.1955e+001 -1.1509e+002  9.7763e+000 21924 113196,113542,113614
 2.1000e+000 113663 -4.0469e+001 -1.1670e+002  1.0111e+001 21924 113196,113614,113222
 2.1000e+000 113712 -5.8538e+001 -1.2602e+002  1.8495e+000 21924 113352,113274,113686
 2.1000e+000 113735 -5.5337e+001 -1.1755e+002  1.5446e+000 21924 113352,113686,113542
 2.1000e+000 113885 -1.1610e+002 -1.3875e+002  1.1119e+000 21520 113980,113908,113784
 2.1000e+000 113862 -8.8630e+001 -1.1615e+002 -6.8830e+000 21520 114238,113908,113758
 2.1000e+000 113934 -8.8792e+001 -1.2866e+002  4.6924e-001 21520 114110,113908,113810
 2.1000e+000 113957 -8.5021e+001 -1.3781e+002 -9.4906e+000 21520 113810,113908,113836
 2.1000e+000 114006 -9.2143e+001 -1.2497e+002 -5.0842e+000 21520 113758,113908,113980
 2.1000e+000 114136 -1.0099e+002 -1.3795e+002 -4.8054e+000 21520 113784,113908,114110
 2.1000e+000 114264 -9.6065e+001 -1.4261e+002 -1.5060e+001 21520 113836,113908,114238
 2.1000e+000 114662 -8.1222e+001 -1.7070e+002  1.6783e+000 21030 114414,114518,114492
 2.1000e+000 114639 -4.8181e+001 -1.3804e+002 -1.2231e+001 21030 114414,114544,114518
 2.1000e+000 114616 -1.1275e+002 -1.8918e+002  3.6450e+000 21030 114440,114492,114466
 2.1000e+000 114593 -8.3293e+001 -1.7574e+002  1.1333e+000 21030 114414,114492,114440
 2.1000e+000 114570 -1.0007e+002 -1.6197e+002 -1.8231e+001 21030 114388,114544,114414
 2.1000e+000 114959 -9.8810e+001 -1.5049e+002  5.8770e+000 20512 114982,114711,114685
 2.1000e+000 114936 -9.4949e+001 -1.4842e+002 -2.4323e+000 20512 115054,114982,114685
 2.1000e+000 114913 -8.0759e+001 -1.4242e+002 -8.4030e+000 20512 115054,114685,114841
 2.1000e+000 114890 -1.0096e+002 -1.4570e+002 -3.1319e+000 20512 114711,114763,114737
 2.1000e+000 114867 -6.1016e+001 -1.3879e+002  1.2271e-001 20512 114763,114815,114789
 2.1000e+000 115008 -9.1252e+001 -1.4942e+002  2.2210e+000 20512 114763,114711,114982
 2.1000e+000 115031 -8.7420e+001 -1.4508e+002 -1.1046e+000 20512 114763,114982,114815
 2.1000e+000 115080 -8.5410e+001 -1.4839e+002  1.7530e+000 20512 114815,114982,115054
 2.1000e+000 115103 -8.3573e+001 -1.5074e+002  1.3666e+000 20512 114815,115054,114841
 2.1000e+000 115507 -9.4822e+001 -1.3784e+002 -3.0931e+000 20143 115285,115389,115363
 2.1000e+000 115484 -1.0437e+002 -1.4642e+002  1.9998e+000 20143 115259,115389,115285
 2.1000e+000 115461 -1.0295e+002 -1.4434e+002  3.5347e+000 20143 115233,115389,115259
 2.1000e+000 115438 -8.3394e+001 -1.5206e+002 -4.4911e-001 20143 115285,115337,115311
 2.1000e+000 115415 -1.0377e+002 -1.5967e+002 -3.1909e+000 20143 115285,115363,115337
 2.1000e+000 115875 -1.0400e+002 -1.9425e+002 -6.0896e+000 19632 115656,115734,115682
 2.1000e+000 115852 -9.4204e+001 -1.7799e+002 -1.9522e+000 19632 115552,115734,115656
 2.1000e+000 115829 -9.0839e+001 -1.7014e+002 -1.8986e+000 19632 115552,115656,115578
 2.1000e+000 115806 -1.0005e+002 -1.9967e+002  2.5818e+000 19632 115578,115656,115630
 2.1000e+000 115783 -1.1929e+002 -1.9696e+002  7.7413e+000 19632 115682,115734,115708
 2.1000e+000 115760 -1.1731e+002 -2.0333e+002 -1.6715e+001 19632 115578,115630,115604
 2.1000e+000 116025 -7.6827e+001 -1.6911e+002 -4.6989e+000 19178 115898,115950,115924
 2.1000e+000 116002 -7.1971e+001 -1.6652e+002 -9.2734e+000 19178 115898,115976,115950
 2.1000e+000 116633 -1.1795e+002 -2.0869e+002  1.1020e+000 18738 116800,116656,116342
 2.1000e+000 116610 -1.2667e+002 -2.2295e+002  6.7765e+000 18738 116656,116238,116446
 2.1000e+000 116587 -1.2893e+002 -2.1942e+002 -5.0045e+000 18738 116728,116368,116342
 2.1000e+000 116564 -1.1958e+002 -2.0097e+002 -3.8306e+000 18738 116800,116342,116264
 2.1000e+000 116541 -1.3337e+002 -2.8790e+002  2.1647e+001 18738 116212,116446,116238
 2.1000e+000 116518 -5.0555e+001 -1.6654e+002  1.2349e+001 18738 116394,116446,116420
 2.1000e+000 116495 -5.9620e+001 -1.8327e+002 -1.9578e+001 18738 116264,116342,116316
 2.1000e+000 116472 -8.2159e+001 -2.1527e+002  1.4075e+001 18738 116264,116316,116290
 2.1000e+000 116682 -1.2618e+002 -2.1567e+002  5.1224e+000 18738 116728,116342,116656
 2.1000e+000 116705 -1.2106e+002 -1.9271e+002  7.2177e+000 18738 116394,116656,116446
 2.1000e+000 116754 -1.4453e+002 -2.2506e+002 -1.2741e+001 18738 116394,116368,116728
 2.1000e+000 116777 -1.4303e+002 -2.2085e+002 -2.4139e+000 18738 116394,116728,116656
 2.1000e+000 116826 -1.1876e+002 -2.2248e+002  3.8784e+000 18738 116238,116656,116800
 2.1000e+000 116849 -1.1845e+002 -2.1366e+002 -2.0113e+000 18738 116238,116800,116264
 2.1000e+000 116999 -5.3682e+001 -1.3289e+002  3.1268e+000 18184 116872,116924,116898
 2.1000e+000 116976 -4.8420e+001 -9.4240e+001 -3.6067e+000 18184 116872,116950,116924
 2.1000e+000 117330 -5.0113e+001 -1.5388e+002  6.6351e+000 17694 117157,117235,117183
 2.1000e+000 117307 -5.1577e+001 -1.6727e+002  5.9750e-001 17694 117131,117235,117157
 2.1000e+000 117284 -3.9502e+001 -1.7441e+002 -3.8543e+000 17694 117105,117235,117131
 2.1000e+000 117261 -3.1383e+001 -1.2203e+002 -2.1869e+000 17694 117183,117235,117209
 2.1000e+000 117480 -9.5330e+001 -1.9126e+002 -2.6481e+001 17290 117353,117405,117379
 2.1000e+000 117457 -1.0749e+002 -2.4079e+002 -1.2721e+001 17290 117353,117431,117405
 2.1000e+000 117679 -8.5688e+001 -1.5868e+002 -5.7485e+000 16718 117555,117607,117581
 2.1000e+000 117656 -9.7350e+001 -1.8135e+002  6.5447e+000 16718 117529,117607,117555
 2.1000e+000 117633 -4.8547e+001 -1.8559e+002  6.3079e-001 16718 117503,117607,117529
 2.1000e+000 117782 -1.1253e+002 -2.1659e+002  4.0502e+000 16520 117704,117756,117730
 2.1000e+000 117983 -4.4220e+001 -1.5166e+002 -9.9046e-001 16208 117859,117911,117885
 2.1000e+000 117960 -8.8225e+001 -1.7014e+002  3.0574e+000 16208 117833,117911,117859
 2.1000e+000 117937 -8.6776e+001 -1.7952e+002 -1.2371e+000 16208 117807,117911,117833
 2.1000e+000 118135 -1.7670e+002 -2.4661e+002 -2.3465e+001 15674 118034,118086,118060
 2.1000e+000 118112 -1.2152e+002 -2.0368e+002  3.5299e+000 15674 118008,118086,118034
 2.1000e+000 118238 -4.6233e+001 -1.2550e+002  6.4073e+000 15355 118160,118212,118186
 2.1000e+000 118341 -1.4826e+002 -2.2767e+002  3.2347e+001 421 118263,118315,118289
 2.2000e+000 68152 -2.3853e+001 -1.4962e+002 -3.5376e+000 67838 68074,68126,68100
 2.2000e+000 68550 -1.1268e+000 -4.0184e+002  1.0390e+001 67526 68276,68380,68302
 2.2000e+000 68527 -5.8648e-001 -4.2119e+002 -2.8490e+000 67526 68276,68406,68380
 2.2000e+000 68504  7.4099e+000 -3.5418e+002  1.7832e+000 67526 68328,68380,68354
 2.2000e+000 68481  1.5338e+001 -3.6346e+002  9.8321e+000 67526 68302,68380,68328
 2.2000e+000 68458 -2.2007e+001 -4.4916e+002  4.1862e+000 67526 68276,68432,68406
 2.2000e+000 68651 -6.7976e+001 -2.0100e+002  4.9171e+001 67328 68573,68625,68599
 2.2000e+000 68970 -1.4991e+001 -2.0878e+002 -1.4424e+001 67016 68722,68800,68774
 2.2000e+000 68947  3.0841e+000 -1.4875e+002 -2.1830e+001 67016 68722,68826,68800
 2.2000e+000 68924 -4.2564e+001 -1.9689e+002 -3.1457e+000 67016 68696,68826,68722
 2.2000e+000 68901 -3.1777e+001 -2.1573e+002 -1.6316e+001 67016 68722,68774,68748
 2.2000e+000 68878 -6.8506e+001 -1.8314e+002 -3.7994e+001 67016 68696,68852,68826
 2.2000e+000 69291 -9.1326e+001 -2.5917e+002 -4.3128e+000 66654 69069,69147,69095
 2.2000e+000 69268 -7.0538e+001 -3.1163e+002  2.5134e+000 66654 69069,69173,69147
 2.2000e+000 69245 -1.2905e+002 -3.1380e+002  5.3563e+001 66654 69043,69173,69069
 2.2000e+000 69222 -1.4199e+002 -3.4178e+002  2.2689e+001 66654 69095,69147,69121
 2.2000e+000 69199 -1.5825e+002 -3.0444e+002  9.0491e+000 66654 69017,69173,69043
 2.2000e+000 69695  2.2492e+000 -3.2207e+002  1.1721e+001 66456 69447,69577,69551
 2.2000e+000 69672  3.1077e+000 -2.8100e+002 -1.3245e+001 66456 69421,69577,69447
 2.2000e+000 69649  1.4107e+001 -1.8066e+002 -1.7381e+001 66456 69473,69551,69525
 2.2000e+000 69626  2.5134e+001 -2.6645e+002  1.2795e+001 66456 69447,69551,69473
 2.2000e+000 69603  3.7677e+001 -1.6501e+002 -5.9073e+001 66456 69473,69525,69499
 2.2000e+000 70024 -2.7170e+001 -2.4629e+002  5.4985e+000 66258 70047,69851,69825
 2.2000e+000 70001 -2.3666e+001 -2.1613e+002  2.3609e+001 66258 70047,69825,69903
 2.2000e+000 69978 -3.5117e+001 -3.3926e+002  4.5296e+001 66258 69799,69903,69825
 2.2000e+000 69955 -4.5721e+000 -4.4495e+002  7.4512e+001 66258 69799,69929,69903
 2.2000e+000 70073 -5.0485e+001 -2.4155e+002 -2.2400e+001 66258 69877,69851,70047
 2.2000e+000 70096 -4.7353e+001 -2.0338e+002 -4.2407e+000 66258 69877,70047,69903
 2.2000e+000 70602  4.4841e+001 -1.3483e+002 -2.9942e+001 66060 70305,70435,70331
 2.2000e+000 70579 -7.4223e+001 -2.3624e+002  1.6858e+001 66060 70279,70435,70305
 2.2000e+000 70556 -8.1092e+001 -1.7431e+002 -3.8865e+001 66060 70331,70435,70409
 2.2000e+000 70533 -3.8029e+001 -1.7919e+002  5.3683e+001 66060 70279,70461,70435
 2.2000e+000 70510 -2.3806e+001 -1.0260e+002 -6.4545e+001 66060 70331,70409,70357
 2.2000e+000 70487 -6.5441e-001 -1.1429e+002 -1.9372e+001 66060 70357,70409,70383
 2.2000e+000 70703 -2.2052e+002 -3.9033e+002 -1.7373e+001 65862 70625,70677,70651
 2.2000e+000 71083 -7.3045e+001 -2.8845e+002  1.9147e+001 65664 70887,70965,70939
 2.2000e+000 71060 -1.2887e+001 -3.0137e+002  5.1992e+000 65664 70861,70965,70887
 2.2000e+000 71037 -1.5137e+001 -3.0531e+002  4.3384e+000 65664 70809,70965,70861
 2.2000e+000 71014 -2.0631e+001 -3.4347e+002 -8.1514e+000 65664 70809,70861,70835
 2.2000e+000 70991 -5.7002e+001 -2.7652e+002 -8.8905e+000 65664 70887,70939,70913
 2.2000e+000 71611 -8.8585e+001 -4.0155e+002 -2.5813e+001 65260 71288,71444,71314
 2.2000e+000 71588 -6.8527e+001 -3.4690e+002  6.7736e+000 65260 71288,71470,71444
 2.2000e+000 71565  4.1398e+001 -1.8631e+002  1.3189e+001 65260 71314,71418,71392
 2.2000e+000 71542 -5.4586e+001 -3.2287e+002 -3.0429e+001 65260 71314,71444,71418
 2.2000e+000 71519 -6.7506e+001 -2.2922e+002  1.1572e+001 65260 71314,71392,71340
 2.2000e+000 71496 -2.4986e+001 -1.3981e+002  4.9675e+001 65260 71340,71392,71366
 2.2000e+000 72060  4.7594e+000 -1.4530e+002 -1.4730e+001 64870 71737,71893,71789
 2.2000e+000 72037  1.1430e+002 -9.8244e+001 -1.1087e+001 64870 71737,71919,71893
 2.2000e+000 72014 -2.2687e+001 -7.6750e+001  1.6332e+001 64870 71789,71841,71815
 2.2000e+000 71991  1.6108e+001 -1.0709e+002 -1.3700e+001 64870 71789,71893,71841
 2.2000e+000 71968  2.8651e+001 -1.4266e+002 -4.5087e+001 64870 71737,71789,71763
 2.2000e+000 71945 -1.8019e+001 -1.4142e+002  0.0000e+000 64870 71841,71893,71867
 2.2000e+000 72517 -7.6934e+001 -1.1849e+002 -5.0918e+000 64466 72321,72399,72347
 2.2000e+000 72494 -7.2693e+001 -1.0661e+002 -1.7258e+000 64466 72269,72399,72321
 2.2000e+000 72471 -7.4506e+001 -1.2237e+002  1.5125e+001 64466 72347,72399,72373
 2.2000e+000 72448 -8.4236e+001 -1.2793e+002 -3.5957e+001 64466 72243,72399,72269
 2.2000e+000 72425 -9.7048e+001 -1.6509e+002 -4.3804e-001 64466 72269,72321,72295
 2.2000e+000 72944 -8.7629e+000 -1.0021e+002 -1.2729e+001 64062 73111,73039,72699
 2.2000e+000 72921  2.7615e+000 -9.6410e+001 -2.1575e+001 64062 73183,72967,72647
 2.2000e+000 72898  1.1811e+001 -8.1316e+001 -1.3601e+001 64062 72967,72803,72751
 2.2000e+000 72875  1.3693e+001 -9.0553e+001 -6.1626e-001 64062 73111,72699,72673
 2.2000e+000 72852  1.5978e+001 -1.1586e+002 -1.1815e+001 64062 73183,72647,72621
 2.2000e+000 72829 -7.8595e+000 -7.8271e+001 -2.3853e+001 64062 72751,72803,72777
 2.2000e+000 72993  1.9932e+001 -8.0529e+001 -1.4056e+001 64062 73039,72647,72967
 2.2000e+000 73016 -1.3522e+001 -1.0669e+002 -2.7888e+001 64062 72725,72967,72751
 2.2000e+000 73065  1.7991e+001 -1.3856e+002  4.9937e+001 64062 72725,72699,73039
 2.2000e+000 73088  8.6310e+000 -1.1757e+002 -2.4594e+001 64062 72725,73039,72967
 2.2000e+000 73137  4.0617e+001 -6.9362e+001  1.0696e+000 64062 72647,73039,73111
 2.2000e+000 73160  4.6949e+001 -7.0185e+001  1.0224e+001 64062 72647,73111,72673
 2.2000e+000 73209 -3.6685e+000 -1.1465e+002 -9.0328e+000 64062 72803,72967,73183
 2.2000e+000 73232 -1.9466e+000 -1.5336e+002  3.2175e-001 64062 72803,73183,72621
 2.2000e+000 73333 -1.5590e+002 -3.2857e+002  1.3996e+001 63814 73356,73281,73255
 2.2000e+000 73382 -1.1409e+002 -2.0968e+002  6.0981e+000 63814 73486,73356,73307
 2.2000e+000 73512 -1.6871e+002 -2.3276e+002 -2.5704e+001 63814 73281,73356,73486
 2.2000e+000 73839 -1.0003e+002 -3.5043e+002 -3.8520e+001 63616 73862,73692,73666
 2.2000e+000 73816 -9.5762e+001 -2.9662e+002 -1.6843e+001 63616 73934,73862,73666
 2.2000e+000 73793 -8.1657e+001 -2.9633e+002 -4.8537e+000 63616 73934,73666,73640
 2.2000e+000 73770 -6.8272e+001 -2.6839e+002  6.8112e+000 63616 73614,73744,73640
 2.2000e+000 73888 -9.6923e+001 -2.9457e+002 -4.5327e+001 63616 73718,73692,73862
 2.2000e+000 73911 -1.1128e+002 -2.7732e+002 -1.0598e+001 63616 73718,73862,73744
 2.2000e+000 73960 -1.1702e+002 -3.0154e+002 -1.8525e+001 63616 73744,73862,73934
 2.2000e+000 73983 -1.0720e+002 -3.0608e+002 -8.6002e+000 63616 73744,73934,73640
 2.2000e+000 74363 -2.0945e+001 -1.2482e+002 -6.7511e+000 63390 74386,74115,74089
 2.2000e+000 74340 -1.3162e+001 -8.0327e+001 -1.9800e+001 63390 74458,74386,74089
 2.2000e+000 74317 -8.2144e+000 -8.2964e+001 -9.7725e+000 63390 74458,74089,74245
 2.2000e+000 74294 -5.6382e+000 -1.8418e+002 -4.2524e+000 63390 74530,74167,74141
 2.2000e+000 74271  2.3018e+000 -1.6168e+002 -4.5840e+001 63390 74167,74219,74193
 2.2000e+000 74412  5.4582e+000 -1.2802e+002 -1.6750e+001 63390 74141,74115,74386
 2.2000e+000 74435 -6.6933e+000 -1.4868e+002 -1.1018e+001 63390 74530,74141,74386
 2.2000e+000 74484 -4.9729e+000 -6.5200e+001 -1.5275e+001 63390 74219,74386,74458
 2.2000e+000 74507  3.5565e+000 -6.4161e+001 -4.2047e+000 63390 74219,74458,74245
 2.2000e+000 74556 -1.3366e+001 -1.5360e+002 -3.2462e+001 63390 74219,74167,74530
 2.2000e+000 74579 -6.9013e+000 -1.0886e+002 -3.9827e+001 63390 74219,74530,74386
 2.2000e+000 74680 -3.1472e+001 -1.4691e+002  1.5830e+001 63100 75089,74833,74703
 2.2000e+000 74729 -7.0508e+001 -1.7869e+002 -1.7035e+001 63100 74961,74703,74654
 2.2000e+000 74859 -2.2737e+001 -1.2390e+002  2.5666e+001 63100 74602,74703,74833
 2.2000e+000 74987 -4.9397e+001 -1.1868e+002 -2.7829e-001 63100 75089,74703,74961
 2.2000e+000 75115  1.5362e+000 -1.1300e+002 -1.3176e+000 63100 74628,74833,75089
 2.2000e+000 75138 -1.6543e+001 -8.5065e+001 -1.7375e+001 63100 74628,75089,74961
 2.2000e+000 75723 -3.8129e+001 -1.3334e+002  1.5950e+001 62532 75746,75504,75426
 2.2000e+000 75700 -4.2802e+001 -1.2393e+002  1.8909e+001 62532 75746,75426,75556
 2.2000e+000 75677 -7.1832e+001 -1.8628e+002 -8.7266e+000 62532 75426,75504,75452
 2.2000e+000 75654 -8.4026e+001 -1.0568e+002 -1.9409e+001 62532 75400,75556,75426
 2.2000e+000 75631 -9.4708e+001 -1.5240e+002 -4.4004e+001 62532 75400,75582,75556
 2.2000e+000 75608 -1.1534e+002 -5.8747e+001 -3.6062e+001 62532 75452,75504,75478
 2.2000e+000 75772 -4.1732e+001 -1.4021e+002  1.3589e+001 62532 75530,75504,75746
 2.2000e+000 75795 -4.7972e+001 -1.3131e+002  1.5760e+001 62532 75530,75746,75556
 2.2000e+000 76301 -7.5193e+001 -1.8850e+002  5.5246e+000 62192 76324,76082,76030
 2.2000e+000 76278 -8.3770e+001 -1.7163e+002  1.1789e+001 62192 76324,76030,76004
 2.2000e+000 76255 -1.2042e+001 -1.7021e+002  2.5670e+001 62192 76030,76082,76056
 2.2000e+000 76232 -8.1384e+001 -2.0685e+002 -4.5972e+001 62192 76082,76134,76108
 2.2000e+000 76209 -6.7714e+001 -1.4214e+002 -1.8593e+001 62192 76004,76160,76134
 2.2000e+000 76186 -4.6792e+001 -1.3737e+002 -1.0494e+001 62192 75978,76160,76004
 2.2000e+000 76350 -8.2166e+001 -1.7037e+002  3.5279e+000 62192 76134,76082,76324
 2.2000e+000 76373 -8.1681e+001 -1.4170e+002  6.8338e+000 62192 76134,76324,76004
 2.2000e+000 76879 -6.2603e+001 -1.9775e+002 -2.4008e+001 61788 76902,76660,76582
 2.2000e+000 76856 -6.0780e+001 -2.0203e+002 -2.6610e+001 61788 76902,76582,76556
 2.2000e+000 76833 -2.4945e+001 -1.6719e+002 -4.8549e+001 61788 76582,76660,76634
 2.2000e+000 76810 -7.7519e+001 -9.5105e+001 -6.2319e+001 61788 76582,76634,76608
 2.2000e+000 76787 -4.0292e+001 -2.1893e+002  3.6687e+001 61788 76556,76738,76686
 2.2000e+000 76764 -1.1164e+001 -1.0234e+002  5.5040e+000 61788 76686,76738,76712
 2.2000e+000 76928 -6.1164e+001 -2.0150e+002 -2.3453e+001 61788 76686,76660,76902
 2.2000e+000 76951 -6.0464e+001 -2.0736e+002 -2.5492e+001 61788 76686,76902,76556
 2.2000e+000 77408 -8.1160e+001 -1.4240e+002 -1.2244e+001 61498 77212,77264,77238
 2.2000e+000 77385 -6.6818e+001 -1.1949e+002 -4.1845e-001 61498 77160,77264,77212
 2.2000e+000 77362 -9.4917e+001 -1.2949e+002 -3.5438e+000 61498 77160,77290,77264
 2.2000e+000 77339 -4.1619e+001 -1.2257e+002 -2.7430e+000 61498 77160,77212,77186
 2.2000e+000 77316 -6.9114e+001 -1.2440e+002  6.0002e+001 61498 77134,77290,77160
 2.2000e+000 77678 -4.8218e+001 -3.7987e+002 -2.4948e+001 61129 77479,77557,77505
 2.2000e+000 77655 -9.7093e+001 -3.5281e+002  1.3686e+000 61129 77479,77583,77557
 2.2000e+000 77632 -3.9669e+001 -2.8014e+002  2.7123e+001 61129 77453,77583,77479
 2.2000e+000 77609 -2.3049e+001 -3.8421e+002 -3.8826e+001 61129 77505,77557,77531
 2.2000e+000 77828 -7.7637e+000 -2.6919e+002 -3.4015e+000 60931 77851,77727,77701
 2.2000e+000 77805 -6.0894e+001 -3.0796e+002  1.3590e+001 60931 77851,77701,77779
 2.2000e+000 77877 -1.2692e+002 -3.4957e+002  5.6182e+001 60931 77923,77851,77753
 2.2000e+000 77900 -1.8704e+001 -2.9786e+002  2.6276e+001 60931 77753,77851,77779
 2.2000e+000 77949 -3.9863e+001 -2.0252e+002  2.8255e+000 60931 77727,77851,77923
 2.2000e+000 78133 -3.4404e-001 -2.3894e+001  3.9369e+000 60377 78055,78107,78081
 2.2000e+000 78535 -1.5353e+002 -1.9995e+002 -2.1605e+001 60015 78287,78391,78313
 2.2000e+000 78512 -7.7084e+001 -2.2414e+002 -2.5909e+001 60015 78287,78417,78391
 2.2000e+000 78489 -6.0402e+001 -2.5147e+002 -6.5198e+001 60015 78261,78417,78287
 2.2000e+000 78466 -6.2190e+001 -1.6415e+002  2.0096e+001 60015 78339,78391,78365
 2.2000e+000 78443 -7.0999e+001 -1.5561e+002  4.9626e+000 60015 78313,78391,78339
 2.2000e+000 78913 -6.4768e+001 -1.3654e+002  1.1031e+001 59725 78936,78743,78691
 2.2000e+000 78890 -8.2989e+001 -1.4189e+002  5.0080e+000 59725 79008,78936,78691
 2.2000e+000 78867 -8.3799e+001 -1.4418e+002  5.5350e+000 59725 79008,78691,78665
 2.2000e+000 78844 -2.3015e+001 -1.2113e+002  1.2829e+001 59725 78691,78743,78717
 2.2000e+000 78821 -3.9389e+001 -1.1916e+002 -5.5017e+001 59725 78639,78795,78769
 2.2000e+000 78962 -3.2713e+001 -1.4883e+002 -9.7213e+000 59725 78769,78743,78936
 2.2000e+000 78985 -9.0477e+001 -1.7780e+002 -2.4871e+001 59725 78769,78936,78639
 2.2000e+000 79034 -8.4036e+001 -1.4261e+002  6.2329e+000 59725 78639,78936,79008
 2.2000e+000 79057 -8.3718e+001 -1.4348e+002  6.6504e+000 59725 78639,79008,78665
 2.2000e+000 79386 -2.6616e+001 -1.4773e+002  5.8532e+000 59221 79187,79239,79213
 2.2000e+000 79363 -1.8772e+001 -1.3128e+002 -6.7028e-001 59221 79187,79265,79239
 2.2000e+000 79340 -4.0527e+001 -1.3712e+002  3.6484e+000 59221 79187,79291,79265
 2.2000e+000 79317 -1.2101e+001 -6.8773e+001  2.7632e+000 59221 79161,79291,79187
 2.2000e+000 79813 -4.2749e+001 -2.4469e+002 -1.5553e+001 58831 79836,79542,79516
 2.2000e+000 79790 -5.4941e+001 -2.2218e+002 -4.4841e+001 58831 79980,79836,79516
 2.2000e+000 79767 -1.1437e+002 -3.2660e+002 -3.9441e-001 58831 79908,79646,79568
 2.2000e+000 79744 -7.8207e+000 -1.6450e+002 -1.1184e+001 58831 79980,79516,79490
 2.2000e+000 79721 -2.7648e+001 -3.5253e+002 -2.9161e+001 58831 79568,79646,79594
 2.2000e+000 79698 -3.3232e+002 -1.1907e+003 -1.4643e+002 58831 79594,79646,79620
 2.2000e+000 79862 -3.8927e+001 -2.3888e+002 -1.2942e+001 58831 79568,79542,79836
 2.2000e+000 79885 -8.0060e+001 -2.5368e+002  9.7054e+000 58831 79908,79568,79836
 2.2000e+000 79934 -1.3495e+002 -2.9880e+002 -6.1830e+001 58831 79672,79646,79908
 2.2000e+000 79957 -1.0875e+002 -2.3865e+002 -5.8223e+001 58831 79672,79908,79836
 2.2000e+000 80006 -4.9212e+001 -1.3907e+002 -2.6361e+001 58831 79672,79836,79980
 2.2000e+000 80029 -5.6546e+001 -1.2676e+002 -6.4007e+000 58831 79672,79980,79490
 2.2000e+000 80358 -1.4457e+001 -1.6428e+002 -6.3628e+000 58377 80381,80185,80159
 2.2000e+000 80335 -4.1038e+000 -1.5788e+002 -3.5825e+000 58377 80381,80159,80133
 2.2000e+000 80312 -9.4203e+000 -1.4288e+002  7.3138e-001 58377 80133,80263,80237
 2.2000e+000 80289 -4.7791e+001 -1.7817e+002 -2.0380e+001 58377 80185,80237,80211
 2.2000e+000 80407 -3.5198e+001 -1.5628e+002 -4.2907e+000 58377 80237,80185,80381
 2.2000e+000 80430 -1.5959e+001 -1.4462e+002  5.9138e-001 58377 80237,80381,80133
 2.2000e+000 80759  1.5901e+001 -1.1955e+002  4.2512e+001 57873 80782,80586,80560
 2.2000e+000 80736 -2.1391e+001 -1.5743e+002  2.6802e+001 57873 80782,80560,80534
 2.2000e+000 80713 -1.8109e+001 -1.5992e+002  1.8454e+001 57873 80586,80638,80612
 2.2000e+000 80690  5.3257e+001 -1.3954e+002  1.2141e+001 57873 80534,80664,80638
 2.2000e+000 80808 -1.7666e+000 -1.5422e+002  2.4098e+001 57873 80638,80586,80782
 2.2000e+000 80831 -5.9823e+000 -1.6441e+002  1.6929e+001 57873 80638,80782,80534
 2.2000e+000 81337 -6.4275e+001 -2.8435e+002 -2.7296e+001 57262 81360,81144,81092
 2.2000e+000 81314 -8.7048e+001 -3.3551e+002 -2.2523e+001 57262 81360,81092,81066
 2.2000e+000 81291 -1.0400e+002 -3.4598e+002  1.0189e+001 57262 81014,81196,81066
 2.2000e+000 81268 -5.4773e+001 -2.3870e+002 -2.3762e+001 57262 81092,81144,81118
 2.2000e+000 81245 -8.7174e+001 -1.8588e+002 -1.6902e+001 57262 81144,81196,81170
 2.2000e+000 81222 -1.2474e+002 -3.9650e+002  3.3236e+001 57262 81014,81066,81040
 2.2000e+000 81386 -8.5100e+001 -2.4200e+002  7.6778e+000 57262 81196,81144,81360
 2.2000e+000 81409 -1.0774e+002 -2.9535e+002  1.1257e+001 57262 81196,81360,81066
 2.2000e+000 81608 -6.9181e+001 -3.6213e+002  2.2293e+001 57007 81458,81536,81510
 2.2000e+000 81585 -7.8910e+001 -4.6523e+002  3.6388e+001 57007 81432,81536,81458
 2.2000e+000 81562 -2.0128e+002 -3.3651e+002  8.8045e+001 57007 81458,81510,81484
 2.2000e+000 82086 -1.2447e+002 -3.2396e+002 -4.3239e+001 56339 81792,81922,81818
 2.2000e+000 82063 -9.4132e+001 -3.9050e+002 -8.9864e+001 56339 81714,81922,81792
 2.2000e+000 82040 -1.2434e+002 -2.4890e+002 -2.5670e+001 56339 82109,81844,81818
 2.2000e+000 82017 -1.1015e+002 -2.8845e+002 -2.8189e+001 56339 82109,81818,81922
 2.2000e+000 81994 -8.8063e+001 -2.8416e+002 -3.5553e+001 56339 81844,81896,81870
 2.2000e+000 81971 -1.5201e+002 -5.0380e+002 -1.5207e+002 56339 81714,81792,81766
 2.2000e+000 81948 -2.1288e+002 -1.0765e+003 -2.0708e+002 56339 81714,81766,81740
 2.2000e+000 82135 -1.1078e+002 -2.7897e+002 -9.2933e+000 56339 81896,81844,82109
 2.2000e+000 82158 -1.0941e+002 -3.3683e+002 -1.6946e+001 56339 81896,82109,81922
 2.2000e+000 82536 -9.3543e+001 -2.3134e+002 -1.5290e+001 55699 82288,82392,82314
 2.2000e+000 82513 -1.0988e+002 -2.3722e+002 -1.1271e+001 55699 82288,82418,82392
 2.2000e+000 82490 -1.1208e+002 -2.8434e+002 -2.3464e+001 55699 82314,82392,82340
 2.2000e+000 82467 -2.1622e+001 -3.4658e+002 -5.2188e+001 55699 82340,82392,82366
 2.2000e+000 82444 -1.1171e+002 -2.6216e+002 -1.7668e+001 55699 82262,82418,82288
 2.2000e+000 83091 -1.0571e+002 -2.5025e+002  1.3054e+001 55409 82745,82901,82875
 2.2000e+000 83068 -8.5901e+001 -1.5889e+002  2.7404e+001 55409 82719,82901,82745
 2.2000e+000 83045 -1.1571e+002 -2.6491e+002  2.9423e+001 55409 82771,82849,82823
 2.2000e+000 83022 -2.0436e+002 -2.8935e+002  5.8862e+001 55409 82745,82849,82771
 2.2000e+000 82999 -1.0373e+002 -2.5028e+002  3.1974e+001 55409 82745,82875,82849
 2.2000e+000 82976 -1.3711e+002 -2.3917e+002  2.7325e+001 55409 82771,82823,82797
 2.2000e+000 82953 -2.3213e+001 -3.4839e+001 -2.2342e+001 55409 82719,82927,82901
 2.2000e+000 83388 -5.6501e+001 -2.3286e+002 -1.9106e+001 54905 83411,83218,83166
 2.2000e+000 83365 -3.5581e+001 -2.1962e+002 -1.3441e+001 54905 83411,83166,83114
 2.2000e+000 83342 -7.8196e+001 -2.2140e+002 -2.4326e+001 54905 83483,83270,83244
 2.2000e+000 83319 -6.6353e+001 -1.9822e+002 -4.3019e+001 54905 83166,83218,83192
 2.2000e+000 83296 -3.4853e+001 -2.1937e+002 -1.0736e+001 54905 83114,83166,83140
 2.2000e+000 83437 -6.0076e+001 -2.2103e+002 -1.2567e+001 54905 83244,83218,83411
 2.2000e+000 83460 -6.2704e+001 -2.2360e+002 -1.4680e+001 54905 83483,83244,83411
 2.2000e+000 83509 -5.8230e+001 -2.0116e+002 -1.6284e+001 54905 83114,83270,83483
 2.2000e+000 83532 -5.1793e+001 -2.0887e+002 -9.4179e+000 54905 83114,83483,83411
 2.2000e+000 83961 -9.9484e+001 -3.1984e+002 -4.5118e+000 54593 83638,83768,83690
 2.2000e+000 83938 -5.0667e+001 -3.0678e+002 -6.8677e+000 54593 83638,83794,83768
 2.2000e+000 83915 -1.1015e+002 -3.0809e+002  4.8145e+000 54593 83690,83768,83742
 2.2000e+000 83892 -6.9978e+001 -2.7645e+002 -4.9555e+001 54593 83638,83820,83794
 2.2000e+000 83869 -9.4401e+001 -2.9517e+002 -9.6087e+000 54593 83638,83690,83664
 2.2000e+000 83846 -7.5615e+001 -2.2983e+002 -6.1171e+001 54593 83690,83742,83716
 2.2000e+000 84209 -5.6873e+001 -2.7982e+002  1.7545e+001 54132 84232,84062,83984
 2.2000e+000 84186 -5.1801e+001 -2.3636e+002  5.9974e+000 54132 84232,83984,84114
 2.2000e+000 84163 -6.8168e+001 -2.9896e+002 -1.9388e+001 54132 83984,84062,84036
 2.2000e+000 84140 -1.0212e+002 -3.1197e+002 -3.7411e+001 54132 83984,84036,84010
 2.2000e+000 84258 -3.0461e+001 -3.2717e+002  9.5364e+000 54132 84088,84062,84232
 2.2000e+000 84281 -2.0198e+001 -2.8076e+002 -9.8069e+000 54132 84088,84232,84114
 2.2000e+000 84382 -1.0064e+002 -3.0084e+002 -9.3650e+000 53521 84304,84356,84330
 2.2000e+000 84632 -7.7961e+001 -2.4541e+002  9.4140e+000 53067 84655,84485,84459
 2.2000e+000 84609 -6.1060e+001 -2.6099e+002  1.1952e+001 53067 84655,84459,84407
 2.2000e+000 84586 -6.9592e+001 -2.2809e+002  1.1498e+001 53067 84485,84537,84511
 2.2000e+000 84563 -6.4196e+001 -2.8128e+002 -1.2147e+001 53067 84407,84459,84433
 2.2000e+000 84681 -8.1147e+001 -2.5655e+002  1.2972e+001 53067 84537,84485,84655
 2.2000e+000 84704 -7.6560e+001 -2.8158e+002  2.0320e+001 53067 84537,84655,84407
 2.2000e+000 85214 -8.5853e+001 -3.3360e+002 -1.2455e+001 52513 85021,85073,85047
 2.2000e+000 85191 -5.8911e+001 -2.2207e+002 -3.9882e+001 52513 84943,85073,85021
 2.2000e+000 85168 -7.7679e+001 -2.2567e+002 -2.1304e+001 52513 84943,85021,84995
 2.2000e+000 85145 -1.3129e+002 -3.8964e+002 -4.7950e+001 52513 84917,85073,84943
 2.2000e+000 85122 -7.2401e+001 -2.1127e+002 -2.6315e+001 52513 84943,84995,84969
 2.2000e+000 85099 -1.6366e+002 -3.7258e+002 -3.7376e+001 52513 84891,85073,84917
 2.2000e+000 85582 -4.0992e+001 -1.9183e+002  1.0920e+001 52037 85605,85311,85285
 2.2000e+000 85559 -5.3754e+001 -2.1197e+002  1.6947e+001 52037 85749,85605,85285
 2.2000e+000 85536 -1.3253e+001 -1.9618e+002  9.0095e+000 52037 85893,85677,85389
 2.2000e+000 85513 -3.0930e+001 -2.0173e+002  1.2841e+001 52037 85749,85285,85259
 2.2000e+000 85490  1.1212e+001 -1.8628e+002  4.6158e+000 52037 85893,85389,85363
 2.2000e+000 85467 -2.0434e+001 -1.9790e+002  3.0866e+000 52037 85259,85441,85415
 2.2000e+000 85631 -9.7184e+001 -2.1977e+002  1.7358e+000 52037 85337,85311,85605
 2.2000e+000 85654 -5.9826e+001 -2.0694e+002  3.3811e+001 52037 85677,85337,85605
 2.2000e+000 85703  4.5503e+000 -2.0820e+002  1.5072e+001 52037 85415,85389,85677
 2.2000e+000 85726 -8.1819e+000 -1.9967e+002  2.7601e+001 52037 85821,85677,85605
 2.2000e+000 85775 -2.4662e+001 -2.0770e+002  2.4467e+001 52037 85821,85605,85749
 2.2000e+000 85798 -3.3121e+001 -2.1555e+002  1.2190e+001 52037 85415,85749,85259
 2.2000e+000 85847 -1.3790e+001 -2.0713e+002  1.3433e+001 52037 85415,85677,85821
 2.2000e+000 85870 -1.9336e+001 -2.1047e+002  1.1085e+001 52037 85415,85821,85749
 2.2000e+000 85919 -7.5069e+000 -1.9993e+002  3.6577e+001 52037 85337,85677,85893
 2.2000e+000 85942  1.9885e+000 -1.9707e+002  3.2475e+001 52037 85337,85893,85363
 2.2000e+000 86224 -1.5698e+001 -1.7534e+002  1.9187e+001 51368 86375,86100,86074
 2.2000e+000 86201 -1.6410e+002 -2.2051e+002  3.4492e+001 51368 86375,86074,86247
 2.2000e+000 86178 -2.5836e+001 -2.3099e+002 -5.7738e+001 51368 86048,86152,86126
 2.2000e+000 86273 -6.3049e+001 -2.2311e+002 -4.7556e+001 51368 86048,86126,86247
 2.2000e+000 86401  5.8834e+001 -2.1693e+002 -4.3698e+001 51368 86126,86100,86375
 2.2000e+000 86424 -1.4393e+001 -2.0683e+002 -3.2444e+001 51368 86126,86375,86247
 2.2000e+000 86802 -1.0226e+002 -2.1016e+002  3.2386e-001 51028 86528,86632,86580
 2.2000e+000 86779 -1.1138e+002 -2.3817e+002  8.0370e+000 51028 86528,86684,86632
 2.2000e+000 86756 -1.3061e+002 -2.7621e+002  5.4387e-001 51028 86528,86580,86554
 2.2000e+000 86733 -8.4799e+001 -2.3503e+002  3.7482e+001 51028 86632,86684,86658
 2.2000e+000 86710 -1.0716e+002 -2.3414e+002 -2.1335e+001 51028 86580,86632,86606
 2.2000e+000 87131 -8.8456e+001 -2.5843e+002  4.2399e+001 50624 86958,87036,87010
 2.2000e+000 87108 -1.0969e+002 -2.1636e+002  4.0283e+001 50624 86932,87036,86958
 2.2000e+000 87085 -9.7866e+001 -2.5969e+002  2.5455e+001 50624 86958,87010,86984
 2.2000e+000 87062 -8.0252e+001 -2.1370e+002  2.5250e+001 50624 86906,87036,86932
 2.2000e+000 87330 -1.5406e+002 -2.9531e+002  4.4462e-001 50234 87353,87180,87154
 2.2000e+000 87307 -1.2547e+002 -3.0046e+002  4.5666e+000 50234 87353,87154,87258
 2.2000e+000 87284 -9.3397e+001 -2.9922e+002  1.5113e+001 50234 87206,87258,87232
 2.2000e+000 87379 -1.3148e+002 -3.0027e+002  1.4012e+001 50234 87206,87180,87353
 2.2000e+000 87402 -9.4243e+001 -3.0190e+002  1.3447e+001 50234 87206,87353,87258
 2.2000e+000 87650 -1.1297e+002 -2.6764e+002 -5.4562e+000 49730 87673,87503,87451
 2.2000e+000 87627 -7.8786e+001 -2.5267e+002 -2.3915e+000 49730 87673,87451,87425
 2.2000e+000 87604 -8.5161e+001 -2.0733e+002  1.8003e+001 49730 87503,87555,87529
 2.2000e+000 87581 -1.3990e+002 -2.0874e+002 -1.1130e+001 49730 87451,87503,87477
 2.2000e+000 87699 -1.1653e+002 -2.5660e+002  4.2925e+000 49730 87555,87503,87673
 2.2000e+000 87722 -1.0949e+002 -2.5373e+002  5.2813e+000 49730 87555,87673,87425
 2.2000e+000 88232 -6.9784e+001 -2.0188e+002  9.0747e+000 49176 88255,87935,87909
 2.2000e+000 88209 -9.5493e+001 -2.1567e+002  4.2656e+001 49176 88255,87909,88065
 2.2000e+000 88186 -1.0284e+002 -1.9232e+002  1.7047e+001 49176 87935,88039,87961
 2.2000e+000 88163 -7.9464e+001 -1.7140e+002  2.3316e+001 49176 87909,88091,88065
 2.2000e+000 88140 -1.1650e+002 -1.9894e+002  1.1497e+001 49176 87961,88039,88013
 2.2000e+000 88117 -1.0341e+002 -2.2270e+002 -1.3033e+001 49176 87961,88013,87987
 2.2000e+000 88281 -1.0316e+002 -2.1501e+002  2.6439e+001 49176 88039,87935,88255
 2.2000e+000 88304 -1.2855e+002 -2.2738e+002  5.9699e+001 49176 88039,88255,88065
 2.2000e+000 88503 -1.2322e+001 -1.2043e+002 -1.0588e+001 48772 88526,88379,88353
 2.2000e+000 88480 -1.5069e+001 -1.0872e+002 -8.0977e+000 48772 88526,88353,88327
 2.2000e+000 88457 -1.5750e+001 -1.2047e+002 -1.7206e+001 48772 88379,88431,88405
 2.2000e+000 88552 -9.2556e+000 -1.1057e+002 -1.2175e+001 48772 88431,88379,88526
 2.2000e+000 88575 -1.4517e+001 -1.0300e+002 -1.0926e+001 48772 88431,88526,88327
 2.2000e+000 89083 -6.9795e+001 -2.2009e+002 -5.1262e+001 48368 88786,88916,88864
 2.2000e+000 89060 -7.8282e+001 -2.2347e+002 -5.0509e+001 48368 88786,88942,88916
 2.2000e+000 89037 -1.0274e+002 -1.7970e+002 -6.5416e-001 48368 88786,88864,88812
 2.2000e+000 89014 -1.2626e+002 -2.4795e+002 -6.6306e+001 48368 88864,88916,88890
 2.2000e+000 88991 -1.9792e+001 -2.0295e+002  3.0642e+001 48368 88812,88864,88838
 2.2000e+000 88968 -2.0729e+001 -1.7006e+002 -5.9313e+000 48368 88760,88942,88786
 2.2000e+000 89331 -1.0592e+002 -3.4036e+002 -1.5606e+001 47928 89158,89236,89210
 2.2000e+000 89308 -1.2517e+002 -3.3984e+002  1.1930e+001 47928 89132,89236,89158
 2.2000e+000 89285 -1.0298e+002 -2.6376e+002 -9.7508e+000 47928 89158,89210,89184
 2.2000e+000 89262 -1.7431e+002 -2.8699e+002  1.5404e+001 47928 89106,89236,89132
 2.2000e+000 89662 -1.1884e+002 -2.4721e+002 -6.1918e+000 47588 89463,89541,89515
 2.2000e+000 89639 -8.3327e+001 -1.9288e+002 -2.2187e+001 47588 89463,89567,89541
 2.2000e+000 89616 -1.0648e+002 -2.4581e+002  7.5590e+000 47588 89463,89515,89489
 2.2000e+000 89593 -1.1224e+002 -2.0109e+002 -2.2200e+001 47588 89437,89567,89463
 2.2000e+000 89763 -1.5478e+000 -9.6694e+001  1.3586e+001 47390 89685,89737,89711
 2.2000e+000 89913 -1.9739e+001 -2.8420e+002 -3.3459e+001 47078 89786,89838,89812
 2.2000e+000 89890 -1.4170e+002 -3.8938e+002  1.0363e+001 47078 89786,89864,89838
 2.2000e+000 90163 -1.0600e+002 -2.2705e+002  9.9719e+000 46474 89964,90042,89990
 2.2000e+000 90140 -8.6854e+001 -2.2033e+002  1.7135e+001 46474 89938,90042,89964
 2.2000e+000 90117 -1.1517e+002 -2.0462e+002  1.4038e+001 46474 89990,90042,90016
 2.2000e+000 90094 -1.2111e+002 -2.1472e+002  2.2882e+001 46474 89938,90068,90042
 2.2000e+000 90364 -1.0794e+002 -2.9237e+002  2.5301e+001 46184 90240,90292,90266
 2.2000e+000 90341 -1.2333e+002 -2.7457e+002  3.5878e+001 46184 90188,90292,90240
 2.2000e+000 90318 -1.1016e+002 -2.7208e+002  4.1223e+001 46184 90188,90240,90214
 2.2000e+000 90565 -8.9520e+001 -2.0816e+002  2.1272e+000 45780 90588,90415,90389
 2.2000e+000 90542 -8.9309e+001 -2.2126e+002  1.0067e+001 45780 90588,90389,90493
 2.2000e+000 90519 -9.4683e+001 -1.8886e+002  5.6173e+000 45780 90415,90467,90441
 2.2000e+000 90614 -8.9764e+001 -2.0014e+002  2.6681e-001 45780 90467,90415,90588
 2.2000e+000 90637 -8.4367e+001 -2.0297e+002  1.0031e+001 45780 90467,90588,90493
 2.2000e+000 91196 -1.3011e+002 -2.2092e+002 -3.0960e+001 45226 91219,90876,90850
 2.2000e+000 91173 -6.6181e+001 -2.0527e+002 -3.8009e+000 45226 91219,90850,91032
 2.2000e+000 91150 -6.2591e+001 -2.3547e+002 -3.0075e+001 45226 90824,91032,90850
 2.2000e+000 91127 -8.0781e+001 -1.7618e+002  2.6262e+000 45226 90876,90980,90902
 2.2000e+000 91104 -5.2632e+001 -1.7420e+002  1.1339e+001 45226 90876,91006,90980
 2.2000e+000 91081 -6.1193e+001 -1.7447e+002 -3.1396e+000 45226 90902,90980,90954
 2.2000e+000 91058 -4.3969e+001 -1.3876e+002 -3.0907e+001 45226 90902,90954,90928
 2.2000e+000 91245 -6.9378e+001 -2.0362e+002 -1.1425e+001 45226 91006,90876,91219
 2.2000e+000 91268 -1.0147e+001 -1.9705e+002  1.1311e+001 45226 91006,91219,91032
 2.2000e+000 91516 -9.6700e+001 -4.2015e+002  2.7674e+001 44836 91539,91421,91395
 2.2000e+000 91493 -7.8889e+001 -3.9342e+002  1.4825e+001 44836 91317,91421,91343
 2.2000e+000 91470 -1.3916e+002 -4.2453e+002  2.6987e+001 44836 91539,91395,91369
 2.2000e+000 91447 -1.3351e+002 -3.5760e+002  4.2342e+001 44836 91291,91421,91317
 2.2000e+000 91565 -1.1580e+002 -4.1808e+002  4.1088e+000 44836 91343,91421,91539
 2.2000e+000 91588 -1.4362e+002 -4.2339e+002 -3.4001e+000 44836 91343,91539,91369
 2.2000e+000 91787 -8.8781e+001 -2.5707e+002  1.6994e+001 44432 91810,91637,91611
 2.2000e+000 91764 -1.0448e+002 -2.8152e+002  2.5173e+001 44432 91810,91611,91715
 2.2000e+000 91741 -3.1274e+001 -2.1190e+002  1.0362e+001 44432 91637,91689,91663
 2.2000e+000 91836 -1.0551e+002 -2.4336e+002  1.6424e+001 44432 91689,91637,91810
 2.2000e+000 91859 -1.0772e+002 -2.5410e+002  1.9945e+001 44432 91689,91810,91715
 2.2000e+000 92207 -1.9367e+002 -3.4949e+002  1.7332e+001 43864 92230,91936,91910
 2.2000e+000 92184 -1.9049e+002 -3.7896e+002  2.1958e+001 43864 92230,91910,92040
 2.2000e+000 92161 -1.7409e+002 -3.6686e+002  5.2776e+001 43864 91884,92040,91910
 2.2000e+000 92138 -1.2765e+002 -2.7327e+002 -9.0038e-002 43864 91936,92014,91988
 2.2000e+000 92115 -1.1407e+002 -3.3409e+002  4.4155e+001 43864 91936,91988,91962
 2.2000e+000 92092 -1.4201e+002 -3.0673e+002  3.4400e+001 43864 91884,92066,92040
 2.2000e+000 92256 -1.9772e+002 -3.0754e+002  2.5060e+001 43864 92014,91936,92230
 2.2000e+000 92279 -2.0628e+002 -3.5237e+002  2.7427e+001 43864 92014,92230,92040
 2.2000e+000 92529 -1.2305e+002 -2.4816e+002  2.4404e+001 43410 92552,92330,92304
 2.2000e+000 92506 -1.2039e+002 -2.4217e+002  3.4104e+000 43410 92552,92304,92408
 2.2000e+000 92483 -1.2675e+002 -2.3031e+002  5.3485e+000 43410 92304,92434,92408
 2.2000e+000 92460 -6.4350e+001 -2.1440e+002  4.2615e+000 43410 92330,92382,92356
 2.2000e+000 92578 -1.0980e+002 -2.4179e+002  1.6611e+001 43410 92382,92330,92552
 2.2000e+000 92601 -9.2371e+001 -2.2323e+002 -6.8876e+000 43410 92382,92552,92408
 2.2000e+000 92802 -9.1202e+001 -3.5825e+002  1.4317e+001 43162 92825,92704,92652
 2.2000e+000 92779 -6.5732e+001 -3.5135e+002  6.8456e+001 43162 92825,92652,92626
 2.2000e+000 92756 -6.5661e+001 -3.6180e+002  1.5405e+001 43162 92652,92704,92678
 2.2000e+000 92851 -1.3672e+002 -3.6823e+002 -6.6649e+000 43162 92730,92704,92825
 2.2000e+000 92874 -1.9912e+002 -3.4579e+002  7.9562e+001 43162 92730,92825,92626
 2.2000e+000 93463 -4.8061e+001 -1.4640e+002 -2.8114e+001 42758 93140,93270,93166
 2.2000e+000 93440 -5.8386e+001 -1.5491e+002 -2.0810e+001 42758 93140,93296,93270
 2.2000e+000 93417 -6.2944e+001 -1.6622e+002 -1.6401e+001 42758 93166,93270,93218
 2.2000e+000 93394  1.7122e+001 -1.5988e+002 -2.9483e+001 42758 93218,93270,93244
 2.2000e+000 93371 -2.3482e+001 -1.6927e+002 -2.0405e+001 42758 93140,93322,93296
 2.2000e+000 93348 -7.5357e+001 -1.8885e+002  1.3545e+000 42758 93166,93218,93192
 2.2000e+000 93920 -8.9250e+001 -1.8445e+002 -2.1909e+000 42304 93943,93672,93646
 2.2000e+000 93897 -7.8599e+001 -1.6219e+002 -5.3029e+000 42304 93943,93646,93802
 2.2000e+000 93874 -6.6776e+001 -1.8038e+002  2.9713e+000 42304 93724,93802,93776
 2.2000e+000 93851 -7.6959e+001 -2.0555e+002  1.2152e+000 42304 93672,93724,93698
 2.2000e+000 93828 -1.2478e+002 -2.1934e+002 -1.9019e+001 42304 93724,93776,93750
 2.2000e+000 93969 -7.7883e+001 -1.9200e+002 -9.9304e+000 42304 93724,93672,93943
 2.2000e+000 93992 -7.4380e+001 -1.8313e+002 -1.0901e+001 42304 93724,93943,93802
 2.2000e+000 94321 -9.9961e+001 -3.0563e+002  1.1037e+001 41478 94096,94148,94122
 2.2000e+000 94298 -1.2458e+002 -3.1871e+002  2.7870e+001 41478 94096,94226,94148
 2.2000e+000 94275 -1.5537e+002 -3.5462e+002  1.4741e+001 41478 94148,94226,94174
 2.2000e+000 94252 -8.6543e+001 -3.1373e+002 -4.8035e+001 41478 94174,94226,94200
 2.2000e+000 94618 -9.5144e+001 -3.1469e+002  1.2083e+001 40910 94344,94422,94396
 2.2000e+000 94595 -1.3560e+002 -3.1393e+002  1.4422e+000 40910 94344,94448,94422
 2.2000e+000 94572 -1.2009e+002 -2.7460e+002  1.3716e+001 40910 94344,94474,94448
 2.2000e+000 94549 -7.4759e+001 -3.0322e+002  1.6913e+001 40910 94344,94396,94370
 2.2000e+000 94526 -1.7012e+002 -3.3882e+002  3.5740e+001 40910 94344,94500,94474
 2.2000e+000 94866 -1.0538e+002 -1.9534e+002 -1.9284e+001 40306 94667,94719,94693
 2.2000e+000 94843 -1.2662e+002 -2.1945e+002 -9.4310e+000 40306 94641,94719,94667
 2.2000e+000 94820 -1.4034e+002 -2.2506e+002  2.1750e+000 40306 94641,94745,94719
 2.2000e+000 94797 -1.0862e+002 -2.0585e+002 -6.5427e+000 40306 94641,94771,94745
 2.2000e+000 95089  1.2914e+001 -1.3166e+002  1.8169e+001 39702 94913,94991,94939
 2.2000e+000 95066  2.8342e+001 -1.1527e+002  9.6839e+000 39702 94913,95017,94991
 2.2000e+000 95043  5.8112e+001 -1.1312e+002  1.1618e+001 39702 94939,94991,94965
 2.2000e+000 95339 -8.4369e+001 -2.1853e+002 -1.2530e+001 39248 95140,95218,95166
 2.2000e+000 95316 -1.1314e+002 -2.3482e+002 -5.3462e+000 39248 95140,95244,95218
 2.2000e+000 95293 -6.8287e+001 -2.4998e+002 -1.9136e+001 39248 95114,95244,95140
 2.2000e+000 95270 -5.8700e+001 -2.3940e+002 -3.6731e+001 39248 95166,95218,95192
 2.2000e+000 95770 -1.5881e+002 -2.6566e+002  1.1322e+001 38694 95551,95629,95577
 2.2000e+000 95747 -1.1819e+002 -3.5115e+002  7.0569e+000 38694 95447,95629,95551
 2.2000e+000 95724 -8.2348e+001 -2.7911e+002 -1.9248e+001 38694 95447,95551,95473
 2.2000e+000 95701 -6.8591e+001 -2.8786e+002 -2.0696e+001 38694 95473,95551,95499
 2.2000e+000 95678 -5.5931e+001 -2.8477e+002 -1.6882e+001 38694 95499,95551,95525
 2.2000e+000 95655 -1.8804e+002 -3.3420e+002  9.3906e+000 38694 95577,95629,95603
 2.2000e+000 96325 -9.8653e+001 -2.3202e+002  7.7638e+000 38240 95953,96031,96005
 2.2000e+000 96302 -9.3874e+001 -1.5450e+002  2.9558e+001 38240 95953,96161,96031
 2.2000e+000 96279 -7.3199e+001 -1.5436e+002 -3.0504e+000 38240 96031,96161,96135
 2.2000e+000 96256 -6.2354e+001 -1.6664e+002  1.0975e+000 38240 96348,96109,96057
 2.2000e+000 96233 -6.0028e+001 -1.5167e+002  1.0550e+001 38240 96348,96057,96031
 2.2000e+000 96210 -3.6321e+001 -1.7908e+002  2.1999e+001 38240 96057,96109,96083
 2.2000e+000 96187 -9.5914e+001 -1.5792e+002  4.7427e+000 38240 95953,96005,95979
 2.2000e+000 96374 -6.7637e+001 -1.8407e+002 -6.0368e+000 38240 96135,96109,96348
 2.2000e+000 96397 -6.4679e+001 -1.6516e+002  2.6142e+000 38240 96135,96348,96031
 2.2000e+000 96618 -1.6952e+002 -4.4766e+002 -1.1019e+001 37821 96494,96546,96520
 2.2000e+000 96595 -1.0078e+002 -3.6190e+002  2.8503e+001 37821 96468,96546,96494
 2.2000e+000 96572 -5.1795e+001 -3.4087e+002  2.4708e+001 37821 96442,96546,96468
 2.2000e+000 97126 -4.9838e+001 -1.6907e+002 -2.8913e+000 37367 97149,96855,96829
 2.2000e+000 97103 -8.0765e+001 -1.8093e+002 -8.2947e+000 37367 97149,96829,96985
 2.2000e+000 97080 -8.3052e+001 -1.9047e+002 -1.2712e+001 37367 96803,96985,96829
 2.2000e+000 97057 -5.4931e+001 -1.6547e+002 -2.0263e+001 37367 96855,96907,96881
 2.2000e+000 97034 -1.1933e+002 -1.6655e+002 -1.0234e+001 37367 96907,96985,96959
 2.2000e+000 97011 -1.3632e+002 -1.6562e+002 -2.3555e+001 37367 96907,96959,96933
 2.2000e+000 97175 -7.9111e+001 -1.6823e+002 -1.7889e+001 37367 96907,96855,97149
 2.2000e+000 97198 -1.0125e+002 -1.7448e+002 -2.3021e+001 37367 96907,97149,96985
 2.2000e+000 97704 -1.3213e+002 -2.7969e+002  3.6571e+001 36863 97727,97511,97485
 2.2000e+000 97681 -1.2753e+002 -2.6202e+002  4.1296e+001 36863 97727,97485,97433
 2.2000e+000 97658 -1.6376e+002 -3.0091e+002  9.0085e+000 36863 97381,97563,97433
 2.2000e+000 97635 -9.6956e+001 -2.5737e+002  3.6790e+000 36863 97511,97563,97537
 2.2000e+000 97612 -6.9461e+001 -1.9287e+002  6.2213e+000 36863 97433,97485,97459
 2.2000e+000 97589 -2.0828e+002 -3.1674e+002  4.2847e+001 36863 97381,97433,97407
 2.2000e+000 97753 -1.2973e+002 -2.9418e+002  2.7552e+001 36863 97563,97511,97727
 2.2000e+000 97776 -1.2713e+002 -2.7797e+002  3.1541e+001 36863 97563,97727,97433
 2.2000e+000 98331 -1.4996e+002 -3.1397e+002  5.6062e+000 36287 98354,98089,98063
 2.2000e+000 98308 -1.3943e+002 -2.9863e+002  1.2637e+001 36287 98354,98063,98011
 2.2000e+000 98285 -1.6959e+002 -2.4747e+002  4.0441e+001 36287 98426,97985,98115
 2.2000e+000 98262 -1.3336e+002 -3.0700e+002  9.5439e+000 36287 98011,98063,98037
 2.2000e+000 98239 -1.7168e+002 -2.2619e+002  2.3807e+001 36287 97985,98141,98115
 2.2000e+000 98216 -1.2902e+002 -2.1558e+002  2.4673e+001 36287 97959,98141,97985
 2.2000e+000 98193 -8.7429e+001 -2.6343e+002  3.8038e+001 36287 97959,98167,98141
 2.2000e+000 98380 -1.5050e+002 -2.8856e+002 -1.2154e+001 36287 98115,98089,98354
 2.2000e+000 98403 -1.4113e+002 -2.4957e+002 -1.2862e-001 36287 98426,98115,98354
 2.2000e+000 98452 -2.0310e+002 -3.0180e+002  5.5099e+001 36287 98011,97985,98426
 2.2000e+000 98475 -1.8158e+002 -3.1740e+002  1.6931e+001 36287 98011,98426,98354
 2.2000e+000 99030 -1.5814e+002 -4.0469e+002 -2.0911e+001 35726 99053,98736,98710
 2.2000e+000 99007 -1.1377e+002 -3.4301e+002  7.6470e+000 35726 99053,98710,98684
 2.2000e+000 98984 -1.7508e+002 -3.3773e+002 -2.1613e+001 35726 99125,98814,98736
 2.2000e+000 98961 -1.5269e+002 -2.8365e+002  6.8273e-001 35726 98736,98814,98788
 2.2000e+000 98938 -1.5964e+002 -3.0500e+002  2.5144e+001 35726 98684,98866,98840
 2.2000e+000 98915 -1.3609e+002 -2.8076e+002  1.4045e+001 35726 98736,98788,98762
 2.2000e+000 98892 -1.1984e+002 -3.2634e+002  9.8893e+000 35726 98658,98866,98684
 2.2000e+000 99079 -1.3893e+002 -3.3680e+002 -8.3373e-001 35726 99125,98736,99053
 2.2000e+000 99102 -1.5851e+002 -2.9949e+002  9.4429e+000 35726 98840,99053,98684
 2.2000e+000 99151 -2.0803e+002 -3.5413e+002 -3.5403e+001 35726 98840,98814,99125
 2.2000e+000 99174 -1.8726e+002 -3.5306e+002 -1.0099e+001 35726 98840,99125,99053
 2.2000e+000 99454 -6.2498e+001 -2.2823e+002 -1.4420e+001 35222 99278,99330,99304
 2.2000e+000 99431 -8.0190e+001 -2.1705e+002  1.1620e+001 35222 99278,99382,99330
 2.2000e+000 99408 -1.3364e+002 -2.4601e+002 -6.9348e+000 35222 99330,99382,99356
 2.2000e+000 99653 -1.0321e+002 -3.8694e+002  9.8932e+000 34867 99477,99529,99503
 2.2000e+000 99630 -1.5455e+002 -3.1884e+002 -2.1856e+000 34867 99477,99581,99529
 2.2000e+000 99607 -1.3840e+002 -4.1952e+002 -8.8712e+001 34867 99529,99581,99555
 2.2000e+000 100104 -4.0087e+001 -1.9240e+002 -1.2675e+000 34363 99781,99885,99807
 2.2000e+000 100081 -7.5165e+001 -2.0704e+002 -1.1111e+000 34363 99781,99963,99885
 2.2000e+000 100058 -7.0352e+000 -1.8640e+002 -1.4871e+001 34363 99885,99963,99911
 2.2000e+000 100035 -1.7087e+001 -1.7550e+002  6.7251e+000 34363 99807,99885,99859
 2.2000e+000 100012 -2.3707e+001 -1.8943e+002 -3.7811e+001 34363 99911,99963,99937
 2.2000e+000 99989  1.8733e+001 -1.5311e+002  3.1001e+001 34363 99807,99859,99833
 2.2000e+000 100303 -1.1624e+002 -2.2899e+002 -3.5042e+001 33909 100127,100205,100179
 2.2000e+000 100280 -1.9177e+002 -2.6610e+002 -2.2169e+001 33909 100127,100231,100205
 2.2000e+000 100257 -1.5483e+002 -2.8861e+002  1.2483e+001 33909 100127,100179,100153
 2.2000e+000 100890 -9.0156e+001 -2.6649e+002 -8.6717e+000 33412 100645,100749,100697
 2.2000e+000 100867 -1.0260e+002 -3.0575e+002 -9.8500e+000 33412 100567,100749,100645
 2.2000e+000 100844 -1.0343e+002 -3.1491e+002 -1.1974e+001 33412 100567,100645,100619
 2.2000e+000 100821 -2.1227e+001 -2.8141e+002 -2.6629e+001 33412 100645,100697,100671
 2.2000e+000 100798 -1.2007e+002 -3.9027e+002  3.9764e-001 33412 100567,100619,100593
 2.2000e+000 100775 -1.3115e+002 -2.8153e+002  5.2044e+000 33412 100697,100749,100723
 2.2000e+000 101268 -1.0542e+002 -3.2696e+002  8.2663e+000 32908 101435,101291,101098
 2.2000e+000 101245 -1.1901e+002 -2.9795e+002  8.5519e+000 32908 101291,101072,101020
 2.2000e+000 101222 -1.1688e+002 -3.0227e+002 -1.6006e+001 32908 101363,101150,101124
 2.2000e+000 101199 -1.3570e+002 -2.9180e+002  7.0516e+001 32908 101020,101072,101046
 2.2000e+000 101176 -7.5784e+001 -2.8686e+002 -1.7389e+001 32908 100994,101150,101020
 2.2000e+000 101317 -8.5387e+001 -3.0870e+002  1.5962e-003 32908 101124,101098,101291
 2.2000e+000 101340 -1.1231e+002 -3.1245e+002  5.7074e-001 32908 101363,101124,101291
 2.2000e+000 101389 -1.0775e+002 -2.8432e+002 -1.2854e+001 32908 101020,101150,101363
 2.2000e+000 101412 -1.0064e+002 -2.8587e+002  3.0997e+000 32908 101020,101363,101291
 2.2000e+000 101461 -9.1299e+001 -2.9170e+002  1.3727e+001 32908 101072,101291,101435
 2.2000e+000 101918 -7.0165e+001 -2.3703e+002 -1.8017e+001 32618 101941,101670,101644
 2.2000e+000 101895 -4.4944e+001 -2.6017e+002  2.5434e+000 32618 101941,101644,101774
 2.2000e+000 101872 -1.0498e+002 -2.4127e+002  6.0898e+000 32618 102013,101696,101670
 2.2000e+000 101849 -2.0331e+001 -1.8730e+002 -4.5170e+001 32618 101696,101748,101722
 2.2000e+000 101826 -3.3812e+001 -2.4674e+002 -3.3422e+000 32618 101644,101800,101774
 2.2000e+000 101967 -1.0127e+002 -2.5928e+002 -8.1141e+000 32618 102013,101670,101941
 2.2000e+000 101990 -8.0123e+001 -2.8810e+002  1.6591e+001 32618 101748,101941,101774
 2.2000e+000 102039 -9.2562e+001 -2.3807e+002  6.4157e+000 32618 101748,101696,102013
 2.2000e+000 102062 -6.1626e+001 -2.4062e+002 -2.1521e+000 32618 101748,102013,101941
 2.2000e+000 102440 -1.6855e+002 -3.6920e+002  2.6134e+001 32306 102463,102270,102244
 2.2000e+000 102417 -1.7312e+002 -3.7450e+002  1.1062e+001 32306 102463,102244,102192
 2.2000e+000 102394 -1.5678e+002 -3.1855e+002  3.0824e+000 32306 102192,102244,102218
 2.2000e+000 102371 -1.6603e+002 -3.7504e+002  3.9633e+001 32306 102270,102322,102296
 2.2000e+000 102348 -1.0020e+002 -4.1864e+002 -1.0911e+001 32306 102166,102322,102192
 2.2000e+000 102489 -1.5060e+002 -3.6608e+002  3.4598e+001 32306 102322,102270,102463
 2.2000e+000 102512 -1.5622e+002 -3.7623e+002  1.8471e+001 32306 102322,102463,102192
 2.2000e+000 102662 -2.7895e+001 -2.5336e+002 -1.4535e+001 31852 102943,102587,102561
 2.2000e+000 102639 -1.1996e+001 -2.2946e+002  7.6590e+000 31852 102815,102685,102561
 2.2000e+000 102711 -5.4287e+001 -2.5765e+002 -1.6077e+001 31852 102943,102561,102685
 2.2000e+000 102841 -1.4462e+001 -1.6641e+002  4.0592e+001 31852 102535,102685,102815
 2.2000e+000 102969 -2.2337e+001 -2.5836e+002 -3.8266e+001 31852 102613,102587,102943
 2.2000e+000 102992 -5.0329e+001 -2.6454e+002 -3.9045e+001 31852 102613,102943,102685
 2.2000e+000 103370 -1.5592e+002 -3.2661e+002  9.8113e+000 31134 103096,103200,103122
 2.2000e+000 103347 -1.7949e+002 -3.8951e+002  3.4261e+001 31134 103096,103226,103200
 2.2000e+000 103324 -1.6470e+002 -3.2303e+002  5.3369e+000 31134 103122,103200,103174
 2.2000e+000 103301 -9.5831e+001 -3.6247e+002  7.8632e+000 31134 103096,103252,103226
 2.2000e+000 103278 -1.2034e+002 -3.4240e+002 -4.1079e+001 31134 103122,103174,103148
 2.2000e+000 103520  1.4017e+001 -3.1393e+002 -6.2566e+000 30822 103393,103445,103419
 2.2000e+000 103497  7.9407e+000 -2.1869e+002  1.5332e+001 30822 103393,103471,103445
 2.2000e+000 103719 -1.1359e+002 -3.1608e+002  3.6365e+000 30182 103742,103621,103569
 2.2000e+000 103696 -1.2682e+002 -3.1703e+002  5.3968e-001 30182 103742,103569,103543
 2.2000e+000 103673 -1.1120e+002 -3.1433e+002  6.4574e+000 30182 103569,103621,103595
 2.2000e+000 103768 -1.0385e+002 -3.1846e+002  5.2999e+000 30182 103647,103621,103742
 2.2000e+000 103791 -1.1166e+002 -3.1664e+002  3.0986e-001 30182 103647,103742,103543
 2.2000e+000 104252 -1.6043e+002 -3.0795e+002  8.2732e+000 29728 104030,104108,104056
 2.2000e+000 104229 -9.5955e+001 -2.0576e+002  4.5311e+001 29728 104004,104108,104030
 2.2000e+000 104206 -1.0530e+002 -2.3787e+002  3.3726e+001 29728 104004,104134,104108
 2.2000e+000 104183 -1.3254e+002 -2.6671e+002  3.6106e+000 29728 103978,104134,104004
 2.2000e+000 104160 -1.1983e+002 -2.9440e+002 -8.6779e+000 29728 104056,104108,104082
 2.2000e+000 104630 -7.3719e+001 -2.4468e+002 -4.4065e+001 29217 104653,104382,104356
 2.2000e+000 104607 -6.9347e+001 -2.4196e+002 -2.1016e+001 29217 104653,104356,104512
 2.2000e+000 104584 -9.4781e+001 -2.5452e+002 -2.2555e+001 29217 104434,104512,104486
 2.2000e+000 104561 -8.8241e+001 -2.9011e+002 -3.1802e+001 29217 104382,104434,104408
 2.2000e+000 104538 -3.6474e+001 -1.9807e+002  6.1615e+000 29217 104434,104486,104460
 2.2000e+000 104679 -8.8675e+001 -2.5101e+002 -4.2354e+001 29217 104434,104382,104653
 2.2000e+000 104702 -9.2839e+001 -2.5035e+002 -2.1702e+001 29217 104434,104653,104512
 2.2000e+000 105178 -1.2933e+002 -3.0259e+002  7.3074e+000 28649 105201,104962,104936
 2.2000e+000 105155 -1.2193e+002 -2.7820e+002  5.2517e+000 28649 105201,104936,104884
 2.2000e+000 105132 -1.2203e+002 -2.9790e+002 -7.2093e+000 28649 105273,104858,105014
 2.2000e+000 105109 -1.2631e+002 -3.1528e+002  2.0736e+000 28649 104962,105014,104988
 2.2000e+000 105086 -1.0759e+002 -2.6792e+002 -3.0072e+000 28649 104884,104936,104910
 2.2000e+000 105063 -1.4387e+002 -2.7802e+002  6.7586e+000 28649 104806,105014,104858
 2.2000e+000 105040 -1.7366e+002 -2.7435e+002 -8.2628e+000 28649 104806,104858,104832
 2.2000e+000 105227 -1.1749e+002 -3.0724e+002 -1.5022e+000 28649 105014,104962,105201
 2.2000e+000 105250 -1.1391e+002 -2.9878e+002 -1.7875e+000 28649 105273,105014,105201
 2.2000e+000 105299 -1.3177e+002 -2.9977e+002 -9.0129e+000 28649 104884,104858,105273
 2.2000e+000 105322 -1.2795e+002 -3.0239e+002 -2.6105e+000 28649 104884,105273,105201
 2.2000e+000 105673  1.1947e+001 -2.4584e+002  1.0735e-001 28351 105474,105578,105552
 2.2000e+000 105650  3.4170e+001 -1.8746e+002  3.0986e+000 28351 105448,105578,105474
 2.2000e+000 105627  1.2822e+001 -2.5096e+002  4.2463e+000 28351 105500,105552,105526
 2.2000e+000 105604  1.1009e+001 -2.4653e+002  7.2584e-001 28351 105474,105552,105500
 2.2000e+000 106130 -1.2699e+002 -2.0594e+002 -2.5528e+001 28004 106153,105882,105856
 2.2000e+000 106107 -1.1796e+002 -2.4132e+002 -1.0876e+001 28004 106153,105856,105986
 2.2000e+000 106084 -1.7750e+002 -2.5727e+002  1.2604e+001 28004 105934,105986,105960
 2.2000e+000 106061 -1.5018e+002 -2.5391e+002  2.5513e+000 28004 105856,106012,105986
 2.2000e+000 106038 -1.8697e+002 -2.9122e+002 -1.3592e+001 28004 105882,105934,105908
 2.2000e+000 106179 -1.6360e+002 -2.3521e+002 -1.0504e+001 28004 105934,105882,106153
 2.2000e+000 106202 -1.2858e+002 -2.5215e+002 -2.4357e+000 28004 105934,106153,105986
 2.2000e+000 106885 -1.6428e+002 -2.4139e+002 -6.2072e+000 27564 106908,106620,106516
 2.2000e+000 106862 -1.6327e+002 -2.3501e+002 -2.9139e+000 27564 106908,106516,106490
 2.2000e+000 106839 -1.4311e+002 -2.2529e+002 -2.2901e+001 27564 106516,106620,106542
 2.2000e+000 106816 -1.6077e+002 -2.1465e+002 -7.3346e+000 27564 106620,106672,106646
 2.2000e+000 106793 -1.1169e+002 -2.4936e+002 -3.8566e+001 27564 106542,106620,106594
 2.2000e+000 106770 -1.6214e+002 -2.1774e+002  8.4277e+000 27564 106490,106698,106672
 2.2000e+000 106747 -1.2396e+002 -2.4279e+002  4.3522e+001 27564 106464,106698,106490
 2.2000e+000 106724 -2.0765e+001 -1.9157e+002 -6.7832e+001 27564 106542,106594,106568
 2.2000e+000 106934 -1.6849e+002 -2.3547e+002 -7.9216e+000 27564 106672,106620,106908
 2.2000e+000 106957 -1.6734e+002 -2.2833e+002 -6.6256e+000 27564 106672,106908,106490
 2.2000e+000 107463 -1.6312e+002 -3.0499e+002 -1.3590e+000 27053 107218,107322,107296
 2.2000e+000 107440 -1.8134e+002 -3.4661e+002  3.6951e+000 27053 107166,107322,107218
 2.2000e+000 107417 -1.6673e+002 -3.4284e+002 -4.2711e+000 27053 107218,107296,107244
 2.2000e+000 107394 -1.7257e+002 -3.0385e+002  1.6437e+001 27053 107140,107322,107166
 2.2000e+000 107371 -1.7002e+002 -3.4733e+002  3.2020e+000 27053 107166,107218,107192
 2.2000e+000 107348 -1.8109e+002 -4.4244e+002 -2.8052e+001 27053 107244,107296,107270
 2.2000e+000 108097 -1.0944e+002 -2.7726e+002 -1.4943e+001 26549 108192,108120,107803
 2.2000e+000 108074 -1.0092e+002 -2.9625e+002  1.5986e+001 26549 108120,107725,107933
 2.2000e+000 108051 -3.7398e+001 -3.5545e+002  7.6797e+000 26549 107751,107803,107777
 2.2000e+000 108028 -1.0631e+002 -3.0016e+002 -2.1962e+001 26549 108192,107803,107751
 2.2000e+000 108005 -7.3897e+001 -1.9636e+002 -5.3806e+000 26549 108264,107855,107803
 2.2000e+000 107982 -4.3356e+001 -2.1177e+002 -1.5298e+001 26549 107881,107933,107907
 2.2000e+000 107959 -1.0006e+002 -2.1535e+002  7.2041e+000 26549 107803,107855,107829
 2.2000e+000 108146 -8.7358e+001 -2.2241e+002 -1.5416e+001 26549 108264,107803,108120
 2.2000e+000 108169 -8.8419e+001 -2.6148e+002  3.5711e+000 26549 107881,108120,107933
 2.2000e+000 108218 -1.0269e+002 -2.5378e+002  9.9270e-001 26549 107725,108120,108192
 2.2000e+000 108241 -9.8222e+001 -2.7199e+002 -7.1110e+000 26549 107725,108192,107751
 2.2000e+000 108290 -5.5553e+001 -2.2938e+002 -1.0995e+001 26549 107881,107855,108264
 2.2000e+000 108313 -6.7808e+001 -2.5887e+002 -1.7762e+001 26549 107881,108264,108120
 2.2000e+000 108512 -1.1841e+002 -3.8560e+002 -2.3924e+001 26137 108388,108440,108414
 2.2000e+000 108489 -8.6709e+001 -3.4594e+002  3.4965e+000 26137 108362,108440,108388
 2.2000e+000 108466 -1.2781e+002 -3.7088e+002 -8.2115e+000 26137 108336,108440,108362
 2.2000e+000 108662 -8.8435e+001 -2.6228e+002 -2.7337e+000 25733 108817,108685,108535
 2.2000e+000 108639 -1.0415e+002 -2.8572e+002  9.0704e+000 25733 109017,108817,108535
 2.2000e+000 108711 -9.6518e+001 -2.7268e+002  1.7337e+000 25733 108561,108535,108685
 2.2000e+000 108843 -8.4403e+001 -2.7506e+002 -6.5668e-003 25733 108587,108685,108817
 2.2000e+000 108866 -6.8904e+001 -2.5922e+002 -3.9539e+000 25733 108889,108817,108613
 2.2000e+000 108915 -6.5350e+001 -2.5552e+002 -8.5271e+000 25733 108587,108817,108889
 2.2000e+000 109043 -7.5216e+001 -2.3629e+002 -3.4091e+000 25733 108613,108817,109017
 2.2000e+000 109500 -2.0242e+002 -3.4034e+002  3.8554e+001 25229 109523,109356,109330
 2.2000e+000 109477 -1.3659e+002 -2.8943e+002 -4.9914e+000 25229 109595,109523,109330
 2.2000e+000 109454 -1.4263e+002 -2.7924e+002 -1.5949e+001 25229 109595,109330,109278
 2.2000e+000 109431 -1.4359e+002 -2.7457e+002  2.6392e+000 25229 109667,109226,109382
 2.2000e+000 109408 -1.3381e+002 -3.1992e+002 -4.5305e+001 25229 109278,109330,109304
 2.2000e+000 109549 -1.3253e+002 -3.0114e+002  1.2437e+001 25229 109382,109356,109523
 2.2000e+000 109572 -1.3948e+002 -2.8060e+002  1.4115e+000 25229 109667,109382,109523
 2.2000e+000 109621 -1.4918e+002 -3.3632e+002 -1.4156e+001 25229 109252,109523,109595
 2.2000e+000 109644 -1.2444e+002 -2.8494e+002 -3.3841e+000 25229 109739,109595,109278
 2.2000e+000 109693 -9.4716e+001 -2.9893e+002  5.2498e+000 25229 109252,109226,109667
 2.2000e+000 109716 -1.2241e+002 -3.2703e+002 -8.9459e+000 25229 109252,109667,109523
 2.2000e+000 109765 -1.5537e+002 -3.0183e+002 -1.1263e+001 25229 109252,109595,109739
 2.2000e+000 110478 -1.0333e+002 -2.8426e+002  3.7456e+001 24917 110158,110236,110184
 2.2000e+000 110455 -1.6421e+002 -3.2199e+002 -6.3300e-001 24917 110158,110288,110236
 2.2000e+000 110432 -1.3739e+002 -3.5394e+002  3.9181e+000 24917 110236,110288,110262
 2.2000e+000 110409 -1.3957e+002 -3.4895e+002  2.0467e+001 24917 110184,110236,110210
 2.2000e+000 110386 -1.9382e+002 -3.5262e+002 -1.7875e+001 24917 110132,110288,110158
 2.2000e+000 110363 -1.7778e+002 -3.3164e+002  1.6095e+001 24917 110132,110314,110288
 2.2000e+000 110340 -1.9392e+002 -3.8521e+002  5.6062e+001 24917 110106,110314,110132
 2.2000e+000 110829 -1.1881e+002 -3.0531e+002 -1.5678e+001 24307 110604,110682,110630
 2.2000e+000 110806 -2.0561e+002 -4.3119e+002  2.2991e+001 24307 110604,110708,110682
 2.2000e+000 110783 -6.8184e+001 -3.8275e+002  4.2248e+001 24307 110604,110734,110708
 2.2000e+000 110760 -5.5987e+001 -2.7840e+002 -1.7974e+001 24307 110630,110682,110656
 2.2000e+000 111335 -8.7286e+001 -2.4528e+002 -3.1196e+001 23767 111012,111168,111038
 2.2000e+000 111312 -1.3453e+002 -2.9476e+002 -6.1333e+000 23767 111012,111194,111168
 2.2000e+000 111289 -1.7071e+002 -3.2033e+002  2.8893e+001 23767 111358,111064,111038
 2.2000e+000 111266 -1.3330e+002 -2.9825e+002 -3.0551e+000 23767 111358,111038,111168
 2.2000e+000 111243 -9.7567e+001 -2.8497e+002 -3.2762e+000 23767 111430,111142,111090
 2.2000e+000 111220 -3.2811e+001 -2.5682e+002  9.5691e+000 23767 111090,111142,111116
 2.2000e+000 111384 -1.5058e+002 -3.0427e+002 -3.7158e+000 23767 111090,111064,111358
 2.2000e+000 111407 -1.4818e+002 -2.8812e+002 -8.5312e+000 23767 111430,111090,111358
 2.2000e+000 111456 -5.0403e+001 -3.0026e+002 -1.5886e+001 23767 111168,111142,111430
 2.2000e+000 111479 -8.0617e+001 -2.8809e+002 -1.7877e+001 23767 111168,111430,111358
 2.2000e+000 111985 -9.3302e+001 -1.8323e+002  1.4973e+001 23477 111688,111844,111818
 2.2000e+000 111962 -9.3471e+001 -2.0032e+002 -2.0124e+001 23477 111662,111844,111688
 2.2000e+000 111939 -4.0940e+001 -2.9176e+002  2.3076e+001 23477 111766,111818,111792
 2.2000e+000 111916 -1.1775e+002 -2.8564e+002  1.7483e+001 23477 111740,111818,111766
 2.2000e+000 111893 -6.9345e+001 -1.7109e+002  2.2174e+001 23477 111688,111818,111740
 2.2000e+000 111870 -1.1930e+002 -2.0179e+002  3.5129e+001 23477 111688,111740,111714
 2.2000e+000 112314 -9.4411e+001 -2.2955e+002  2.5630e+000 23023 112141,112219,112193
 2.2000e+000 112291 -8.8508e+001 -2.0744e+002  1.1679e+000 23023 112115,112219,112141
 2.2000e+000 112268 -1.0948e+002 -2.6723e+002 -2.6167e-001 23023 112141,112193,112167
 2.2000e+000 112245 -1.1512e+002 -2.5017e+002 -1.0301e+001 23023 112089,112219,112115
 2.2000e+000 112692 -1.2520e+002 -2.7704e+002 -4.3199e+000 22768 112444,112574,112548
 2.2000e+000 112669 -1.0790e+002 -3.0332e+002  1.1927e+000 22768 112418,112574,112444
 2.2000e+000 112646 -1.5726e+002 -3.1714e+002 -2.2475e+000 22768 112444,112522,112470
 2.2000e+000 112623 -1.3197e+002 -2.8301e+002 -1.3503e+001 22768 112444,112548,112522
 2.2000e+000 112600 -9.8872e+001 -2.8937e+002 -2.7103e+001 22768 112470,112522,112496
 2.2000e+000 113011 -4.1914e+001 -2.6741e+002 -1.6894e+001 22314 112763,112867,112789
 2.2000e+000 112988 -8.7856e+000 -2.5207e+002 -2.6824e+001 22314 112763,112893,112867
 2.2000e+000 112965 -3.9471e+001 -2.6560e+002  0.0000e+000 22314 112815,112867,112841
 2.2000e+000 112942 -6.1465e+001 -2.7560e+002 -1.6613e+001 22314 112789,112867,112815
 2.2000e+000 112919 -1.1860e+001 -2.0054e+002  4.8799e+001 22314 112737,112893,112763
 2.2000e+000 113519 -3.2713e+001 -2.1643e+002  2.4757e+001 21924 113614,113542,113248
 2.2000e+000 113496 -4.3489e+001 -2.1410e+002  1.5478e+001 21924 113542,113196,113378
 2.2000e+000 113473 -1.1519e+001 -2.1957e+002  2.5734e+001 21924 113614,113248,113222
 2.2000e+000 113450 -6.4336e+001 -2.8495e+002  1.6350e+001 21924 113686,113274,113248
 2.2000e+000 113427 -9.0735e+001 -3.0581e+002 -1.2261e+001 21924 113274,113352,113326
 2.2000e+000 113404 -1.4085e+002 -3.8462e+002 -3.4019e+001 21924 113274,113326,113300
 2.2000e+000 113568 -4.2771e+001 -2.4642e+002  2.5007e+001 21924 113686,113248,113542
 2.2000e+000 113591 -3.4158e+001 -1.9105e+002  1.6117e+001 21924 113352,113542,113378
 2.2000e+000 113640 -1.2231e+001 -2.0792e+002  3.3348e+001 21924 113196,113542,113614
 2.2000e+000 113663 -2.3257e+000 -2.1796e+002  3.5408e+001 21924 113196,113614,113222
 2.2000e+000 113712 -8.4825e+001 -2.4296e+002 -9.7327e-001 21924 113352,113274,113686
 2.2000e+000 113735 -7.3182e+001 -2.1987e+002  3.4148e+000 21924 113352,113686,113542
 2.2000e+000 113885 -1.8939e+002 -2.5041e+002 -1.2376e+000 21520 113980,113908,113784
 2.2000e+000 113862 -1.4463e+002 -2.1644e+002 -3.1425e+001 21520 114238,113908,113758
 2.2000e+000 113934 -1.2976e+002 -2.1936e+002  7.3030e+000 21520 114110,113908,113810
 2.2000e+000 113957 -1.1591e+002 -2.4913e+002 -2.7440e+001 21520 113810,113908,113836
 2.2000e+000 114006 -1.4143e+002 -2.1365e+002 -1.7228e+001 21520 113758,113908,113980
 2.2000e+000 114136 -1.6915e+002 -2.4970e+002 -9.6882e+000 21520 113784,113908,114110
 2.2000e+000 114264 -1.6884e+002 -2.7204e+002 -4.9764e+001 21520 113836,113908,114238
 2.2000e+000 114662 -1.2148e+002 -3.2276e+002  4.2347e+000 21030 114414,114518,114492
 2.2000e+000 114639 -7.7255e+001 -2.6149e+002 -1.5152e+001 21030 114414,114544,114518
 2.2000e+000 114616 -1.9109e+002 -3.6119e+002  3.9426e+000 21030 114440,114492,114466
 2.2000e+000 114593 -1.2556e+002 -3.3276e+002  2.9986e+000 21030 114414,114492,114440
 2.2000e+000 114570 -1.3460e+002 -2.8790e+002 -2.1720e+001 21030 114388,114544,114414
 2.2000e+000 114959 -1.9572e+002 -3.2034e+002  1.8393e+001 20512 114982,114711,114685
 2.2000e+000 114936 -1.8277e+002 -3.1042e+002 -5.7356e+000 20512 115054,114982,114685
 2.2000e+000 114913 -1.5392e+002 -2.8206e+002 -1.8116e+001 20512 115054,114685,114841
 2.2000e+000 114890 -1.5459e+002 -3.0168e+002  1.9782e+000 20512 114711,114763,114737
 2.2000e+000 114867 -8.6001e+001 -2.9051e+002 -3.0658e+000 20512 114763,114815,114789
 2.2000e+000 115008 -1.7404e+002 -3.1645e+002  9.4694e+000 20512 114763,114711,114982
 2.2000e+000 115031 -1.6051e+002 -3.0752e+002 -6.0918e+000 20512 114763,114982,114815
 2.2000e+000 115080 -1.6750e+002 -3.1895e+002  1.0614e+000 20512 114815,114982,115054
 2.2000e+000 115103 -1.6734e+002 -3.1651e+002  7.9835e-001 20512 114815,115054,114841
 2.2000e+000 115507 -1.5719e+002 -2.8356e+002 -1.3561e+001 20143 115285,115389,115363
 2.2000e+000 115484 -1.8147e+002 -3.1365e+002 -1.8704e+000 20143 115259,115389,115285
 2.2000e+000 115461 -1.7052e+002 -2.8850e+002  1.3874e+000 20143 115233,115389,115259
 2.2000e+000 115438 -1.3839e+002 -3.1930e+002  5.5155e+000 20143 115285,115337,115311
 2.2000e+000 115415 -1.9164e+002 -3.6572e+002 -1.5609e+001 20143 115285,115363,115337
 2.2000e+000 115875 -1.5960e+002 -3.2073e+002 -7.4106e+000 19632 115656,115734,115682
 2.2000e+000 115852 -1.1702e+002 -2.9647e+002  1.3645e+001 19632 115552,115734,115656
 2.2000e+000 115829 -1.1069e+002 -2.7762e+002 -6.1808e+000 19632 115552,115656,115578
 2.2000e+000 115806 -1.3397e+002 -3.3131e+002  4.5758e+000 19632 115578,115656,115630
 2.2000e+000 115783 -1.8028e+002 -3.1807e+002  1.3307e+001 19632 115682,115734,115708
 2.2000e+000 115760 -1.6398e+002 -3.3159e+002 -3.1850e+001 19632 115578,115630,115604
 2.2000e+000 116025 -9.3975e+001 -3.1037e+002 -2.1346e+001 19178 115898,115950,115924
 2.2000e+000 116002 -8.3236e+001 -3.1533e+002 -3.5927e+001 19178 115898,115976,115950
 2.2000e+000 116633 -1.5627e+002 -3.2735e+002  1.3129e+000 18738 116800,116656,116342
 2.2000e+000 116610 -1.6643e+002 -3.5674e+002  1.1921e+001 18738 116656,116238,116446
 2.2000e+000 116587 -1.7744e+002 -3.4758e+002 -1.0900e+001 18738 116728,116368,116342
 2.2000e+000 116564 -1.5846e+002 -3.1171e+002 -8.5562e+000 18738 116800,116342,116264
 2.2000e+000 116541 -1.7328e+002 -4.6256e+002  3.9994e+001 18738 116212,116446,116238
 2.2000e+000 116518 -3.5931e+001 -2.6129e+002  1.9607e+001 18738 116394,116446,116420
 2.2000e+000 116495 -3.6558e+001 -2.7479e+002 -3.9967e+001 18738 116264,116342,116316
 2.2000e+000 116472 -1.0645e+002 -3.4174e+002  2.0442e+001 18738 116264,116316,116290
 2.2000e+000 116682 -1.7236e+002 -3.4083e+002  9.1720e+000 18738 116728,116342,116656
 2.2000e+000 116705 -1.6258e+002 -3.1079e+002  1.5597e+001 18738 116394,116656,116446
 2.2000e+000 116754 -2.0879e+002 -3.5930e+002 -2.3943e+001 18738 116394,116368,116728
 2.2000e+000 116777 -2.0632e+002 -3.5195e+002 -3.4398e+000 18738 116394,116728,116656
 2.2000e+000 116826 -1.5647e+002 -3.5607e+002  8.3880e+000 18738 116238,116656,116800
 2.2000e+000 116849 -1.5396e+002 -3.3775e+002 -3.5552e+000 18738 116238,116800,116264
 2.2000e+000 116999 -9.0287e+001 -2.7804e+002  9.4404e+000 18184 116872,116924,116898
 2.2000e+000 116976 -8.7481e+001 -1.5601e+002 -7.9701e+000 18184 116872,116950,116924
 2.2000e+000 117330 -4.3982e+001 -3.2340e+002  1.7485e+001 17694 117157,117235,117183
 2.2000e+000 117307 -4.8757e+001 -3.5614e+002  2.7550e+000 17694 117131,117235,117157
 2.2000e+000 117284 -8.3728e+000 -3.8478e+002 -1.4736e+001 17694 117105,117235,117131
 2.2000e+000 117261  1.8320e+001 -2.1999e+002 -1.1663e+001 17694 117183,117235,117209
 2.2000e+000 117480 -1.6432e+002 -3.5101e+002 -4.9267e+001 17290 117353,117405,117379
 2.2000e+000 117457 -1.2834e+002 -4.1591e+002 -3.9709e+001 17290 117353,117431,117405
 2.2000e+000 117679 -9.0154e+001 -2.8573e+002 -1.1022e+001 16718 117555,117607,117581
 2.2000e+000 117656 -1.3852e+002 -3.3992e+002  1.6124e+001 16718 117529,117607,117555
 2.2000e+000 117633 -7.7673e+000 -3.3579e+002  8.5772e+000 16718 117503,117607,117529
 2.2000e+000 117782 -1.4699e+002 -3.4741e+002  7.3193e+000 16520 117704,117756,117730
 2.2000e+000 117983 -1.2594e+001 -2.6956e+002 -2.6532e+000 16208 117859,117911,117885
 2.2000e+000 117960 -1.2024e+002 -3.2002e+002  1.2140e+001 16208 117833,117911,117859
 2.2000e+000 117937 -1.1989e+002 -3.4421e+002  1.0690e+000 16208 117807,117911,117833
 2.2000e+000 118135 -2.6547e+002 -4.0117e+002 -3.8123e+001 15674 118034,118086,118060
 2.2000e+000 118112 -1.6549e+002 -3.2795e+002  6.4671e+000 15674 118008,118086,118034
 2.2000e+000 118238 -4.4967e+001 -2.6078e+002  1.8482e+000 15355 118160,118212,118186
 2.2000e+000 118341 -2.1911e+002 -3.7240e+002  6.1790e+001 421 118263,118315,118289
 2.3000e+000 68152 -4.3342e+001 -2.4965e+002 -1.2150e+001 67838 68074,68126,68100
 2.3000e+000 68550 -7.9633e+000 -5.3093e+002  1.3593e+001 67526 68276,68380,68302
 2.3000e+000 68527  2.6146e+000 -5.5869e+002 -7.1657e+000 67526 68276,68406,68380
 2.3000e+000 68504 -1.8778e+001 -4.7967e+002  4.9905e+000 67526 68328,68380,68354
 2.3000e+000 68481  1.2746e+001 -4.8265e+002  1.2883e+001 67526 68302,68380,68328
 2.3000e+000 68458  1.8988e+001 -5.0225e+002 -8.9970e+000 67526 68276,68432,68406
 2.3000e+000 68651 -1.5725e+002 -3.1932e+002  6.0091e+001 67328 68573,68625,68599
 2.3000e+000 68970 -4.3539e+001 -3.2802e+002 -1.3149e+001 67016 68722,68800,68774
 2.3000e+000 68947 -2.9931e+001 -2.7587e+002 -2.2767e+001 67016 68722,68826,68800
 2.3000e+000 68924 -8.6810e+001 -3.1899e+002 -2.1477e+000 67016 68696,68826,68722
 2.3000e+000 68901 -4.2434e+001 -3.4345e+002 -2.4464e+001 67016 68722,68774,68748
 2.3000e+000 68878 -1.2822e+002 -2.9961e+002 -5.7099e+001 67016 68696,68852,68826
 2.3000e+000 69291 -1.4843e+002 -3.9849e+002 -1.6594e+001 66654 69069,69147,69095
 2.3000e+000 69268 -1.0820e+002 -4.8039e+002 -2.7124e+000 66654 69069,69173,69147
 2.3000e+000 69245 -1.9164e+002 -4.6276e+002  7.6664e+001 66654 69043,69173,69069
 2.3000e+000 69222 -2.2163e+002 -5.0669e+002  2.8072e+001 66654 69095,69147,69121
 2.3000e+000 69199 -2.3980e+002 -4.6589e+002  1.1180e+001 66654 69017,69173,69043
 2.3000e+000 69695  5.5760e+000 -5.0073e+002  1.7968e+001 66456 69447,69577,69551
 2.3000e+000 69672  7.6057e+000 -4.3801e+002 -2.0069e+001 66456 69421,69577,69447
 2.3000e+000 69649  2.1422e+001 -2.7941e+002 -2.7352e+001 66456 69473,69551,69525
 2.3000e+000 69626  4.1649e+001 -4.1321e+002  1.9355e+001 66456 69447,69551,69473
 2.3000e+000 69603  5.9075e+001 -2.5206e+002 -9.2157e+001 66456 69473,69525,69499
 2.3000e+000 70024 -5.9323e+001 -3.6866e+002  3.9334e+000 66258 70047,69851,69825
 2.3000e+000 70001 -5.8080e+001 -3.4292e+002  2.2983e+001 66258 70047,69825,69903
 2.3000e+000 69978 -8.5615e+001 -4.9449e+002  5.3084e+001 66258 69799,69903,69825
 2.3000e+000 69955 -1.7641e+001 -6.4603e+002  1.0858e+002 66258 69799,69929,69903
 2.3000e+000 70073 -8.3389e+001 -3.6604e+002 -2.0470e+001 66258 69877,69851,70047
 2.3000e+000 70096 -8.3204e+001 -3.3356e+002 -1.2377e+000 66258 69877,70047,69903
 2.3000e+000 70602  4.5510e+001 -2.4069e+002 -5.3716e+001 66060 70305,70435,70331
 2.3000e+000 70579 -1.5670e+002 -4.0218e+002  2.4504e+001 66060 70279,70435,70305
 2.3000e+000 70556 -1.6516e+002 -3.0753e+002 -6.7996e+001 66060 70331,70435,70409
 2.3000e+000 70533 -1.1014e+002 -3.2155e+002  6.3110e+001 66060 70279,70461,70435
 2.3000e+000 70510 -5.7241e+001 -1.9808e+002 -1.1787e+002 66060 70331,70409,70357
 2.3000e+000 70487 -5.5526e+000 -2.1548e+002 -3.2286e+001 66060 70357,70409,70383
 2.3000e+000 70703 -3.6386e+002 -5.8795e+002 -2.0466e+001 65862 70625,70677,70651
 2.3000e+000 71083 -9.7589e+001 -4.1743e+002  2.9201e+001 65664 70887,70965,70939
 2.3000e+000 71060 -3.1981e+001 -4.5610e+002  1.7203e+001 65664 70861,70965,70887
 2.3000e+000 71037 -4.0098e+001 -4.5599e+002  1.0186e+001 65664 70809,70965,70861
 2.3000e+000 71014 -4.1371e+001 -4.8487e+002 -3.3870e+000 65664 70809,70861,70835
 2.3000e+000 70991 -8.5604e+001 -4.1723e+002 -1.4261e+000 65664 70887,70939,70913
 2.3000e+000 71611 -1.5864e+002 -6.0488e+002 -3.8272e+001 65260 71288,71444,71314
 2.3000e+000 71588 -1.2324e+002 -5.4150e+002 -2.0825e+000 65260 71288,71470,71444
 2.3000e+000 71565  2.2569e+001 -3.1761e+002  1.8948e+001 65260 71314,71418,71392
 2.3000e+000 71542 -1.1491e+002 -5.0105e+002 -4.2166e+001 65260 71314,71444,71418
 2.3000e+000 71519 -1.3902e+002 -3.7547e+002  2.5201e+001 65260 71314,71392,71340
 2.3000e+000 71496 -6.8815e+001 -2.3043e+002  9.2291e+001 65260 71340,71392,71366
 2.3000e+000 72060 -7.8071e+001 -2.5290e+002 -2.0714e+001 64870 71737,71893,71789
 2.3000e+000 72037  7.2723e+001 -1.8771e+002 -1.3955e+001 64870 71737,71919,71893
 2.3000e+000 72014 -9.9702e+001 -2.0460e+002  1.5177e+001 64870 71789,71841,71815
 2.3000e+000 71991 -5.0013e+001 -2.2017e+002 -6.2961e+000 64870 71789,71893,71841
 2.3000e+000 71968 -3.9635e+001 -2.7727e+002 -8.3177e+001 64870 71737,71789,71763
 2.3000e+000 71945 -4.0714e+001 -2.5496e+002  0.0000e+000 64870 71841,71893,71867
 2.3000e+000 72517 -1.4992e+002 -2.3344e+002 -2.0427e+001 64466 72321,72399,72347
 2.3000e+000 72494 -1.3976e+002 -2.1585e+002 -1.4759e+001 64466 72269,72399,72321
 2.3000e+000 72471 -1.4928e+002 -2.4886e+002  1.4551e+001 64466 72347,72399,72373
 2.3000e+000 72448 -1.6060e+002 -2.5067e+002 -6.8624e+001 64466 72243,72399,72269
 2.3000e+000 72425 -1.8496e+002 -3.1203e+002 -2.0053e+000 64466 72269,72321,72295
 2.3000e+000 72944 -9.5648e+000 -1.8140e+002 -1.6169e+001 64062 73111,73039,72699
 2.3000e+000 72921  1.4466e+000 -2.1387e+002 -2.5952e+001 64062 73183,72967,72647
 2.3000e+000 72898  1.7804e+001 -1.8399e+002 -8.4681e+000 64062 72967,72803,72751
 2.3000e+000 72875  2.0586e+001 -1.6845e+002 -1.3920e+001 64062 73111,72699,72673
 2.3000e+000 72852  1.2383e+001 -2.3392e+002 -1.7412e+001 64062 73183,72647,72621
 2.3000e+000 72829 -1.7795e+001 -1.5751e+002 -4.8765e+001 64062 72751,72803,72777
 2.3000e+000 72993  2.2295e+001 -1.8687e+002 -1.2424e+001 64062 73039,72647,72967
 2.3000e+000 73016 -5.0829e+001 -2.2328e+002 -2.4302e+001 64062 72725,72967,72751
 2.3000e+000 73065  1.3076e+001 -2.5404e+002  9.1796e+001 64062 72725,72699,73039
 2.3000e+000 73088  1.8864e+001 -2.1270e+002 -3.0996e+001 64062 72725,73039,72967
 2.3000e+000 73137  5.7334e+001 -1.7152e+002 -9.5669e+000 64062 72647,73039,73111
 2.3000e+000 73160  6.2965e+001 -1.7073e+002 -5.4574e+000 64062 72647,73111,72673
 2.3000e+000 73209  4.3609e+000 -2.3374e+002 -1.0180e+001 64062 72803,72967,73183
 2.3000e+000 73232 -1.1650e-001 -2.7937e+002 -4.0251e+000 64062 72803,73183,72621
 2.3000e+000 73333 -2.8935e+002 -5.5886e+002  2.7005e+001 63814 73356,73281,73255
 2.3000e+000 73382 -2.1395e+002 -3.6124e+002  1.5620e+001 63814 73486,73356,73307
 2.3000e+000 73512 -2.9512e+002 -3.9521e+002 -4.0883e+001 63814 73281,73356,73486
 2.3000e+000 73839 -1.5396e+002 -4.9049e+002 -3.5396e+001 63616 73862,73692,73666
 2.3000e+000 73816 -1.5118e+002 -4.2632e+002 -9.5423e+000 63616 73934,73862,73666
 2.3000e+000 73793 -1.3441e+002 -4.2736e+002  5.0384e+000 63616 73934,73666,73640
 2.3000e+000 73770 -1.2509e+002 -4.1452e+002  1.2511e+001 63616 73614,73744,73640
 2.3000e+000 73888 -1.4104e+002 -4.2347e+002 -4.6287e+001 63616 73718,73692,73862
 2.3000e+000 73911 -1.7190e+002 -4.0958e+002 -6.7979e+000 63616 73718,73862,73744
 2.3000e+000 73960 -1.7812e+002 -4.3188e+002 -1.2275e+001 63616 73744,73862,73934
 2.3000e+000 73983 -1.6701e+002 -4.3960e+002 -3.9044e-001 63616 73744,73934,73640
 2.3000e+000 74363 -5.6176e+001 -2.4233e+002 -1.8767e+000 63390 74386,74115,74089
 2.3000e+000 74340 -3.5037e+001 -1.9244e+002 -1.8228e+001 63390 74458,74386,74089
 2.3000e+000 74317 -2.9755e+001 -1.9456e+002 -8.8994e+000 63390 74458,74089,74245
 2.3000e+000 74294 -4.9580e+001 -2.8814e+002 -2.9413e+001 63390 74530,74167,74141
 2.3000e+000 74271 -9.2029e+001 -2.5445e+002 -7.0885e+001 63390 74167,74219,74193
 2.3000e+000 74412 -5.6479e+000 -2.2312e+002  1.3982e+000 63390 74141,74115,74386
 2.3000e+000 74435 -1.3293e+001 -2.6418e+002 -7.7527e+000 63390 74530,74141,74386
 2.3000e+000 74484 -2.6854e+001 -1.8027e+002 -1.0891e+001 63390 74219,74386,74458
 2.3000e+000 74507 -1.6320e+001 -1.7812e+002 -7.4642e-001 63390 74219,74458,74245
 2.3000e+000 74556 -1.0582e+002 -2.6714e+002 -6.3120e+001 63390 74219,74167,74530
 2.3000e+000 74579 -7.0262e+001 -2.3643e+002 -3.8752e+001 63390 74219,74530,74386
 2.3000e+000 74680 -7.2409e+001 -2.6072e+002  2.2820e+001 63100 75089,74833,74703
 2.3000e+000 74729 -1.3883e+002 -2.9511e+002 -1.6355e+001 63100 74961,74703,74654
 2.3000e+000 74859 -5.2579e+001 -2.1746e+002  4.1439e+001 63100 74602,74703,74833
 2.3000e+000 74987 -1.0938e+002 -2.2022e+002 -7.5397e+000 63100 75089,74703,74961
 2.3000e+000 75115 -1.4017e+000 -2.1266e+002  1.6538e+000 63100 74628,74833,75089
 2.3000e+000 75138 -3.8337e+001 -1.7251e+002 -2.8551e+001 63100 74628,75089,74961
 2.3000e+000 75723 -7.7553e+001 -2.3570e+002  1.7703e+001 62532 75746,75504,75426
 2.3000e+000 75700 -8.9608e+001 -2.1667e+002  2.4883e+001 62532 75746,75426,75556
 2.3000e+000 75677 -1.2296e+002 -3.1011e+002 -1.3607e+001 62532 75426,75504,75452
 2.3000e+000 75654 -1.4442e+002 -1.8253e+002 -3.7809e+001 62532 75400,75556,75426
 2.3000e+000 75631 -1.5527e+002 -2.4587e+002 -8.0948e+001 62532 75400,75582,75556
 2.3000e+000 75608 -1.9201e+002 -1.2424e+002 -5.3116e+001 62532 75452,75504,75478
 2.3000e+000 75772 -8.7902e+001 -2.4662e+002  1.3376e+001 62532 75530,75504,75746
 2.3000e+000 75795 -1.0449e+002 -2.2992e+002  1.9171e+001 62532 75530,75746,75556
 2.3000e+000 76301 -1.3956e+002 -3.1148e+002 -3.4543e-002 62192 76324,76082,76030
 2.3000e+000 76278 -1.3972e+002 -2.8845e+002  8.8360e+000 62192 76324,76030,76004
 2.3000e+000 76255 -5.7315e+001 -2.8910e+002  3.0959e+001 62192 76030,76082,76056
 2.3000e+000 76232 -1.5838e+002 -3.3979e+002 -6.8778e+001 62192 76082,76134,76108
 2.3000e+000 76209 -1.2469e+002 -2.4800e+002 -3.6573e+001 62192 76004,76160,76134
 2.3000e+000 76186 -7.5140e+001 -2.5776e+002 -1.8455e+001 62192 75978,76160,76004
 2.3000e+000 76350 -1.5733e+002 -2.8386e+002 -1.6876e+000 62192 76134,76082,76324
 2.3000e+000 76373 -1.4844e+002 -2.4759e+002  4.9051e+000 62192 76134,76324,76004
 2.3000e+000 76879 -1.2142e+002 -3.1208e+002 -2.7029e+001 61788 76902,76660,76582
 2.3000e+000 76856 -1.2474e+002 -3.1203e+002 -2.6686e+001 61788 76902,76582,76556
 2.3000e+000 76833 -7.8812e+001 -2.6777e+002 -6.9209e+001 61788 76582,76660,76634
 2.3000e+000 76810 -1.3473e+002 -1.7978e+002 -8.6437e+001 61788 76582,76634,76608
 2.3000e+000 76787 -1.0479e+002 -3.2678e+002  4.3382e+001 61788 76556,76738,76686
 2.3000e+000 76764 -3.0524e+001 -1.7901e+002 -2.7676e+000 61788 76686,76738,76712
 2.3000e+000 76928 -1.1978e+002 -3.1197e+002 -2.7348e+001 61788 76686,76660,76902
 2.3000e+000 76951 -1.2243e+002 -3.1130e+002 -2.7264e+001 61788 76686,76902,76556
 2.3000e+000 77408 -1.4925e+002 -2.5340e+002 -2.2404e+001 61498 77212,77264,77238
 2.3000e+000 77385 -1.1763e+002 -2.0683e+002  7.8905e+000 61498 77160,77264,77212
 2.3000e+000 77362 -1.7046e+002 -2.3688e+002 -4.4425e+000 61498 77160,77290,77264
 2.3000e+000 77339 -6.5468e+001 -2.1129e+002  2.7254e+000 61498 77160,77212,77186
 2.3000e+000 77316 -1.2942e+002 -2.2906e+002  9.5858e+001 61498 77134,77290,77160
 2.3000e+000 77678 -8.6763e+001 -4.6335e+002 -4.1744e+001 61129 77479,77557,77505
 2.3000e+000 77655 -1.4537e+002 -4.7438e+002 -1.2600e+001 61129 77479,77583,77557
 2.3000e+000 77632 -5.9148e+001 -4.2428e+002  2.9746e+001 61129 77453,77583,77479
 2.3000e+000 77609 -5.8251e+001 -4.6123e+002 -4.9384e+001 61129 77505,77557,77531
 2.3000e+000 77828 -4.0281e+001 -4.0981e+002  6.9290e+000 60931 77851,77727,77701
 2.3000e+000 77805 -1.0649e+002 -4.6469e+002  3.1420e+001 60931 77851,77701,77779
 2.3000e+000 77877 -2.0520e+002 -5.3276e+002  9.3816e+001 60931 77923,77851,77753
 2.3000e+000 77900 -4.2416e+001 -4.5530e+002  4.9913e+001 60931 77753,77851,77779
 2.3000e+000 77949 -7.5609e+001 -3.0882e+002  1.8813e+001 60931 77727,77851,77923
 2.3000e+000 78133 -7.4600e+000 -1.1515e+002 -5.0714e+000 60377 78055,78107,78081
 2.3000e+000 78535 -2.4762e+002 -3.4542e+002 -2.3731e+001 60015 78287,78391,78313
 2.3000e+000 78512 -1.4676e+002 -3.7691e+002 -2.9577e+001 60015 78287,78417,78391
 2.3000e+000 78489 -1.5402e+002 -4.1092e+002 -6.6481e+001 60015 78261,78417,78287
 2.3000e+000 78466 -1.1022e+002 -2.9287e+002  3.0794e+001 60015 78339,78391,78365
 2.3000e+000 78443 -1.2014e+002 -2.7906e+002  1.1940e+001 60015 78313,78391,78339
 2.3000e+000 78913 -9.5041e+001 -2.1819e+002  5.7021e-002 59725 78936,78743,78691
 2.3000e+000 78890 -1.2752e+002 -2.2789e+002 -1.0762e+001 59725 79008,78936,78691
 2.3000e+000 78867 -1.2945e+002 -2.3381e+002 -8.8812e+000 59725 79008,78691,78665
 2.3000e+000 78844 -3.7490e+001 -2.0447e+002  1.5808e+001 59725 78691,78743,78717
 2.3000e+000 78821 -5.8092e+001 -2.1023e+002 -1.0511e+002 59725 78639,78795,78769
 2.3000e+000 78962 -3.6392e+001 -2.4170e+002 -3.7543e+001 59725 78769,78743,78936
 2.3000e+000 78985 -1.4169e+002 -2.9151e+002 -6.4553e+001 59725 78769,78936,78639
 2.3000e+000 79034 -1.3256e+002 -2.3089e+002 -6.7686e+000 59725 78639,78936,79008
 2.3000e+000 79057 -1.3091e+002 -2.3219e+002 -5.2481e+000 59725 78639,79008,78665
 2.3000e+000 79386 -7.0077e+001 -2.7520e+002  1.6411e+001 59221 79187,79239,79213
 2.3000e+000 79363 -3.4207e+001 -2.3947e+002  1.3687e+000 59221 79187,79265,79239
 2.3000e+000 79340 -9.1504e+001 -2.5750e+002  8.4035e+000 59221 79187,79291,79265
 2.3000e+000 79317 -4.9773e+001 -1.5506e+002  2.0391e+001 59221 79161,79291,79187
 2.3000e+000 79813 -8.3183e+001 -3.5472e+002 -1.2751e+001 58831 79836,79542,79516
 2.3000e+000 79790 -8.7918e+001 -3.2079e+002 -5.1516e+001 58831 79980,79836,79516
 2.3000e+000 79767 -1.5982e+002 -4.5451e+002 -5.1325e+000 58831 79908,79646,79568
 2.3000e+000 79744 -2.8557e+001 -2.4806e+002 -8.9557e+000 58831 79980,79516,79490
 2.3000e+000 79721 -3.8831e+001 -5.1286e+002 -6.1013e+001 58831 79568,79646,79594
 2.3000e+000 79698 -5.2131e+002 -1.7945e+003 -2.5624e+002 58831 79594,79646,79620
 2.3000e+000 79862 -6.4283e+001 -3.4517e+002 -8.7459e+000 58831 79568,79542,79836
 2.3000e+000 79885 -1.0842e+002 -3.6263e+002  1.5473e+001 58831 79908,79568,79836
 2.3000e+000 79934 -1.9205e+002 -4.2083e+002 -8.3822e+001 58831 79672,79646,79908
 2.3000e+000 79957 -1.5915e+002 -3.4882e+002 -7.0742e+001 58831 79672,79908,79836
 2.3000e+000 80006 -8.0362e+001 -2.1624e+002 -2.8249e+001 58831 79672,79836,79980
 2.3000e+000 80029 -8.9423e+001 -2.0069e+002 -2.8556e+000 58831 79672,79980,79490
 2.3000e+000 80358 -3.0911e+001 -2.8274e+002 -5.0168e+000 58377 80381,80185,80159
 2.3000e+000 80335 -1.5699e+001 -2.7630e+002 -2.2400e+000 58377 80381,80159,80133
 2.3000e+000 80312 -1.2573e+001 -2.5803e+002  6.8443e+000 58377 80133,80263,80237
 2.3000e+000 80289 -6.9775e+001 -2.9988e+002  5.5205e+000 58377 80185,80237,80211
 2.3000e+000 80407 -5.9243e+001 -2.7371e+002 -1.8313e+000 58377 80237,80185,80381
 2.3000e+000 80430 -3.1653e+001 -2.5955e+002  3.3621e+000 58377 80237,80381,80133
 2.3000e+000 80759 -2.4208e+001 -2.3766e+002  7.1060e+001 57873 80782,80586,80560
 2.3000e+000 80736 -6.8837e+001 -2.8034e+002  5.3174e+001 57873 80782,80560,80534
 2.3000e+000 80713 -9.0520e+001 -3.0373e+002  3.2385e+001 57873 80586,80638,80612
 2.3000e+000 80690 -2.8740e+001 -2.7249e+002  3.2956e+001 57873 80534,80664,80638
 2.3000e+000 80808 -4.4339e+001 -2.7659e+002  4.9368e+001 57873 80638,80586,80782
 2.3000e+000 80831 -5.0814e+001 -2.8816e+002  4.1566e+001 57873 80638,80782,80534
 2.3000e+000 81337 -1.0363e+002 -4.2215e+002 -3.1458e+001 57262 81360,81144,81092
 2.3000e+000 81314 -1.3087e+002 -4.8432e+002 -2.7498e+001 57262 81360,81092,81066
 2.3000e+000 81291 -1.6452e+002 -5.1884e+002  5.5867e+000 57262 81014,81196,81066
 2.3000e+000 81268 -9.0972e+001 -3.5465e+002 -2.6892e+001 57262 81092,81144,81118
 2.3000e+000 81245 -1.2314e+002 -3.0128e+002 -1.8772e+001 57262 81144,81196,81170
 2.3000e+000 81222 -1.9105e+002 -5.8541e+002  4.1686e+001 57262 81014,81066,81040
 2.3000e+000 81386 -1.2614e+002 -3.6985e+002  1.1213e+001 57262 81196,81144,81360
 2.3000e+000 81409 -1.5386e+002 -4.3491e+002  1.3657e+001 57262 81196,81360,81066
 2.3000e+000 81608 -9.4064e+001 -5.2682e+002  2.9459e+001 57007 81458,81536,81510
 2.3000e+000 81585 -7.8488e+001 -5.8922e+002  5.4258e+001 57007 81432,81536,81458
 2.3000e+000 81562 -2.9153e+002 -4.5668e+002  1.5133e+002 57007 81458,81510,81484
 2.3000e+000 82086 -1.9550e+002 -4.8257e+002 -5.5870e+001 56339 81792,81922,81818
 2.3000e+000 82063 -1.5713e+002 -5.6996e+002 -1.1687e+002 56339 81714,81922,81792
 2.3000e+000 82040 -1.9110e+002 -3.6495e+002 -3.9077e+001 56339 82109,81844,81818
 2.3000e+000 82017 -1.7107e+002 -4.2362e+002 -4.2893e+001 56339 82109,81818,81922
 2.3000e+000 81994 -1.4674e+002 -4.3755e+002 -4.7177e+001 56339 81844,81896,81870
 2.3000e+000 81971 -2.0788e+002 -6.5762e+002 -2.0552e+002 56339 81714,81792,81766
 2.3000e+000 81948 -3.3878e+002 -1.6082e+003 -3.1200e+002 56339 81714,81766,81740
 2.3000e+000 82135 -1.6871e+002 -4.0983e+002 -1.4167e+001 56339 81896,81844,82109
 2.3000e+000 82158 -1.6865e+002 -4.9691e+002 -2.5900e+001 56339 81896,82109,81922
 2.3000e+000 82536 -1.3968e+002 -3.5146e+002 -3.1406e+001 55699 82288,82392,82314
 2.3000e+000 82513 -1.7256e+002 -3.6441e+002 -2.7895e+001 55699 82288,82418,82392
 2.3000e+000 82490 -1.7710e+002 -4.3574e+002 -4.7726e+001 55699 82314,82392,82340
 2.3000e+000 82467 -4.3895e+001 -5.5247e+002 -8.6863e+001 55699 82340,82392,82366
 2.3000e+000 82444 -1.6878e+002 -4.0398e+002 -3.6946e+001 55699 82262,82418,82288
 2.3000e+000 83091 -1.7077e+002 -3.3753e+002  2.9444e+001 55409 82745,82901,82875
 2.3000e+000 83068 -1.2932e+002 -2.4988e+002  5.0475e+001 55409 82719,82901,82745
 2.3000e+000 83045 -1.6417e+002 -3.6965e+002  4.2295e+001 55409 82771,82849,82823
 2.3000e+000 83022 -2.8962e+002 -4.0412e+002  8.3971e+001 55409 82745,82849,82771
 2.3000e+000 82999 -1.5093e+002 -3.2957e+002  4.2509e+001 55409 82745,82875,82849
 2.3000e+000 82976 -2.5242e+002 -3.7761e+002  5.9668e+001 55409 82771,82823,82797
 2.3000e+000 82953 -2.8678e+001 -5.2741e+001 -2.8155e+001 55409 82719,82927,82901
 2.3000e+000 83388 -1.1020e+002 -3.8512e+002 -2.3187e+001 54905 83411,83218,83166
 2.3000e+000 83365 -7.5749e+001 -3.6827e+002 -1.6728e+001 54905 83411,83166,83114
 2.3000e+000 83342 -1.3676e+002 -3.7120e+002 -2.9083e+001 54905 83483,83270,83244
 2.3000e+000 83319 -1.3301e+002 -3.3224e+002 -6.0644e+001 54905 83166,83218,83192
 2.3000e+000 83296 -7.4389e+001 -3.7627e+002 -4.4974e+000 54905 83114,83166,83140
 2.3000e+000 83437 -1.1871e+002 -3.7090e+002 -1.1534e+001 54905 83244,83218,83411
 2.3000e+000 83460 -1.1653e+002 -3.7397e+002 -1.6693e+001 54905 83483,83244,83411
 2.3000e+000 83509 -1.1070e+002 -3.4461e+002 -1.8540e+001 54905 83114,83270,83483
 2.3000e+000 83532 -1.0216e+002 -3.5439e+002 -9.8072e+000 54905 83114,83483,83411
 2.3000e+000 83961 -1.3366e+002 -4.4314e+002  2.3413e+000 54593 83638,83768,83690
 2.3000e+000 83938 -6.7090e+001 -4.2850e+002  3.3338e+000 54593 83638,83794,83768
 2.3000e+000 83915 -1.4540e+002 -4.2899e+002  1.3425e+001 54593 83690,83768,83742
 2.3000e+000 83892 -1.0602e+002 -3.8367e+002 -6.6142e+001 54593 83638,83820,83794
 2.3000e+000 83869 -1.3126e+002 -4.2707e+002 -1.8568e+000 54593 83638,83690,83664
 2.3000e+000 83846 -1.0348e+002 -3.1206e+002 -8.7482e+001 54593 83690,83742,83716
 2.3000e+000 84209 -9.9566e+001 -4.6019e+002  3.5101e+001 54132 84232,84062,83984
 2.3000e+000 84186 -8.6279e+001 -3.8961e+002  1.5366e+001 54132 84232,83984,84114
 2.3000e+000 84163 -1.1634e+002 -4.9016e+002 -2.2336e+001 54132 83984,84062,84036
 2.3000e+000 84140 -1.5386e+002 -4.9962e+002 -4.3062e+001 54132 83984,84036,84010
 2.3000e+000 84258 -5.0584e+001 -5.4125e+002  2.2264e+001 54132 84088,84062,84232
 2.3000e+000 84281 -2.5823e+001 -4.6325e+002 -1.0376e+001 54132 84088,84232,84114
 2.3000e+000 84382 -1.3181e+002 -4.2135e+002 -7.1382e+000 53521 84304,84356,84330
 2.3000e+000 84632 -1.2746e+002 -3.9705e+002  9.3473e+000 53067 84655,84485,84459
 2.3000e+000 84609 -1.0858e+002 -4.0475e+002  1.3579e+001 53067 84655,84459,84407
 2.3000e+000 84586 -1.0964e+002 -3.5572e+002 -1.0667e+000 53067 84485,84537,84511
 2.3000e+000 84563 -1.1438e+002 -4.3351e+002 -1.3046e+001 53067 84407,84459,84433
 2.3000e+000 84681 -1.3529e+002 -3.9937e+002  1.0940e+001 53067 84537,84485,84655
 2.3000e+000 84704 -1.2830e+002 -4.1581e+002  1.8650e+001 53067 84537,84655,84407
 2.3000e+000 85214 -1.3919e+002 -4.6902e+002 -1.5229e+001 52513 85021,85073,85047
 2.3000e+000 85191 -9.3569e+001 -3.2172e+002 -5.3257e+001 52513 84943,85073,85021
 2.3000e+000 85168 -1.0250e+002 -3.1561e+002 -1.0550e+001 52513 84943,85021,84995
 2.3000e+000 85145 -2.0697e+002 -5.8343e+002 -6.6971e+001 52513 84917,85073,84943
 2.3000e+000 85122 -9.1581e+001 -2.7469e+002 -2.4259e+001 52513 84943,84995,84969
 2.3000e+000 85099 -2.5458e+002 -5.5161e+002 -4.9388e+001 52513 84891,85073,84917
 2.3000e+000 85582 -8.8811e+001 -3.2067e+002  2.6766e+001 52037 85605,85311,85285
 2.3000e+000 85559 -1.0803e+002 -3.5148e+002  3.5696e+001 52037 85749,85605,85285
 2.3000e+000 85536 -3.5064e+001 -3.1891e+002  1.2223e+001 52037 85893,85677,85389
 2.3000e+000 85513 -7.7008e+001 -3.3126e+002  2.6962e+001 52037 85749,85285,85259
 2.3000e+000 85490  1.2542e+001 -3.0044e+002 -3.6592e+000 52037 85893,85389,85363
 2.3000e+000 85467 -6.2871e+001 -3.4817e+002 -1.7200e+001 52037 85259,85441,85415
 2.3000e+000 85631 -1.7316e+002 -3.6266e+002  1.2927e+001 52037 85337,85311,85605
 2.3000e+000 85654 -1.1692e+002 -3.4583e+002  6.1634e+001 52037 85677,85337,85605
 2.3000e+000 85703 -1.5862e+001 -3.4373e+002  2.4251e+001 52037 85415,85389,85677
 2.3000e+000 85726 -3.2779e+001 -3.2987e+002  4.9960e+001 52037 85821,85677,85605
 2.3000e+000 85775 -6.5590e+001 -3.4471e+002  4.6700e+001 52037 85821,85605,85749
 2.3000e+000 85798 -9.1694e+001 -3.5650e+002  2.0686e+001 52037 85415,85749,85259
 2.3000e+000 85847 -4.2223e+001 -3.4072e+002  2.2365e+001 52037 85415,85677,85821
 2.3000e+000 85870 -5.3632e+001 -3.4629e+002  2.0357e+001 52037 85415,85821,85749
 2.3000e+000 85919 -2.8739e+001 -3.3795e+002  6.4235e+001 52037 85337,85677,85893
 2.3000e+000 85942 -9.8153e+000 -3.3381e+002  4.9424e+001 52037 85337,85893,85363
 2.3000e+000 86224 -5.5842e+001 -2.2306e+002  1.8008e+001 51368 86375,86100,86074
 2.3000e+000 86201 -1.8972e+002 -2.7003e+002  2.2775e+001 51368 86375,86074,86247
 2.3000e+000 86178 -4.4988e+001 -3.2024e+002 -7.9448e+001 51368 86048,86152,86126
 2.3000e+000 86273 -1.0227e+002 -2.8978e+002 -6.6028e+001 51368 86048,86126,86247
 2.3000e+000 86401  1.3421e+001 -2.7468e+002 -4.1923e+001 51368 86126,86100,86375
 2.3000e+000 86424 -5.2767e+001 -2.7652e+002 -3.8028e+001 51368 86126,86375,86247
 2.3000e+000 86802 -1.6068e+002 -3.2877e+002 -6.9017e+000 51028 86528,86632,86580
 2.3000e+000 86779 -1.6679e+002 -3.7724e+002  4.8583e+000 51028 86528,86684,86632
 2.3000e+000 86756 -2.0131e+002 -4.2264e+002 -1.0909e+001 51028 86528,86580,86554
 2.3000e+000 86733 -1.1372e+002 -3.6368e+002  6.1442e+001 51028 86632,86684,86658
 2.3000e+000 86710 -1.7361e+002 -3.7533e+002 -4.7522e+001 51028 86580,86632,86606
 2.3000e+000 87131 -1.3058e+002 -3.7373e+002  6.0168e+001 50624 86958,87036,87010
 2.3000e+000 87108 -1.5941e+002 -3.3056e+002  5.5753e+001 50624 86932,87036,86958
 2.3000e+000 87085 -1.3180e+002 -3.7087e+002  3.9083e+001 50624 86958,87010,86984
 2.3000e+000 87062 -1.1349e+002 -3.1692e+002  4.8394e+001 50624 86906,87036,86932
 2.3000e+000 87330 -2.3044e+002 -4.4579e+002 -2.8951e+000 50234 87353,87180,87154
 2.3000e+000 87307 -1.9560e+002 -4.5218e+002  2.3284e+000 50234 87353,87154,87258
 2.3000e+000 87284 -1.4124e+002 -4.1341e+002  6.5639e+000 50234 87206,87258,87232
 2.3000e+000 87379 -2.0300e+002 -4.4948e+002  1.3515e+001 50234 87206,87180,87353
 2.3000e+000 87402 -1.5826e+002 -4.5222e+002  1.3277e+001 50234 87206,87353,87258
 2.3000e+000 87650 -1.7068e+002 -4.0539e+002 -1.6735e+001 49730 87673,87503,87451
 2.3000e+000 87627 -1.0814e+002 -3.7907e+002 -1.9243e+001 49730 87673,87451,87425
 2.3000e+000 87604 -1.2051e+002 -3.1339e+002  2.5995e+001 49730 87503,87555,87529
 2.3000e+000 87581 -2.1362e+002 -3.2667e+002 -2.3235e+001 49730 87451,87503,87477
 2.3000e+000 87699 -1.7703e+002 -3.8917e+002 -1.2876e+000 49730 87555,87503,87673
 2.3000e+000 87722 -1.6367e+002 -3.9150e+002 -3.8688e+000 49730 87555,87673,87425
 2.3000e+000 88232 -1.2454e+002 -3.4259e+002  2.0752e+001 49176 88255,87935,87909
 2.3000e+000 88209 -1.6505e+002 -3.7007e+002  6.9758e+001 49176 88255,87909,88065
 2.3000e+000 88186 -1.6040e+002 -3.1547e+002  3.3191e+001 49176 87935,88039,87961
 2.3000e+000 88163 -1.4416e+002 -3.0557e+002  4.1637e+001 49176 87909,88091,88065
 2.3000e+000 88140 -1.9249e+002 -3.3025e+002  2.5847e+001 49176 87961,88039,88013
 2.3000e+000 88117 -1.6935e+002 -3.6759e+002 -1.4839e+001 49176 87961,88013,87987
 2.3000e+000 88281 -1.7396e+002 -3.6142e+002  5.2510e+001 49176 88039,87935,88255
 2.3000e+000 88304 -2.1411e+002 -3.8656e+002  1.0107e+002 49176 88039,88255,88065
 2.3000e+000 88503 -2.4518e+001 -2.0034e+002 -8.8529e+000 48772 88526,88379,88353
 2.3000e+000 88480 -2.8117e+001 -1.7996e+002 -4.3812e+000 48772 88526,88353,88327
 2.3000e+000 88457 -4.1386e+001 -2.1023e+002 -3.1801e+001 48772 88379,88431,88405
 2.3000e+000 88552 -2.0513e+001 -1.8360e+002 -1.1110e+001 48772 88431,88379,88526
 2.3000e+000 88575 -2.9268e+001 -1.7084e+002 -9.0178e+000 48772 88431,88526,88327
 2.3000e+000 89083 -1.0158e+002 -2.9261e+002 -7.4466e+001 48368 88786,88916,88864
 2.3000e+000 89060 -1.1526e+002 -3.1232e+002 -6.2321e+001 48368 88786,88942,88916
 2.3000e+000 89037 -1.4911e+002 -2.3758e+002 -1.6837e+000 48368 88786,88864,88812
 2.3000e+000 89014 -1.7507e+002 -3.3327e+002 -9.5203e+001 48368 88864,88916,88890
 2.3000e+000 88991 -3.9517e+001 -2.9045e+002  5.5232e+001 48368 88812,88864,88838
 2.3000e+000 88968 -3.3516e+001 -2.3792e+002 -1.1382e+000 48368 88760,88942,88786
 2.3000e+000 89331 -1.4786e+002 -4.7114e+002 -6.3141e+000 47928 89158,89236,89210
 2.3000e+000 89308 -1.4802e+002 -4.3793e+002  1.2299e+001 47928 89132,89236,89158
 2.3000e+000 89285 -1.8481e+002 -3.4494e+002 -1.1169e+001 47928 89158,89210,89184
 2.3000e+000 89262 -2.2324e+002 -3.5324e+002  1.8797e+001 47928 89106,89236,89132
 2.3000e+000 89662 -1.7974e+002 -3.8345e+002 -9.4797e+000 47588 89463,89541,89515
 2.3000e+000 89639 -1.2158e+002 -3.0242e+002 -3.7279e+001 47588 89463,89567,89541
 2.3000e+000 89616 -1.5806e+002 -3.7300e+002  1.1578e+001 47588 89463,89515,89489
 2.3000e+000 89593 -1.6964e+002 -3.1423e+002 -3.8921e+001 47588 89437,89567,89463
 2.3000e+000 89763 -5.5681e+000 -1.2371e+002  1.4842e+001 47390 89685,89737,89711
 2.3000e+000 89913 -2.1590e+001 -3.8457e+002 -5.2092e+001 47078 89786,89838,89812
 2.3000e+000 89890 -1.9018e+002 -5.3872e+002  1.1658e+001 47078 89786,89864,89838
 2.3000e+000 90163 -1.6645e+002 -3.5106e+002  1.4188e+001 46474 89964,90042,89990
 2.3000e+000 90140 -1.3788e+002 -3.4008e+002  2.0269e+001 46474 89938,90042,89964
 2.3000e+000 90117 -1.8067e+002 -3.3087e+002  1.6827e+001 46474 89990,90042,90016
 2.3000e+000 90094 -1.8150e+002 -3.3319e+002  2.7544e+001 46474 89938,90068,90042
 2.3000e+000 90364 -1.5714e+002 -4.1054e+002  4.5446e+001 46184 90240,90292,90266
 2.3000e+000 90341 -1.8618e+002 -3.9782e+002  5.4247e+001 46184 90188,90292,90240
 2.3000e+000 90318 -1.6668e+002 -4.1397e+002  6.1574e+001 46184 90188,90240,90214
 2.3000e+000 90565 -1.4218e+002 -3.0989e+002  1.6546e+000 45780 90588,90415,90389
 2.3000e+000 90542 -1.3399e+002 -3.2323e+002  1.0749e+001 45780 90588,90389,90493
 2.3000e+000 90519 -1.4391e+002 -3.0426e+002  4.9848e+000 45780 90415,90467,90441
 2.3000e+000 90614 -1.3642e+002 -3.0402e+002  4.8551e+000 45780 90467,90415,90588
 2.3000e+000 90637 -1.2056e+002 -3.0374e+002  1.6978e+001 45780 90467,90588,90493
 2.3000e+000 91196 -2.0572e+002 -3.6392e+002 -4.6058e+001 45226 91219,90876,90850
 2.3000e+000 91173 -1.0021e+002 -3.3839e+002  9.5892e-001 45226 91219,90850,91032
 2.3000e+000 91150 -8.4439e+001 -3.9449e+002 -4.9554e+001 45226 90824,91032,90850
 2.3000e+000 91127 -1.3081e+002 -2.7705e+002  2.1319e+000 45226 90876,90980,90902
 2.3000e+000 91104 -7.5439e+001 -2.7938e+002  2.6285e+001 45226 90876,91006,90980
 2.3000e+000 91081 -1.0724e+002 -2.8087e+002 -1.1442e+001 45226 90902,90980,90954
 2.3000e+000 91058 -5.1725e+001 -2.2103e+002 -5.0120e+001 45226 90902,90954,90928
 2.3000e+000 91245 -1.0654e+002 -3.3166e+002 -1.3562e+001 45226 91006,90876,91219
 2.3000e+000 91268 -9.8957e+000 -3.2236e+002  2.6056e+001 45226 91006,91219,91032
 2.3000e+000 91516 -1.2948e+002 -5.7107e+002  3.2266e+001 44836 91539,91421,91395
 2.3000e+000 91493 -1.0591e+002 -5.4323e+002  2.0266e+001 44836 91317,91421,91343
 2.3000e+000 91470 -1.7588e+002 -5.6467e+002  2.5555e+001 44836 91539,91395,91369
 2.3000e+000 91447 -1.8762e+002 -4.8905e+002  6.1535e+001 44836 91291,91421,91317
 2.3000e+000 91565 -1.5153e+002 -5.7343e+002  7.1583e+000 44836 91343,91421,91539
 2.3000e+000 91588 -1.8640e+002 -5.7646e+002 -7.3105e+000 44836 91343,91539,91369
 2.3000e+000 91787 -1.1629e+002 -3.5170e+002  2.5749e+001 44432 91810,91637,91611
 2.3000e+000 91764 -1.4388e+002 -3.8742e+002  3.8560e+001 44432 91810,91611,91715
 2.3000e+000 91741 -3.8886e+001 -2.8832e+002 -1.1175e+001 44432 91637,91689,91663
 2.3000e+000 91836 -1.4508e+002 -3.3233e+002  2.3843e+001 44432 91689,91637,91810
 2.3000e+000 91859 -1.5144e+002 -3.4725e+002  2.9089e+001 44432 91689,91810,91715
 2.3000e+000 92207 -2.5990e+002 -4.8538e+002  2.7733e+001 43864 92230,91936,91910
 2.3000e+000 92184 -2.7084e+002 -5.1616e+002  3.5638e+001 43864 92230,91910,92040
 2.3000e+000 92161 -2.6238e+002 -5.0712e+002  6.9951e+001 43864 91884,92040,91910
 2.3000e+000 92138 -1.8345e+002 -3.9519e+002  6.4632e+000 43864 91936,92014,91988
 2.3000e+000 92115 -1.6841e+002 -4.9877e+002  8.0767e+001 43864 91936,91988,91962
 2.3000e+000 92092 -2.1188e+002 -4.4855e+002  4.8013e+001 43864 91884,92066,92040
 2.3000e+000 92256 -2.7799e+002 -4.4027e+002  3.3444e+001 43864 92014,91936,92230
 2.3000e+000 92279 -2.9746e+002 -4.8488e+002  4.1220e+001 43864 92014,92230,92040
 2.3000e+000 92529 -1.8465e+002 -3.7763e+002  3.7769e+001 43410 92552,92330,92304
 2.3000e+000 92506 -1.7961e+002 -3.6666e+002  5.5167e+000 43410 92552,92304,92408
 2.3000e+000 92483 -1.9121e+002 -3.6158e+002  9.6726e+000 43410 92304,92434,92408
 2.3000e+000 92460 -9.1521e+001 -3.2486e+002  3.2269e+000 43410 92330,92382,92356
 2.3000e+000 92578 -1.6512e+002 -3.6797e+002  2.2710e+001 43410 92382,92330,92552
 2.3000e+000 92601 -1.3623e+002 -3.3474e+002 -1.3471e+001 43410 92382,92552,92408
 2.3000e+000 92802 -1.3089e+002 -4.9621e+002  3.1737e+001 43162 92825,92704,92652
 2.3000e+000 92779 -9.7904e+001 -4.7954e+002  9.3004e+001 43162 92825,92652,92626
 2.3000e+000 92756 -8.2754e+001 -4.9665e+002  3.5656e+001 43162 92652,92704,92678
 2.3000e+000 92851 -1.9461e+002 -5.0614e+002 -6.1448e+000 43162 92730,92704,92825
 2.3000e+000 92874 -2.4223e+002 -4.2469e+002  9.0800e+001 43162 92730,92825,92626
 2.3000e+000 93463 -9.0921e+001 -2.3345e+002 -5.0674e+001 42758 93140,93270,93166
 2.3000e+000 93440 -1.2189e+002 -2.6235e+002 -2.9975e+001 42758 93140,93296,93270
 2.3000e+000 93417 -8.9445e+001 -2.5244e+002 -3.6277e+001 42758 93166,93270,93218
 2.3000e+000 93394 -6.4251e+001 -2.5983e+002 -4.7599e+001 42758 93218,93270,93244
 2.3000e+000 93371 -3.8532e+001 -2.7927e+002 -3.3757e+001 42758 93140,93322,93296
 2.3000e+000 93348 -1.1956e+002 -3.0437e+002  1.2497e+001 42758 93166,93218,93192
 2.3000e+000 93920 -1.1843e+002 -2.8003e+002 -8.6435e+000 42304 93943,93672,93646
 2.3000e+000 93897 -1.0567e+002 -2.5275e+002 -1.2095e+001 42304 93943,93646,93802
 2.3000e+000 93874 -8.5671e+001 -2.7457e+002  1.0598e+001 42304 93724,93802,93776
 2.3000e+000 93851 -1.3595e+002 -3.2855e+002  6.8222e+000 42304 93672,93724,93698
 2.3000e+000 93828 -1.7230e+002 -3.4009e+002 -2.2965e+001 42304 93724,93776,93750
 2.3000e+000 93969 -1.0470e+002 -2.8923e+002 -1.7933e+001 42304 93724,93672,93943
 2.3000e+000 93992 -1.0081e+002 -2.7823e+002 -1.8850e+001 42304 93724,93943,93802
 2.3000e+000 94321 -1.2842e+002 -4.1628e+002  1.8805e+000 41478 94096,94148,94122
 2.3000e+000 94298 -1.7006e+002 -4.5546e+002  2.6497e+001 41478 94096,94226,94148
 2.3000e+000 94275 -2.3091e+002 -5.3239e+002 -4.3928e-001 41478 94148,94226,94174
 2.3000e+000 94252 -1.0211e+002 -4.3837e+002 -1.1023e+002 41478 94174,94226,94200
 2.3000e+000 94618 -1.3642e+002 -4.6163e+002  9.2930e+000 40910 94344,94422,94396
 2.3000e+000 94595 -1.9736e+002 -4.5149e+002 -5.5076e+000 40910 94344,94448,94422
 2.3000e+000 94572 -1.8105e+002 -4.0700e+002  1.9948e+001 40910 94344,94474,94448
 2.3000e+000 94549 -1.0597e+002 -4.6417e+002  2.5209e+000 40910 94344,94396,94370
 2.3000e+000 94526 -2.4448e+002 -4.9978e+002  4.9550e+001 40910 94344,94500,94474
 2.3000e+000 94866 -1.5473e+002 -2.8555e+002 -3.5676e+001 40306 94667,94719,94693
 2.3000e+000 94843 -1.8735e+002 -3.2084e+002 -2.1123e+001 40306 94641,94719,94667
 2.3000e+000 94820 -2.0980e+002 -3.2459e+002 -5.5777e-001 40306 94641,94745,94719
 2.3000e+000 94797 -1.6531e+002 -2.9686e+002 -1.3015e+001 40306 94641,94771,94745
 2.3000e+000 95089  1.9168e+000 -2.3630e+002  3.4747e+001 39702 94913,94991,94939
 2.3000e+000 95066  8.4880e+000 -2.0115e+002  1.2750e+001 39702 94913,95017,94991
 2.3000e+000 95043  5.1058e+001 -2.1807e+002  1.1844e+001 39702 94939,94991,94965
 2.3000e+000 95339 -1.2788e+002 -3.1395e+002 -2.3180e+001 39248 95140,95218,95166
 2.3000e+000 95316 -1.5866e+002 -3.3552e+002 -1.0281e+001 39248 95140,95244,95218
 2.3000e+000 95293 -9.5185e+001 -3.6375e+002 -3.3702e+001 39248 95114,95244,95140
 2.3000e+000 95270 -6.9777e+001 -3.5450e+002 -7.2423e+001 39248 95166,95218,95192
 2.3000e+000 95770 -2.1493e+002 -3.7653e+002  8.6963e+000 38694 95551,95629,95577
 2.3000e+000 95747 -1.6842e+002 -4.7151e+002  4.4517e+000 38694 95447,95629,95551
 2.3000e+000 95724 -1.3184e+002 -3.9548e+002 -1.6931e+001 38694 95447,95551,95473
 2.3000e+000 95701 -8.4863e+001 -3.9578e+002 -2.7141e+001 38694 95473,95551,95499
 2.3000e+000 95678 -7.3177e+001 -3.7595e+002 -5.7930e+001 38694 95499,95551,95525
 2.3000e+000 95655 -2.3892e+002 -4.4039e+002  1.5573e+001 38694 95577,95629,95603
 2.3000e+000 96325 -1.5775e+002 -3.5215e+002  6.2474e+000 38240 95953,96031,96005
 2.3000e+000 96302 -1.6195e+002 -2.0898e+002  6.1143e+001 38240 95953,96161,96031
 2.3000e+000 96279 -1.1311e+002 -1.9830e+002 -1.1333e+001 38240 96031,96161,96135
 2.3000e+000 96256 -1.1913e+002 -2.5887e+002  4.2246e+001 38240 96348,96109,96057
 2.3000e+000 96233 -1.0708e+002 -2.4225e+002  2.8811e+001 38240 96348,96057,96031
 2.3000e+000 96210 -9.1255e+001 -2.7020e+002  6.3696e+001 38240 96057,96109,96083
 2.3000e+000 96187 -1.7284e+002 -2.2142e+002 -9.6735e+000 38240 95953,96005,95979
 2.3000e+000 96374 -9.6453e+001 -2.8922e+002  3.0149e+001 38240 96135,96109,96348
 2.3000e+000 96397 -7.5831e+001 -2.5862e+002  1.3964e+001 38240 96135,96348,96031
 2.3000e+000 96618 -2.1711e+002 -5.9501e+002 -2.2641e+000 37821 96494,96546,96520
 2.3000e+000 96595 -1.2947e+002 -5.0744e+002  3.7410e+001 37821 96468,96546,96494
 2.3000e+000 96572 -6.6366e+001 -4.8034e+002  3.2487e+001 37821 96442,96546,96468
 2.3000e+000 97126 -9.1197e+001 -2.4934e+002 -1.8411e+001 37367 97149,96855,96829
 2.3000e+000 97103 -1.1491e+002 -2.5953e+002 -1.7722e+001 37367 97149,96829,96985
 2.3000e+000 97080 -1.1161e+002 -2.7188e+002 -2.3555e+001 37367 96803,96985,96829
 2.3000e+000 97057 -7.6628e+001 -2.2712e+002 -2.5725e+001 37367 96855,96907,96881
 2.3000e+000 97034 -1.5591e+002 -2.3942e+002 -1.2520e+001 37367 96907,96985,96959
 2.3000e+000 97011 -1.8764e+002 -2.2977e+002 -3.9394e+001 37367 96907,96959,96933
 2.3000e+000 97175 -1.1401e+002 -2.4304e+002 -3.0452e+001 37367 96907,96855,97149
 2.3000e+000 97198 -1.3096e+002 -2.5008e+002 -3.0027e+001 37367 96907,97149,96985
 2.3000e+000 97704 -1.7370e+002 -3.9076e+002  4.4132e+001 36863 97727,97511,97485
 2.3000e+000 97681 -1.6781e+002 -3.5961e+002  5.6693e+001 36863 97727,97485,97433
 2.3000e+000 97658 -2.2552e+002 -4.1909e+002  8.2197e+000 36863 97381,97563,97433
 2.3000e+000 97635 -1.2638e+002 -3.6048e+002 -7.1107e+000 36863 97511,97563,97537
 2.3000e+000 97612 -8.6318e+001 -2.6028e+002  6.1750e+000 36863 97433,97485,97459
 2.3000e+000 97589 -2.7623e+002 -4.3322e+002  4.7761e+001 36863 97381,97433,97407
 2.3000e+000 97753 -1.7506e+002 -4.1600e+002  2.9075e+001 36863 97563,97511,97727
 2.3000e+000 97776 -1.7398e+002 -3.8796e+002  4.0132e+001 36863 97563,97727,97433
 2.3000e+000 98331 -1.9061e+002 -4.3248e+002  7.5888e-001 36287 98354,98089,98063
 2.3000e+000 98308 -1.7351e+002 -4.2703e+002  2.3519e+001 36287 98354,98063,98011
 2.3000e+000 98285 -2.2816e+002 -3.7627e+002  5.7856e+001 36287 98426,97985,98115
 2.3000e+000 98262 -1.7535e+002 -4.4563e+002  2.3849e+001 36287 98011,98063,98037
 2.3000e+000 98239 -2.1928e+002 -3.2979e+002  2.4188e+001 36287 97985,98141,98115
 2.3000e+000 98216 -1.8882e+002 -3.0383e+002  3.6937e+001 36287 97959,98141,97985
 2.3000e+000 98193 -1.0991e+002 -3.9601e+002  6.3795e+001 36287 97959,98167,98141
 2.3000e+000 98380 -1.9069e+002 -4.1351e+002 -1.2428e+001 36287 98115,98089,98354
 2.3000e+000 98403 -1.7662e+002 -3.7478e+002  1.2264e-001 36287 98426,98115,98354
 2.3000e+000 98452 -2.8821e+002 -4.4682e+002  9.0871e+001 36287 98011,97985,98426
 2.3000e+000 98475 -2.4698e+002 -4.6460e+002  3.6662e+001 36287 98011,98426,98354
 2.3000e+000 99030 -2.2048e+002 -5.7826e+002 -3.1585e+001 35726 99053,98736,98710
 2.3000e+000 99007 -1.6961e+002 -4.8766e+002  1.0842e+001 35726 99053,98710,98684
 2.3000e+000 98984 -2.4239e+002 -4.8174e+002 -3.5560e+001 35726 99125,98814,98736
 2.3000e+000 98961 -1.9696e+002 -3.9968e+002 -1.4765e+000 35726 98736,98814,98788
 2.3000e+000 98938 -2.1650e+002 -4.2539e+002  2.9948e+001 35726 98684,98866,98840
 2.3000e+000 98915 -1.6429e+002 -3.8921e+002  9.1895e+000 35726 98736,98788,98762
 2.3000e+000 98892 -1.5654e+002 -4.4881e+002  1.1802e+001 35726 98658,98866,98684
 2.3000e+000 99079 -1.9148e+002 -4.8110e+002 -6.2586e+000 35726 99125,98736,99053
 2.3000e+000 99102 -2.2481e+002 -4.2277e+002  1.0914e+001 35726 98840,99053,98684
 2.3000e+000 99151 -2.8929e+002 -5.0488e+002 -5.3957e+001 35726 98840,98814,99125
 2.3000e+000 99174 -2.6035e+002 -5.0472e+002 -1.8205e+001 35726 98840,99125,99053
 2.3000e+000 99454 -8.8216e+001 -3.1909e+002 -2.2889e+001 35222 99278,99330,99304
 2.3000e+000 99431 -1.1092e+002 -2.9670e+002  1.3743e+001 35222 99278,99382,99330
 2.3000e+000 99408 -1.9727e+002 -3.5642e+002 -1.7896e+001 35222 99330,99382,99356
 2.3000e+000 99653 -1.2564e+002 -5.3823e+002  9.6746e+000 34867 99477,99529,99503
 2.3000e+000 99630 -1.7404e+002 -4.0394e+002 -2.0607e+001 34867 99477,99581,99529
 2.3000e+000 99607 -1.7212e+002 -5.9641e+002 -1.4111e+002 34867 99529,99581,99555
 2.3000e+000 100104 -6.8841e+001 -3.1402e+002 -1.1019e+001 34363 99781,99885,99807
 2.3000e+000 100081 -1.1068e+002 -3.3887e+002  9.4093e+000 34363 99781,99963,99885
 2.3000e+000 100058 -2.2338e+001 -2.8775e+002 -1.5558e+001 34363 99885,99963,99911
 2.3000e+000 100035 -4.0343e+001 -2.6323e+002  4.8501e+000 34363 99807,99885,99859
 2.3000e+000 100012 -2.3690e+001 -2.8378e+002 -4.1220e+001 34363 99911,99963,99937
 2.3000e+000 99989 -1.1516e-001 -2.3916e+002  2.8521e+001 34363 99807,99859,99833
 2.3000e+000 100303 -1.4686e+002 -3.0165e+002 -7.5735e+001 33909 100127,100205,100179
 2.3000e+000 100280 -2.5406e+002 -3.6771e+002 -4.7553e+001 33909 100127,100231,100205
 2.3000e+000 100257 -2.1757e+002 -4.1990e+002 -1.8131e+000 33909 100127,100179,100153
 2.3000e+000 100890 -1.2157e+002 -3.6452e+002 -2.6482e+001 33412 100645,100749,100697
 2.3000e+000 100867 -1.2960e+002 -4.3024e+002 -1.8166e+001 33412 100567,100749,100645
 2.3000e+000 100844 -1.2634e+002 -4.3824e+002 -2.3859e+001 33412 100567,100645,100619
 2.3000e+000 100821 -9.3793e+001 -4.0474e+002 -5.4632e+001 33412 100645,100697,100671
 2.3000e+000 100798 -1.6487e+002 -5.8508e+002 -6.7455e+000 33412 100567,100619,100593
 2.3000e+000 100775 -2.0555e+002 -3.8508e+002  6.1393e-001 33412 100697,100749,100723
 2.3000e+000 101268 -1.1563e+002 -4.6292e+002 -1.7222e+000 32908 101435,101291,101098
 2.3000e+000 101245 -1.6655e+002 -4.2187e+002  1.1245e+001 32908 101291,101072,101020
 2.3000e+000 101222 -1.4881e+002 -4.2981e+002 -3.4068e+001 32908 101363,101150,101124
 2.3000e+000 101199 -2.0286e+002 -4.6330e+002  7.2339e+001 32908 101020,101072,101046
 2.3000e+000 101176 -1.0019e+002 -4.0248e+002 -2.8692e+001 32908 100994,101150,101020
 2.3000e+000 101317 -9.4626e+001 -4.4293e+002 -1.0830e+001 32908 101124,101098,101291
 2.3000e+000 101340 -1.3537e+002 -4.4394e+002 -7.2460e+000 32908 101363,101124,101291
 2.3000e+000 101389 -1.3083e+002 -4.0129e+002 -2.5054e+001 32908 101020,101150,101363
 2.3000e+000 101412 -1.1679e+002 -4.0288e+002  1.2528e+000 32908 101020,101363,101291
 2.3000e+000 101461 -9.4480e+001 -4.0297e+002  2.5342e+001 32908 101072,101291,101435
 2.3000e+000 101918 -8.9314e+001 -3.6898e+002 -3.5497e+001 32618 101941,101670,101644
 2.3000e+000 101895 -3.6958e+001 -3.8283e+002  2.4006e+000 32618 101941,101644,101774
 2.3000e+000 101872 -1.5220e+002 -3.4630e+002 -6.7154e-001 32618 102013,101696,101670
 2.3000e+000 101849 -1.2077e+001 -2.5740e+002 -7.0348e+001 32618 101696,101748,101722
 2.3000e+000 101826 -2.4970e+001 -3.5980e+002 -2.0082e+000 32618 101644,101800,101774
 2.3000e+000 101967 -1.4714e+002 -3.8351e+002 -2.6184e+001 32618 102013,101670,101941
 2.3000e+000 101990 -1.0873e+002 -4.2286e+002  1.8156e+001 32618 101748,101941,101774
 2.3000e+000 102039 -1.3277e+002 -3.3681e+002  2.7712e+000 32618 101748,101696,102013
 2.3000e+000 102062 -7.8405e+001 -3.4578e+002 -1.1588e+001 32618 101748,102013,101941
 2.3000e+000 102440 -2.4505e+002 -5.2893e+002  3.8201e+001 32306 102463,102270,102244
 2.3000e+000 102417 -2.5264e+002 -5.3683e+002  1.0521e+001 32306 102463,102244,102192
 2.3000e+000 102394 -2.3456e+002 -4.6428e+002  1.4078e+000 32306 102192,102244,102218
 2.3000e+000 102371 -2.0279e+002 -5.2048e+002  4.8658e+001 32306 102270,102322,102296
 2.3000e+000 102348 -1.2839e+002 -6.1094e+002 -2.8826e+001 32306 102166,102322,102192
 2.3000e+000 102489 -2.1311e+002 -5.2244e+002  5.1318e+001 32306 102322,102270,102463
 2.3000e+000 102512 -2.2188e+002 -5.3771e+002  2.1806e+001 32306 102322,102463,102192
 2.3000e+000 102662 -1.0368e+002 -3.9126e+002 -4.7181e+000 31852 102943,102587,102561
 2.3000e+000 102639 -6.0659e+001 -3.4368e+002  1.1793e+001 31852 102815,102685,102561
 2.3000e+000 102711 -1.1538e+002 -4.1230e+002 -1.4229e+001 31852 102943,102561,102685
 2.3000e+000 102841 -5.4905e+001 -2.7409e+002  4.7714e+001 31852 102535,102685,102815
 2.3000e+000 102969 -1.0774e+002 -4.1230e+002 -1.9429e+001 31852 102613,102587,102943
 2.3000e+000 102992 -1.1870e+002 -4.3053e+002 -2.9079e+001 31852 102613,102943,102685
 2.3000e+000 103370 -2.3797e+002 -5.1099e+002  1.7985e+001 31134 103096,103200,103122
 2.3000e+000 103347 -2.7150e+002 -5.9930e+002  4.8758e+001 31134 103096,103226,103200
 2.3000e+000 103324 -2.4664e+002 -4.9400e+002  3.4473e+000 31134 103122,103200,103174
 2.3000e+000 103301 -1.5005e+002 -5.2877e+002  6.3082e+000 31134 103096,103252,103226
 2.3000e+000 103278 -1.7828e+002 -5.2298e+002 -6.7605e+001 31134 103122,103174,103148
 2.3000e+000 103520 -4.1039e+001 -5.0991e+002  1.6963e+000 30822 103393,103445,103419
 2.3000e+000 103497 -1.7186e+001 -3.2353e+002  1.8120e+001 30822 103393,103471,103445
 2.3000e+000 103719 -1.2161e+002 -4.1088e+002  7.7895e+000 30182 103742,103621,103569
 2.3000e+000 103696 -1.4483e+002 -4.1916e+002  1.1727e+000 30182 103742,103569,103543
 2.3000e+000 103673 -1.2506e+002 -4.1147e+002  1.1099e+001 30182 103569,103621,103595
 2.3000e+000 103768 -1.0005e+002 -4.2031e+002  1.3592e+001 30182 103647,103621,103742
 2.3000e+000 103791 -1.1626e+002 -4.2690e+002  4.4218e+000 30182 103647,103742,103543
 2.3000e+000 104252 -2.3006e+002 -4.2142e+002  2.2294e+001 29728 104030,104108,104056
 2.3000e+000 104229 -1.6472e+002 -2.9417e+002  4.6530e+001 29728 104004,104108,104030
 2.3000e+000 104206 -1.4029e+002 -3.2630e+002  3.7393e+001 29728 104004,104134,104108
 2.3000e+000 104183 -1.8926e+002 -3.7931e+002 -1.5619e+001 29728 103978,104134,104004
 2.3000e+000 104160 -1.3752e+002 -4.0053e+002 -1.6185e+001 29728 104056,104108,104082
 2.3000e+000 104630 -1.3232e+002 -4.0740e+002 -4.1799e+001 29217 104653,104382,104356
 2.3000e+000 104607 -1.1072e+002 -3.6786e+002 -9.2726e+000 29217 104653,104356,104512
 2.3000e+000 104584 -1.7734e+002 -3.9229e+002 -4.1309e+001 29217 104434,104512,104486
 2.3000e+000 104561 -1.1834e+002 -4.5150e+002 -5.0414e+001 29217 104382,104434,104408
 2.3000e+000 104538 -6.2590e+001 -2.9804e+002  4.1858e+000 29217 104434,104486,104460
 2.3000e+000 104679 -1.4638e+002 -4.1395e+002 -5.6708e+001 29217 104434,104382,104653
 2.3000e+000 104702 -1.4557e+002 -3.9807e+002 -2.7641e+001 29217 104434,104653,104512
 2.3000e+000 105178 -1.5226e+002 -4.2361e+002  6.0487e+000 28649 105201,104962,104936
 2.3000e+000 105155 -1.5649e+002 -4.0220e+002  1.0349e+001 28649 105201,104936,104884
 2.3000e+000 105132 -1.6645e+002 -3.9995e+002 -2.3881e+001 28649 105273,104858,105014
 2.3000e+000 105109 -2.1932e+002 -4.3849e+002 -3.8309e-002 28649 104962,105014,104988
 2.3000e+000 105086 -1.0942e+002 -3.6005e+002 -2.9221e+001 28649 104884,104936,104910
 2.3000e+000 105063 -1.7469e+002 -3.6075e+002 -7.4946e-002 28649 104806,105014,104858
 2.3000e+000 105040 -2.1594e+002 -3.5795e+002 -2.0970e+001 28649 104806,104858,104832
 2.3000e+000 105227 -1.4850e+002 -4.2944e+002 -1.2153e+000 28649 105014,104962,105201
 2.3000e+000 105250 -1.3836e+002 -4.0814e+002 -4.3500e+000 28649 105273,105014,105201
 2.3000e+000 105299 -1.9698e+002 -4.1098e+002 -2.3645e+001 28649 104884,104858,105273
 2.3000e+000 105322 -1.8567e+002 -4.2751e+002 -3.8271e-001 28649 104884,105273,105201
 2.3000e+000 105673 -2.4714e+001 -3.8479e+002  3.9428e+000 28351 105474,105578,105552
 2.3000e+000 105650  2.2206e+000 -2.6838e+002 -7.0282e+000 28351 105448,105578,105474
 2.3000e+000 105627 -6.8655e+000 -3.6654e+002  2.0137e+000 28351 105500,105552,105526
 2.3000e+000 105604 -1.0725e+001 -3.7823e+002  2.1367e+000 28351 105474,105552,105500
 2.3000e+000 106130 -1.7771e+002 -2.8579e+002 -6.3979e+001 28004 106153,105882,105856
 2.3000e+000 106107 -1.6225e+002 -3.6190e+002 -3.5843e+001 28004 106153,105856,105986
 2.3000e+000 106084 -2.6655e+002 -3.9037e+002  1.6336e+001 28004 105934,105986,105960
 2.3000e+000 106061 -2.1504e+002 -4.2704e+002 -1.2974e+001 28004 105856,106012,105986
 2.3000e+000 106038 -2.8118e+002 -4.2488e+002 -2.7233e+001 28004 105882,105934,105908
 2.3000e+000 106179 -2.4781e+002 -3.4782e+002 -3.0488e+001 28004 105934,105882,106153
 2.3000e+000 106202 -1.7961e+002 -3.8531e+002 -1.5390e+001 28004 105934,106153,105986
 2.3000e+000 106885 -2.3620e+002 -3.5576e+002 -7.0607e+000 27564 106908,106620,106516
 2.3000e+000 106862 -2.3431e+002 -3.4429e+002 -1.1610e+000 27564 106908,106516,106490
 2.3000e+000 106839 -2.0566e+002 -3.3057e+002 -3.5402e+001 27564 106516,106620,106542
 2.3000e+000 106816 -2.2655e+002 -3.0266e+002 -1.1175e+001 27564 106620,106672,106646
 2.3000e+000 106793 -1.6047e+002 -3.5983e+002 -5.5250e+001 27564 106542,106620,106594
 2.3000e+000 106770 -2.3250e+002 -3.1091e+002  2.3026e+001 27564 106490,106698,106672
 2.3000e+000 106747 -1.8315e+002 -3.3906e+002  6.7508e+001 27564 106464,106698,106490
 2.3000e+000 106724 -3.1112e+001 -2.7658e+002 -9.7174e+001 27564 106542,106594,106568
 2.3000e+000 106934 -2.4354e+002 -3.4477e+002 -1.0256e+001 27564 106672,106620,106908
 2.3000e+000 106957 -2.4144e+002 -3.3202e+002 -7.9405e+000 27564 106672,106908,106490
 2.3000e+000 107463 -2.0503e+002 -3.9869e+002 -5.5968e-002 27053 107218,107322,107296
 2.3000e+000 107440 -2.3285e+002 -4.6156e+002  1.1161e+001 27053 107166,107322,107218
 2.3000e+000 107417 -2.0659e+002 -4.4840e+002 -2.6370e+000 27053 107218,107296,107244
 2.3000e+000 107394 -2.1975e+002 -3.8929e+002  3.2320e+001 27053 107140,107322,107166
 2.3000e+000 107371 -2.1704e+002 -4.6042e+002  9.7289e+000 27053 107166,107218,107192
 2.3000e+000 107348 -2.1376e+002 -5.7783e+002 -4.6168e+001 27053 107244,107296,107270
 2.3000e+000 108097 -1.6704e+002 -4.2298e+002 -2.1195e+001 26549 108192,108120,107803
 2.3000e+000 108074 -1.5372e+002 -4.7584e+002  3.1953e+001 26549 108120,107725,107933
 2.3000e+000 108051 -5.8796e+001 -5.5576e+002  2.0514e+001 26549 107751,107803,107777
 2.3000e+000 108028 -1.6100e+002 -4.5564e+002 -3.2568e+001 26549 108192,107803,107751
 2.3000e+000 108005 -1.0519e+002 -2.9174e+002 -3.5989e+000 26549 108264,107855,107803
 2.3000e+000 107982 -5.5321e+001 -3.3087e+002 -1.7235e+001 26549 107881,107933,107907
 2.3000e+000 107959 -1.4203e+002 -3.1355e+002  7.2167e+000 26549 107803,107855,107829
 2.3000e+000 108146 -1.3182e+002 -3.3634e+002 -2.1074e+001 26549 108264,107803,108120
 2.3000e+000 108169 -1.2579e+002 -4.0121e+002  1.0960e+001 26549 107881,108120,107933
 2.3000e+000 108218 -1.5393e+002 -3.8919e+002  1.2644e+000 26549 107725,108120,108192
 2.3000e+000 108241 -1.4631e+002 -4.1546e+002 -1.1524e+001 26549 107725,108192,107751
 2.3000e+000 108290 -7.1719e+001 -3.4932e+002 -1.4063e+001 26549 107881,107855,108264
 2.3000e+000 108313 -9.5010e+001 -3.9889e+002 -2.6264e+001 26549 107881,108264,108120
 2.3000e+000 108512 -1.2506e+002 -4.8030e+002 -3.0975e+001 26137 108388,108440,108414
 2.3000e+000 108489 -9.8905e+001 -4.5823e+002 -6.5171e-001 26137 108362,108440,108388
 2.3000e+000 108466 -1.3768e+002 -4.8732e+002 -1.3489e+001 26137 108336,108440,108362
 2.3000e+000 108662 -1.4597e+002 -3.9399e+002 -2.7034e+001 25733 108817,108685,108535
 2.3000e+000 108639 -1.0474e+002 -4.2152e+002 -7.5601e+000 25733 109017,108817,108535
 2.3000e+000 108711 -1.6030e+002 -3.8364e+002 -1.0532e+001 25733 108561,108535,108685
 2.3000e+000 108843 -1.0252e+002 -4.0421e+002 -4.1498e+000 25733 108587,108685,108817
 2.3000e+000 108866 -8.6543e+001 -3.8829e+002  1.4594e+000 25733 108889,108817,108613
 2.3000e+000 108915 -8.0163e+001 -3.7793e+002 -1.4050e+001 25733 108587,108817,108889
 2.3000e+000 109043 -9.0740e+001 -3.3945e+002  5.2746e+000 25733 108613,108817,109017
 2.3000e+000 109500 -2.7472e+002 -5.0071e+002  4.6912e+001 25229 109523,109356,109330
 2.3000e+000 109477 -1.7461e+002 -3.9729e+002 -1.1991e+001 25229 109595,109523,109330
 2.3000e+000 109454 -1.8850e+002 -3.7954e+002 -3.2313e+001 25229 109595,109330,109278
 2.3000e+000 109431 -1.8608e+002 -3.9282e+002 -1.9314e+001 25229 109667,109226,109382
 2.3000e+000 109408 -1.7630e+002 -4.1028e+002 -5.5122e+001 25229 109278,109330,109304
 2.3000e+000 109549 -1.2303e+002 -4.2607e+002  1.6093e+001 25229 109382,109356,109523
 2.3000e+000 109572 -1.6904e+002 -4.2097e+002 -2.4819e+001 25229 109667,109382,109523
 2.3000e+000 109621 -2.0256e+002 -4.6845e+002 -2.8285e+001 25229 109252,109523,109595
 2.3000e+000 109644 -1.5647e+002 -3.8605e+002 -1.0509e+001 25229 109739,109595,109278
 2.3000e+000 109693 -2.1549e+002 -4.4425e+002 -2.6328e-001 25229 109252,109226,109667
 2.3000e+000 109716 -1.8791e+002 -4.6614e+002 -1.7242e+001 25229 109252,109667,109523
 2.3000e+000 109765 -2.2338e+002 -4.1745e+002 -1.9085e+001 25229 109252,109595,109739
 2.3000e+000 110478 -1.4754e+002 -3.8310e+002  5.7600e+001 24917 110158,110236,110184
 2.3000e+000 110455 -2.0806e+002 -4.2699e+002 -9.7877e-001 24917 110158,110288,110236
 2.3000e+000 110432 -1.4586e+002 -4.9278e+002  7.2990e+000 24917 110236,110288,110262
 2.3000e+000 110409 -1.4809e+002 -4.4492e+002  5.3069e+001 24917 110184,110236,110210
 2.3000e+000 110386 -2.5782e+002 -4.7510e+002 -3.0628e+001 24917 110132,110288,110158
 2.3000e+000 110363 -2.3627e+002 -4.4800e+002  1.2708e+001 24917 110132,110314,110288
 2.3000e+000 110340 -2.6952e+002 -5.1750e+002  1.4924e+001 24917 110106,110314,110132
 2.3000e+000 110829 -1.0934e+002 -3.6523e+002 -2.2738e+001 24307 110604,110682,110630
 2.3000e+000 110806 -2.3956e+002 -5.8291e+002  3.1526e+001 24307 110604,110708,110682
 2.3000e+000 110783 -7.2176e+001 -5.1917e+002  4.3098e+001 24307 110604,110734,110708
 2.3000e+000 110760 -1.7090e+001 -3.2572e+002 -2.6064e+001 24307 110630,110682,110656
 2.3000e+000 111335 -1.2492e+002 -3.5309e+002 -4.1724e+001 23767 111012,111168,111038
 2.3000e+000 111312 -1.5030e+002 -4.0260e+002 -3.2402e+001 23767 111012,111194,111168
 2.3000e+000 111289 -2.4209e+002 -4.4736e+002  5.5370e+001 23767 111358,111064,111038
 2.3000e+000 111266 -1.7246e+002 -4.1610e+002 -6.8300e+000 23767 111358,111038,111168
 2.3000e+000 111243 -1.0568e+002 -3.7592e+002 -1.5130e+000 23767 111430,111142,111090
 2.3000e+000 111220 -3.1351e+001 -3.4371e+002  1.1470e+001 23767 111090,111142,111116
 2.3000e+000 111384 -2.0193e+002 -4.1741e+002 -1.4955e+000 23767 111090,111064,111358
 2.3000e+000 111407 -1.9931e+002 -3.8715e+002 -1.3008e+001 23767 111430,111090,111358
 2.3000e+000 111456 -1.8029e+001 -4.1165e+002 -2.4046e+001 23767 111168,111142,111430
 2.3000e+000 111479 -7.2271e+001 -3.9307e+002 -2.8654e+001 23767 111168,111430,111358
 2.3000e+000 111985 -1.2274e+002 -2.7444e+002  3.0302e+001 23477 111688,111844,111818
 2.3000e+000 111962 -1.1667e+002 -2.9177e+002 -3.7559e+001 23477 111662,111844,111688
 2.3000e+000 111939 -6.5319e+001 -4.4243e+002  3.9511e+001 23477 111766,111818,111792
 2.3000e+000 111916 -1.8527e+002 -4.2366e+002  2.5792e+001 23477 111740,111818,111766
 2.3000e+000 111893 -1.1363e+002 -2.5321e+002  3.6413e+001 23477 111688,111818,111740
 2.3000e+000 111870 -1.7585e+002 -3.0813e+002  6.2040e+001 23477 111688,111740,111714
 2.3000e+000 112314 -1.6141e+002 -3.2471e+002  3.8407e+000 23023 112141,112219,112193
 2.3000e+000 112291 -1.4041e+002 -3.1711e+002 -7.3228e+000 23023 112115,112219,112141
 2.3000e+000 112268 -1.4047e+002 -3.7362e+002  3.7612e+001 23023 112141,112193,112167
 2.3000e+000 112245 -1.5181e+002 -3.3945e+002 -1.2109e+001 23023 112089,112219,112115
 2.3000e+000 112692 -1.6135e+002 -4.0474e+002 -5.2414e+000 22768 112444,112574,112548
 2.3000e+000 112669 -1.4129e+002 -4.2242e+002  1.8725e+000 22768 112418,112574,112444
 2.3000e+000 112646 -2.1747e+002 -4.4533e+002  4.9475e+000 22768 112444,112522,112470
 2.3000e+000 112623 -1.6758e+002 -4.1034e+002 -1.3696e+001 22768 112444,112548,112522
 2.3000e+000 112600 -7.7751e+001 -3.8053e+002 -4.1777e+001 22768 112470,112522,112496
 2.3000e+000 113011 -7.1037e+001 -4.0105e+002 -2.8207e+001 22314 112763,112867,112789
 2.3000e+000 112988 -3.0269e+001 -3.9896e+002 -3.7244e+001 22314 112763,112893,112867
 2.3000e+000 112965 -7.3705e+001 -3.9347e+002  0.0000e+000 22314 112815,112867,112841
 2.3000e+000 112942 -1.0744e+002 -4.1820e+002 -2.2973e+001 22314 112789,112867,112815
 2.3000e+000 112919 -1.9358e+001 -3.1339e+002  7.7812e+001 22314 112737,112893,112763
 2.3000e+000 113519 -2.7105e+001 -3.1252e+002  6.5186e+001 21924 113614,113542,113248
 2.3000e+000 113496 -6.9294e+001 -3.1601e+002  2.8499e+001 21924 113542,113196,113378
 2.3000e+000 113473 -6.0687e+001 -3.1225e+002  6.5745e+001 21924 113614,113248,113222
 2.3000e+000 113450 -7.0829e+001 -4.3064e+002  2.2148e+001 21924 113686,113274,113248
 2.3000e+000 113427 -1.2540e+002 -4.6929e+002 -2.3487e+001 21924 113274,113352,113326
 2.3000e+000 113404 -2.0323e+002 -5.9501e+002 -5.6685e+001 21924 113274,113326,113300
 2.3000e+000 113568 -2.7025e+001 -3.7232e+002  4.6014e+001 21924 113686,113248,113542
 2.3000e+000 113591 -5.7812e+001 -2.8424e+002  3.3209e+001 21924 113352,113542,113378
 2.3000e+000 113640 -5.9952e+001 -3.2097e+002  5.1589e+001 21924 113196,113542,113614
 2.3000e+000 113663 -7.4358e+001 -3.0870e+002  4.9363e+001 21924 113196,113614,113222
 2.3000e+000 113712 -1.1598e+002 -3.6558e+002 -4.4367e+000 21924 113352,113274,113686
 2.3000e+000 113735 -9.4215e+001 -3.3580e+002  1.3061e+001 21924 113352,113686,113542
 2.3000e+000 113885 -2.6438e+002 -3.6289e+002  4.1962e-001 21520 113980,113908,113784
 2.3000e+000 113862 -2.0718e+002 -3.2677e+002 -4.9610e+001 21520 114238,113908,113758
 2.3000e+000 113934 -1.7720e+002 -3.0465e+002  2.3021e+001 21520 114110,113908,113810
 2.3000e+000 113957 -1.5737e+002 -3.6259e+002 -3.4883e+001 21520 113810,113908,113836
 2.3000e+000 114006 -1.9466e+002 -3.0610e+002 -2.4123e+001 21520 113758,113908,113980
 2.3000e+000 114136 -2.4261e+002 -3.5929e+002 -5.1665e+000 21520 113784,113908,114110
 2.3000e+000 114264 -2.5217e+002 -4.0365e+002 -7.6512e+001 21520 113836,113908,114238
 2.3000e+000 114662 -1.8999e+002 -4.8749e+002  8.0451e+000 21030 114414,114518,114492
 2.3000e+000 114639 -8.3960e+001 -3.9817e+002 -3.5839e+001 21030 114414,114544,114518
 2.3000e+000 114616 -2.7597e+002 -5.3580e+002 -1.2145e+001 21030 114440,114492,114466
 2.3000e+000 114593 -1.9773e+002 -5.0615e+002  6.6293e+000 21030 114414,114492,114440
 2.3000e+000 114570 -1.4677e+002 -4.1732e+002 -1.3446e+001 21030 114388,114544,114414
 2.3000e+000 114959 -2.8947e+002 -4.9305e+002  2.9410e+001 20512 114982,114711,114685
 2.3000e+000 114936 -2.6543e+002 -4.7035e+002 -1.0115e+001 20512 115054,114982,114685
 2.3000e+000 114913 -2.1843e+002 -4.0478e+002 -3.0647e+001 20512 115054,114685,114841
 2.3000e+000 114890 -1.9817e+002 -4.6194e+002  8.4380e+000 20512 114711,114763,114737
 2.3000e+000 114867 -1.1672e+002 -4.3246e+002  5.5889e+000 20512 114763,114815,114789
 2.3000e+000 115008 -2.5201e+002 -4.8571e+002  1.5156e+001 20512 114763,114711,114982
 2.3000e+000 115031 -2.3275e+002 -4.7861e+002 -1.0321e+001 20512 114763,114982,114815
 2.3000e+000 115080 -2.4535e+002 -4.9436e+002 -1.0265e+000 20512 114815,114982,115054
 2.3000e+000 115103 -2.4928e+002 -4.8151e+002 -9.0391e-001 20512 114815,115054,114841
 2.3000e+000 115507 -2.1910e+002 -4.2858e+002 -1.2696e+001 20143 115285,115389,115363
 2.3000e+000 115484 -2.5651e+002 -4.8600e+002  3.6351e+000 20143 115259,115389,115285
 2.3000e+000 115461 -2.3088e+002 -4.0733e+002  2.9748e+000 20143 115233,115389,115259
 2.3000e+000 115438 -2.0107e+002 -5.0399e+002  1.2304e+001 20143 115285,115337,115311
 2.3000e+000 115415 -2.8229e+002 -5.7519e+002 -2.0107e+001 20143 115285,115363,115337
 2.3000e+000 115875 -2.0736e+002 -4.3843e+002 -3.4999e+000 19632 115656,115734,115682
 2.3000e+000 115852 -1.3038e+002 -3.9998e+002  3.4868e+001 19632 115552,115734,115656
 2.3000e+000 115829 -1.3291e+002 -3.9466e+002 -2.0909e+001 19632 115552,115656,115578
 2.3000e+000 115806 -1.9160e+002 -4.4529e+002  3.8918e+000 19632 115578,115656,115630
 2.3000e+000 115783 -2.3102e+002 -4.2581e+002  2.3223e+001 19632 115682,115734,115708
 2.3000e+000 115760 -2.3494e+002 -4.5704e+002 -4.3786e+001 19632 115578,115630,115604
 2.3000e+000 116025 -1.1995e+002 -4.4200e+002 -7.4033e+001 19178 115898,115950,115924
 2.3000e+000 116002 -1.4720e+002 -4.3958e+002 -4.2045e+001 19178 115898,115976,115950
 2.3000e+000 116633 -1.8764e+002 -4.4053e+002 -4.5198e+000 18738 116800,116656,116342
 2.3000e+000 116610 -1.9519e+002 -4.7073e+002  1.6735e+001 18738 116656,116238,116446
 2.3000e+000 116587 -2.1421e+002 -4.4891e+002 -2.2406e+001 18738 116728,116368,116342
 2.3000e+000 116564 -1.8486e+002 -4.2392e+002 -1.4409e+001 18738 116800,116342,116264
 2.3000e+000 116541 -1.9545e+002 -6.0446e+002  6.0236e+001 18738 116212,116446,116238
 2.3000e+000 116518 -4.9251e+001 -3.4662e+002  2.1377e+001 18738 116394,116446,116420
 2.3000e+000 116495  8.5301e+000 -3.6156e+002 -5.5894e+001 18738 116264,116342,116316
 2.3000e+000 116472 -1.1313e+002 -4.7367e+002  4.5730e+001 18738 116264,116316,116290
 2.3000e+000 116682 -2.0899e+002 -4.4424e+002  7.0801e+000 18738 116728,116342,116656
 2.3000e+000 116705 -1.9492e+002 -4.0745e+002  2.5063e+001 18738 116394,116656,116446
 2.3000e+000 116754 -2.5951e+002 -4.6694e+002 -3.2850e+001 18738 116394,116368,116728
 2.3000e+000 116777 -2.5873e+002 -4.6274e+002 -2.6408e+000 18738 116394,116728,116656
 2.3000e+000 116826 -1.8274e+002 -4.7351e+002  7.9535e+000 18738 116238,116656,116800
 2.3000e+000 116849 -1.7235e+002 -4.5253e+002 -4.5600e+000 18738 116238,116800,116264
 2.3000e+000 116999 -1.3169e+002 -4.1880e+002  1.6903e+001 18184 116872,116924,116898
 2.3000e+000 116976 -1.2992e+002 -2.2799e+002 -9.4328e+000 18184 116872,116950,116924
 2.3000e+000 117330 -3.8149e+001 -5.0653e+002  3.2466e+001 17694 117157,117235,117183
 2.3000e+000 117307 -1.5757e+002 -5.7359e+002  3.4275e+000 17694 117131,117235,117157
 2.3000e+000 117284 -1.1058e+002 -6.3381e+002 -3.0488e+001 17694 117105,117235,117131
 2.3000e+000 117261  5.9740e+001 -3.2326e+002 -1.5152e+001 17694 117183,117235,117209
 2.3000e+000 117480 -2.2172e+002 -4.8259e+002 -6.0819e+001 17290 117353,117405,117379
 2.3000e+000 117457 -1.5170e+002 -5.5506e+002 -5.5017e+001 17290 117353,117431,117405
 2.3000e+000 117679 -5.5787e+001 -3.6086e+002 -1.4529e+001 16718 117555,117607,117581
 2.3000e+000 117656 -1.7501e+002 -4.6011e+002  3.1967e+001 16718 117529,117607,117555
 2.3000e+000 117633 -2.2346e+000 -4.6690e+002  1.5349e+001 16718 117503,117607,117529
 2.3000e+000 117782 -1.6007e+002 -4.5997e+002  1.1125e+001 16520 117704,117756,117730
 2.3000e+000 117983 -1.2390e+002 -5.2168e+002 -4.8476e+000 16208 117859,117911,117885
 2.3000e+000 117960 -1.3076e+002 -5.2341e+002 -5.1553e+000 16208 117833,117911,117859
 2.3000e+000 117937 -1.2637e+002 -4.9492e+002  7.9300e+000 16208 117807,117911,117833
 2.3000e+000 118135 -3.4017e+002 -5.3719e+002 -5.1702e+001 15674 118034,118086,118060
 2.3000e+000 118112 -1.8953e+002 -4.3197e+002  9.8705e+000 15674 118008,118086,118034
 2.3000e+000 118238 -5.8303e+001 -3.8820e+002  2.2097e+001 15355 118160,118212,118186
 2.3000e+000 118341 -2.8582e+002 -5.2461e+002  1.0041e+002 421 118263,118315,118289
 2.4000e+000 68152 -8.5051e+001 -3.8602e+002 -1.9700e+001 67838 68074,68126,68100
 2.4000e+000 68550 -4.2851e+001 -6.7935e+002  2.2933e+001 67526 68276,68380,68302
 2.4000e+000 68527 -6.8549e+000 -7.0287e+002  9.2624e-001 67526 68276,68406,68380
 2.4000e+000 68504 -6.6449e+001 -6.1203e+002  8.0199e+000 67526 68328,68380,68354
 2.4000e+000 68481 -1.6811e+001 -6.1864e+002  2.2008e+001 67526 68302,68380,68328
 2.4000e+000 68458  1.0015e+001 -6.4698e+002 -4.2783e+000 67526 68276,68432,68406
 2.4000e+000 68651 -2.5041e+002 -4.4795e+002  7.3786e+001 67328 68573,68625,68599
 2.4000e+000 68970 -7.6305e+001 -4.3846e+002 -7.6091e+000 67016 68722,68800,68774
 2.4000e+000 68947 -7.2550e+001 -4.0879e+002 -1.9138e+001 67016 68722,68826,68800
 2.4000e+000 68924 -1.3532e+002 -4.3329e+002 -7.3295e-002 67016 68696,68826,68722
 2.4000e+000 68901 -4.8971e+001 -4.6469e+002 -3.1510e+001 67016 68722,68774,68748
 2.4000e+000 68878 -1.9102e+002 -4.1323e+002 -7.1959e+001 67016 68696,68852,68826
 2.4000e+000 69291 -2.1684e+002 -5.4927e+002 -1.4264e+001 66654 69069,69147,69095
 2.4000e+000 69268 -1.5649e+002 -6.3612e+002  7.8355e+000 66654 69069,69173,69147
 2.4000e+000 69245 -2.5940e+002 -5.9503e+002  1.1148e+002 66654 69043,69173,69069
 2.4000e+000 69222 -3.0811e+002 -6.8016e+002  4.3153e+001 66654 69095,69147,69121
 2.4000e+000 69199 -3.3743e+002 -6.1679e+002  1.0680e+001 66654 69017,69173,69043
 2.4000e+000 69695 -2.9364e+001 -6.7057e+002  2.2916e+001 66456 69447,69577,69551
 2.4000e+000 69672  3.9618e+000 -5.8349e+002 -2.6278e+001 66456 69421,69577,69447
 2.4000e+000 69649  2.5007e+001 -3.9059e+002 -4.4034e+001 66456 69473,69551,69525
 2.4000e+000 69626  1.4316e+001 -5.6825e+002  2.0098e+001 66456 69447,69551,69473
 2.4000e+000 69603  7.6846e+001 -3.4348e+002 -1.2377e+002 66456 69473,69525,69499
 2.4000e+000 70024 -1.0835e+002 -5.0958e+002  6.8001e+000 66258 70047,69851,69825
 2.4000e+000 70001 -1.0602e+002 -4.7595e+002  3.0035e+001 66258 70047,69825,69903
 2.4000e+000 69978 -1.5514e+002 -6.7594e+002  7.3122e+001 66258 69799,69903,69825
 2.4000e+000 69955 -5.1694e+001 -8.7527e+002  1.5401e+002 66258 69799,69929,69903
 2.4000e+000 70073 -1.3892e+002 -5.0626e+002 -2.4379e+001 66258 69877,69851,70047
 2.4000e+000 70096 -1.3764e+002 -4.6384e+002 -9.1298e-001 66258 69877,70047,69903
 2.4000e+000 70602  4.4457e+001 -3.4726e+002 -8.0212e+001 66060 70305,70435,70331
 2.4000e+000 70579 -2.3709e+002 -5.6911e+002  2.8228e+001 66060 70279,70435,70305
 2.4000e+000 70556 -2.3509e+002 -4.3510e+002 -1.0060e+002 66060 70331,70435,70409
 2.4000e+000 70533 -1.6764e+002 -4.4280e+002  7.8194e+001 66060 70279,70461,70435
 2.4000e+000 70510 -8.5596e+001 -2.8415e+002 -1.6966e+002 66060 70331,70409,70357
 2.4000e+000 70487 -6.5102e+000 -3.0425e+002 -5.0213e+001 66060 70357,70409,70383
 2.4000e+000 70703 -5.1447e+002 -8.1337e+002 -2.3559e+001 65862 70625,70677,70651
 2.4000e+000 71083 -1.4847e+002 -5.6030e+002  4.1482e+001 65664 70887,70965,70939
 2.4000e+000 71060 -6.3037e+001 -5.8316e+002  2.1862e+001 65664 70861,70965,70887
 2.4000e+000 71037 -8.5468e+001 -5.7759e+002  1.0343e+000 65664 70809,70965,70861
 2.4000e+000 71014 -9.9820e+001 -6.4677e+002 -1.5324e+001 65664 70809,70861,70835
 2.4000e+000 70991 -1.2045e+002 -5.3821e+002 -7.0532e+000 65664 70887,70939,70913
 2.4000e+000 71611 -2.2625e+002 -8.1679e+002 -4.8795e+001 65260 71288,71444,71314
 2.4000e+000 71588 -1.6057e+002 -7.2575e+002  1.0734e+000 65260 71288,71470,71444
 2.4000e+000 71565  2.4964e+001 -4.2866e+002  3.5822e+001 65260 71314,71418,71392
 2.4000e+000 71542 -1.7203e+002 -6.8462e+002 -5.0959e+001 65260 71314,71444,71418
 2.4000e+000 71519 -1.8423e+002 -5.0393e+002  4.3436e+001 65260 71314,71392,71340
 2.4000e+000 71496 -1.1053e+002 -3.5729e+002  1.2992e+002 65260 71340,71392,71366
 2.4000e+000 72060 -1.5374e+002 -3.7828e+002 -2.5206e+001 64870 71737,71893,71789
 2.4000e+000 72037  1.0805e+001 -3.0686e+002 -1.6556e+001 64870 71737,71919,71893
 2.4000e+000 72014 -1.7902e+002 -3.2896e+002  2.2190e+001 64870 71789,71841,71815
 2.4000e+000 71991 -1.1419e+002 -3.4469e+002 -2.5328e+000 64870 71789,71893,71841
 2.4000e+000 71968 -1.2118e+002 -4.3539e+002 -9.5853e+001 64870 71737,71789,71763
 2.4000e+000 71945 -8.0131e+001 -3.8198e+002  0.0000e+000 64870 71841,71893,71867
 2.4000e+000 72517 -2.2495e+002 -3.6808e+002 -3.9620e+001 64466 72321,72399,72347
 2.4000e+000 72494 -2.1304e+002 -3.2430e+002 -2.8000e+001 64466 72269,72399,72321
 2.4000e+000 72471 -2.2663e+002 -4.0589e+002  2.5992e+001 64466 72347,72399,72373
 2.4000e+000 72448 -2.3223e+002 -3.6787e+002 -1.0128e+002 64466 72243,72399,72269
 2.4000e+000 72425 -2.8119e+002 -4.7325e+002 -1.2019e+001 64466 72269,72321,72295
 2.4000e+000 72944 -3.3681e+001 -2.7363e+002 -1.2867e+001 64062 73111,73039,72699
 2.4000e+000 72921 -1.1332e+001 -3.2260e+002 -2.7840e+001 64062 73183,72967,72647
 2.4000e+000 72898 -6.0871e+000 -3.0545e+002 -1.1678e+001 64062 72967,72803,72751
 2.4000e+000 72875 -5.3943e+000 -2.6150e+002 -1.6438e+001 64062 73111,72699,72673
 2.4000e+000 72852  6.8145e+000 -3.4774e+002 -1.4692e+001 64062 73183,72647,72621
 2.4000e+000 72829 -3.3019e+001 -2.4865e+002 -7.9554e+001 64062 72751,72803,72777
 2.4000e+000 72993  1.4086e+000 -2.8883e+002 -9.6004e+000 64062 73039,72647,72967
 2.4000e+000 73016 -8.4302e+001 -3.3927e+002 -2.1207e+001 64062 72725,72967,72751
 2.4000e+000 73065  3.2536e+001 -3.5609e+002  1.3084e+002 64062 72725,72699,73039
 2.4000e+000 73088 -3.0700e+000 -3.2026e+002 -3.1637e+001 64062 72725,73039,72967
 2.4000e+000 73137  3.0678e+001 -2.7666e+002 -1.1372e+001 64062 72647,73039,73111
 2.4000e+000 73160  3.4451e+001 -2.7533e+002 -1.0805e+001 64062 72647,73111,72673
 2.4000e+000 73209 -1.9659e+001 -3.4696e+002 -1.1083e+001 64062 72803,72967,73183
 2.4000e+000 73232 -1.6974e+001 -3.9793e+002  1.4732e+000 64062 72803,73183,72621
 2.4000e+000 73333 -4.1230e+002 -7.6860e+002  3.7987e+001 63814 73356,73281,73255
 2.4000e+000 73382 -3.2001e+002 -5.1582e+002  2.0875e+001 63814 73486,73356,73307
 2.4000e+000 73512 -4.3417e+002 -5.6343e+002 -4.6726e+001 63814 73281,73356,73486
 2.4000e+000 73839 -2.0913e+002 -6.4217e+002 -4.3161e+001 63616 73862,73692,73666
 2.4000e+000 73816 -2.1384e+002 -5.6281e+002 -1.1213e+001 63616 73934,73862,73666
 2.4000e+000 73793 -1.9391e+002 -5.7195e+002  8.0195e+000 63616 73934,73666,73640
 2.4000e+000 73770 -1.6679e+002 -5.5822e+002  2.5920e+001 63616 73614,73744,73640
 2.4000e+000 73888 -1.7606e+002 -5.5956e+002 -6.1695e+001 63616 73718,73692,73862
 2.4000e+000 73911 -2.3735e+002 -5.4881e+002 -8.7239e+000 63616 73718,73862,73744
 2.4000e+000 73960 -2.4845e+002 -5.7641e+002 -8.7858e+000 63616 73744,73862,73934
 2.4000e+000 73983 -2.3314e+002 -5.8843e+002  7.8787e+000 63616 73744,73934,73640
 2.4000e+000 74363 -9.4522e+001 -3.6151e+002 -4.1918e+000 63390 74386,74115,74089
 2.4000e+000 74340 -8.8216e+001 -3.1735e+002 -1.7002e+001 63390 74458,74386,74089
 2.4000e+000 74317 -7.7621e+001 -3.2554e+002  1.0395e+001 63390 74458,74089,74245
 2.4000e+000 74294 -1.0636e+002 -4.2286e+002 -2.5011e+001 63390 74530,74167,74141
 2.4000e+000 74271 -1.4565e+002 -3.8341e+002 -8.8671e+001 63390 74167,74219,74193
 2.4000e+000 74412 -4.9250e+001 -3.3622e+002  5.8107e+000 63390 74141,74115,74386
 2.4000e+000 74435 -6.3555e+001 -3.8911e+002 -4.1552e-001 63390 74530,74141,74386
 2.4000e+000 74484 -6.7174e+001 -2.7742e+002 -6.3070e+000 63390 74219,74386,74458
 2.4000e+000 74507 -4.7930e+001 -2.7608e+002  2.3788e+001 63390 74219,74458,74245
 2.4000e+000 74556 -1.7433e+002 -3.9323e+002 -6.9427e+001 63390 74219,74167,74530
 2.4000e+000 74579 -1.3105e+002 -3.4994e+002 -4.1670e+001 63390 74219,74530,74386
 2.4000e+000 74680 -1.1409e+002 -3.6867e+002  2.8153e+001 63100 75089,74833,74703
 2.4000e+000 74729 -2.0130e+002 -4.1409e+002 -1.5378e+001 63100 74961,74703,74654
 2.4000e+000 74859 -7.4369e+001 -3.0139e+002  5.7304e+001 63100 74602,74703,74833
 2.4000e+000 74987 -1.6293e+002 -3.2069e+002 -1.0779e+001 63100 75089,74703,74961
 2.4000e+000 75115 -1.8439e+001 -3.1226e+002  4.8577e+000 63100 74628,74833,75089
 2.4000e+000 75138 -6.6974e+001 -2.6463e+002 -3.3825e+001 63100 74628,75089,74961
 2.4000e+000 75723 -1.2270e+002 -3.3041e+002  2.9132e+001 62532 75746,75504,75426
 2.4000e+000 75700 -1.3519e+002 -3.0737e+002  3.6630e+001 62532 75746,75426,75556
 2.4000e+000 75677 -1.8476e+002 -4.3406e+002 -1.2700e+001 62532 75426,75504,75452
 2.4000e+000 75654 -2.1231e+002 -2.6484e+002 -4.5616e+001 62532 75400,75556,75426
 2.4000e+000 75631 -2.3092e+002 -3.6639e+002 -1.1050e+002 62532 75400,75582,75556
 2.4000e+000 75608 -2.7192e+002 -1.7872e+002 -6.8472e+001 62532 75452,75504,75478
 2.4000e+000 75772 -1.3276e+002 -3.4512e+002  2.3806e+001 62532 75530,75504,75746
 2.4000e+000 75795 -1.4975e+002 -3.2404e+002  2.9485e+001 62532 75530,75746,75556
 2.4000e+000 76301 -1.9744e+002 -4.2868e+002 -1.2002e-001 62192 76324,76082,76030
 2.4000e+000 76278 -1.9614e+002 -3.9761e+002  1.1801e+001 62192 76324,76030,76004
 2.4000e+000 76255 -9.5466e+001 -4.0207e+002  4.2607e+001 62192 76030,76082,76056
 2.4000e+000 76232 -2.2232e+002 -4.6056e+002 -8.8223e+001 62192 76082,76134,76108
 2.4000e+000 76209 -1.7677e+002 -3.4122e+002 -4.3454e+001 62192 76004,76160,76134
 2.4000e+000 76186 -1.1380e+002 -3.7098e+002 -2.1235e+001 62192 75978,76160,76004
 2.4000e+000 76350 -2.2235e+002 -3.9058e+002 -2.4477e+000 62192 76134,76082,76324
 2.4000e+000 76373 -2.0933e+002 -3.4215e+002  6.6411e+000 62192 76134,76324,76004
 2.4000e+000 76879 -1.8479e+002 -4.2964e+002 -2.7649e+001 61788 76902,76660,76582
 2.4000e+000 76856 -1.9562e+002 -4.3542e+002 -2.9945e+001 61788 76902,76582,76556
 2.4000e+000 76833 -1.2696e+002 -3.6485e+002 -9.0871e+001 61788 76582,76660,76634
 2.4000e+000 76810 -1.8446e+002 -2.7820e+002 -1.0682e+002 61788 76582,76634,76608
 2.4000e+000 76787 -1.6351e+002 -4.6201e+002  5.7996e+001 61788 76556,76738,76686
 2.4000e+000 76764 -5.2228e+001 -2.7106e+002 -4.3334e+000 61788 76686,76738,76712
 2.4000e+000 76928 -1.7321e+002 -4.3556e+002 -2.8547e+001 61788 76686,76660,76902
 2.4000e+000 76951 -1.8283e+002 -4.4104e+002 -3.1071e+001 61788 76686,76902,76556
 2.4000e+000 77408 -2.1994e+002 -3.6222e+002 -1.9136e+001 61498 77212,77264,77238
 2.4000e+000 77385 -1.8180e+002 -3.0241e+002  1.3916e+001 61498 77160,77264,77212
 2.4000e+000 77362 -2.4418e+002 -3.3042e+002  3.6056e+000 61498 77160,77290,77264
 2.4000e+000 77339 -1.0809e+002 -3.2275e+002  1.0778e+001 61498 77160,77212,77186
 2.4000e+000 77316 -1.8395e+002 -3.0924e+002  1.3938e+002 61498 77134,77290,77160
 2.4000e+000 77678 -1.2510e+002 -6.0980e+002 -4.3457e+001 61129 77479,77557,77505
 2.4000e+000 77655 -1.9741e+002 -5.9941e+002 -6.2600e+000 61129 77479,77583,77557
 2.4000e+000 77632 -9.8758e+001 -5.1637e+002  4.0466e+001 61129 77453,77583,77479
 2.4000e+000 77609 -8.4828e+001 -6.0814e+002 -5.6130e+001 61129 77505,77557,77531
 2.4000e+000 77828 -5.2829e+001 -5.2935e+002  9.1163e+000 60931 77851,77727,77701
 2.4000e+000 77805 -1.3938e+002 -5.9743e+002  3.9271e+001 60931 77851,77701,77779
 2.4000e+000 77877 -2.6417e+002 -6.8147e+002  1.1750e+002 60931 77923,77851,77753
 2.4000e+000 77900 -6.4566e+001 -5.8581e+002  6.0840e+001 60931 77753,77851,77779
 2.4000e+000 77949 -1.0207e+002 -4.0223e+002  2.3040e+001 60931 77727,77851,77923
 2.4000e+000 78133 -2.9946e+001 -1.9896e+002 -1.7241e+001 60377 78055,78107,78081
 2.4000e+000 78535 -3.6288e+002 -5.0391e+002 -3.1987e+001 60015 78287,78391,78313
 2.4000e+000 78512 -2.1306e+002 -5.3228e+002 -4.5410e+001 60015 78287,78417,78391
 2.4000e+000 78489 -2.3548e+002 -5.8210e+002 -9.4274e+001 60015 78261,78417,78287
 2.4000e+000 78466 -1.6691e+002 -4.3897e+002  4.3104e+001 60015 78339,78391,78365
 2.4000e+000 78443 -1.7967e+002 -4.1050e+002  1.4143e+001 60015 78313,78391,78339
 2.4000e+000 78913 -1.4618e+002 -3.0955e+002  4.2594e+000 59725 78936,78743,78691
 2.4000e+000 78890 -1.9158e+002 -3.3097e+002 -1.1709e+001 59725 79008,78936,78691
 2.4000e+000 78867 -1.9304e+002 -3.3340e+002 -1.3113e+001 59725 79008,78691,78665
 2.4000e+000 78844 -6.2779e+001 -2.8935e+002  2.6704e+001 59725 78691,78743,78717
 2.4000e+000 78821 -7.1621e+001 -3.0244e+002 -1.4481e+002 59725 78639,78795,78769
 2.4000e+000 78962 -6.9103e+001 -3.4523e+002 -4.5428e+001 59725 78769,78743,78936
 2.4000e+000 78985 -2.0678e+002 -4.2477e+002 -8.4909e+001 59725 78769,78936,78639
 2.4000e+000 79034 -1.8852e+002 -3.3008e+002 -9.8432e+000 59725 78639,78936,79008
 2.4000e+000 79057 -1.9034e+002 -3.3106e+002 -1.1013e+001 59725 78639,79008,78665
 2.4000e+000 79386 -1.3216e+002 -4.1047e+002  3.1663e+001 59221 79187,79239,79213
 2.4000e+000 79363 -8.4504e+001 -3.6129e+002  1.1034e+001 59221 79187,79265,79239
 2.4000e+000 79340 -1.5652e+002 -3.8180e+002  2.3297e+001 59221 79187,79291,79265
 2.4000e+000 79317 -9.0578e+001 -2.2397e+002  2.8135e+001 59221 79161,79291,79187
 2.4000e+000 79813 -1.2794e+002 -4.7969e+002 -1.7780e+001 58831 79836,79542,79516
 2.4000e+000 79790 -1.2883e+002 -4.4187e+002 -5.9041e+001 58831 79980,79836,79516
 2.4000e+000 79767 -2.1070e+002 -5.8765e+002 -7.2409e+000 58831 79908,79646,79568
 2.4000e+000 79744 -5.6167e+001 -3.4933e+002 -4.1787e+000 58831 79980,79516,79490
 2.4000e+000 79721 -5.6970e+001 -6.9024e+002 -9.9634e+001 58831 79568,79646,79594
 2.4000e+000 79698 -7.2630e+002 -2.4431e+003 -3.8366e+002 58831 79594,79646,79620
 2.4000e+000 79862 -1.0097e+002 -4.6799e+002 -1.2984e+001 58831 79568,79542,79836
 2.4000e+000 79885 -1.5254e+002 -4.8353e+002  1.5984e+001 58831 79908,79568,79836
 2.4000e+000 79934 -2.4766e+002 -5.4885e+002 -9.6197e+001 58831 79672,79646,79908
 2.4000e+000 79957 -2.1017e+002 -4.6703e+002 -8.1472e+001 58831 79672,79908,79836
 2.4000e+000 80006 -1.1714e+002 -3.0737e+002 -3.0427e+001 58831 79672,79836,79980
 2.4000e+000 80029 -1.3066e+002 -2.8788e+002  2.9016e+000 58831 79672,79980,79490
 2.4000e+000 80358 -6.8511e+001 -3.9468e+002 -5.8734e+000 58377 80381,80185,80159
 2.4000e+000 80335 -4.9252e+001 -3.9362e+002 -5.4635e+000 58377 80381,80159,80133
 2.4000e+000 80312 -2.3781e+001 -3.8060e+002  1.1682e+001 58377 80133,80263,80237
 2.4000e+000 80289 -1.1361e+002 -4.3672e+002  3.9247e+001 58377 80185,80237,80211
 2.4000e+000 80407 -1.0039e+002 -3.9159e+002 -8.2684e-001 58377 80237,80185,80381
 2.4000e+000 80430 -6.7045e+001 -3.8095e+002  9.3828e-001 58377 80237,80381,80133
 2.4000e+000 80759 -4.5391e+001 -3.4457e+002  1.0253e+002 57873 80782,80586,80560
 2.4000e+000 80736 -1.1632e+002 -4.1054e+002  7.4740e+001 57873 80782,80560,80534
 2.4000e+000 80713 -1.2839e+002 -4.4268e+002  4.8312e+001 57873 80586,80638,80612
 2.4000e+000 80690 -4.3331e+001 -3.9695e+002  4.5285e+001 57873 80534,80664,80638
 2.4000e+000 80808 -7.6663e+001 -4.0461e+002  6.8098e+001 57873 80638,80586,80782
 2.4000e+000 80831 -8.7646e+001 -4.2250e+002  5.6258e+001 57873 80638,80782,80534
 2.4000e+000 81337 -1.3129e+002 -5.3352e+002 -4.3632e+001 57262 81360,81144,81092
 2.4000e+000 81314 -1.6897e+002 -6.2183e+002 -4.2416e+001 57262 81360,81092,81066
 2.4000e+000 81291 -1.9916e+002 -6.3608e+002  1.1819e+001 57262 81014,81196,81066
 2.4000e+000 81268 -9.9488e+001 -4.4218e+002 -3.0553e+001 57262 81092,81144,81118
 2.4000e+000 81245 -1.6453e+002 -3.8214e+002 -1.5597e+001 57262 81144,81196,81170
 2.4000e+000 81222 -2.3198e+002 -7.1934e+002  5.9231e+001 57262 81014,81066,81040
 2.4000e+000 81386 -1.5837e+002 -4.5748e+002  1.7391e+001 57262 81196,81144,81360
 2.4000e+000 81409 -1.9820e+002 -5.5035e+002  1.6324e+001 57262 81196,81360,81066
 2.4000e+000 81608 -1.3457e+002 -6.6824e+002  3.8272e+001 57007 81458,81536,81510
 2.4000e+000 81585 -1.4301e+002 -7.8067e+002  5.5097e+001 57007 81432,81536,81458
 2.4000e+000 81562 -4.1027e+002 -6.0013e+002  1.7835e+002 57007 81458,81510,81484
 2.4000e+000 82086 -2.6922e+002 -6.3721e+002 -6.7263e+001 56339 81792,81922,81818
 2.4000e+000 82063 -2.3749e+002 -7.4484e+002 -1.4047e+002 56339 81714,81922,81792
 2.4000e+000 82040 -2.7141e+002 -4.9343e+002 -4.8044e+001 56339 82109,81844,81818
 2.4000e+000 82017 -2.4292e+002 -5.7368e+002 -5.2914e+001 56339 82109,81818,81922
 2.4000e+000 81994 -1.9848e+002 -5.7664e+002 -6.6156e+001 56339 81844,81896,81870
 2.4000e+000 81971 -2.7579e+002 -7.9341e+002 -2.5856e+002 56339 81714,81792,81766
 2.4000e+000 81948 -4.7975e+002 -2.1186e+003 -4.2043e+002 56339 81714,81766,81740
 2.4000e+000 82135 -2.4176e+002 -5.5466e+002 -1.3823e+001 56339 81896,81844,82109
 2.4000e+000 82158 -2.4064e+002 -6.7417e+002 -2.9389e+001 56339 81896,82109,81922
 2.4000e+000 82536 -1.9806e+002 -4.8733e+002 -3.5203e+001 55699 82288,82392,82314
 2.4000e+000 82513 -2.3976e+002 -5.0570e+002 -3.8082e+001 55699 82288,82418,82392
 2.4000e+000 82490 -2.5188e+002 -6.1917e+002 -5.8524e+001 55699 82314,82392,82340
 2.4000e+000 82467 -5.0387e+001 -7.8387e+002 -1.1637e+002 55699 82340,82392,82366
 2.4000e+000 82444 -2.1299e+002 -5.4939e+002 -4.4451e+001 55699 82262,82418,82288
 2.4000e+000 83091 -2.4692e+002 -4.4948e+002  4.6707e+001 55409 82745,82901,82875
 2.4000e+000 83068 -1.7804e+002 -3.5826e+002  7.7020e+001 55409 82719,82901,82745
 2.4000e+000 83045 -2.2750e+002 -4.9550e+002  5.4836e+001 55409 82771,82849,82823
 2.4000e+000 83022 -3.8745e+002 -5.4099e+002  1.0454e+002 55409 82745,82849,82771
 2.4000e+000 82999 -2.1613e+002 -4.3647e+002  5.0605e+001 55409 82745,82875,82849
 2.4000e+000 82976 -3.2238e+002 -4.7587e+002  6.7537e+001 55409 82771,82823,82797
 2.4000e+000 82953 -3.4778e+001 -8.7771e+001 -3.0552e+001 55409 82719,82927,82901
 2.4000e+000 83388 -1.7167e+002 -5.4219e+002 -2.5105e+001 54905 83411,83218,83166
 2.4000e+000 83365 -1.0973e+002 -5.1718e+002 -1.6506e+001 54905 83411,83166,83114
 2.4000e+000 83342 -2.0952e+002 -5.2106e+002 -3.3383e+001 54905 83483,83270,83244
 2.4000e+000 83319 -2.1124e+002 -4.8580e+002 -6.7400e+001 54905 83166,83218,83192
 2.4000e+000 83296 -1.1508e+002 -5.5243e+002  6.4504e+000 54905 83114,83166,83140
 2.4000e+000 83437 -1.8955e+002 -5.2125e+002 -3.2480e+000 54905 83244,83218,83411
 2.4000e+000 83460 -1.7892e+002 -5.2561e+002 -1.4307e+001 54905 83483,83244,83411
 2.4000e+000 83509 -1.6979e+002 -4.8055e+002 -1.7299e+001 54905 83114,83270,83483
 2.4000e+000 83532 -1.5703e+002 -4.9581e+002 -3.8157e+000 54905 83114,83483,83411
 2.4000e+000 83961 -1.7423e+002 -5.6531e+002  1.1996e+000 54593 83638,83768,83690
 2.4000e+000 83938 -8.6833e+001 -5.5233e+002  9.3172e+000 54593 83638,83794,83768
 2.4000e+000 83915 -1.8318e+002 -5.4754e+002  1.4285e+001 54593 83690,83768,83742
 2.4000e+000 83892 -1.2653e+002 -4.8432e+002 -8.9010e+001 54593 83638,83820,83794
 2.4000e+000 83869 -1.5829e+002 -5.0474e+002 -7.5547e+000 54593 83638,83690,83664
 2.4000e+000 83846 -1.3187e+002 -4.0106e+002 -1.1174e+002 54593 83690,83742,83716
 2.4000e+000 84209 -1.5763e+002 -6.4792e+002  5.0375e+001 54132 84232,84062,83984
 2.4000e+000 84186 -1.4584e+002 -5.5108e+002  2.3884e+001 54132 84232,83984,84114
 2.4000e+000 84163 -1.8640e+002 -7.0536e+002 -3.4081e+001 54132 83984,84062,84036
 2.4000e+000 84140 -2.1143e+002 -6.9852e+002 -4.9478e+001 54132 83984,84036,84010
 2.4000e+000 84258 -9.7333e+001 -7.5703e+002  3.2935e+001 54132 84088,84062,84232
 2.4000e+000 84281 -7.2480e+001 -6.5172e+002 -1.1208e+001 54132 84088,84232,84114
 2.4000e+000 84382 -1.8474e+002 -5.2396e+002 -1.3420e+001 53521 84304,84356,84330
 2.4000e+000 84632 -1.8097e+002 -5.2656e+002  1.1662e+001 53067 84655,84485,84459
 2.4000e+000 84609 -1.5903e+002 -5.4005e+002  1.6095e+001 53067 84655,84459,84407
 2.4000e+000 84586 -1.6835e+002 -4.9148e+002  9.6371e+000 53067 84485,84537,84511
 2.4000e+000 84563 -1.7736e+002 -6.0014e+002 -1.2450e+001 53067 84407,84459,84433
 2.4000e+000 84681 -1.8810e+002 -5.3440e+002  1.4771e+001 53067 84537,84485,84655
 2.4000e+000 84704 -1.8089e+002 -5.5882e+002  2.4141e+001 53067 84537,84655,84407
 2.4000e+000 85214 -1.8512e+002 -5.9730e+002 -1.9351e+001 52513 85021,85073,85047
 2.4000e+000 85191 -1.2207e+002 -4.0978e+002 -6.8473e+001 52513 84943,85073,85021
 2.4000e+000 85168 -1.3021e+002 -3.9895e+002 -5.3851e+000 52513 84943,85021,84995
 2.4000e+000 85145 -2.6294e+002 -7.3613e+002 -8.4600e+001 52513 84917,85073,84943
 2.4000e+000 85122 -1.2145e+002 -3.4695e+002 -2.2205e+001 52513 84943,84995,84969
 2.4000e+000 85099 -3.2358e+002 -6.8120e+002 -5.6035e+001 52513 84891,85073,84917
 2.4000e+000 85582 -1.3008e+002 -4.5388e+002  3.9272e+001 52037 85605,85311,85285
 2.4000e+000 85559 -1.5432e+002 -4.9251e+002  5.0615e+001 52037 85749,85605,85285
 2.4000e+000 85536 -5.0597e+001 -4.4636e+002  1.5620e+001 52037 85893,85677,85389
 2.4000e+000 85513 -1.0951e+002 -4.6061e+002  3.6666e+001 52037 85749,85285,85259
 2.4000e+000 85490  1.5979e+001 -4.2066e+002 -9.6190e+000 52037 85893,85389,85363
 2.4000e+000 85467 -8.9455e+001 -4.8841e+002 -2.0305e+001 52037 85259,85441,85415
 2.4000e+000 85631 -2.4881e+002 -5.1706e+002  1.4772e+001 52037 85337,85311,85605
 2.4000e+000 85654 -1.6636e+002 -4.8853e+002  8.4514e+001 52037 85677,85337,85605
 2.4000e+000 85703 -2.4174e+001 -4.8410e+002  3.3720e+001 52037 85415,85389,85677
 2.4000e+000 85726 -4.7636e+001 -4.6787e+002  6.8465e+001 52037 85821,85677,85605
 2.4000e+000 85775 -9.2835e+001 -4.8766e+002  6.5670e+001 52037 85821,85605,85749
 2.4000e+000 85798 -1.2742e+002 -4.9995e+002  2.9224e+001 52037 85415,85749,85259
 2.4000e+000 85847 -5.9631e+001 -4.8041e+002  3.1105e+001 52037 85415,85677,85821
 2.4000e+000 85870 -7.5766e+001 -4.8758e+002  2.9828e+001 52037 85415,85821,85749
 2.4000e+000 85919 -4.3197e+001 -4.7773e+002  8.7627e+001 52037 85337,85677,85893
 2.4000e+000 85942 -1.6328e+001 -4.7213e+002  6.4062e+001 52037 85337,85893,85363
 2.4000e+000 86224 -6.5328e+001 -2.7826e+002  1.8346e+001 51368 86375,86100,86074
 2.4000e+000 86201 -2.3213e+002 -3.3569e+002  2.5754e+001 51368 86375,86074,86247
 2.4000e+000 86178 -6.2888e+001 -4.1724e+002 -1.0445e+002 51368 86048,86152,86126
 2.4000e+000 86273 -1.3462e+002 -3.5997e+002 -9.0104e+001 51368 86048,86126,86247
 2.4000e+000 86401  2.0393e+001 -3.3980e+002 -5.5163e+001 51368 86126,86100,86375
 2.4000e+000 86424 -6.1830e+001 -3.4007e+002 -4.9435e+001 51368 86126,86375,86247
 2.4000e+000 86802 -2.1511e+002 -4.4200e+002 -2.5302e+000 51028 86528,86632,86580
 2.4000e+000 86779 -2.2429e+002 -5.2034e+002  1.6616e+001 51028 86528,86684,86632
 2.4000e+000 86756 -2.7358e+002 -5.7891e+002  1.1802e+000 51028 86528,86580,86554
 2.4000e+000 86733 -1.4836e+002 -4.8866e+002  9.3410e+001 51028 86632,86684,86658
 2.4000e+000 86710 -2.1288e+002 -5.0171e+002 -6.0142e+001 51028 86580,86632,86606
 2.4000e+000 87131 -1.7003e+002 -4.8656e+002  7.4262e+001 50624 86958,87036,87010
 2.4000e+000 87108 -2.0397e+002 -4.4406e+002  6.8223e+001 50624 86932,87036,86958
 2.4000e+000 87085 -1.7357e+002 -4.8559e+002  5.8287e+001 50624 86958,87010,86984
 2.4000e+000 87062 -1.5060e+002 -4.2161e+002  7.0646e+001 50624 86906,87036,86932
 2.4000e+000 87330 -3.0543e+002 -6.0208e+002 -1.5898e+000 50234 87353,87180,87154
 2.4000e+000 87307 -2.6280e+002 -6.1486e+002  7.4615e+000 50234 87353,87154,87258
 2.4000e+000 87284 -2.0654e+002 -5.7665e+002  9.3103e+000 50234 87206,87258,87232
 2.4000e+000 87379 -2.7278e+002 -5.9765e+002  1.7118e+001 50234 87206,87180,87353
 2.4000e+000 87402 -2.2137e+002 -6.0932e+002  2.0322e+001 50234 87206,87353,87258
 2.4000e+000 87650 -2.3607e+002 -5.4557e+002 -2.9084e+001 49730 87673,87503,87451
 2.4000e+000 87627 -1.5023e+002 -5.0863e+002 -2.6684e+001 49730 87673,87451,87425
 2.4000e+000 87604 -1.6837e+002 -4.1421e+002  3.0318e+001 49730 87503,87555,87529
 2.4000e+000 87581 -2.8279e+002 -4.2356e+002 -4.3532e+001 49730 87451,87503,87477
 2.4000e+000 87699 -2.4523e+002 -5.2029e+002 -6.2608e+000 49730 87555,87503,87673
 2.4000e+000 87722 -2.2739e+002 -5.1834e+002 -6.7646e+000 49730 87555,87673,87425
 2.4000e+000 88232 -1.7534e+002 -4.6156e+002  3.2107e+001 49176 88255,87935,87909
 2.4000e+000 88209 -2.3402e+002 -5.0940e+002  9.8114e+001 49176 88255,87909,88065
 2.4000e+000 88186 -2.1248e+002 -4.3166e+002  6.0579e+001 49176 87935,88039,87961
 2.4000e+000 88163 -2.0135e+002 -4.2723e+002  6.2447e+001 49176 87909,88091,88065
 2.4000e+000 88140 -2.7175e+002 -4.5969e+002  4.2794e+001 49176 87961,88039,88013
 2.4000e+000 88117 -2.3052e+002 -5.1149e+002 -2.2744e+001 49176 87961,88013,87987
 2.4000e+000 88281 -2.4301e+002 -4.8655e+002  8.3977e+001 49176 88039,87935,88255
 2.4000e+000 88304 -3.0153e+002 -5.3103e+002  1.4946e+002 49176 88039,88255,88065
 2.4000e+000 88503 -5.5052e+001 -2.6112e+002 -1.2917e+001 48772 88526,88379,88353
 2.4000e+000 88480 -6.5049e+001 -2.4453e+002 -1.0448e+001 48772 88526,88353,88327
 2.4000e+000 88457 -7.5952e+001 -3.2393e+002 -9.2930e+000 48772 88379,88431,88405
 2.4000e+000 88552 -4.8525e+001 -2.4841e+002 -1.5954e+001 48772 88431,88379,88526
 2.4000e+000 88575 -6.0053e+001 -2.3612e+002 -1.4458e+001 48772 88431,88526,88327
 2.4000e+000 89083 -1.3363e+002 -3.6773e+002 -9.5459e+001 48368 88786,88916,88864
 2.4000e+000 89060 -1.5520e+002 -4.0220e+002 -7.3736e+001 48368 88786,88942,88916
 2.4000e+000 89037 -1.9170e+002 -3.0898e+002 -8.8841e+000 48368 88786,88864,88812
 2.4000e+000 89014 -2.2555e+002 -4.5677e+002 -1.3114e+002 48368 88864,88916,88890
 2.4000e+000 88991 -6.0537e+001 -3.9495e+002  7.5216e+001 48368 88812,88864,88838
 2.4000e+000 88968 -4.9250e+001 -3.0933e+002  5.4609e-001 48368 88760,88942,88786
 2.4000e+000 89331 -1.8469e+002 -5.9567e+002 -1.7550e+001 47928 89158,89236,89210
 2.4000e+000 89308 -1.8428e+002 -5.4732e+002  9.2120e+000 47928 89132,89236,89158
 2.4000e+000 89285 -2.4168e+002 -4.4664e+002 -2.7609e+001 47928 89158,89210,89184
 2.4000e+000 89262 -2.8434e+002 -4.7064e+002  1.0276e+001 47928 89106,89236,89132
 2.4000e+000 89662 -2.3318e+002 -5.1027e+002 -1.1139e+001 47588 89463,89541,89515
 2.4000e+000 89639 -1.4099e+002 -3.8539e+002 -5.5780e+001 47588 89463,89567,89541
 2.4000e+000 89616 -2.0085e+002 -4.9276e+002  1.9680e+001 47588 89463,89515,89489
 2.4000e+000 89593 -2.2996e+002 -4.2017e+002 -4.8468e+001 47588 89437,89567,89463
 2.4000e+000 89763  1.9974e+000 -1.4522e+002  1.5402e+001 47390 89685,89737,89711
 2.4000e+000 89913 -1.8609e-001 -4.5785e+002 -7.2627e+001 47078 89786,89838,89812
 2.4000e+000 89890 -2.4448e+002 -6.6160e+002  1.3673e+001 47078 89786,89864,89838
 2.4000e+000 90163 -2.2667e+002 -4.7105e+002  2.0329e+001 46474 89964,90042,89990
 2.4000e+000 90140 -1.9361e+002 -4.5709e+002  2.0826e+001 46474 89938,90042,89964
 2.4000e+000 90117 -2.5165e+002 -4.3851e+002  2.4076e+001 46474 89990,90042,90016
 2.4000e+000 90094 -2.4634e+002 -4.4721e+002  2.9259e+001 46474 89938,90068,90042
 2.4000e+000 90364 -2.1490e+002 -5.3391e+002  6.0019e+001 46184 90240,90292,90266
 2.4000e+000 90341 -2.4521e+002 -5.1642e+002  7.1495e+001 46184 90188,90292,90240
 2.4000e+000 90318 -2.1212e+002 -5.3866e+002  8.3991e+001 46184 90188,90240,90214
 2.4000e+000 90565 -1.9388e+002 -4.0163e+002  1.9723e+000 45780 90588,90415,90389
 2.4000e+000 90542 -1.8076e+002 -4.0800e+002  7.4280e+000 45780 90588,90389,90493
 2.4000e+000 90519 -1.9742e+002 -4.0531e+002  7.8686e+000 45780 90415,90467,90441
 2.4000e+000 90614 -1.8426e+002 -4.0132e+002  9.3540e+000 45780 90467,90415,90588
 2.4000e+000 90637 -1.6474e+002 -3.9757e+002  1.7608e+001 45780 90467,90588,90493
 2.4000e+000 91196 -2.8811e+002 -5.0817e+002 -5.0225e+001 45226 91219,90876,90850
 2.4000e+000 91173 -1.6793e+002 -4.8330e+002  1.5474e+001 45226 91219,90850,91032
 2.4000e+000 91150 -1.4670e+002 -5.5886e+002 -5.2055e+001 45226 90824,91032,90850
 2.4000e+000 91127 -1.9802e+002 -3.8098e+002  1.6556e+000 45226 90876,90980,90902
 2.4000e+000 91104 -1.3970e+002 -3.9082e+002  3.5602e+001 45226 90876,91006,90980
 2.4000e+000 91081 -1.7353e+002 -3.9031e+002 -1.8402e+001 45226 90902,90980,90954
 2.4000e+000 91058 -1.1720e+002 -3.3575e+002 -5.2344e+001 45226 90902,90954,90928
 2.4000e+000 91245 -1.7878e+002 -4.5442e+002 -1.2209e+001 45226 91006,90876,91219
 2.4000e+000 91268 -7.1696e+001 -4.5246e+002  4.4532e+001 45226 91006,91219,91032
 2.4000e+000 91516 -1.6393e+002 -7.3028e+002  3.5453e+001 44836 91539,91421,91395
 2.4000e+000 91493 -1.2479e+002 -6.9127e+002  2.7370e+001 44836 91317,91421,91343
 2.4000e+000 91470 -2.1277e+002 -7.2221e+002  2.7739e+001 44836 91539,91395,91369
 2.4000e+000 91447 -2.3620e+002 -6.2462e+002  7.9152e+001 44836 91291,91421,91317
 2.4000e+000 91565 -1.8697e+002 -7.3281e+002  9.3321e+000 44836 91343,91421,91539
 2.4000e+000 91588 -2.2436e+002 -7.3569e+002 -6.6188e+000 44836 91343,91539,91369
 2.4000e+000 91787 -1.4295e+002 -4.6463e+002  3.5296e+001 44432 91810,91637,91611
 2.4000e+000 91764 -1.8969e+002 -5.2373e+002  5.6689e+001 44432 91810,91611,91715
 2.4000e+000 91741 -4.5353e+001 -3.7226e+002 -2.4897e+001 44432 91637,91689,91663
 2.4000e+000 91836 -1.9075e+002 -4.3220e+002  3.2163e+001 44432 91689,91637,91810
 2.4000e+000 91859 -2.0223e+002 -4.5666e+002  4.0887e+001 44432 91689,91810,91715
 2.4000e+000 92207 -3.2782e+002 -6.2549e+002  2.9181e+001 43864 92230,91936,91910
 2.4000e+000 92184 -3.5737e+002 -6.6919e+002  4.3497e+001 43864 92230,91910,92040
 2.4000e+000 92161 -3.4448e+002 -6.5735e+002  8.4551e+001 43864 91884,92040,91910
 2.4000e+000 92138 -2.5689e+002 -5.0583e+002 -1.3933e+000 43864 91936,92014,91988
 2.4000e+000 92115 -2.1986e+002 -6.4416e+002  1.0150e+002 43864 91936,91988,91962
 2.4000e+000 92092 -2.9128e+002 -5.7762e+002  5.8049e+001 43864 91884,92066,92040
 2.4000e+000 92256 -3.6748e+002 -5.5946e+002  3.4975e+001 43864 92014,91936,92230
 2.4000e+000 92279 -4.0564e+002 -6.2070e+002  5.1361e+001 43864 92014,92230,92040
 2.4000e+000 92529 -2.5053e+002 -4.9524e+002  4.6027e+001 43410 92552,92330,92304
 2.4000e+000 92506 -2.4382e+002 -4.8111e+002  4.0254e+000 43410 92552,92304,92408
 2.4000e+000 92483 -2.5637e+002 -4.7079e+002  8.2738e+000 43410 92304,92434,92408
 2.4000e+000 92460 -1.1514e+002 -4.2123e+002 -1.7138e+000 43410 92330,92382,92356
 2.4000e+000 92578 -2.2490e+002 -4.8261e+002  2.6166e+001 43410 92382,92330,92552
 2.4000e+000 92601 -1.8713e+002 -4.3937e+002 -2.0927e+001 43410 92382,92552,92408
 2.4000e+000 92802 -1.6011e+002 -6.3229e+002  4.2210e+001 43162 92825,92704,92652
 2.4000e+000 92779 -1.1676e+002 -6.0844e+002  1.1938e+002 43162 92825,92652,92626
 2.4000e+000 92756 -8.9790e+001 -6.3154e+002  4.8230e+001 43162 92652,92704,92678
 2.4000e+000 92851 -2.4582e+002 -6.4441e+002 -1.0472e+001 43162 92730,92704,92825
 2.4000e+000 92874 -2.9648e+002 -5.2167e+002  1.1247e+002 43162 92730,92825,92626
 2.4000e+000 93463 -1.2691e+002 -3.1917e+002 -6.8832e+001 42758 93140,93270,93166
 2.4000e+000 93440 -1.6435e+002 -3.5504e+002 -4.4195e+001 42758 93140,93296,93270
 2.4000e+000 93417 -1.1716e+002 -3.3996e+002 -5.1358e+001 42758 93166,93270,93218
 2.4000e+000 93394 -8.4276e+001 -3.4419e+002 -6.1751e+001 42758 93218,93270,93244
 2.4000e+000 93371 -5.3486e+001 -3.8404e+002 -4.6928e+001 42758 93140,93322,93296
 2.4000e+000 93348 -1.5756e+002 -4.0976e+002  1.2158e+001 42758 93166,93218,93192
 2.4000e+000 93920 -1.5634e+002 -3.9053e+002 -1.1177e+001 42304 93943,93672,93646
 2.4000e+000 93897 -1.4347e+002 -3.6977e+002 -1.7656e+001 42304 93943,93646,93802
 2.4000e+000 93874 -1.1050e+002 -3.8477e+002  2.5400e+001 42304 93724,93802,93776
 2.4000e+000 93851 -1.8298e+002 -4.4945e+002  1.3420e+001 42304 93672,93724,93698
 2.4000e+000 93828 -2.2349e+002 -4.5711e+002 -1.7228e+001 42304 93724,93776,93750
 2.4000e+000 93969 -1.4141e+002 -3.9780e+002 -1.9205e+001 42304 93724,93672,93943
 2.4000e+000 93992 -1.3482e+002 -3.9048e+002 -2.2514e+001 42304 93724,93943,93802
 2.4000e+000 94321 -1.7013e+002 -5.5424e+002 -5.3555e-001 41478 94096,94148,94122
 2.4000e+000 94298 -2.1807e+002 -5.9334e+002  2.9250e+001 41478 94096,94226,94148
 2.4000e+000 94275 -2.9761e+002 -7.0662e+002 -8.0353e+000 41478 94148,94226,94174
 2.4000e+000 94252 -1.1522e+002 -5.5631e+002 -1.5637e+002 41478 94174,94226,94200
 2.4000e+000 94618 -1.7125e+002 -6.1366e+002  1.3070e+001 40910 94344,94422,94396
 2.4000e+000 94595 -2.5989e+002 -6.0164e+002 -8.8197e+000 40910 94344,94448,94422
 2.4000e+000 94572 -2.3516e+002 -5.3659e+002  1.9547e+001 40910 94344,94474,94448
 2.4000e+000 94549 -1.3015e+002 -6.3254e+002 -7.2209e+000 40910 94344,94396,94370
 2.4000e+000 94526 -3.3727e+002 -6.6086e+002  6.3659e+001 40910 94344,94500,94474
 2.4000e+000 94866 -2.0744e+002 -3.8224e+002 -4.6367e+001 40306 94667,94719,94693
 2.4000e+000 94843 -2.5118e+002 -4.2810e+002 -2.7343e+001 40306 94641,94719,94667
 2.4000e+000 94820 -2.8525e+002 -4.4603e+002 -2.0336e-001 40306 94641,94745,94719
 2.4000e+000 94797 -2.1881e+002 -4.0007e+002 -2.0588e+001 40306 94641,94771,94745
 2.4000e+000 95089 -6.0128e+000 -3.1906e+002  4.5696e+001 39702 94913,94991,94939
 2.4000e+000 95066  8.4666e+000 -2.6884e+002  1.4967e+001 39702 94913,95017,94991
 2.4000e+000 95043  6.0121e+001 -2.9459e+002  1.4471e+001 39702 94939,94991,94965
 2.4000e+000 95339 -1.5095e+002 -4.0905e+002 -4.3551e+001 39248 95140,95218,95166
 2.4000e+000 95316 -2.2200e+002 -4.5018e+002 -2.4562e+001 39248 95140,95244,95218
 2.4000e+000 95293 -1.1747e+002 -4.7865e+002 -5.2160e+001 39248 95114,95244,95140
 2.4000e+000 95270 -1.5663e+002 -4.6778e+002 -9.1434e+001 39248 95166,95218,95192
 2.4000e+000 95770 -2.6966e+002 -4.8992e+002  9.6769e+000 38694 95551,95629,95577
 2.4000e+000 95747 -2.1409e+002 -5.9928e+002  5.4387e+000 38694 95447,95629,95551
 2.4000e+000 95724 -1.6442e+002 -4.9512e+002 -2.1484e+001 38694 95447,95551,95473
 2.4000e+000 95701 -1.0401e+002 -4.9567e+002 -3.4504e+001 38694 95473,95551,95499
 2.4000e+000 95678 -8.5084e+001 -4.6289e+002 -8.5713e+001 38694 95499,95551,95525
 2.4000e+000 95655 -2.8264e+002 -5.2564e+002  1.4978e+001 38694 95577,95629,95603
 2.4000e+000 96325 -2.2031e+002 -4.8187e+002  2.7871e+000 38240 95953,96031,96005
 2.4000e+000 96302 -2.1549e+002 -2.9716e+002  6.3758e+001 38240 95953,96161,96031
 2.4000e+000 96279 -1.5207e+002 -2.7277e+002 -2.4655e+001 38240 96031,96161,96135
 2.4000e+000 96256 -1.6611e+002 -3.6662e+002  6.2059e+001 38240 96348,96109,96057
 2.4000e+000 96233 -1.4529e+002 -3.3489e+002  4.1716e+001 38240 96348,96057,96031
 2.4000e+000 96210 -1.3271e+002 -3.7039e+002  8.5861e+001 38240 96057,96109,96083
 2.4000e+000 96187 -2.5574e+002 -2.8479e+002 -2.8188e+001 38240 95953,96005,95979
 2.4000e+000 96374 -1.2870e+002 -4.2197e+002  3.9484e+001 38240 96135,96109,96348
 2.4000e+000 96397 -9.3426e+001 -3.6557e+002  1.4381e+001 38240 96135,96348,96031
 2.4000e+000 96618 -2.6644e+002 -7.4390e+002  5.7513e+000 37821 96494,96546,96520
 2.4000e+000 96595 -1.5682e+002 -6.5125e+002  4.7065e+001 37821 96468,96546,96494
 2.4000e+000 96572 -7.9830e+001 -6.1816e+002  4.1013e+001 37821 96442,96546,96468
 2.4000e+000 97126 -1.3291e+002 -3.3569e+002 -2.1648e+001 37367 97149,96855,96829
 2.4000e+000 97103 -1.5663e+002 -3.4636e+002 -1.8781e+001 37367 97149,96829,96985
 2.4000e+000 97080 -1.4503e+002 -3.6397e+002 -2.7180e+001 37367 96803,96985,96829
 2.4000e+000 97057 -1.0053e+002 -3.1654e+002 -3.6402e+001 37367 96855,96907,96881
 2.4000e+000 97034 -2.0693e+002 -3.1943e+002 -7.2681e+000 37367 96907,96985,96959
 2.4000e+000 97011 -2.4305e+002 -3.1501e+002 -3.6600e+001 37367 96907,96959,96933
 2.4000e+000 97175 -1.5537e+002 -3.2645e+002 -3.3768e+001 37367 96907,96855,97149
 2.4000e+000 97198 -1.7239e+002 -3.3451e+002 -3.1379e+001 37367 96907,97149,96985
 2.4000e+000 97704 -2.2457e+002 -5.0103e+002  5.6638e+001 36863 97727,97511,97485
 2.4000e+000 97681 -2.1581e+002 -4.5871e+002  7.2203e+001 36863 97727,97485,97433
 2.4000e+000 97658 -2.9767e+002 -5.5321e+002  4.6404e+000 36863 97381,97563,97433
 2.4000e+000 97635 -1.4716e+002 -4.5565e+002 -1.3861e+001 36863 97511,97563,97537
 2.4000e+000 97612 -1.0886e+002 -3.3464e+002  9.6658e+000 36863 97433,97485,97459
 2.4000e+000 97589 -3.5113e+002 -5.5507e+002  4.9662e+001 36863 97381,97433,97407
 2.4000e+000 97753 -2.2469e+002 -5.3543e+002  3.5948e+001 36863 97563,97511,97727
 2.4000e+000 97776 -2.2194e+002 -4.9703e+002  4.9555e+001 36863 97563,97727,97433
 2.4000e+000 98331 -2.5021e+002 -5.7952e+002 -7.9235e-001 36287 98354,98089,98063
 2.4000e+000 98308 -2.2689e+002 -5.7388e+002  3.1032e+001 36287 98354,98063,98011
 2.4000e+000 98285 -3.0229e+002 -5.1131e+002  7.6872e+001 36287 98426,97985,98115
 2.4000e+000 98262 -2.3471e+002 -6.0229e+002  3.3892e+001 36287 98011,98063,98037
 2.4000e+000 98239 -2.8591e+002 -4.4474e+002  2.9295e+001 36287 97985,98141,98115
 2.4000e+000 98216 -2.6060e+002 -4.0105e+002  5.4403e+001 36287 97959,98141,97985
 2.4000e+000 98193 -1.6021e+002 -5.5130e+002  1.0136e+002 36287 97959,98167,98141
 2.4000e+000 98380 -2.4434e+002 -5.5586e+002 -1.6185e+001 36287 98115,98089,98354
 2.4000e+000 98403 -2.3047e+002 -5.0852e+002 -1.2238e+000 36287 98426,98115,98354
 2.4000e+000 98452 -3.8627e+002 -6.0430e+002  1.2441e+002 36287 98011,97985,98426
 2.4000e+000 98475 -3.2801e+002 -6.2722e+002  5.0963e+001 36287 98011,98426,98354
 2.4000e+000 99030 -2.8661e+002 -7.5573e+002 -4.5545e+001 35726 99053,98736,98710
 2.4000e+000 99007 -2.2546e+002 -6.3045e+002  1.3386e+001 35726 99053,98710,98684
 2.4000e+000 98984 -3.1334e+002 -6.1959e+002 -5.4392e+001 35726 99125,98814,98736
 2.4000e+000 98961 -2.4740e+002 -5.2705e+002 -1.5571e+001 35726 98736,98814,98788
 2.4000e+000 98938 -2.7017e+002 -5.4137e+002  3.5739e+001 35726 98684,98866,98840
 2.4000e+000 98915 -2.0166e+002 -5.1279e+002  7.4952e-001 35726 98736,98788,98762
 2.4000e+000 98892 -1.9338e+002 -5.5378e+002  2.2384e+001 35726 98658,98866,98684
 2.4000e+000 99079 -2.4443e+002 -6.2082e+002 -1.4601e+001 35726 99125,98736,99053
 2.4000e+000 99102 -2.9419e+002 -5.4393e+002  1.2332e+001 35726 98840,99053,98684
 2.4000e+000 99151 -3.7640e+002 -6.5006e+002 -7.5369e+001 35726 98840,98814,99125
 2.4000e+000 99174 -3.3874e+002 -6.5475e+002 -2.6787e+001 35726 98840,99125,99053
 2.4000e+000 99454 -1.0684e+002 -4.0376e+002 -3.2877e+001 35222 99278,99330,99304
 2.4000e+000 99431 -1.4160e+002 -3.8163e+002  1.7743e+001 35222 99278,99382,99330
 2.4000e+000 99408 -2.4450e+002 -4.5596e+002 -2.0371e+001 35222 99330,99382,99356
 2.4000e+000 99653 -1.3825e+002 -6.7254e+002  7.1732e+000 34867 99477,99529,99503
 2.4000e+000 99630 -2.0840e+002 -5.0784e+002 -2.8261e+001 34867 99477,99581,99529
 2.4000e+000 99607 -1.9322e+002 -7.5735e+002 -2.0306e+002 34867 99529,99581,99555
 2.4000e+000 100104 -1.0131e+002 -4.3372e+002 -1.2750e+001 34363 99781,99885,99807
 2.4000e+000 100081 -1.6315e+002 -4.6897e+002  1.3445e+001 34363 99781,99963,99885
 2.4000e+000 100058 -4.0579e+001 -3.9404e+002 -2.2351e+001 34363 99885,99963,99911
 2.4000e+000 100035 -6.1930e+001 -3.7476e+002  6.9309e+000 34363 99807,99885,99859
 2.4000e+000 100012 -4.7273e+001 -3.9094e+002 -5.6182e+001 34363 99911,99963,99937
 2.4000e+000 99989 -5.7481e+000 -3.4314e+002  3.3443e+001 34363 99807,99859,99833
 2.4000e+000 100303 -2.0839e+002 -4.0280e+002 -8.9799e+001 33909 100127,100205,100179
 2.4000e+000 100280 -3.3666e+002 -4.7067e+002 -6.4398e+001 33909 100127,100231,100205
 2.4000e+000 100257 -2.8465e+002 -5.3414e+002 -1.7791e+001 33909 100127,100179,100153
 2.4000e+000 100890 -1.4918e+002 -4.7556e+002 -4.6967e+001 33412 100645,100749,100697
 2.4000e+000 100867 -1.6006e+002 -5.6387e+002 -3.5711e+001 33412 100567,100749,100645
 2.4000e+000 100844 -1.5028e+002 -5.6022e+002 -4.3988e+001 33412 100567,100645,100619
 2.4000e+000 100821 -1.3371e+002 -5.3201e+002 -8.3449e+001 33412 100645,100697,100671
 2.4000e+000 100798 -1.9579e+002 -7.5949e+002 -1.2837e+001 33412 100567,100619,100593
 2.4000e+000 100775 -2.6594e+002 -4.8677e+002 -1.1316e+001 33412 100697,100749,100723
 2.4000e+000 101268 -1.4250e+002 -5.8708e+002 -2.8546e+000 32908 101435,101291,101098
 2.4000e+000 101245 -2.0571e+002 -5.5703e+002  2.7303e+001 32908 101291,101072,101020
 2.4000e+000 101222 -2.1575e+002 -5.7881e+002 -5.1988e+001 32908 101363,101150,101124
 2.4000e+000 101199 -2.4361e+002 -6.0017e+002  9.2469e+001 32908 101020,101072,101046
 2.4000e+000 101176 -7.3648e+001 -5.1165e+002 -2.5598e+001 32908 100994,101150,101020
 2.4000e+000 101317 -1.3652e+002 -5.8224e+002 -4.9796e+000 32908 101124,101098,101291
 2.4000e+000 101340 -1.7982e+002 -5.9631e+002 -8.8307e+000 32908 101363,101124,101291
 2.4000e+000 101389 -1.7853e+002 -5.3363e+002 -2.7822e+001 32908 101020,101150,101363
 2.4000e+000 101412 -1.5039e+002 -5.3455e+002  1.5673e+001 32908 101020,101363,101291
 2.4000e+000 101461 -1.2576e+002 -5.2994e+002  4.4594e+001 32908 101072,101291,101435
 2.4000e+000 101918 -1.2518e+002 -5.1687e+002 -4.8839e+001 32618 101941,101670,101644
 2.4000e+000 101895 -4.5782e+001 -5.2368e+002  6.9574e+000 32618 101941,101644,101774
 2.4000e+000 101872 -2.0269e+002 -4.6392e+002 -5.8813e+000 32618 102013,101696,101670
 2.4000e+000 101849 -4.2668e+001 -3.5672e+002 -6.5518e+001 32618 101696,101748,101722
 2.4000e+000 101826 -2.9015e+001 -5.0292e+002 -1.6999e+000 32618 101644,101800,101774
 2.4000e+000 101967 -1.9950e+002 -5.2529e+002 -4.0563e+001 32618 102013,101670,101941
 2.4000e+000 101990 -1.6120e+002 -5.9052e+002  3.4183e+001 32618 101748,101941,101774
 2.4000e+000 102039 -1.8218e+002 -4.4239e+002  5.1644e+000 32618 101748,101696,102013
 2.4000e+000 102062 -1.1082e+002 -4.6420e+002 -1.2124e+001 32618 101748,102013,101941
 2.4000e+000 102440 -3.1812e+002 -6.9044e+002  4.5643e+001 32306 102463,102270,102244
 2.4000e+000 102417 -3.3052e+002 -7.0488e+002  5.0072e+000 32306 102463,102244,102192
 2.4000e+000 102394 -3.1360e+002 -6.1137e+002 -4.1433e+000 32306 102192,102244,102218
 2.4000e+000 102371 -2.3611e+002 -6.6960e+002  5.8695e+001 32306 102270,102322,102296
 2.4000e+000 102348 -1.6746e+002 -8.0303e+002 -3.9619e+001 32306 102166,102322,102192
 2.4000e+000 102489 -2.6955e+002 -6.8197e+002  6.8359e+001 32306 102322,102270,102463
 2.4000e+000 102512 -2.8434e+002 -7.0908e+002  2.4982e+001 32306 102322,102463,102192
 2.4000e+000 102662 -1.3665e+002 -5.2634e+002 -5.4118e+000 31852 102943,102587,102561
 2.4000e+000 102639 -8.2247e+001 -4.6387e+002  1.3537e+001 31852 102815,102685,102561
 2.4000e+000 102711 -1.5511e+002 -5.5951e+002 -2.0438e+001 31852 102943,102561,102685
 2.4000e+000 102841 -8.0646e+001 -3.7588e+002  5.9431e+001 31852 102535,102685,102815
 2.4000e+000 102969 -1.4295e+002 -5.5917e+002 -2.8682e+001 31852 102613,102587,102943
 2.4000e+000 102992 -1.6029e+002 -5.8800e+002 -4.3938e+001 31852 102613,102943,102685
 2.4000e+000 103370 -3.0889e+002 -6.7877e+002  2.3296e+001 31134 103096,103200,103122
 2.4000e+000 103347 -3.6209e+002 -8.1829e+002  7.0135e+001 31134 103096,103226,103200
 2.4000e+000 103324 -3.4065e+002 -6.6759e+002  8.4753e+000 31134 103122,103200,103174
 2.4000e+000 103301 -1.9792e+002 -7.0170e+002  9.9424e+000 31134 103096,103252,103226
 2.4000e+000 103278 -2.4469e+002 -7.1978e+002 -9.3583e+001 31134 103122,103174,103148
 2.4000e+000 103520 -6.9002e+001 -7.3557e+002 -3.3250e-001 30822 103393,103445,103419
 2.4000e+000 103497 -2.8793e+001 -4.4358e+002  2.2906e+001 30822 103393,103471,103445
 2.4000e+000 103719 -1.3688e+002 -5.2426e+002  9.6425e+000 30182 103742,103621,103569
 2.4000e+000 103696 -1.7622e+002 -5.3303e+002 -6.2247e-001 30182 103742,103569,103543
 2.4000e+000 103673 -1.5252e+002 -5.2986e+002  1.3493e+001 30182 103569,103621,103595
 2.4000e+000 103768 -1.0370e+002 -5.3584e+002  1.7075e+001 30182 103647,103621,103742
 2.4000e+000 103791 -1.2906e+002 -5.3911e+002  1.8826e+000 30182 103647,103742,103543
 2.4000e+000 104252 -2.8921e+002 -5.4666e+002  2.4871e+001 29728 104030,104108,104056
 2.4000e+000 104229 -2.0718e+002 -3.7879e+002  5.0766e+001 29728 104004,104108,104030
 2.4000e+000 104206 -1.6923e+002 -4.1661e+002  4.0582e+001 29728 104004,104134,104108
 2.4000e+000 104183 -2.3049e+002 -4.7715e+002 -2.9850e+001 29728 103978,104134,104004
 2.4000e+000 104160 -1.6430e+002 -5.2246e+002 -2.7008e+001 29728 104056,104108,104082
 2.4000e+000 104630 -1.7792e+002 -5.5020e+002 -5.5163e+001 29217 104653,104382,104356
 2.4000e+000 104607 -1.4232e+002 -4.8296e+002 -9.9891e+000 29217 104653,104356,104512
 2.4000e+000 104584 -2.2920e+002 -5.4339e+002 -5.8266e+001 29217 104434,104512,104486
 2.4000e+000 104561 -1.4929e+002 -6.0053e+002 -7.7668e+001 29217 104382,104434,104408
 2.4000e+000 104538 -1.0318e+002 -4.0046e+002  1.8315e+001 29217 104434,104486,104460
 2.4000e+000 104679 -1.9508e+002 -5.5830e+002 -8.2565e+001 29217 104434,104382,104653
 2.4000e+000 104702 -1.9152e+002 -5.3166e+002 -4.2181e+001 29217 104434,104653,104512
 2.4000e+000 105178 -1.8595e+002 -5.5689e+002  1.0462e+001 28649 105201,104962,104936
 2.4000e+000 105155 -1.9339e+002 -5.3757e+002  1.6467e+001 28649 105201,104936,104884
 2.4000e+000 105132 -2.0894e+002 -5.1583e+002 -3.7971e+001 28649 105273,104858,105014
 2.4000e+000 105109 -2.8965e+002 -5.6766e+002  2.8378e+000 28649 104962,105014,104988
 2.4000e+000 105086 -1.1405e+002 -4.6624e+002 -4.9406e+001 28649 104884,104936,104910
 2.4000e+000 105063 -2.1367e+002 -4.6455e+002 -7.5594e+000 28649 104806,105014,104858
 2.4000e+000 105040 -2.6595e+002 -4.6269e+002 -3.4134e+001 28649 104806,104858,104832
 2.4000e+000 105227 -1.7962e+002 -5.6075e+002  4.2650e+000 28649 105014,104962,105201
 2.4000e+000 105250 -1.6285e+002 -5.3095e+002 -5.7082e+000 28649 105273,105014,105201
 2.4000e+000 105299 -2.5856e+002 -5.3567e+002 -3.5440e+001 28649 104884,104858,105273
 2.4000e+000 105322 -2.4058e+002 -5.6523e+002  3.1124e+000 28649 104884,105273,105201
 2.4000e+000 105673 -3.1765e+001 -5.1716e+002  5.6549e+000 28351 105474,105578,105552
 2.4000e+000 105650  7.0039e+000 -3.5318e+002 -9.0821e+000 28351 105448,105578,105474
 2.4000e+000 105627 -4.9206e+000 -4.8767e+002  3.1836e+000 28351 105500,105552,105526
 2.4000e+000 105604 -1.2148e+001 -5.0780e+002  2.7961e+000 28351 105474,105552,105500
 2.4000e+000 106130 -2.2634e+002 -3.6356e+002 -9.7269e+001 28004 106153,105882,105856
 2.4000e+000 106107 -2.0532e+002 -4.7625e+002 -5.7477e+001 28004 106153,105856,105986
 2.4000e+000 106084 -3.5954e+002 -5.1803e+002  2.3536e+001 28004 105934,105986,105960
 2.4000e+000 106061 -2.8566e+002 -5.6580e+002 -2.2728e+001 28004 105856,106012,105986
 2.4000e+000 106038 -3.7113e+002 -5.5966e+002 -4.0571e+001 28004 105882,105934,105908
 2.4000e+000 106179 -3.2557e+002 -4.5516e+002 -4.6877e+001 28004 105934,105882,106153
 2.4000e+000 106202 -2.2820e+002 -5.1136e+002 -2.5752e+001 28004 105934,106153,105986
 2.4000e+000 106885 -3.1137e+002 -4.6527e+002 -1.1535e+001 27564 106908,106620,106516
 2.4000e+000 106862 -3.0811e+002 -4.5074e+002 -4.1150e+000 27564 106908,106516,106490
 2.4000e+000 106839 -2.6950e+002 -4.3110e+002 -4.9406e+001 27564 106516,106620,106542
 2.4000e+000 106816 -2.9569e+002 -3.8831e+002 -1.6104e+001 27564 106620,106672,106646
 2.4000e+000 106793 -2.1060e+002 -4.6805e+002 -7.4878e+001 27564 106542,106620,106594
 2.4000e+000 106770 -3.0378e+002 -4.0800e+002  2.7349e+001 27564 106490,106698,106672
 2.4000e+000 106747 -2.3944e+002 -4.5628e+002  8.7610e+001 27564 106464,106698,106490
 2.4000e+000 106724 -3.7711e+001 -3.6459e+002 -1.2234e+002 27564 106542,106594,106568
 2.4000e+000 106934 -3.2110e+002 -4.5204e+002 -1.5302e+001 27564 106672,106620,106908
 2.4000e+000 106957 -3.1796e+002 -4.3610e+002 -1.2269e+001 27564 106672,106908,106490
 2.4000e+000 107463 -2.5546e+002 -4.9802e+002 -2.2836e+000 27053 107218,107322,107296
 2.4000e+000 107440 -3.0034e+002 -5.9998e+002  1.3218e+001 27053 107166,107322,107218
 2.4000e+000 107417 -2.6124e+002 -5.8073e+002 -7.8399e+000 27053 107218,107296,107244
 2.4000e+000 107394 -2.7689e+002 -4.8123e+002  4.8094e+001 27053 107140,107322,107166
 2.4000e+000 107371 -2.7565e+002 -6.0197e+002  1.2325e+001 27053 107166,107218,107192
 2.4000e+000 107348 -2.6378e+002 -7.5092e+002 -7.2696e+001 27053 107244,107296,107270
 2.4000e+000 108097 -2.2421e+002 -5.6833e+002 -3.1003e+001 26549 108192,108120,107803
 2.4000e+000 108074 -2.0388e+002 -6.3541e+002  3.9816e+001 26549 108120,107725,107933
 2.4000e+000 108051 -7.8687e+001 -7.5337e+002  3.1126e+001 26549 107751,107803,107777
 2.4000e+000 108028 -2.1941e+002 -6.1251e+002 -4.3932e+001 26549 108192,107803,107751
 2.4000e+000 108005 -1.3881e+002 -3.9220e+002 -5.3969e+000 26549 108264,107855,107803
 2.4000e+000 107982 -6.9032e+001 -4.3865e+002 -2.3686e+001 26549 107881,107933,107907
 2.4000e+000 107959 -1.8999e+002 -4.2077e+002  7.2353e+000 26549 107803,107855,107829
 2.4000e+000 108146 -1.7606e+002 -4.5198e+002 -2.8967e+001 26549 108264,107803,108120
 2.4000e+000 108169 -1.6673e+002 -5.3810e+002  1.5732e+001 26549 107881,108120,107933
 2.4000e+000 108218 -2.1349e+002 -5.2303e+002  5.4247e-001 26549 107725,108120,108192
 2.4000e+000 108241 -2.0556e+002 -5.5743e+002 -1.4530e+001 26549 107725,108192,107751
 2.4000e+000 108290 -9.2834e+001 -4.6946e+002 -1.9899e+001 26549 107881,107855,108264
 2.4000e+000 108313 -1.2512e+002 -5.3567e+002 -3.6542e+001 26549 107881,108264,108120
 2.4000e+000 108512 -1.4845e+002 -6.2660e+002 -4.5739e+001 26137 108388,108440,108414
 2.4000e+000 108489 -1.1602e+002 -6.0092e+002 -6.0486e+000 26137 108362,108440,108388
 2.4000e+000 108466 -1.5867e+002 -6.3146e+002 -1.9704e+001 26137 108336,108440,108362
 2.4000e+000 108662 -1.8631e+002 -5.1686e+002 -3.9465e+001 25733 108817,108685,108535
 2.4000e+000 108639 -1.3014e+002 -5.5441e+002 -1.2655e+001 25733 109017,108817,108535
 2.4000e+000 108711 -2.0356e+002 -4.9469e+002 -1.6752e+001 25733 108561,108535,108685
 2.4000e+000 108843 -1.2827e+002 -5.2374e+002 -9.1977e+000 25733 108587,108685,108817
 2.4000e+000 108866 -1.1346e+002 -5.0514e+002 -1.0205e+000 25733 108889,108817,108613
 2.4000e+000 108915 -1.0450e+002 -4.9219e+002 -1.9627e+001 25733 108587,108817,108889
 2.4000e+000 109043 -1.1105e+002 -4.3518e+002  6.9508e+000 25733 108613,108817,109017
 2.4000e+000 109500 -3.5719e+002 -6.5283e+002  5.8372e+001 25229 109523,109356,109330
 2.4000e+000 109477 -2.1691e+002 -5.1118e+002 -2.4511e+001 25229 109595,109523,109330
 2.4000e+000 109454 -2.2396e+002 -4.8130e+002 -5.4332e+001 25229 109595,109330,109278
 2.4000e+000 109431 -2.2857e+002 -5.1147e+002 -3.5150e+001 25229 109667,109226,109382
 2.4000e+000 109408 -2.2419e+002 -5.1857e+002 -7.9404e+001 25229 109278,109330,109304
 2.4000e+000 109549 -1.2828e+002 -5.4424e+002  2.2190e+001 25229 109382,109356,109523
 2.4000e+000 109572 -2.0501e+002 -5.5124e+002 -4.2661e+001 25229 109667,109382,109523
 2.4000e+000 109621 -2.4838e+002 -5.9963e+002 -4.3636e+001 25229 109252,109523,109595
 2.4000e+000 109644 -1.7571e+002 -4.9484e+002 -2.0751e+001 25229 109739,109595,109278
 2.4000e+000 109693 -2.9093e+002 -5.7905e+002 -7.8273e+000 25229 109252,109226,109667
 2.4000e+000 109716 -2.3973e+002 -6.0139e+002 -2.7554e+001 25229 109252,109667,109523
 2.4000e+000 109765 -2.8443e+002 -5.4171e+002 -2.7998e+001 25229 109252,109595,109739
 2.4000e+000 110478 -1.8676e+002 -5.0096e+002  7.1751e+001 24917 110158,110236,110184
 2.4000e+000 110455 -2.6295e+002 -5.5491e+002  9.0945e-001 24917 110158,110288,110236
 2.4000e+000 110432 -1.7458e+002 -6.4640e+002  1.1940e+001 24917 110236,110288,110262
 2.4000e+000 110409 -1.6662e+002 -5.6151e+002  7.4265e+001 24917 110184,110236,110210
 2.4000e+000 110386 -3.3658e+002 -6.2465e+002 -4.3117e+001 24917 110132,110288,110158
 2.4000e+000 110363 -3.0748e+002 -5.8683e+002  1.8091e+001 24917 110132,110314,110288
 2.4000e+000 110340 -3.6785e+002 -7.3083e+002  4.4637e+001 24917 110106,110314,110132
 2.4000e+000 110829 -1.1216e+002 -4.5270e+002 -3.0265e+001 24307 110604,110682,110630
 2.4000e+000 110806 -2.8714e+002 -7.5957e+002  4.0815e+001 24307 110604,110708,110682
 2.4000e+000 110783 -8.1914e+001 -6.7896e+002  4.9266e+001 24307 110604,110734,110708
 2.4000e+000 110760  1.3784e+001 -3.9877e+002 -3.4739e+001 24307 110630,110682,110656
 2.4000e+000 111335 -1.5989e+002 -4.5915e+002 -6.3860e+001 23767 111012,111168,111038
 2.4000e+000 111312 -1.7709e+002 -5.0015e+002 -5.8811e+001 23767 111012,111194,111168
 2.4000e+000 111289 -3.0721e+002 -5.8315e+002  6.4917e+001 23767 111358,111064,111038
 2.4000e+000 111266 -2.1465e+002 -5.4135e+002 -1.6946e+001 23767 111358,111038,111168
 2.4000e+000 111243 -1.3640e+002 -5.0465e+002 -1.1371e+001 23767 111430,111142,111090
 2.4000e+000 111220  3.1604e+001 -4.3166e+002  1.2793e+001 23767 111090,111142,111116
 2.4000e+000 111384 -2.3313e+002 -5.3758e+002  1.6407e+000 23767 111090,111064,111358
 2.4000e+000 111407 -2.4299e+002 -5.1379e+002 -2.3442e+001 23767 111430,111090,111358
 2.4000e+000 111456 -3.7345e+001 -5.3948e+002 -3.7148e+001 23767 111168,111142,111430
 2.4000e+000 111479 -9.9771e+001 -5.1543e+002 -4.2048e+001 23767 111168,111430,111358
 2.4000e+000 111985 -1.5028e+002 -3.6316e+002  4.3023e+001 23477 111688,111844,111818
 2.4000e+000 111962 -1.3809e+002 -3.7915e+002 -5.4398e+001 23477 111662,111844,111688
 2.4000e+000 111939 -8.4907e+001 -5.9672e+002  5.8114e+001 23477 111766,111818,111792
 2.4000e+000 111916 -2.4744e+002 -5.6680e+002  3.6986e+001 23477 111740,111818,111766
 2.4000e+000 111893 -1.4671e+002 -3.2755e+002  5.1049e+001 23477 111688,111818,111740
 2.4000e+000 111870 -2.3669e+002 -4.1154e+002  9.0668e+001 23477 111688,111740,111714
 2.4000e+000 112314 -2.0561e+002 -4.1443e+002  4.2509e+000 23023 112141,112219,112193
 2.4000e+000 112291 -1.7543e+002 -4.0021e+002 -1.1479e+001 23023 112115,112219,112141
 2.4000e+000 112268 -1.7749e+002 -4.8646e+002  5.1359e+001 23023 112141,112193,112167
 2.4000e+000 112245 -1.8954e+002 -4.4090e+002 -1.6997e+001 23023 112089,112219,112115
 2.4000e+000 112692 -2.0601e+002 -5.2290e+002 -1.6086e+001 22768 112444,112574,112548
 2.4000e+000 112669 -1.6474e+002 -5.4012e+002 -7.5566e-001 22768 112418,112574,112444
 2.4000e+000 112646 -2.7132e+002 -5.7313e+002  6.3784e+000 22768 112444,112522,112470
 2.4000e+000 112623 -2.0754e+002 -5.2417e+002 -1.7880e+001 22768 112444,112548,112522
 2.4000e+000 112600 -8.8464e+001 -4.8860e+002 -5.3505e+001 22768 112470,112522,112496
 2.4000e+000 113011 -9.6197e+001 -5.3895e+002 -3.8370e+001 22314 112763,112867,112789
 2.4000e+000 112988 -3.8022e+001 -5.3981e+002 -5.0471e+001 22314 112763,112893,112867
 2.4000e+000 112965 -9.9544e+001 -5.3422e+002  0.0000e+000 22314 112815,112867,112841
 2.4000e+000 112942 -1.4100e+002 -5.6114e+002 -2.9198e+001 22314 112789,112867,112815
 2.4000e+000 112919 -2.7241e+001 -4.2201e+002  1.0737e+002 22314 112737,112893,112763
 2.4000e+000 113519 -3.1858e+001 -4.1540e+002  9.1746e+001 21924 113614,113542,113248
 2.4000e+000 113496 -9.1266e+001 -4.1768e+002  4.0412e+001 21924 113542,113196,113378
 2.4000e+000 113473 -7.6610e+001 -4.1761e+002  9.3575e+001 21924 113614,113248,113222
 2.4000e+000 113450 -9.0289e+001 -5.7825e+002  3.1226e+001 21924 113686,113274,113248
 2.4000e+000 113427 -1.6538e+002 -6.2549e+002 -3.1513e+001 21924 113274,113352,113326
 2.4000e+000 113404 -2.7360e+002 -8.0713e+002 -7.6432e+001 21924 113274,113326,113300
 2.4000e+000 113568 -2.9962e+001 -4.9701e+002  6.3883e+001 21924 113686,113248,113542
 2.4000e+000 113591 -7.5872e+001 -3.7680e+002  4.4833e+001 21924 113352,113542,113378
 2.4000e+000 113640 -7.5679e+001 -4.2398e+002  7.3669e+001 21924 113196,113542,113614
 2.4000e+000 113663 -9.4201e+001 -4.0966e+002  7.1251e+001 21924 113196,113614,113222
 2.4000e+000 113712 -1.5314e+002 -4.8753e+002 -5.9050e+000 21924 113352,113274,113686
 2.4000e+000 113735 -1.2298e+002 -4.4585e+002  1.7930e+001 21924 113352,113686,113542
 2.4000e+000 113885 -3.4704e+002 -4.8139e+002  1.3375e+000 21520 113980,113908,113784
 2.4000e+000 113862 -2.7678e+002 -4.4236e+002 -7.0748e+001 21520 114238,113908,113758
 2.4000e+000 113934 -2.3129e+002 -4.0028e+002  3.5442e+001 21520 114110,113908,113810
 2.4000e+000 113957 -2.0153e+002 -4.7892e+002 -4.7317e+001 21520 113810,113908,113836
 2.4000e+000 114006 -2.5378e+002 -4.0161e+002 -3.2947e+001 21520 113758,113908,113980
 2.4000e+000 114136 -3.2133e+002 -4.7552e+002 -3.2772e+000 21520 113784,113908,114110
 2.4000e+000 114264 -3.4174e+002 -5.3964e+002 -1.0586e+002 21520 113836,113908,114238
 2.4000e+000 114662 -2.5050e+002 -6.4855e+002  1.0792e+001 21030 114414,114518,114492
 2.4000e+000 114639 -1.0250e+002 -5.2243e+002 -5.0477e+001 21030 114414,114544,114518
 2.4000e+000 114616 -3.3535e+002 -6.9363e+002 -7.4848e+000 21030 114440,114492,114466
 2.4000e+000 114593 -2.5656e+002 -6.6327e+002  9.3112e+000 21030 114414,114492,114440
 2.4000e+000 114570 -1.8342e+002 -5.4311e+002 -1.0736e+001 21030 114388,114544,114414
 2.4000e+000 114959 -3.9243e+002 -6.6572e+002  4.2882e+001 20512 114982,114711,114685
 2.4000e+000 114936 -3.5980e+002 -6.3748e+002 -1.2933e+001 20512 115054,114982,114685
 2.4000e+000 114913 -2.9512e+002 -5.5485e+002 -4.1029e+001 20512 115054,114685,114841
 2.4000e+000 114890 -2.5392e+002 -6.1757e+002  1.2984e+001 20512 114711,114763,114737
 2.4000e+000 114867 -1.4988e+002 -5.7622e+002  1.0396e+001 20512 114763,114815,114789
 2.4000e+000 115008 -3.3997e+002 -6.5520e+002  2.3411e+001 20512 114763,114711,114982
 2.4000e+000 115031 -3.1142e+002 -6.4316e+002 -1.3326e+001 20512 114763,114982,114815
 2.4000e+000 115080 -3.3043e+002 -6.6657e+002  4.7816e-001 20512 114815,114982,115054
 2.4000e+000 115103 -3.3430e+002 -6.5219e+002  4.1325e-001 20512 114815,115054,114841
 2.4000e+000 115507 -2.9051e+002 -5.7522e+002 -1.7855e+001 20143 115285,115389,115363
 2.4000e+000 115484 -3.4030e+002 -6.5856e+002  2.8309e+000 20143 115259,115389,115285
 2.4000e+000 115461 -3.0655e+002 -5.5462e+002  1.5742e+000 20143 115233,115389,115259
 2.4000e+000 115438 -2.7179e+002 -6.8326e+002  1.7564e+001 20143 115285,115337,115311
 2.4000e+000 115415 -3.8303e+002 -7.8784e+002 -3.0531e+001 20143 115285,115363,115337
 2.4000e+000 115875 -2.5813e+002 -5.7165e+002  3.4825e+000 19632 115656,115734,115682
 2.4000e+000 115852 -1.4422e+002 -5.2340e+002  6.0749e+001 19632 115552,115734,115656
 2.4000e+000 115829 -1.5102e+002 -5.2095e+002 -3.1665e+001 19632 115552,115656,115578
 2.4000e+000 115806 -2.4973e+002 -5.8723e+002  9.4144e+000 19632 115578,115656,115630
 2.4000e+000 115783 -2.8827e+002 -5.4846e+002  3.9747e+001 19632 115682,115734,115708
 2.4000e+000 115760 -3.0829e+002 -6.0819e+002 -5.3067e+001 19632 115578,115630,115604
 2.4000e+000 116025 -1.4207e+002 -5.6700e+002 -1.0482e+002 19178 115898,115950,115924
 2.4000e+000 116002 -1.8798e+002 -5.7318e+002 -5.5494e+001 19178 115898,115976,115950
 2.4000e+000 116633 -2.2336e+002 -5.7133e+002 -5.8574e+000 18738 116800,116656,116342
 2.4000e+000 116610 -2.4049e+002 -6.1558e+002  2.3271e+001 18738 116656,116238,116446
 2.4000e+000 116587 -2.6907e+002 -5.9450e+002 -3.0174e+001 18738 116728,116368,116342
 2.4000e+000 116564 -2.1877e+002 -5.4861e+002 -1.9298e+001 18738 116800,116342,116264
 2.4000e+000 116541 -2.3410e+002 -7.8783e+002  8.5458e+001 18738 116212,116446,116238
 2.4000e+000 116518 -5.3404e+001 -4.2733e+002  2.5511e+001 18738 116394,116446,116420
 2.4000e+000 116495  4.4819e+001 -4.6142e+002 -7.1292e+001 18738 116264,116342,116316
 2.4000e+000 116472 -1.0016e+002 -6.0613e+002  7.0081e+001 18738 116264,116316,116290
 2.4000e+000 116682 -2.5921e+002 -5.8234e+002  1.3195e+001 18738 116728,116342,116656
 2.4000e+000 116705 -2.3378e+002 -5.0450e+002  3.4000e+001 18738 116394,116656,116446
 2.4000e+000 116754 -3.3750e+002 -6.2079e+002 -5.3706e+001 18738 116394,116368,116728
 2.4000e+000 116777 -3.3335e+002 -6.0780e+002 -9.2490e+000 18738 116394,116728,116656
 2.4000e+000 116826 -2.1626e+002 -6.1651e+002  1.1586e+001 18738 116238,116656,116800
 2.4000e+000 116849 -2.0101e+002 -5.8762e+002 -5.4730e+000 18738 116238,116800,116264
 2.4000e+000 116999 -1.7844e+002 -5.6798e+002  2.3765e+001 18184 116872,116924,116898
 2.4000e+000 116976 -1.7641e+002 -3.0754e+002 -1.1813e+001 18184 116872,116950,116924
 2.4000e+000 117330 -4.1562e+001 -6.8033e+002  4.4410e+001 17694 117157,117235,117183
 2.4000e+000 117307 -2.1236e+002 -7.6898e+002  6.0418e+000 17694 117131,117235,117157
 2.4000e+000 117284 -1.4928e+002 -8.5137e+002 -4.0043e+001 17694 117105,117235,117131
 2.4000e+000 117261  9.0535e+001 -4.3198e+002 -1.9977e+001 17694 117183,117235,117209
 2.4000e+000 117480 -2.6790e+002 -6.3207e+002 -8.2465e+001 17290 117353,117405,117379
 2.4000e+000 117457 -1.3298e+002 -7.0128e+002 -8.8140e+001 17290 117353,117431,117405
 2.4000e+000 117679 -7.0711e+001 -4.9178e+002 -2.3706e+001 16718 117555,117607,117581
 2.4000e+000 117656 -2.5964e+002 -6.3046e+002  3.8862e+001 16718 117529,117607,117555
 2.4000e+000 117633  6.0500e+001 -6.0278e+002  2.9498e+001 16718 117503,117607,117529
 2.4000e+000 117782 -1.8132e+002 -6.0024e+002  1.5898e+001 16520 117704,117756,117730
 2.4000e+000 117983 -1.6568e+002 -7.0010e+002  2.1843e-001 16208 117859,117911,117885
 2.4000e+000 117960 -1.4717e+002 -6.8287e+002 -1.0549e+001 16208 117833,117911,117859
 2.4000e+000 117937 -1.3767e+002 -6.3683e+002  1.0533e+001 16208 117807,117911,117833
 2.4000e+000 118135 -4.3749e+002 -7.0570e+002 -7.3099e+001 15674 118034,118086,118060
 2.4000e+000 118112 -2.2034e+002 -5.5617e+002  1.4198e+001 15674 118008,118086,118034
 2.4000e+000 118238 -7.0012e+001 -5.2006e+002  3.0391e+001 15355 118160,118212,118186
 2.4000e+000 118341 -3.6656e+002 -6.8919e+002  1.3669e+002 421 118263,118315,118289
 2.5000e+000 68152 -1.4184e+002 -5.6211e+002 -3.9191e+001 67838 68074,68126,68100
 2.5000e+000 68550 -5.4999e+001 -8.2251e+002  2.2470e+001 67526 68276,68380,68302
 2.5000e+000 68527 -1.0317e+001 -8.4726e+002 -1.8657e+000 67526 68276,68406,68380
 2.5000e+000 68504 -7.5504e+001 -7.3578e+002  8.8216e+000 67526 68328,68380,68354
 2.5000e+000 68481 -1.8936e+001 -7.3842e+002  2.1193e+001 67526 68302,68380,68328
 2.5000e+000 68458 -2.2029e+001 -8.5938e+002 -7.9516e+000 67526 68276,68432,68406
 2.5000e+000 68651 -3.4323e+002 -5.8329e+002  9.0316e+001 67328 68573,68625,68599
 2.5000e+000 68970 -1.0999e+002 -5.5777e+002 -5.5058e+000 67016 68722,68800,68774
 2.5000e+000 68947 -1.1204e+002 -5.4034e+002 -1.8741e+001 67016 68722,68826,68800
 2.5000e+000 68924 -1.8217e+002 -5.5530e+002  5.5435e-001 67016 68696,68826,68722
 2.5000e+000 68901 -6.4278e+001 -5.9162e+002 -3.8262e+001 67016 68722,68774,68748
 2.5000e+000 68878 -2.5207e+002 -5.3032e+002 -9.0059e+001 67016 68696,68852,68826
 2.5000e+000 69291 -2.6738e+002 -6.6807e+002 -1.6349e+001 66654 69069,69147,69095
 2.5000e+000 69268 -1.9834e+002 -7.7807e+002  8.8606e+000 66654 69069,69173,69147
 2.5000e+000 69245 -3.1086e+002 -7.3445e+002  1.2204e+002 66654 69043,69173,69069
 2.5000e+000 69222 -3.8114e+002 -8.3490e+002  5.2992e+001 66654 69095,69147,69121
 2.5000e+000 69199 -3.9898e+002 -7.6342e+002  1.0653e+001 66654 69017,69173,69043
 2.5000e+000 69695 -6.7913e+001 -8.5030e+002  2.5607e+001 66456 69447,69577,69551
 2.5000e+000 69672  7.0431e+000 -7.4192e+002 -3.1650e+001 66456 69421,69577,69447
 2.5000e+000 69649  3.5746e+001 -5.0528e+002 -6.6276e+001 66456 69473,69551,69525
 2.5000e+000 69626 -1.4062e+001 -7.2881e+002  1.6392e+001 66456 69447,69551,69473
 2.5000e+000 69603  1.0211e+002 -4.3764e+002 -1.6111e+002 66456 69473,69525,69499
 2.5000e+000 70024 -1.5568e+002 -6.2967e+002  3.4239e+000 66258 70047,69851,69825
 2.5000e+000 70001 -1.5851e+002 -5.9425e+002  3.8524e+001 66258 70047,69825,69903
 2.5000e+000 69978 -2.1500e+002 -8.3073e+002  8.9232e+001 66258 69799,69903,69825
 2.5000e+000 69955 -6.6928e+001 -1.0654e+003  1.9917e+002 66258 69799,69929,69903
 2.5000e+000 70073 -1.9789e+002 -6.3079e+002 -2.8576e+001 66258 69877,69851,70047
 2.5000e+000 70096 -2.0415e+002 -5.8708e+002  7.2227e+000 66258 69877,70047,69903
 2.5000e+000 70602  4.7643e+001 -4.5135e+002 -1.0316e+002 66060 70305,70435,70331
 2.5000e+000 70579 -3.1336e+002 -7.2673e+002  3.4658e+001 66060 70279,70435,70305
 2.5000e+000 70556 -3.2019e+002 -5.6897e+002 -1.2797e+002 66060 70331,70435,70409
 2.5000e+000 70533 -2.2800e+002 -5.7332e+002  9.8356e+001 66060 70279,70461,70435
 2.5000e+000 70510 -1.1379e+002 -3.8398e+002 -2.2441e+002 66060 70331,70409,70357
 2.5000e+000 70487 -5.6719e+000 -4.0930e+002 -5.8595e+001 66060 70357,70409,70383
 2.5000e+000 70703 -6.6141e+002 -1.0418e+003 -2.8931e+001 65862 70625,70677,70651
 2.5000e+000 71083 -1.7812e+002 -6.8873e+002  4.2873e+001 65664 70887,70965,70939
 2.5000e+000 71060 -8.8866e+001 -7.0920e+002  2.2087e+001 65664 70861,70965,70887
 2.5000e+000 71037 -1.1406e+002 -7.3101e+002  6.0310e+000 65664 70809,70965,70861
 2.5000e+000 71014 -1.0024e+002 -7.4367e+002 -1.9699e+001 65664 70809,70861,70835
 2.5000e+000 70991 -1.7085e+002 -7.0218e+002  9.7830e+000 65664 70887,70939,70913
 2.5000e+000 71611 -3.0461e+002 -1.0356e+003 -5.4247e+001 65260 71288,71444,71314
 2.5000e+000 71588 -2.3134e+002 -9.3145e+002  3.0170e+000 65260 71288,71470,71444
 2.5000e+000 71565 -4.9696e+000 -5.6965e+002  5.0167e+001 65260 71314,71418,71392
 2.5000e+000 71542 -2.4516e+002 -8.9076e+002 -5.6673e+001 65260 71314,71444,71418
 2.5000e+000 71519 -2.5524e+002 -6.6096e+002  5.7333e+001 65260 71314,71392,71340
 2.5000e+000 71496 -1.5576e+002 -4.6336e+002  1.7169e+002 65260 71340,71392,71366
 2.5000e+000 72060 -2.2097e+002 -5.0270e+002 -3.0517e+001 64870 71737,71893,71789
 2.5000e+000 72037 -3.7511e+001 -4.2246e+002 -1.7964e+001 64870 71737,71919,71893
 2.5000e+000 72014 -2.4505e+002 -4.4505e+002  2.7298e+001 64870 71789,71841,71815
 2.5000e+000 71991 -1.7213e+002 -4.6452e+002 -1.9445e+000 64870 71789,71893,71841
 2.5000e+000 71968 -1.9050e+002 -5.8708e+002 -1.1158e+002 64870 71737,71789,71763
 2.5000e+000 71945 -1.2509e+002 -5.0938e+002  0.0000e+000 64870 71841,71893,71867
 2.5000e+000 72517 -2.9566e+002 -4.9204e+002 -5.4592e+001 64466 72321,72399,72347
 2.5000e+000 72494 -2.7986e+002 -4.3026e+002 -3.8398e+001 64466 72269,72399,72321
 2.5000e+000 72471 -2.9837e+002 -5.4771e+002  3.8022e+001 64466 72347,72399,72373
 2.5000e+000 72448 -2.9057e+002 -4.8208e+002 -1.3599e+002 64466 72243,72399,72269
 2.5000e+000 72425 -3.6578e+002 -6.2041e+002 -2.0202e+001 64466 72269,72321,72295
 2.5000e+000 72944 -6.4684e+001 -3.8006e+002 -1.5049e+001 64062 73111,73039,72699
 2.5000e+000 72921 -2.4963e+001 -4.3460e+002 -3.2760e+001 64062 73183,72967,72647
 2.5000e+000 72898 -3.5041e+001 -4.2678e+002 -2.1247e+001 64062 72967,72803,72751
 2.5000e+000 72875 -3.0167e+001 -3.6527e+002 -1.8321e+001 64062 73111,72699,72673
 2.5000e+000 72852  6.2547e+000 -4.7002e+002 -1.1072e+001 64062 73183,72647,72621
 2.5000e+000 72829 -4.9667e+001 -3.4405e+002 -1.1109e+002 64062 72751,72803,72777
 2.5000e+000 72993 -1.9898e+001 -3.9651e+002 -1.1309e+001 64062 73039,72647,72967
 2.5000e+000 73016 -1.2136e+002 -4.5931e+002 -2.8045e+001 64062 72725,72967,72751
 2.5000e+000 73065  4.5539e+001 -4.7024e+002  1.6396e+002 64062 72725,72699,73039
 2.5000e+000 73088 -2.6496e+001 -4.3895e+002 -3.9470e+001 64062 72725,73039,72967
 2.5000e+000 73137  1.4767e+001 -3.8195e+002 -1.2450e+001 64062 72647,73039,73111
 2.5000e+000 73160  1.9158e+001 -3.8070e+002 -1.0981e+001 64062 72647,73111,72673
 2.5000e+000 73209 -5.4921e+001 -4.6666e+002 -1.4580e+001 64062 72803,72967,73183
 2.5000e+000 73232 -3.8695e+001 -5.2763e+002  1.0116e+001 64062 72803,73183,72621
 2.5000e+000 73333 -5.6103e+002 -1.0046e+003  5.3736e+001 63814 73356,73281,73255
 2.5000e+000 73382 -4.3249e+002 -6.9426e+002  3.0031e+001 63814 73486,73356,73307
 2.5000e+000 73512 -5.7700e+002 -7.5456e+002 -4.9788e+001 63814 73281,73356,73486
 2.5000e+000 73839 -2.5803e+002 -7.8101e+002 -5.1032e+001 63616 73862,73692,73666
 2.5000e+000 73816 -2.7203e+002 -6.8509e+002 -1.2534e+001 63616 73934,73862,73666
 2.5000e+000 73793 -2.5369e+002 -7.0729e+002  8.6294e+000 63616 73934,73666,73640
 2.5000e+000 73770 -2.1424e+002 -6.8165e+002  4.3500e+001 63616 73614,73744,73640
 2.5000e+000 73888 -2.1010e+002 -6.8170e+002 -7.5754e+001 63616 73718,73692,73862
 2.5000e+000 73911 -2.9106e+002 -6.6489e+002 -1.7991e+000 63616 73718,73862,73744
 2.5000e+000 73960 -3.1057e+002 -7.1099e+002  3.1443e-002 63616 73744,73862,73934
 2.5000e+000 73983 -2.9299e+002 -7.2694e+002  1.9814e+001 63616 73744,73934,73640
 2.5000e+000 74363 -1.3068e+002 -4.7770e+002 -8.7047e+000 63390 74386,74115,74089
 2.5000e+000 74340 -1.3785e+002 -4.3602e+002 -1.9057e+001 63390 74458,74386,74089
 2.5000e+000 74317 -1.2052e+002 -4.4926e+002  2.5629e+001 63390 74458,74089,74245
 2.5000e+000 74294 -1.5765e+002 -5.4144e+002 -2.4794e+001 63390 74530,74167,74141
 2.5000e+000 74271 -1.8381e+002 -4.9991e+002 -1.0697e+002 63390 74167,74219,74193
 2.5000e+000 74412 -9.3583e+001 -4.5595e+002  3.8148e-001 63390 74141,74115,74386
 2.5000e+000 74435 -1.1192e+002 -5.0419e+002  1.2391e+000 63390 74530,74141,74386
 2.5000e+000 74484 -1.0388e+002 -3.7216e+002 -1.2486e+000 63390 74219,74386,74458
 2.5000e+000 74507 -7.2376e+001 -3.6986e+002  4.7678e+001 63390 74219,74458,74245
 2.5000e+000 74556 -2.3140e+002 -5.0844e+002 -7.3571e+001 63390 74219,74167,74530
 2.5000e+000 74579 -1.8475e+002 -4.6051e+002 -4.4128e+001 63390 74219,74530,74386
 2.5000e+000 74680 -1.6531e+002 -4.7238e+002  3.3033e+001 63100 75089,74833,74703
 2.5000e+000 74729 -2.7197e+002 -5.4081e+002 -2.7467e+001 63100 74961,74703,74654
 2.5000e+000 74859 -1.2433e+002 -4.0081e+002  6.4259e+001 63100 74602,74703,74833
 2.5000e+000 74987 -2.2615e+002 -4.2443e+002 -1.3124e+001 63100 75089,74703,74961
 2.5000e+000 75115 -4.4878e+001 -4.1890e+002  1.4472e+001 63100 74628,74833,75089
 2.5000e+000 75138 -1.0475e+002 -3.7086e+002 -3.1349e+001 63100 74628,75089,74961
 2.5000e+000 75723 -1.6766e+002 -4.4150e+002  3.0757e+001 62532 75746,75504,75426
 2.5000e+000 75700 -1.8646e+002 -4.1783e+002  4.1376e+001 62532 75746,75426,75556
 2.5000e+000 75677 -2.4393e+002 -5.6641e+002 -2.3497e+001 62532 75426,75504,75452
 2.5000e+000 75654 -2.8379e+002 -3.6871e+002 -5.7347e+001 62532 75400,75556,75426
 2.5000e+000 75631 -3.0052e+002 -4.9078e+002 -1.4983e+002 62532 75400,75582,75556
 2.5000e+000 75608 -3.5564e+002 -2.2623e+002 -9.8587e+001 62532 75452,75504,75478
 2.5000e+000 75772 -1.8515e+002 -4.5360e+002  2.5182e+001 62532 75530,75504,75746
 2.5000e+000 75795 -2.1122e+002 -4.3417e+002  3.4267e+001 62532 75530,75746,75556
 2.5000e+000 76301 -2.6043e+002 -5.4229e+002 -2.3705e+000 62192 76324,76082,76030
 2.5000e+000 76278 -2.5911e+002 -5.0726e+002  1.0950e+001 62192 76324,76030,76004
 2.5000e+000 76255 -1.3760e+002 -5.0972e+002  4.9198e+001 62192 76030,76082,76056
 2.5000e+000 76232 -2.9531e+002 -5.9536e+002 -1.0149e+002 62192 76082,76134,76108
 2.5000e+000 76209 -2.3830e+002 -4.4583e+002 -5.5985e+001 62192 76004,76160,76134
 2.5000e+000 76186 -1.5308e+002 -5.0612e+002 -2.6904e+001 62192 75978,76160,76004
 2.5000e+000 76350 -2.8919e+002 -4.9973e+002 -4.9517e+000 62192 76134,76082,76324
 2.5000e+000 76373 -2.7464e+002 -4.4519e+002  5.1681e+000 62192 76134,76324,76004
 2.5000e+000 76879 -2.4659e+002 -5.4005e+002 -2.8937e+001 61788 76902,76660,76582
 2.5000e+000 76856 -2.6171e+002 -5.5044e+002 -3.3489e+001 61788 76902,76582,76556
 2.5000e+000 76833 -1.9664e+002 -4.5550e+002 -1.2432e+002 61788 76582,76660,76634
 2.5000e+000 76810 -2.5146e+002 -3.8674e+002 -1.3516e+002 61788 76582,76634,76608
 2.5000e+000 76787 -2.1914e+002 -5.8337e+002  6.3122e+001 61788 76556,76738,76686
 2.5000e+000 76764 -8.4630e+001 -3.4418e+002 -1.3938e+001 61788 76686,76738,76712
 2.5000e+000 76928 -2.2978e+002 -5.5080e+002 -2.9831e+001 61788 76686,76660,76902
 2.5000e+000 76951 -2.4362e+002 -5.6147e+002 -3.4467e+001 61788 76686,76902,76556
 2.5000e+000 77408 -2.8753e+002 -4.6599e+002 -1.9350e+001 61498 77212,77264,77238
 2.5000e+000 77385 -2.4392e+002 -3.9690e+002  1.7859e+001 61498 77160,77264,77212
 2.5000e+000 77362 -3.1462e+002 -4.2191e+002  9.9808e+000 61498 77160,77290,77264
 2.5000e+000 77339 -1.4535e+002 -4.3880e+002  1.8122e+001 61498 77160,77212,77186
 2.5000e+000 77316 -2.4103e+002 -3.9666e+002  1.7574e+002 61498 77134,77290,77160
 2.5000e+000 77678 -1.7056e+002 -7.0037e+002 -5.7088e+001 61129 77479,77557,77505
 2.5000e+000 77655 -2.6440e+002 -7.1443e+002 -1.0360e+001 61129 77479,77583,77557
 2.5000e+000 77632 -1.4946e+002 -6.4034e+002  4.5483e+001 61129 77453,77583,77479
 2.5000e+000 77609 -1.0045e+002 -7.0059e+002 -8.3471e+001 61129 77505,77557,77531
 2.5000e+000 77828 -9.9725e+001 -6.4629e+002  9.1025e+000 60931 77851,77727,77701
 2.5000e+000 77805 -1.7384e+002 -7.2367e+002  4.4553e+001 60931 77851,77701,77779
 2.5000e+000 77877 -3.2558e+002 -8.4356e+002  1.3876e+002 60931 77923,77851,77753
 2.5000e+000 77900 -8.4597e+001 -7.2786e+002  6.7965e+001 60931 77753,77851,77779
 2.5000e+000 77949 -1.2382e+002 -4.7724e+002  3.6011e+001 60931 77727,77851,77923
 2.5000e+000 78133 -7.1983e+001 -2.7762e+002 -2.6056e+001 60377 78055,78107,78081
 2.5000e+000 78535 -4.7446e+002 -6.7333e+002 -3.4427e+001 60015 78287,78391,78313
 2.5000e+000 78512 -2.7333e+002 -6.8649e+002 -5.8883e+001 60015 78287,78417,78391
 2.5000e+000 78489 -3.2503e+002 -7.5571e+002 -1.1791e+002 60015 78261,78417,78287
 2.5000e+000 78466 -1.9511e+002 -5.5552e+002  5.2599e+001 60015 78339,78391,78365
 2.5000e+000 78443 -2.2333e+002 -5.5048e+002  1.5215e+001 60015 78313,78391,78339
 2.5000e+000 78913 -1.9999e+002 -3.9182e+002  9.0926e+000 59725 78936,78743,78691
 2.5000e+000 78890 -2.4856e+002 -4.3414e+002 -1.0052e+001 59725 79008,78936,78691
 2.5000e+000 78867 -2.4695e+002 -4.2562e+002 -1.6426e+001 59725 79008,78691,78665
 2.5000e+000 78844 -9.8876e+001 -3.7280e+002  4.6458e+001 59725 78691,78743,78717
 2.5000e+000 78821 -1.0246e+002 -3.8903e+002 -1.8964e+002 59725 78639,78795,78769
 2.5000e+000 78962 -1.1577e+002 -4.4439e+002 -4.6230e+001 59725 78769,78743,78936
 2.5000e+000 78985 -2.6791e+002 -5.6625e+002 -9.9358e+001 59725 78769,78936,78639
 2.5000e+000 79034 -2.3352e+002 -4.2668e+002 -1.5057e+001 59725 78639,78936,79008
 2.5000e+000 79057 -2.4002e+002 -4.2524e+002 -2.0277e+001 59725 78639,79008,78665
 2.5000e+000 79386 -1.8951e+002 -5.6144e+002  4.1788e+001 59221 79187,79239,79213
 2.5000e+000 79363 -1.2690e+002 -4.8008e+002  8.4024e+000 59221 79187,79265,79239
 2.5000e+000 79340 -2.1999e+002 -5.0490e+002  2.6974e+001 59221 79187,79291,79265
 2.5000e+000 79317 -1.3403e+002 -3.0367e+002  1.5231e+001 59221 79161,79291,79187
 2.5000e+000 79813 -1.6410e+002 -5.9859e+002 -2.9895e+001 58831 79836,79542,79516
 2.5000e+000 79790 -1.6678e+002 -5.6287e+002 -6.9269e+001 58831 79980,79836,79516
 2.5000e+000 79767 -2.5308e+002 -7.1062e+002 -1.4232e+001 58831 79908,79646,79568
 2.5000e+000 79744 -8.7500e+001 -4.4564e+002  2.8818e+000 58831 79980,79516,79490
 2.5000e+000 79721 -7.5545e+001 -9.0030e+002 -1.7335e+002 58831 79568,79646,79594
 2.5000e+000 79698 -1.0465e+003 -3.4048e+003 -6.1088e+002 58831 79594,79646,79620
 2.5000e+000 79862 -1.2995e+002 -5.7731e+002 -2.0770e+001 58831 79568,79542,79836
 2.5000e+000 79885 -1.8810e+002 -5.9530e+002  1.2000e+001 58831 79908,79568,79836
 2.5000e+000 79934 -2.9571e+002 -6.6632e+002 -1.1459e+002 58831 79672,79646,79908
 2.5000e+000 79957 -2.5418e+002 -5.7625e+002 -9.7715e+001 58831 79672,79908,79836
 2.5000e+000 80006 -1.4544e+002 -3.9112e+002 -3.8107e+001 58831 79672,79836,79980
 2.5000e+000 80029 -1.6974e+002 -3.6599e+002  8.8039e+000 58831 79672,79980,79490
 2.5000e+000 80358 -1.0608e+002 -5.1108e+002 -3.8405e+000 58377 80381,80185,80159
 2.5000e+000 80335 -9.0485e+001 -5.0854e+002 -2.7433e+000 58377 80381,80159,80133
 2.5000e+000 80312 -3.9408e+001 -4.8320e+002  6.8647e+000 58377 80133,80263,80237
 2.5000e+000 80289 -1.4768e+002 -5.7119e+002  6.7408e+001 58377 80185,80237,80211
 2.5000e+000 80407 -1.3085e+002 -5.0705e+002 -3.3565e-001 58377 80237,80185,80381
 2.5000e+000 80430 -1.0421e+002 -4.9715e+002  2.0761e+000 58377 80237,80381,80133
 2.5000e+000 80759 -1.3218e+002 -4.8440e+002  1.1431e+002 57873 80782,80586,80560
 2.5000e+000 80736 -1.8562e+002 -5.4966e+002  8.7775e+001 57873 80782,80560,80534
 2.5000e+000 80713 -1.6887e+002 -5.6145e+002  8.4400e+001 57873 80586,80638,80612
 2.5000e+000 80690 -6.0030e+001 -5.2278e+002  7.0174e+001 57873 80534,80664,80638
 2.5000e+000 80808 -1.6175e+002 -5.4347e+002  8.8423e+001 57873 80638,80586,80782
 2.5000e+000 80831 -1.6509e+002 -5.6230e+002  7.3968e+001 57873 80638,80782,80534
 2.5000e+000 81337 -1.6971e+002 -6.4693e+002 -6.4025e+001 57262 81360,81144,81092
 2.5000e+000 81314 -2.1698e+002 -7.5663e+002 -6.0528e+001 57262 81360,81092,81066
 2.5000e+000 81291 -2.5602e+002 -7.7468e+002  7.3715e+000 57262 81014,81196,81066
 2.5000e+000 81268 -1.2822e+002 -5.3951e+002 -4.6690e+001 57262 81092,81144,81118
 2.5000e+000 81245 -1.9768e+002 -4.7888e+002 -2.0601e+001 57262 81144,81196,81170
 2.5000e+000 81222 -2.7209e+002 -8.2320e+002  7.4820e+001 57262 81014,81066,81040
 2.5000e+000 81386 -2.0603e+002 -5.5305e+002  1.1957e+001 57262 81196,81144,81360
 2.5000e+000 81409 -2.5520e+002 -6.6798e+002  1.2856e+001 57262 81196,81360,81066
 2.5000e+000 81608 -1.5709e+002 -8.2028e+002  4.7398e+001 57007 81458,81536,81510
 2.5000e+000 81585 -1.6443e+002 -9.3659e+002  6.5730e+001 57007 81432,81536,81458
 2.5000e+000 81562 -4.6846e+002 -7.2061e+002  2.2353e+002 57007 81458,81510,81484
 2.5000e+000 82086 -3.3944e+002 -7.9120e+002 -8.1063e+001 56339 81792,81922,81818
 2.5000e+000 82063 -3.1780e+002 -9.3258e+002 -1.7481e+002 56339 81714,81922,81792
 2.5000e+000 82040 -3.4826e+002 -6.1364e+002 -6.5232e+001 56339 82109,81844,81818
 2.5000e+000 82017 -3.0746e+002 -7.1488e+002 -6.9950e+001 56339 82109,81818,81922
 2.5000e+000 81994 -2.6964e+002 -7.3677e+002 -8.3635e+001 56339 81844,81896,81870
 2.5000e+000 81971 -3.4167e+002 -9.3313e+002 -3.3589e+002 56339 81714,81792,81766
 2.5000e+000 81948 -6.6842e+002 -2.7148e+003 -5.7878e+002 56339 81714,81766,81740
 2.5000e+000 82135 -3.1576e+002 -6.9158e+002 -2.1515e+001 56339 81896,81844,82109
 2.5000e+000 82158 -3.0887e+002 -8.4239e+002 -3.9251e+001 56339 81896,82109,81922
 2.5000e+000 82536 -2.5788e+002 -6.2417e+002 -3.9724e+001 55699 82288,82392,82314
 2.5000e+000 82513 -3.1236e+002 -6.4717e+002 -3.9956e+001 55699 82288,82418,82392
 2.5000e+000 82490 -3.3499e+002 -7.7944e+002 -7.3105e+001 55699 82314,82392,82340
 2.5000e+000 82467 -8.5911e+001 -9.9949e+002 -1.4062e+002 55699 82340,82392,82366
 2.5000e+000 82444 -2.8156e+002 -6.9674e+002 -4.6935e+001 55699 82262,82418,82288
 2.5000e+000 83091 -3.1837e+002 -5.6109e+002  5.5752e+001 55409 82745,82901,82875
 2.5000e+000 83068 -2.4034e+002 -4.6007e+002  8.9883e+001 55409 82719,82901,82745
 2.5000e+000 83045 -2.8288e+002 -6.0279e+002  7.7058e+001 55409 82771,82849,82823
 2.5000e+000 83022 -4.8157e+002 -6.6137e+002  1.3346e+002 55409 82745,82849,82771
 2.5000e+000 82999 -2.7488e+002 -5.4297e+002  7.0226e+001 55409 82745,82875,82849
 2.5000e+000 82976 -3.9316e+002 -5.7057e+002  8.9871e+001 55409 82771,82823,82797
 2.5000e+000 82953 -4.7549e+001 -1.2105e+002 -4.5536e+001 55409 82719,82927,82901
 2.5000e+000 83388 -2.2070e+002 -6.8696e+002 -3.1691e+001 54905 83411,83218,83166
 2.5000e+000 83365 -1.4223e+002 -6.4633e+002 -1.5660e+001 54905 83411,83166,83114
 2.5000e+000 83342 -2.5937e+002 -6.4476e+002 -3.0305e+001 54905 83483,83270,83244
 2.5000e+000 83319 -2.6800e+002 -6.2323e+002 -7.9910e+001 54905 83166,83218,83192
 2.5000e+000 83296 -1.5369e+002 -7.0028e+002  1.1285e+001 54905 83114,83166,83140
 2.5000e+000 83437 -2.4125e+002 -6.4968e+002 -2.9138e+000 54905 83244,83218,83411
 2.5000e+000 83460 -2.2677e+002 -6.4961e+002 -9.9994e+000 54905 83483,83244,83411
 2.5000e+000 83509 -2.1820e+002 -6.0197e+002 -1.3450e+001 54905 83114,83270,83483
 2.5000e+000 83532 -2.0398e+002 -6.1792e+002  7.9653e-001 54905 83114,83483,83411
 2.5000e+000 83961 -2.0496e+002 -6.7451e+002  4.4363e+000 54593 83638,83768,83690
 2.5000e+000 83938 -8.5399e+001 -6.7738e+002  3.6104e+001 54593 83638,83794,83768
 2.5000e+000 83915 -2.3036e+002 -6.6319e+002  1.5682e+001 54593 83690,83768,83742
 2.5000e+000 83892 -1.4673e+002 -5.8713e+002 -1.0042e+002 54593 83638,83820,83794
 2.5000e+000 83869 -1.9665e+002 -6.2075e+002 -1.1281e+001 54593 83638,83690,83664
 2.5000e+000 83846 -1.4849e+002 -4.8619e+002 -1.2987e+002 54593 83690,83742,83716
 2.5000e+000 84209 -2.1468e+002 -8.2126e+002  7.0679e+001 54132 84232,84062,83984
 2.5000e+000 84186 -1.9970e+002 -7.0125e+002  3.7398e+001 54132 84232,83984,84114
 2.5000e+000 84163 -2.5322e+002 -9.0328e+002 -2.5265e+001 54132 83984,84062,84036
 2.5000e+000 84140 -2.8634e+002 -8.8045e+002 -4.7924e+001 54132 83984,84036,84010
 2.5000e+000 84258 -1.3826e+002 -9.5779e+002  4.9665e+001 54132 84088,84062,84232
 2.5000e+000 84281 -1.0613e+002 -8.2624e+002 -5.6408e+000 54132 84088,84232,84114
 2.5000e+000 84382 -2.1696e+002 -6.3954e+002 -1.0454e+001 53521 84304,84356,84330
 2.5000e+000 84632 -2.3253e+002 -6.6707e+002  1.8828e+001 53067 84655,84485,84459
 2.5000e+000 84609 -2.1684e+002 -6.7593e+002  2.2173e+001 53067 84655,84459,84407
 2.5000e+000 84586 -2.1758e+002 -6.3992e+002  1.0979e+001 53067 84485,84537,84511
 2.5000e+000 84563 -2.3322e+002 -7.4016e+002 -1.9098e+001 53067 84407,84459,84433
 2.5000e+000 84681 -2.3763e+002 -6.7242e+002  2.0981e+001 53067 84537,84485,84655
 2.5000e+000 84704 -2.3228e+002 -6.8884e+002  2.7731e+001 53067 84537,84655,84407
 2.5000e+000 85214 -2.3620e+002 -7.2406e+002 -2.8340e+001 52513 85021,85073,85047
 2.5000e+000 85191 -1.5893e+002 -5.0697e+002 -8.5787e+001 52513 84943,85073,85021
 2.5000e+000 85168 -1.6793e+002 -4.9293e+002 -5.2763e+000 52513 84943,85021,84995
 2.5000e+000 85145 -3.2599e+002 -8.9538e+002 -1.0394e+002 52513 84917,85073,84943
 2.5000e+000 85122 -1.5444e+002 -4.5096e+002 -1.9527e+001 52513 84943,84995,84969
 2.5000e+000 85099 -4.4264e+002 -8.0821e+002 -6.0011e+001 52513 84891,85073,84917
 2.5000e+000 85582 -2.3526e+002 -5.9262e+002  5.5748e+001 52037 85605,85311,85285
 2.5000e+000 85559 -2.3456e+002 -6.3293e+002  4.1832e+001 52037 85749,85605,85285
 2.5000e+000 85536 -7.6045e+001 -5.8100e+002  1.0706e+001 52037 85893,85677,85389
 2.5000e+000 85513 -1.4415e+002 -5.8384e+002  2.1362e+001 52037 85749,85285,85259
 2.5000e+000 85490  8.4848e+000 -5.4797e+002 -1.9834e+001 52037 85893,85389,85363
 2.5000e+000 85467 -8.3488e+001 -5.8468e+002 -1.6598e+001 52037 85259,85441,85415
 2.5000e+000 85631 -3.2466e+002 -6.5265e+002  2.1881e+001 52037 85337,85311,85605
 2.5000e+000 85654 -2.3956e+002 -6.3554e+002  9.7141e+001 52037 85677,85337,85605
 2.5000e+000 85703 -2.4763e+001 -6.3216e+002  3.5398e+001 52037 85415,85389,85677
 2.5000e+000 85726 -6.4931e+001 -6.0984e+002  7.4956e+001 52037 85821,85677,85605
 2.5000e+000 85775 -1.1853e+002 -6.3446e+002  6.8607e+001 52037 85821,85605,85749
 2.5000e+000 85798 -1.3706e+002 -6.4834e+002  2.6531e+001 52037 85415,85749,85259
 2.5000e+000 85847 -8.0791e+001 -6.2865e+002  3.0555e+001 52037 85415,85677,85821
 2.5000e+000 85870 -1.0000e+002 -6.3845e+002  2.6257e+001 52037 85415,85821,85749
 2.5000e+000 85919 -6.4671e+001 -6.1826e+002  1.0191e+002 52037 85337,85677,85893
 2.5000e+000 85942 -3.0096e+001 -6.1020e+002  7.3352e+001 52037 85337,85893,85363
 2.5000e+000 86224 -9.4020e+001 -3.5343e+002  3.3386e+001 51368 86375,86100,86074
 2.5000e+000 86201 -2.8635e+002 -4.2327e+002  3.7018e+001 51368 86375,86074,86247
 2.5000e+000 86178 -9.0375e+001 -5.4225e+002 -1.2718e+002 51368 86048,86152,86126
 2.5000e+000 86273 -1.8471e+002 -4.6253e+002 -1.0899e+002 51368 86048,86126,86247
 2.5000e+000 86401  5.2180e+000 -4.3138e+002 -5.2723e+001 51368 86126,86100,86375
 2.5000e+000 86424 -8.9566e+001 -4.3798e+002 -4.9683e+001 51368 86126,86375,86247
 2.5000e+000 86802 -2.7590e+002 -5.6527e+002 -3.3846e+000 51028 86528,86632,86580
 2.5000e+000 86779 -2.9367e+002 -6.6395e+002  2.2193e+001 51028 86528,86684,86632
 2.5000e+000 86756 -3.5127e+002 -7.4179e+002  2.3845e+000 51028 86528,86580,86554
 2.5000e+000 86733 -2.0178e+002 -6.2950e+002  1.1810e+002 51028 86632,86684,86658
 2.5000e+000 86710 -2.7946e+002 -6.3897e+002 -7.1701e+001 51028 86580,86632,86606
 2.5000e+000 87131 -2.1774e+002 -5.9791e+002  9.7187e+001 50624 86958,87036,87010
 2.5000e+000 87108 -2.5268e+002 -5.5499e+002  9.0717e+001 50624 86932,87036,86958
 2.5000e+000 87085 -2.0850e+002 -5.8941e+002  6.8171e+001 50624 86958,87010,86984
 2.5000e+000 87062 -1.8637e+002 -5.3251e+002  8.4874e+001 50624 86906,87036,86932
 2.5000e+000 87330 -3.9176e+002 -7.5248e+002  1.8879e+000 50234 87353,87180,87154
 2.5000e+000 87307 -3.4400e+002 -7.6139e+002  9.4783e+000 50234 87353,87154,87258
 2.5000e+000 87284 -2.6505e+002 -7.0219e+002  6.5465e+000 50234 87206,87258,87232
 2.5000e+000 87379 -3.5413e+002 -7.5861e+002  2.4833e+001 50234 87206,87180,87353
 2.5000e+000 87402 -2.9248e+002 -7.6237e+002  2.4789e+001 50234 87206,87353,87258
 2.5000e+000 87650 -3.0342e+002 -6.8496e+002 -3.2381e+001 49730 87673,87503,87451
 2.5000e+000 87627 -1.8205e+002 -6.3342e+002 -3.3354e+001 49730 87673,87451,87425
 2.5000e+000 87604 -2.1970e+002 -5.2586e+002  4.6135e+001 49730 87503,87555,87529
 2.5000e+000 87581 -3.7165e+002 -5.5697e+002 -4.4169e+001 49730 87451,87503,87477
 2.5000e+000 87699 -3.1695e+002 -6.5313e+002 -1.6444e+000 49730 87555,87503,87673
 2.5000e+000 87722 -2.9070e+002 -6.5396e+002 -4.4263e+000 49730 87555,87673,87425
 2.5000e+000 88232 -2.3327e+002 -5.9451e+002  4.7572e+001 49176 88255,87935,87909
 2.5000e+000 88209 -3.0469e+002 -6.5357e+002  1.2764e+002 49176 88255,87909,88065
 2.5000e+000 88186 -2.7623e+002 -5.5702e+002  8.2830e+001 49176 87935,88039,87961
 2.5000e+000 88163 -2.6959e+002 -5.6772e+002  9.0507e+001 49176 87909,88091,88065
 2.5000e+000 88140 -3.5539e+002 -5.9404e+002  6.1960e+001 49176 87961,88039,88013
 2.5000e+000 88117 -3.0070e+002 -6.7432e+002 -2.8308e+001 49176 87961,88013,87987
 2.5000e+000 88281 -3.1576e+002 -6.2477e+002  1.1178e+002 49176 88039,87935,88255
 2.5000e+000 88304 -3.8749e+002 -6.8017e+002  1.9131e+002 49176 88039,88255,88065
 2.5000e+000 88503 -7.8531e+001 -3.5818e+002 -1.1108e+001 48772 88526,88379,88353
 2.5000e+000 88480 -9.8008e+001 -3.1935e+002 -4.8166e+000 48772 88526,88353,88327
 2.5000e+000 88457 -9.9729e+001 -4.2423e+002 -8.5102e+000 48772 88379,88431,88405
 2.5000e+000 88552 -6.5050e+001 -3.2798e+002 -1.7580e+001 48772 88431,88379,88526
 2.5000e+000 88575 -8.9604e+001 -3.0036e+002 -1.4079e+001 48772 88431,88526,88327
 2.5000e+000 89083 -1.6548e+002 -4.4902e+002 -1.0534e+002 48368 88786,88916,88864
 2.5000e+000 89060 -2.0032e+002 -4.8683e+002 -8.3811e+001 48368 88786,88942,88916
 2.5000e+000 89037 -2.3214e+002 -3.8393e+002 -6.4197e+000 48368 88786,88864,88812
 2.5000e+000 89014 -2.8570e+002 -5.7837e+002 -1.5545e+002 48368 88864,88916,88890
 2.5000e+000 88991 -7.2574e+001 -5.1119e+002  1.1264e+002 48368 88812,88864,88838
 2.5000e+000 88968 -4.8364e+001 -3.6662e+002  4.4611e+000 48368 88760,88942,88786
 2.5000e+000 89331 -2.4637e+002 -7.3889e+002 -2.0480e+001 47928 89158,89236,89210
 2.5000e+000 89308 -2.3845e+002 -6.6549e+002  9.6549e+000 47928 89132,89236,89158
 2.5000e+000 89285 -3.0101e+002 -5.4916e+002 -2.7005e+001 47928 89158,89210,89184
 2.5000e+000 89262 -3.5025e+002 -6.0116e+002  6.2263e+000 47928 89106,89236,89132
 2.5000e+000 89662 -3.0163e+002 -6.4462e+002 -3.2916e+001 47588 89463,89541,89515
 2.5000e+000 89639 -2.1949e+002 -5.0262e+002 -6.6301e+001 47588 89463,89567,89541
 2.5000e+000 89616 -2.3393e+002 -6.1658e+002  3.6473e+001 47588 89463,89515,89489
 2.5000e+000 89593 -3.0216e+002 -5.2699e+002 -6.6310e+001 47588 89437,89567,89463
 2.5000e+000 89763 -9.7476e+000 -1.8707e+002  2.1688e+001 47390 89685,89737,89711
 2.5000e+000 89913 -6.5477e+001 -5.3236e+002 -5.4893e+001 47078 89786,89838,89812
 2.5000e+000 89890 -2.3774e+002 -7.9781e+002  4.6105e+001 47078 89786,89864,89838
 2.5000e+000 90163 -2.8864e+002 -5.8608e+002  2.5405e+001 46474 89964,90042,89990
 2.5000e+000 90140 -2.4562e+002 -5.6755e+002  2.4078e+001 46474 89938,90042,89964
 2.5000e+000 90117 -3.1836e+002 -5.5717e+002  2.7430e+001 46474 89990,90042,90016
 2.5000e+000 90094 -3.1662e+002 -5.7134e+002  3.8803e+001 46474 89938,90068,90042
 2.5000e+000 90364 -2.6993e+002 -6.5494e+002  7.5360e+001 46184 90240,90292,90266
 2.5000e+000 90341 -3.1176e+002 -6.3797e+002  8.7349e+001 46184 90188,90292,90240
 2.5000e+000 90318 -2.5695e+002 -6.6368e+002  1.0831e+002 46184 90188,90240,90214
 2.5000e+000 90565 -2.5747e+002 -5.0094e+002  3.9099e+000 45780 90588,90415,90389
 2.5000e+000 90542 -2.3338e+002 -5.0432e+002  8.9436e+000 45780 90588,90389,90493
 2.5000e+000 90519 -2.6801e+002 -5.1861e+002  1.2985e+001 45780 90415,90467,90441
 2.5000e+000 90614 -2.3959e+002 -5.0481e+002  1.8717e+001 45780 90467,90415,90588
 2.5000e+000 90637 -2.0707e+002 -4.9612e+002  2.7732e+001 45780 90467,90588,90493
 2.5000e+000 91196 -3.6817e+002 -6.5713e+002 -6.0196e+001 45226 91219,90876,90850
 2.5000e+000 91173 -2.1286e+002 -6.2382e+002  2.3511e+001 45226 91219,90850,91032
 2.5000e+000 91150 -1.8022e+002 -7.2118e+002 -6.4044e+001 45226 90824,91032,90850
 2.5000e+000 91127 -2.6131e+002 -4.9629e+002  7.4751e+000 45226 90876,90980,90902
 2.5000e+000 91104 -1.7121e+002 -5.0415e+002  5.1857e+001 45226 90876,91006,90980
 2.5000e+000 91081 -2.2157e+002 -5.0905e+002 -2.2573e+001 45226 90902,90980,90954
 2.5000e+000 91058 -1.6430e+002 -4.4161e+002 -6.7450e+001 45226 90902,90954,90928
 2.5000e+000 91245 -2.2667e+002 -5.8939e+002 -1.1127e+001 45226 91006,90876,91219
 2.5000e+000 91268 -8.8713e+001 -5.8583e+002  6.1010e+001 45226 91006,91219,91032
 2.5000e+000 91516 -1.8441e+002 -9.0024e+002  5.0337e+001 44836 91539,91421,91395
 2.5000e+000 91493 -1.6587e+002 -8.9762e+002  1.2488e+001 44836 91317,91421,91343
 2.5000e+000 91470 -2.5962e+002 -8.8710e+002  3.7976e+001 44836 91539,91395,91369
 2.5000e+000 91447 -2.7279e+002 -7.3462e+002  1.1888e+002 44836 91291,91421,91317
 2.5000e+000 91565 -2.1944e+002 -9.0479e+002  1.0506e+001 44836 91343,91421,91539
 2.5000e+000 91588 -2.7793e+002 -9.0955e+002 -1.4531e+001 44836 91343,91539,91369
 2.5000e+000 91787 -1.7901e+002 -5.7177e+002  4.5058e+001 44432 91810,91637,91611
 2.5000e+000 91764 -2.3967e+002 -6.5732e+002  7.4781e+001 44432 91810,91611,91715
 2.5000e+000 91741 -6.5156e+001 -4.5392e+002 -1.5440e+001 44432 91637,91689,91663
 2.5000e+000 91836 -2.4233e+002 -5.2715e+002  4.1118e+001 44432 91689,91637,91810
 2.5000e+000 91859 -2.5479e+002 -5.6469e+002  5.4066e+001 44432 91689,91810,91715
 2.5000e+000 92207 -4.0047e+002 -7.6427e+002  3.4242e+001 43864 92230,91936,91910
 2.5000e+000 92184 -4.3913e+002 -8.2460e+002  5.3512e+001 43864 92230,91910,92040
 2.5000e+000 92161 -4.2693e+002 -8.1233e+002  9.9793e+001 43864 91884,92040,91910
 2.5000e+000 92138 -3.4304e+002 -6.1888e+002  4.7951e+000 43864 91936,92014,91988
 2.5000e+000 92115 -2.9070e+002 -8.1302e+002  1.5116e+002 43864 91936,91988,91962
 2.5000e+000 92092 -3.6406e+002 -7.0949e+002  6.6896e+001 43864 91884,92066,92040
 2.5000e+000 92256 -4.5293e+002 -6.7244e+002  4.2850e+001 43864 92014,91936,92230
 2.5000e+000 92279 -5.0407e+002 -7.5724e+002  6.4690e+001 43864 92014,92230,92040
 2.5000e+000 92529 -3.1056e+002 -6.1912e+002  5.8205e+001 43410 92552,92330,92304
 2.5000e+000 92506 -3.0187e+002 -6.0103e+002  1.0020e+001 43410 92552,92304,92408
 2.5000e+000 92483 -3.2103e+002 -6.0229e+002  1.7222e+001 43410 92304,92434,92408
 2.5000e+000 92460 -1.6467e+002 -5.3159e+002  4.9294e-002 43410 92330,92382,92356
 2.5000e+000 92578 -2.8149e+002 -6.0459e+002  3.2677e+001 43410 92382,92330,92552
 2.5000e+000 92601 -2.3617e+002 -5.5053e+002 -2.1466e+001 43410 92382,92552,92408
 2.5000e+000 92802 -1.9822e+002 -7.6798e+002  5.6247e+001 43162 92825,92704,92652
 2.5000e+000 92779 -1.4646e+002 -7.3682e+002  1.4580e+002 43162 92825,92652,92626
 2.5000e+000 92756 -1.0755e+002 -7.9217e+002  5.5651e+001 43162 92652,92704,92678
 2.5000e+000 92851 -3.0417e+002 -7.8166e+002 -1.1684e+001 43162 92730,92704,92825
 2.5000e+000 92874 -3.5204e+002 -6.1300e+002  1.3138e+002 43162 92730,92825,92626
 2.5000e+000 93463 -1.6638e+002 -4.0595e+002 -8.7899e+001 42758 93140,93270,93166
 2.5000e+000 93440 -2.1314e+002 -4.5696e+002 -5.9142e+001 42758 93140,93296,93270
 2.5000e+000 93417 -1.5516e+002 -4.3477e+002 -6.3964e+001 42758 93166,93270,93218
 2.5000e+000 93394 -1.0792e+002 -4.3815e+002 -7.6649e+001 42758 93218,93270,93244
 2.5000e+000 93371 -7.0970e+001 -5.0111e+002 -6.0078e+001 42758 93140,93322,93296
 2.5000e+000 93348 -2.0459e+002 -5.1794e+002  1.7773e+001 42758 93166,93218,93192
 2.5000e+000 93920 -1.6583e+002 -5.0458e+002 -1.5151e+001 42304 93943,93672,93646
 2.5000e+000 93897 -1.6954e+002 -4.8178e+002 -4.2796e-001 42304 93943,93646,93802
 2.5000e+000 93874 -1.7388e+002 -5.0125e+002  2.8919e+001 42304 93724,93802,93776
 2.5000e+000 93851 -2.3226e+002 -5.8455e+002  2.7066e+001 42304 93672,93724,93698
 2.5000e+000 93828 -3.0378e+002 -5.8436e+002 -2.0084e+001 42304 93724,93776,93750
 2.5000e+000 93969 -1.7645e+002 -5.1264e+002 -1.9043e+001 42304 93724,93672,93943
 2.5000e+000 93992 -1.8999e+002 -4.9919e+002 -7.8603e+000 42304 93724,93943,93802
 2.5000e+000 94321 -2.0648e+002 -6.7495e+002  1.3577e+000 41478 94096,94148,94122
 2.5000e+000 94298 -2.6791e+002 -7.2227e+002  4.0142e+001 41478 94096,94226,94148
 2.5000e+000 94275 -3.6146e+002 -8.9791e+002 -1.0629e+001 41478 94148,94226,94174
 2.5000e+000 94252 -1.4897e+002 -6.8877e+002 -1.7076e+002 41478 94174,94226,94200
 2.5000e+000 94618 -2.0793e+002 -7.6986e+002  6.1330e+000 40910 94344,94422,94396
 2.5000e+000 94595 -3.2378e+002 -7.5349e+002 -2.2307e+001 40910 94344,94448,94422
 2.5000e+000 94572 -2.8541e+002 -6.5587e+002  8.4204e+000 40910 94344,94474,94448
 2.5000e+000 94549 -1.6866e+002 -8.0642e+002 -2.6619e+001 40910 94344,94396,94370
 2.5000e+000 94526 -4.2941e+002 -8.3607e+002  7.1417e+001 40910 94344,94500,94474
 2.5000e+000 94866 -2.5265e+002 -4.9642e+002 -4.9891e+001 40306 94667,94719,94693
 2.5000e+000 94843 -3.1246e+002 -5.4223e+002 -2.9948e+001 40306 94641,94719,94667
 2.5000e+000 94820 -3.5830e+002 -5.5458e+002  1.0180e+001 40306 94641,94745,94719
 2.5000e+000 94797 -2.7380e+002 -4.9269e+002 -1.7126e+001 40306 94641,94771,94745
 2.5000e+000 95089 -2.6354e+001 -4.1977e+002  5.6318e+001 39702 94913,94991,94939
 2.5000e+000 95066 -3.3268e+000 -3.5342e+002  1.6245e+001 39702 94913,95017,94991
 2.5000e+000 95043  5.7019e+001 -3.8904e+002  1.6187e+001 39702 94939,94991,94965
 2.5000e+000 95339 -2.3072e+002 -5.2854e+002 -5.4050e+001 39248 95140,95218,95166
 2.5000e+000 95316 -2.9211e+002 -5.7256e+002 -2.6770e+001 39248 95140,95244,95218
 2.5000e+000 95293 -1.6860e+002 -6.2100e+002 -6.7962e+001 39248 95114,95244,95140
 2.5000e+000 95270 -1.9663e+002 -5.8009e+002 -1.0579e+002 39248 95166,95218,95192
 2.5000e+000 95770 -3.3233e+002 -5.7255e+002  1.6839e+001 38694 95551,95629,95577
 2.5000e+000 95747 -2.5162e+002 -7.2019e+002  1.2700e+001 38694 95447,95629,95551
 2.5000e+000 95724 -2.0066e+002 -6.1945e+002 -2.7774e+001 38694 95447,95551,95473
 2.5000e+000 95701 -1.2732e+002 -5.9400e+002 -4.8338e+001 38694 95473,95551,95499
 2.5000e+000 95678 -1.0057e+002 -5.4783e+002 -1.1987e+002 38694 95499,95551,95525
 2.5000e+000 95655 -3.4644e+002 -6.0361e+002  1.3885e+001 38694 95577,95629,95603
 2.5000e+000 96325 -2.8813e+002 -6.2487e+002  1.1656e+001 38240 95953,96031,96005
 2.5000e+000 96302 -2.7665e+002 -3.7879e+002  8.9108e+001 38240 95953,96161,96031
 2.5000e+000 96279 -1.9566e+002 -3.5384e+002 -2.9745e+001 38240 96031,96161,96135
 2.5000e+000 96256 -2.1713e+002 -4.6803e+002  7.8968e+001 38240 96348,96109,96057
 2.5000e+000 96233 -1.8970e+002 -4.2304e+002  5.5403e+001 38240 96348,96057,96031
 2.5000e+000 96210 -1.6880e+002 -4.7171e+002  1.1284e+002 38240 96057,96109,96083
 2.5000e+000 96187 -3.3147e+002 -3.2894e+002 -3.0114e+001 38240 95953,96005,95979
 2.5000e+000 96374 -1.7013e+002 -5.4471e+002  4.7215e+001 38240 96135,96109,96348
 2.5000e+000 96397 -1.2392e+002 -4.6648e+002  1.7357e+001 38240 96135,96348,96031
 2.5000e+000 96618 -3.1835e+002 -8.8542e+002 -4.9412e-001 37821 96494,96546,96520
 2.5000e+000 96595 -2.0840e+002 -7.7900e+002  4.7644e+001 37821 96468,96546,96494
 2.5000e+000 96572 -1.2686e+002 -7.4396e+002  4.1233e+001 37821 96442,96546,96468
 2.5000e+000 97126 -1.7120e+002 -4.2237e+002 -2.8621e+001 37367 97149,96855,96829
 2.5000e+000 97103 -1.9739e+002 -4.3429e+002 -2.4740e+001 37367 97149,96829,96985
 2.5000e+000 97080 -1.6294e+002 -4.5716e+002 -3.6015e+001 37367 96803,96985,96829
 2.5000e+000 97057 -1.1791e+002 -4.0046e+002 -4.7819e+001 37367 96855,96907,96881
 2.5000e+000 97034 -2.6073e+002 -4.0850e+002 -7.7424e+000 37367 96907,96985,96959
 2.5000e+000 97011 -3.0298e+002 -4.0419e+002 -4.1971e+001 37367 96907,96959,96933
 2.5000e+000 97175 -1.9586e+002 -4.1160e+002 -4.2023e+001 37367 96907,96855,97149
 2.5000e+000 97198 -2.1471e+002 -4.2085e+002 -3.8724e+001 37367 96907,97149,96985
 2.5000e+000 97704 -2.7962e+002 -6.2502e+002  7.4860e+001 36863 97727,97511,97485
 2.5000e+000 97681 -2.6466e+002 -5.6618e+002  9.1076e+001 36863 97727,97485,97433
 2.5000e+000 97658 -3.5518e+002 -6.7371e+002  2.0965e+000 36863 97381,97563,97433
 2.5000e+000 97635 -1.7760e+002 -5.6841e+002 -2.4107e+001 36863 97511,97563,97537
 2.5000e+000 97612 -1.3290e+002 -4.1063e+002  1.2389e+001 36863 97433,97485,97459
 2.5000e+000 97589 -4.2694e+002 -6.7985e+002  6.1572e+001 36863 97381,97433,97407
 2.5000e+000 97753 -2.7368e+002 -6.7490e+002  4.4235e+001 36863 97563,97511,97727
 2.5000e+000 97776 -2.6526e+002 -6.2056e+002  5.8030e+001 36863 97563,97727,97433
 2.5000e+000 98331 -3.1937e+002 -7.2335e+002  8.2317e-002 36287 98354,98089,98063
 2.5000e+000 98308 -2.8988e+002 -7.2327e+002  4.4040e+001 36287 98354,98063,98011
 2.5000e+000 98285 -3.8817e+002 -6.5594e+002  9.8726e+001 36287 98426,97985,98115
 2.5000e+000 98262 -2.8986e+002 -7.5042e+002  4.3138e+001 36287 98011,98063,98037
 2.5000e+000 98239 -3.6955e+002 -5.6947e+002  3.6305e+001 36287 97985,98141,98115
 2.5000e+000 98216 -3.5292e+002 -5.0582e+002  7.5691e+001 36287 97959,98141,97985
 2.5000e+000 98193 -2.2890e+002 -7.6070e+002  1.6080e+002 36287 97959,98167,98141
 2.5000e+000 98380 -3.1275e+002 -7.0170e+002 -1.3760e+001 36287 98115,98089,98354
 2.5000e+000 98403 -2.9537e+002 -6.5072e+002  2.6899e+000 36287 98426,98115,98354
 2.5000e+000 98452 -4.9605e+002 -7.6728e+002  1.6174e+002 36287 98011,97985,98426
 2.5000e+000 98475 -4.1942e+002 -7.9319e+002  7.1332e+001 36287 98011,98426,98354
 2.5000e+000 99030 -3.5647e+002 -9.3370e+002 -5.6172e+001 35726 99053,98736,98710
 2.5000e+000 99007 -2.8689e+002 -7.8239e+002  1.5193e+001 35726 99053,98710,98684
 2.5000e+000 98984 -3.8687e+002 -7.6162e+002 -7.2141e+001 35726 99125,98814,98736
 2.5000e+000 98961 -2.9679e+002 -6.4098e+002 -2.1455e+001 35726 98736,98814,98788
 2.5000e+000 98938 -3.4178e+002 -6.8565e+002  5.0100e+001 35726 98684,98866,98840
 2.5000e+000 98915 -2.4448e+002 -6.2308e+002 -8.0074e+000 35726 98736,98788,98762
 2.5000e+000 98892 -2.5496e+002 -7.0979e+002  2.9303e+001 35726 98658,98866,98684
 2.5000e+000 99079 -3.0211e+002 -7.6717e+002 -2.2940e+001 35726 99125,98736,99053
 2.5000e+000 99102 -3.6637e+002 -6.8452e+002  1.4399e+001 35726 98840,99053,98684
 2.5000e+000 99151 -4.6394e+002 -7.9775e+002 -9.1296e+001 35726 98840,98814,99125
 2.5000e+000 99174 -4.2048e+002 -8.1257e+002 -3.1140e+001 35726 98840,99125,99053
 2.5000e+000 99454 -1.1190e+002 -4.8827e+002 -3.9260e+001 35222 99278,99330,99304
 2.5000e+000 99431 -1.5149e+002 -4.5379e+002  2.1850e+001 35222 99278,99382,99330
 2.5000e+000 99408 -2.8429e+002 -5.5840e+002 -2.8463e+001 35222 99330,99382,99356
 2.5000e+000 99653 -1.7236e+002 -8.2660e+002  4.8498e+000 34867 99477,99529,99503
 2.5000e+000 99630 -2.3726e+002 -6.0387e+002 -4.6640e+001 34867 99477,99581,99529
 2.5000e+000 99607 -2.3792e+002 -9.4432e+002 -2.5206e+002 34867 99529,99581,99555
 2.5000e+000 100104 -1.3615e+002 -5.4931e+002 -1.4896e+001 34363 99781,99885,99807
 2.5000e+000 100081 -2.1110e+002 -5.9185e+002  1.6337e+001 34363 99781,99963,99885
 2.5000e+000 100058 -6.1516e+001 -5.0094e+002 -2.7174e+001 34363 99885,99963,99911
 2.5000e+000 100035 -8.4091e+001 -4.7712e+002  9.9687e+000 34363 99807,99885,99859
 2.5000e+000 100012 -6.9327e+001 -4.9686e+002 -6.9425e+001 34363 99911,99963,99937
 2.5000e+000 99989 -1.4089e+001 -4.3862e+002  4.0122e+001 34363 99807,99859,99833
 2.5000e+000 100303 -2.6055e+002 -4.9971e+002 -1.1555e+002 33909 100127,100205,100179
 2.5000e+000 100280 -4.1446e+002 -5.8164e+002 -8.4720e+001 33909 100127,100231,100205
 2.5000e+000 100257 -3.4333e+002 -6.4204e+002 -3.7737e+001 33909 100127,100179,100153
 2.5000e+000 100890 -1.6572e+002 -5.7491e+002 -6.2194e+001 33412 100645,100749,100697
 2.5000e+000 100867 -1.8328e+002 -6.9716e+002 -4.8318e+001 33412 100567,100749,100645
 2.5000e+000 100844 -1.7889e+002 -6.9418e+002 -5.1603e+001 33412 100567,100645,100619
 2.5000e+000 100821 -1.6429e+002 -6.6510e+002 -1.1739e+002 33412 100645,100697,100671
 2.5000e+000 100798 -2.3871e+002 -9.4043e+002 -1.7251e+001 33412 100567,100619,100593
 2.5000e+000 100775 -3.1110e+002 -5.8979e+002 -1.8019e+001 33412 100697,100749,100723
 2.5000e+000 101268 -1.8017e+002 -7.1671e+002 -9.8750e-001 32908 101435,101291,101098
 2.5000e+000 101245 -2.5893e+002 -6.9921e+002  3.2574e+001 32908 101291,101072,101020
 2.5000e+000 101222 -2.6927e+002 -7.3852e+002 -7.9711e+001 32908 101363,101150,101124
 2.5000e+000 101199 -3.1888e+002 -7.7096e+002  1.3250e+002 32908 101020,101072,101046
 2.5000e+000 101176 -1.5377e+002 -6.1628e+002 -2.7549e+001 32908 100994,101150,101020
 2.5000e+000 101317 -1.7586e+002 -7.3221e+002  7.3596e+000 32908 101124,101098,101291
 2.5000e+000 101340 -2.2537e+002 -7.7166e+002 -1.0744e+001 32908 101363,101124,101291
 2.5000e+000 101389 -2.1890e+002 -6.6760e+002 -5.1085e+001 32908 101020,101150,101363
 2.5000e+000 101412 -1.7893e+002 -6.7090e+002  1.7234e+001 32908 101020,101363,101291
 2.5000e+000 101461 -1.6275e+002 -6.5358e+002  5.7112e+001 32908 101072,101291,101435
 2.5000e+000 101918 -1.6173e+002 -6.6846e+002 -6.2533e+001 32618 101941,101670,101644
 2.5000e+000 101895 -5.4475e+001 -6.6972e+002  1.2466e+001 32618 101941,101644,101774
 2.5000e+000 101872 -2.6531e+002 -5.9191e+002 -9.1469e+000 32618 102013,101696,101670
 2.5000e+000 101849 -5.6352e+001 -4.5281e+002 -8.3223e+001 32618 101696,101748,101722
 2.5000e+000 101826 -3.4365e+001 -6.3837e+002  3.5144e+000 32618 101644,101800,101774
 2.5000e+000 101967 -2.6114e+002 -6.7297e+002 -5.4170e+001 32618 102013,101670,101941
 2.5000e+000 101990 -2.1135e+002 -7.5519e+002  4.5288e+001 32618 101748,101941,101774
 2.5000e+000 102039 -2.3901e+002 -5.6317e+002  5.6857e+000 32618 101748,101696,102013
 2.5000e+000 102062 -1.4596e+002 -5.9229e+002 -1.6355e+001 32618 101748,102013,101941
 2.5000e+000 102440 -3.9310e+002 -8.4014e+002  5.7832e+001 32306 102463,102270,102244
 2.5000e+000 102417 -4.0682e+002 -8.5384e+002  6.1240e+000 32306 102463,102244,102192
 2.5000e+000 102394 -3.7931e+002 -7.4207e+002 -7.8164e+000 32306 102192,102244,102218
 2.5000e+000 102371 -2.7185e+002 -7.9064e+002  6.1289e+001 32306 102270,102322,102296
 2.5000e+000 102348 -1.9479e+002 -9.6492e+002 -5.1127e+001 32306 102166,102322,102192
 2.5000e+000 102489 -3.3330e+002 -8.2762e+002  8.1550e+001 32306 102322,102270,102463
 2.5000e+000 102512 -3.4864e+002 -8.5430e+002  2.6535e+001 32306 102322,102463,102192
 2.5000e+000 102662 -1.7891e+002 -6.7532e+002 -8.6139e+000 31852 102943,102587,102561
 2.5000e+000 102639 -1.0577e+002 -5.8685e+002  2.0451e+001 31852 102815,102685,102561
 2.5000e+000 102711 -2.0442e+002 -7.1362e+002 -2.5891e+001 31852 102943,102561,102685
 2.5000e+000 102841 -9.5737e+001 -4.8527e+002  7.3056e+001 31852 102535,102685,102815
 2.5000e+000 102969 -1.8515e+002 -7.1323e+002 -3.8683e+001 31852 102613,102587,102943
 2.5000e+000 102992 -2.0972e+002 -7.4700e+002 -5.6095e+001 31852 102613,102943,102685
 2.5000e+000 103370 -3.8241e+002 -8.4442e+002  3.4035e+001 31134 103096,103200,103122
 2.5000e+000 103347 -4.5947e+002 -1.0441e+003  9.3691e+001 31134 103096,103226,103200
 2.5000e+000 103324 -4.3281e+002 -8.5151e+002  2.9199e+001 31134 103122,103200,103174
 2.5000e+000 103301 -2.4743e+002 -8.8641e+002  1.4981e+001 31134 103096,103252,103226
 2.5000e+000 103278 -3.0197e+002 -9.3445e+002 -1.1113e+002 31134 103122,103174,103148
 2.5000e+000 103520 -9.6785e+001 -9.5969e+002  7.5881e-001 30822 103393,103445,103419
 2.5000e+000 103497 -3.5482e+001 -5.5058e+002  2.9184e+001 30822 103393,103471,103445
 2.5000e+000 103719 -1.5921e+002 -6.2521e+002  1.2030e+001 30182 103742,103621,103569
 2.5000e+000 103696 -2.0650e+002 -6.4088e+002 -1.2244e+000 30182 103742,103569,103543
 2.5000e+000 103673 -1.7438e+002 -6.3179e+002  1.1435e+001 30182 103569,103621,103595
 2.5000e+000 103768 -1.1432e+002 -6.4607e+002  2.4757e+001 30182 103647,103621,103742
 2.5000e+000 103791 -1.4692e+002 -6.5799e+002  6.0830e+000 30182 103647,103742,103543
 2.5000e+000 104252 -3.5353e+002 -6.7226e+002  2.5695e+001 29728 104030,104108,104056
 2.5000e+000 104229 -2.5489e+002 -4.6653e+002  5.4693e+001 29728 104004,104108,104030
 2.5000e+000 104206 -1.9800e+002 -5.1049e+002  4.3607e+001 29728 104004,104134,104108
 2.5000e+000 104183 -2.7574e+002 -5.8507e+002 -4.6880e+001 29728 103978,104134,104004
 2.5000e+000 104160 -1.8703e+002 -6.2352e+002 -4.3804e+001 29728 104056,104108,104082
 2.5000e+000 104630 -2.2347e+002 -6.9099e+002 -7.3760e+001 29217 104653,104382,104356
 2.5000e+000 104607 -1.7856e+002 -6.0765e+002 -1.6197e+001 29217 104653,104356,104512
 2.5000e+000 104584 -2.9155e+002 -6.8705e+002 -7.7580e+001 29217 104434,104512,104486
 2.5000e+000 104561 -1.8781e+002 -7.4728e+002 -1.0418e+002 29217 104382,104434,104408
 2.5000e+000 104538 -1.3086e+002 -4.9959e+002  2.4173e+001 29217 104434,104486,104460
 2.5000e+000 104679 -2.4636e+002 -7.0143e+002 -1.0795e+002 29217 104434,104382,104653
 2.5000e+000 104702 -2.4170e+002 -6.6867e+002 -5.6496e+001 29217 104434,104653,104512
 2.5000e+000 105178 -2.2725e+002 -7.0320e+002  1.6408e+001 28649 105201,104962,104936
 2.5000e+000 105155 -2.3705e+002 -6.8202e+002  2.4047e+001 28649 105201,104936,104884
 2.5000e+000 105132 -2.5710e+002 -6.4279e+002 -5.2030e+001 28649 105273,104858,105014
 2.5000e+000 105109 -3.7289e+002 -7.3611e+002  1.6104e+001 28649 104962,105014,104988
 2.5000e+000 105086 -1.3546e+002 -5.8369e+002 -6.9701e+001 28649 104884,104936,104910
 2.5000e+000 105063 -2.6284e+002 -5.8680e+002 -1.8751e+001 28649 104806,105014,104858
 2.5000e+000 105040 -3.2331e+002 -5.7840e+002 -4.9869e+001 28649 104806,104858,104832
 2.5000e+000 105227 -2.1773e+002 -7.0765e+002  8.3844e+000 28649 105014,104962,105201
 2.5000e+000 105250 -1.9349e+002 -6.6593e+002 -7.4028e+000 28649 105273,105014,105201
 2.5000e+000 105299 -3.2571e+002 -6.7196e+002 -4.6522e+001 28649 104884,104858,105273
 2.5000e+000 105322 -3.0149e+002 -7.1588e+002  7.0550e+000 28649 104884,105273,105201
 2.5000e+000 105673 -3.7180e+001 -6.5063e+002  7.5187e+000 28351 105474,105578,105552
 2.5000e+000 105650  1.3256e+001 -4.4024e+002 -1.0814e+001 28351 105448,105578,105474
 2.5000e+000 105627 -2.7901e+000 -6.0897e+002  4.5342e+000 28351 105500,105552,105526
 2.5000e+000 105604 -1.4067e+001 -6.3929e+002  3.5520e+000 28351 105474,105552,105500
 2.5000e+000 106130 -2.8011e+002 -4.4491e+002 -1.2702e+002 28004 106153,105882,105856
 2.5000e+000 106107 -2.5450e+002 -5.9029e+002 -7.7327e+001 28004 106153,105856,105986
 2.5000e+000 106084 -4.6313e+002 -6.4956e+002  2.8934e+001 28004 105934,105986,105960
 2.5000e+000 106061 -3.6984e+002 -6.9547e+002 -2.7507e+001 28004 105856,106012,105986
 2.5000e+000 106038 -4.6246e+002 -6.9632e+002 -5.4431e+001 28004 105882,105934,105908
 2.5000e+000 106179 -4.0483e+002 -5.6357e+002 -6.0910e+001 28004 105934,105882,106153
 2.5000e+000 106202 -2.8221e+002 -6.3668e+002 -3.4716e+001 28004 105934,106153,105986
 2.5000e+000 106885 -3.9204e+002 -5.8073e+002 -1.7504e+001 27564 106908,106620,106516
 2.5000e+000 106862 -3.8534e+002 -5.6330e+002 -8.7677e+000 27564 106908,106516,106490
 2.5000e+000 106839 -3.4833e+002 -5.4111e+002 -6.5606e+001 27564 106516,106620,106542
 2.5000e+000 106816 -3.6834e+002 -4.7338e+002 -2.4560e+001 27564 106620,106672,106646
 2.5000e+000 106793 -2.7531e+002 -5.9329e+002 -1.0116e+002 27564 106542,106620,106594
 2.5000e+000 106770 -3.8545e+002 -5.1132e+002  3.1656e+001 27564 106490,106698,106672
 2.5000e+000 106747 -2.9802e+002 -5.7114e+002  1.1202e+002 27564 106464,106698,106490
 2.5000e+000 106724 -5.4551e+001 -4.6227e+002 -1.6008e+002 27564 106542,106594,106568
 2.5000e+000 106934 -4.0483e+002 -5.6333e+002 -2.2444e+001 27564 106672,106620,106908
 2.5000e+000 106957 -4.0004e+002 -5.4567e+002 -1.8726e+001 27564 106672,106908,106490
 2.5000e+000 107463 -3.0727e+002 -6.1267e+002 -8.6829e+000 27053 107218,107322,107296
 2.5000e+000 107440 -3.5952e+002 -7.3058e+002  1.3605e+001 27053 107166,107322,107218
 2.5000e+000 107417 -3.1885e+002 -7.2324e+002 -1.7609e+001 27053 107218,107296,107244
 2.5000e+000 107394 -3.4570e+002 -5.8568e+002  5.4025e+001 27053 107140,107322,107166
 2.5000e+000 107371 -3.3319e+002 -7.3842e+002  1.4659e+001 27053 107166,107218,107192
 2.5000e+000 107348 -3.1872e+002 -9.3186e+002 -1.0043e+002 27053 107244,107296,107270
 2.5000e+000 108097 -2.8425e+002 -7.1266e+002 -4.0562e+001 26549 108192,108120,107803
 2.5000e+000 108074 -2.5873e+002 -8.0927e+002  4.8856e+001 26549 108120,107725,107933
 2.5000e+000 108051 -9.6049e+001 -9.5358e+002  4.5146e+001 26549 107751,107803,107777
 2.5000e+000 108028 -2.7835e+002 -7.6427e+002 -5.6051e+001 26549 108192,107803,107751
 2.5000e+000 108005 -1.7634e+002 -4.9268e+002 -6.7833e+000 26549 108264,107855,107803
 2.5000e+000 107982 -8.4733e+001 -5.5521e+002 -2.9924e+001 26549 107881,107933,107907
 2.5000e+000 107959 -2.4019e+002 -5.2772e+002  8.1364e+000 26549 107803,107855,107829
 2.5000e+000 108146 -2.2444e+002 -5.6917e+002 -3.7047e+001 26549 108264,107803,108120
 2.5000e+000 108169 -2.0808e+002 -6.7825e+002  1.9376e+001 26549 107881,108120,107933
 2.5000e+000 108218 -2.7105e+002 -6.5948e+002 -3.4462e+000 26549 107725,108120,108192
 2.5000e+000 108241 -2.6146e+002 -6.9950e+002 -2.1411e+001 26549 107725,108192,107751
 2.5000e+000 108290 -1.1705e+002 -5.9186e+002 -2.5598e+001 26549 107881,107855,108264
 2.5000e+000 108313 -1.5874e+002 -6.7681e+002 -4.7022e+001 26549 107881,108264,108120
 2.5000e+000 108512 -1.8257e+002 -8.0085e+002 -5.7158e+001 26137 108388,108440,108414
 2.5000e+000 108489 -1.2995e+002 -7.3291e+002 -1.1425e+001 26137 108362,108440,108388
 2.5000e+000 108466 -1.8284e+002 -7.6442e+002 -2.6325e+001 26137 108336,108440,108362
 2.5000e+000 108662 -2.3091e+002 -6.4043e+002 -5.2620e+001 25733 108817,108685,108535
 2.5000e+000 108639 -1.6749e+002 -6.9820e+002 -1.3179e+001 25733 109017,108817,108535
 2.5000e+000 108711 -2.5533e+002 -6.1118e+002 -2.1155e+001 25733 108561,108535,108685
 2.5000e+000 108843 -1.6101e+002 -6.4435e+002 -1.6338e+001 25733 108587,108685,108817
 2.5000e+000 108866 -1.3901e+002 -6.2083e+002 -4.2527e+000 25733 108889,108817,108613
 2.5000e+000 108915 -1.3475e+002 -6.0731e+002 -2.7793e+001 25733 108587,108817,108889
 2.5000e+000 109043 -1.3272e+002 -5.2744e+002  7.2246e+000 25733 108613,108817,109017
 2.5000e+000 109500 -4.5089e+002 -8.1750e+002  7.7753e+001 25229 109523,109356,109330
 2.5000e+000 109477 -2.6580e+002 -6.4233e+002 -3.3859e+001 25229 109595,109523,109330
 2.5000e+000 109454 -2.6008e+002 -5.9184e+002 -7.9549e+001 25229 109595,109330,109278
 2.5000e+000 109431 -2.7835e+002 -6.2177e+002 -5.0540e+001 25229 109667,109226,109382
 2.5000e+000 109408 -2.6943e+002 -6.3700e+002 -1.0832e+002 25229 109278,109330,109304
 2.5000e+000 109549 -1.4544e+002 -6.7150e+002  2.6348e+001 25229 109382,109356,109523
 2.5000e+000 109572 -2.4558e+002 -6.7539e+002 -6.0184e+001 25229 109667,109382,109523
 2.5000e+000 109621 -2.9328e+002 -7.3887e+002 -5.2471e+001 25229 109252,109523,109595
 2.5000e+000 109644 -2.0032e+002 -6.2697e+002 -3.5082e+001 25229 109739,109595,109278
 2.5000e+000 109693 -3.6492e+002 -7.1353e+002 -1.3181e+001 25229 109252,109226,109667
 2.5000e+000 109716 -2.9358e+002 -7.4328e+002 -3.9268e+001 25229 109252,109667,109523
 2.5000e+000 109765 -3.4650e+002 -6.8048e+002 -2.9739e+001 25229 109252,109595,109739
 2.5000e+000 110478 -2.2709e+002 -6.0962e+002  8.4085e+001 24917 110158,110236,110184
 2.5000e+000 110455 -3.1608e+002 -6.7239e+002  1.0275e+000 24917 110158,110288,110236
 2.5000e+000 110432 -2.0511e+002 -8.0456e+002  1.9262e+001 24917 110236,110288,110262
 2.5000e+000 110409 -1.8968e+002 -6.9343e+002  9.0576e+001 24917 110184,110236,110210
 2.5000e+000 110386 -4.1238e+002 -7.6990e+002 -5.4830e+001 24917 110132,110288,110158
 2.5000e+000 110363 -3.6246e+002 -7.2145e+002  1.1825e+001 24917 110132,110314,110288
 2.5000e+000 110340 -4.0887e+002 -8.4383e+002  6.3432e+001 24917 110106,110314,110132
 2.5000e+000 110829 -1.1436e+002 -5.4136e+002 -3.6712e+001 24307 110604,110682,110630
 2.5000e+000 110806 -3.2897e+002 -9.2501e+002  4.9564e+001 24307 110604,110708,110682
 2.5000e+000 110783 -8.9417e+001 -8.2737e+002  5.0427e+001 24307 110604,110734,110708
 2.5000e+000 110760  4.2199e+001 -4.7434e+002 -4.2203e+001 24307 110630,110682,110656
 2.5000e+000 111335 -1.9328e+002 -5.6157e+002 -8.1665e+001 23767 111012,111168,111038
 2.5000e+000 111312 -2.1279e+002 -6.1825e+002 -7.7606e+001 23767 111012,111194,111168
 2.5000e+000 111289 -3.8530e+002 -7.3229e+002  8.1503e+001 23767 111358,111064,111038
 2.5000e+000 111266 -2.6259e+002 -6.6536e+002 -2.2084e+001 23767 111358,111038,111168
 2.5000e+000 111243 -1.6280e+002 -6.3481e+002 -2.1657e+001 23767 111430,111142,111090
 2.5000e+000 111220  6.2820e+001 -5.3671e+002  1.3166e+001 23767 111090,111142,111116
 2.5000e+000 111384 -2.8662e+002 -6.7122e+002 -4.6390e+000 23767 111090,111064,111358
 2.5000e+000 111407 -2.9910e+002 -6.4241e+002 -3.5637e+001 23767 111430,111090,111358
 2.5000e+000 111456 -3.7346e+001 -6.7218e+002 -5.5189e+001 23767 111168,111142,111430
 2.5000e+000 111479 -1.1759e+002 -6.3812e+002 -6.0830e+001 23767 111168,111430,111358
 2.5000e+000 111985 -1.8274e+002 -4.5436e+002  5.5699e+001 23477 111688,111844,111818
 2.5000e+000 111962 -1.6634e+002 -4.7119e+002 -6.7610e+001 23477 111662,111844,111688
 2.5000e+000 111939 -1.1453e+002 -7.6170e+002  8.1573e+001 23477 111766,111818,111792
 2.5000e+000 111916 -3.1325e+002 -7.1341e+002  4.9746e+001 23477 111740,111818,111766
 2.5000e+000 111893 -1.8299e+002 -4.0476e+002  6.5984e+001 23477 111688,111818,111740
 2.5000e+000 111870 -2.9870e+002 -5.2010e+002  1.2100e+002 23477 111688,111740,111714
 2.5000e+000 112314 -2.5392e+002 -5.0253e+002 -2.0916e+000 23023 112141,112219,112193
 2.5000e+000 112291 -2.2156e+002 -4.8704e+002 -1.8931e+001 23023 112115,112219,112141
 2.5000e+000 112268 -2.2089e+002 -5.9147e+002  5.4332e+001 23023 112141,112193,112167
 2.5000e+000 112245 -2.3260e+002 -5.3629e+002 -2.2723e+001 23023 112089,112219,112115
 2.5000e+000 112692 -2.5817e+002 -6.6429e+002 -2.0382e+001 22768 112444,112574,112548
 2.5000e+000 112669 -2.0533e+002 -6.7515e+002 -2.8288e-001 22768 112418,112574,112444
 2.5000e+000 112646 -3.2678e+002 -7.0546e+002 -5.8304e-001 22768 112444,112522,112470
 2.5000e+000 112623 -2.5960e+002 -6.6645e+002 -2.4698e+001 22768 112444,112548,112522
 2.5000e+000 112600 -1.0057e+002 -6.0276e+002 -5.7725e+001 22768 112470,112522,112496
 2.5000e+000 113011 -1.2273e+002 -6.7675e+002 -4.9011e+001 22314 112763,112867,112789
 2.5000e+000 112988 -4.6252e+001 -6.8347e+002 -6.3781e+001 22314 112763,112893,112867
 2.5000e+000 112965 -1.2310e+002 -6.6956e+002  0.0000e+000 22314 112815,112867,112841
 2.5000e+000 112942 -1.7368e+002 -7.0324e+002 -3.5419e+001 22314 112789,112867,112815
 2.5000e+000 112919 -3.6806e+001 -5.3054e+002  1.3974e+002 22314 112737,112893,112763
 2.5000e+000 113519 -4.2625e+001 -5.2247e+002  1.1677e+002 21924 113614,113542,113248
 2.5000e+000 113496 -1.1786e+002 -5.1979e+002  4.9101e+001 21924 113542,113196,113378
 2.5000e+000 113473 -9.8158e+001 -5.2949e+002  1.2083e+002 21924 113614,113248,113222
 2.5000e+000 113450 -1.1489e+002 -7.2827e+002  3.9000e+001 21924 113686,113274,113248
 2.5000e+000 113427 -2.1183e+002 -7.8689e+002 -4.0635e+001 21924 113274,113352,113326
 2.5000e+000 113404 -3.4911e+002 -1.0195e+003 -9.7202e+001 21924 113274,113326,113300
 2.5000e+000 113568 -3.8348e+001 -6.2420e+002  8.0197e+001 21924 113686,113248,113542
 2.5000e+000 113591 -1.0075e+002 -4.7453e+002  5.3884e+001 21924 113352,113542,113378
 2.5000e+000 113640 -9.7158e+001 -5.2867e+002  9.4389e+001 21924 113196,113542,113614
 2.5000e+000 113663 -1.1894e+002 -5.1423e+002  9.2274e+001 21924 113196,113614,113222
 2.5000e+000 113712 -1.9558e+002 -6.1179e+002 -8.6922e+000 21924 113352,113274,113686
 2.5000e+000 113735 -1.5711e+002 -5.5826e+002  2.1257e+001 21924 113352,113686,113542
 2.5000e+000 113885 -4.2945e+002 -6.0231e+002 -1.8609e+000 21520 113980,113908,113784
 2.5000e+000 113862 -3.5162e+002 -5.6424e+002 -9.3011e+001 21520 114238,113908,113758
 2.5000e+000 113934 -2.8892e+002 -4.9749e+002  4.5844e+001 21520 114110,113908,113810
 2.5000e+000 113957 -2.4992e+002 -5.9879e+002 -6.2276e+001 21520 113810,113908,113836
 2.5000e+000 114006 -3.2058e+002 -5.0991e+002 -4.1578e+001 21520 113758,113908,113980
 2.5000e+000 114136 -4.0520e+002 -5.9502e+002 -4.0172e+000 21520 113784,113908,114110
 2.5000e+000 114264 -4.3618e+002 -6.7938e+002 -1.3561e+002 21520 113836,113908,114238
 2.5000e+000 114662 -3.1856e+002 -8.2350e+002  8.9436e+000 21030 114414,114518,114492
 2.5000e+000 114639 -1.3626e+002 -6.5053e+002 -6.7337e+001 21030 114414,114544,114518
 2.5000e+000 114616 -4.1079e+002 -8.6971e+002 -5.0548e+000 21030 114440,114492,114466
 2.5000e+000 114593 -3.2302e+002 -8.3456e+002  7.2266e+000 21030 114414,114492,114440
 2.5000e+000 114570 -2.3272e+002 -6.7429e+002 -1.7640e+001 21030 114388,114544,114414
 2.5000e+000 114959 -5.0102e+002 -8.3770e+002  5.4884e+001 20512 114982,114711,114685
 2.5000e+000 114936 -4.6047e+002 -8.0625e+002 -1.7652e+001 20512 115054,114982,114685
 2.5000e+000 114913 -3.7775e+002 -7.1086e+002 -5.3312e+001 20512 115054,114685,114841
 2.5000e+000 114890 -3.1447e+002 -7.7286e+002  1.7854e+001 20512 114711,114763,114737
 2.5000e+000 114867 -1.8867e+002 -7.2573e+002  1.1012e+001 20512 114763,114815,114789
 2.5000e+000 115008 -4.3318e+002 -8.2339e+002  3.1078e+001 20512 114763,114711,114982
 2.5000e+000 115031 -3.9556e+002 -8.0778e+002 -1.7345e+001 20512 114763,114982,114815
 2.5000e+000 115080 -4.2093e+002 -8.3823e+002  5.2461e-001 20512 114815,114982,115054
 2.5000e+000 115103 -4.2341e+002 -8.2416e+002  2.0129e-002 20512 114815,115054,114841
 2.5000e+000 115507 -3.6755e+002 -7.2718e+002 -2.8511e+001 20143 115285,115389,115363
 2.5000e+000 115484 -4.2270e+002 -8.2127e+002 -5.8700e+000 20143 115259,115389,115285
 2.5000e+000 115461 -3.8022e+002 -7.0528e+002 -2.1965e+000 20143 115233,115389,115259
 2.5000e+000 115438 -3.4762e+002 -8.5483e+002  2.2233e+001 20143 115285,115337,115311
 2.5000e+000 115415 -4.8670e+002 -1.0002e+003 -4.5594e+001 20143 115285,115363,115337
 2.5000e+000 115875 -3.1673e+002 -7.1662e+002 -9.5235e-001 19632 115656,115734,115682
 2.5000e+000 115852 -1.5438e+002 -6.4541e+002  8.0163e+001 19632 115552,115734,115656
 2.5000e+000 115829 -1.6873e+002 -6.5178e+002 -5.3296e+001 19632 115552,115656,115578
 2.5000e+000 115806 -3.1085e+002 -7.3648e+002  5.4663e+000 19632 115578,115656,115630
 2.5000e+000 115783 -3.5255e+002 -6.8393e+002  4.3960e+001 19632 115682,115734,115708
 2.5000e+000 115760 -3.8211e+002 -7.6037e+002 -7.1412e+001 19632 115578,115630,115604
 2.5000e+000 116025 -1.7737e+002 -7.0264e+002 -1.3228e+002 19178 115898,115950,115924
 2.5000e+000 116002 -2.3857e+002 -7.1696e+002 -6.9369e+001 19178 115898,115976,115950
 2.5000e+000 116633 -2.6434e+002 -7.1002e+002 -1.3437e+001 18738 116800,116656,116342
 2.5000e+000 116610 -2.8550e+002 -7.5653e+002  2.6799e+001 18738 116656,116238,116446
 2.5000e+000 116587 -3.2005e+002 -7.2651e+002 -4.5815e+001 18738 116728,116368,116342
 2.5000e+000 116564 -2.5427e+002 -6.8727e+002 -2.6270e+001 18738 116800,116342,116264
 2.5000e+000 116541 -2.7290e+002 -9.6576e+002  1.0664e+002 18738 116212,116446,116238
 2.5000e+000 116518 -5.1635e+001 -5.1059e+002  2.7938e+001 18738 116394,116446,116420
 2.5000e+000 116495  1.0163e+002 -5.7205e+002 -1.0392e+002 18738 116264,116342,116316
 2.5000e+000 116472 -1.1245e+002 -7.7680e+002  9.2423e+001 18738 116264,116316,116290
 2.5000e+000 116682 -3.0831e+002 -7.1319e+002  1.0776e+001 18738 116728,116342,116656
 2.5000e+000 116705 -2.7631e+002 -6.0794e+002  4.1079e+001 18738 116394,116656,116446
 2.5000e+000 116754 -4.0960e+002 -7.6141e+002 -7.3119e+001 18738 116394,116368,116728
 2.5000e+000 116777 -4.0543e+002 -7.4741e+002 -1.4989e+001 18738 116394,116728,116656
 2.5000e+000 116826 -2.5173e+002 -7.5865e+002  9.5634e+000 18738 116238,116656,116800
 2.5000e+000 116849 -2.2805e+002 -7.2799e+002 -7.3970e+000 18738 116238,116800,116264
 2.5000e+000 116999 -2.2372e+002 -7.1388e+002  2.9328e+001 18184 116872,116924,116898
 2.5000e+000 116976 -2.2268e+002 -3.8561e+002 -1.4722e+001 18184 116872,116950,116924
 2.5000e+000 117330 -5.3026e+001 -8.5715e+002  5.5889e+001 17694 117157,117235,117183
 2.5000e+000 117307 -2.7109e+002 -9.7032e+002  6.8370e+000 17694 117131,117235,117157
 2.5000e+000 117284 -1.8919e+002 -1.0775e+003 -5.2942e+001 17694 117105,117235,117131
 2.5000e+000 117261  1.1314e+002 -5.4373e+002 -2.5232e+001 17694 117183,117235,117209
 2.5000e+000 117480 -3.3955e+002 -7.9299e+002 -1.0572e+002 17290 117353,117405,117379
 2.5000e+000 117457 -1.5422e+002 -8.7368e+002 -1.1712e+002 17290 117353,117431,117405
 2.5000e+000 117679 -8.4212e+001 -6.1570e+002 -2.7916e+001 16718 117555,117607,117581
 2.5000e+000 117656 -3.1420e+002 -7.7753e+002  4.4089e+001 16718 117529,117607,117555
 2.5000e+000 117633  9.7152e+001 -7.3572e+002  3.5027e+001 16718 117503,117607,117529
 2.5000e+000 117782 -2.0001e+002 -7.2947e+002  2.0084e+001 16520 117704,117756,117730
 2.5000e+000 117983 -2.0816e+002 -8.6902e+002 -1.0075e+000 16208 117859,117911,117885
 2.5000e+000 117960 -1.7932e+002 -8.5228e+002 -7.8517e+000 16208 117833,117911,117859
 2.5000e+000 117937 -1.4883e+002 -7.9104e+002  1.9852e+001 16208 117807,117911,117833
 2.5000e+000 118135 -5.3168e+002 -8.7236e+002 -1.0286e+002 15674 118034,118086,118060
 2.5000e+000 118112 -2.5181e+002 -6.7418e+002  1.7964e+001 15674 118008,118086,118034
 2.5000e+000 118238 -8.8637e+001 -6.5641e+002  3.5867e+001 15355 118160,118212,118186
 2.5000e+000 118341 -4.4014e+002 -8.6653e+002  1.7796e+002 421 118263,118315,118289
 2.6000e+000 68152 -1.9407e+002 -7.2182e+002 -4.5088e+001 67838 68074,68126,68100
 2.6000e+000 68550 -1.1643e+002 -9.6519e+002  2.5351e+001 67526 68276,68380,68302
 2.6000e+000 68527 -1.7213e+001 -9.7473e+002  2.4001e+000 67526 68276,68406,68380
 2.6000e+000 68504 -1.2295e+002 -8.5531e+002  8.2012e+000 67526 68328,68380,68354
 2.6000e+000 68481 -7.3070e+001 -8.6408e+002  2.3799e+001 67526 68302,68380,68328
 2.6000e+000 68458 -3.1250e+001 -9.9919e+002 -1.3537e+001 67526 68276,68432,68406
 2.6000e+000 68651 -4.3042e+002 -7.2455e+002  1.1218e+002 67328 68573,68625,68599
 2.6000e+000 68970 -1.4178e+002 -6.8312e+002 -2.2770e+000 67016 68722,68800,68774
 2.6000e+000 68947 -1.4864e+002 -6.7261e+002 -1.8818e+001 67016 68722,68826,68800
 2.6000e+000 68924 -2.3005e+002 -6.8652e+002  2.9878e+000 67016 68696,68826,68722
 2.6000e+000 68901 -9.0403e+001 -7.2601e+002 -4.2565e+001 67016 68722,68774,68748
 2.6000e+000 68878 -3.1673e+002 -6.5959e+002 -1.0844e+002 67016 68696,68852,68826
 2.6000e+000 69291 -3.4047e+002 -8.2219e+002 -2.0395e+001 66654 69069,69147,69095
 2.6000e+000 69268 -2.4696e+002 -9.4031e+002  1.4879e+001 66654 69069,69173,69147
 2.6000e+000 69245 -3.7090e+002 -8.6787e+002  1.4690e+002 66654 69043,69173,69069
 2.6000e+000 69222 -4.7589e+002 -1.0144e+003  6.4886e+001 66654 69095,69147,69121
 2.6000e+000 69199 -5.0283e+002 -9.5765e+002  4.7968e+000 66654 69017,69173,69043
 2.6000e+000 69695 -9.4818e+001 -1.0191e+003  2.8881e+001 66456 69447,69577,69551
 2.6000e+000 69672  4.2206e+000 -8.9555e+002 -3.4788e+001 66456 69421,69577,69447
 2.6000e+000 69649  3.1103e+001 -6.2255e+002 -8.3366e+001 66456 69473,69551,69525
 2.6000e+000 69626 -3.7276e+001 -8.9148e+002  1.6342e+001 66456 69447,69551,69473
 2.6000e+000 69603  1.1005e+002 -5.3685e+002 -1.9158e+002 66456 69473,69525,69499
 2.6000e+000 70024 -2.0385e+002 -7.7837e+002  5.5812e+000 66258 70047,69851,69825
 2.6000e+000 70001 -2.0304e+002 -7.3201e+002  4.2221e+001 66258 70047,69825,69903
 2.6000e+000 69978 -2.7702e+002 -1.0154e+003  1.0469e+002 66258 69799,69903,69825
 2.6000e+000 69955 -9.1614e+001 -1.2806e+003  2.3888e+002 66258 69799,69929,69903
 2.6000e+000 70073 -2.5144e+002 -7.7523e+002 -3.9245e+001 66258 69877,69851,70047
 2.6000e+000 70096 -2.5254e+002 -7.1619e+002 -1.9938e+000 66258 69877,70047,69903
 2.6000e+000 70602  4.9168e+001 -5.4195e+002 -1.3015e+002 66060 70305,70435,70331
 2.6000e+000 70579 -3.8336e+002 -8.9425e+002  3.7256e+001 66060 70279,70435,70305
 2.6000e+000 70556 -3.9621e+002 -6.8952e+002 -1.5357e+002 66060 70331,70435,70409
 2.6000e+000 70533 -2.7505e+002 -6.9592e+002  1.1331e+002 66060 70279,70461,70435
 2.6000e+000 70510 -1.3350e+002 -4.7590e+002 -2.7735e+002 66060 70331,70409,70357
 2.6000e+000 70487 -1.0711e+001 -5.1006e+002 -6.8597e+001 66060 70357,70409,70383
 2.6000e+000 70703 -8.2963e+002 -1.2909e+003 -3.8073e+001 65862 70625,70677,70651
 2.6000e+000 71083 -2.1596e+002 -8.1180e+002  3.9321e+001 65664 70887,70965,70939
 2.6000e+000 71060 -1.3210e+002 -8.4536e+002  2.1584e+001 65664 70861,70965,70887
 2.6000e+000 71037 -1.5669e+002 -8.4925e+002  1.3775e+000 65664 70809,70965,70861
 2.6000e+000 71014 -1.6283e+002 -9.1788e+002 -2.5823e+001 65664 70809,70861,70835
 2.6000e+000 70991 -1.9485e+002 -7.9391e+002  3.4492e+000 65664 70887,70939,70913
 2.6000e+000 71611 -3.7708e+002 -1.2524e+003 -6.7302e+001 65260 71288,71444,71314
 2.6000e+000 71588 -2.7774e+002 -1.1193e+003  5.0634e+000 65260 71288,71470,71444
 2.6000e+000 71565 -7.0195e+000 -6.9035e+002  6.0372e+001 65260 71314,71418,71392
 2.6000e+000 71542 -3.0249e+002 -1.0694e+003 -6.9217e+001 65260 71314,71444,71418
 2.6000e+000 71519 -3.1059e+002 -7.9927e+002  7.2047e+001 65260 71314,71392,71340
 2.6000e+000 71496 -1.9067e+002 -5.6340e+002  2.1117e+002 65260 71340,71392,71366
 2.6000e+000 72060 -2.8278e+002 -6.3099e+002 -3.5780e+001 64870 71737,71893,71789
 2.6000e+000 72037 -6.0910e+001 -5.3403e+002 -2.1139e+001 64870 71737,71919,71893
 2.6000e+000 72014 -3.1185e+002 -5.6162e+002  3.3907e+001 64870 71789,71841,71815
 2.6000e+000 71991 -2.2523e+002 -5.8636e+002 -2.0946e+000 64870 71789,71893,71841
 2.6000e+000 71968 -2.4765e+002 -7.3793e+002 -1.3354e+002 64870 71737,71789,71763
 2.6000e+000 71945 -1.6975e+002 -6.3859e+002  0.0000e+000 64870 71841,71893,71867
 2.6000e+000 72517 -3.6417e+002 -6.1452e+002 -6.9519e+001 64466 72321,72399,72347
 2.6000e+000 72494 -3.5477e+002 -5.3951e+002 -5.1701e+001 64466 72269,72399,72321
 2.6000e+000 72471 -3.6655e+002 -6.8153e+002  4.3493e+001 64466 72347,72399,72373
 2.6000e+000 72448 -3.6100e+002 -5.9831e+002 -1.6744e+002 64466 72243,72399,72269
 2.6000e+000 72425 -4.5514e+002 -7.5633e+002 -2.6105e+001 64466 72269,72321,72295
 2.6000e+000 72944 -1.0359e+002 -4.8180e+002 -1.5970e+001 64062 73111,73039,72699
 2.6000e+000 72921 -5.3316e+001 -5.4643e+002 -3.9813e+001 64062 73183,72967,72647
 2.6000e+000 72898 -6.6244e+001 -5.4561e+002 -2.6824e+001 64062 72967,72803,72751
 2.6000e+000 72875 -6.1224e+001 -4.6366e+002 -1.8871e+001 64062 73111,72699,72673
 2.6000e+000 72852 -1.1221e+001 -5.9362e+002 -1.0782e+001 64062 73183,72647,72621
 2.6000e+000 72829 -6.7795e+001 -4.4305e+002 -1.3243e+002 64062 72751,72803,72777
 2.6000e+000 72993 -4.9410e+001 -4.9876e+002 -1.2745e+001 64062 73039,72647,72967
 2.6000e+000 73016 -1.6204e+002 -5.7905e+002 -3.2351e+001 64062 72725,72967,72751
 2.6000e+000 73065  3.3637e+001 -5.8561e+002  1.9902e+002 64062 72725,72699,73039
 2.6000e+000 73088 -5.8482e+001 -5.5257e+002 -4.6385e+001 64062 72725,73039,72967
 2.6000e+000 73137 -7.7374e+000 -4.8085e+002 -1.1514e+001 64062 72647,73039,73111
 2.6000e+000 73160 -1.4839e+000 -4.7911e+002 -9.2835e+000 64062 72647,73111,72673
 2.6000e+000 73209 -9.3181e+001 -5.8984e+002 -1.5067e+001 64062 72803,72967,73183
 2.6000e+000 73232 -7.1589e+001 -6.7210e+002  1.7895e+001 64062 72803,73183,72621
 2.6000e+000 73333 -6.8069e+002 -1.2112e+003  5.0491e+001 63814 73356,73281,73255
 2.6000e+000 73382 -5.3326e+002 -8.6408e+002  3.6144e+001 63814 73486,73356,73307
 2.6000e+000 73512 -7.1023e+002 -9.3746e+002 -6.2089e+001 63814 73281,73356,73486
 2.6000e+000 73839 -3.1574e+002 -9.4229e+002 -5.0862e+001 63616 73862,73692,73666
 2.6000e+000 73816 -3.3448e+002 -8.3068e+002 -5.8940e+000 63616 73934,73862,73666
 2.6000e+000 73793 -3.1359e+002 -8.4302e+002  1.4893e+001 63616 73934,73666,73640
 2.6000e+000 73770 -2.3720e+002 -8.2248e+002  4.6165e+001 63616 73614,73744,73640
 2.6000e+000 73888 -2.5527e+002 -8.2286e+002 -8.1354e+001 63616 73718,73692,73862
 2.6000e+000 73911 -3.5752e+002 -8.1200e+002 -3.0236e+000 63616 73718,73862,73744
 2.6000e+000 73960 -3.7344e+002 -8.4861e+002 -7.5195e-001 63616 73744,73862,73934
 2.6000e+000 73983 -3.5667e+002 -8.6188e+002  1.7501e+001 63616 73744,73934,73640
 2.6000e+000 74363 -1.6895e+002 -5.9606e+002 -8.1447e+000 63390 74386,74115,74089
 2.6000e+000 74340 -1.7904e+002 -5.4797e+002 -1.9868e+001 63390 74458,74386,74089
 2.6000e+000 74317 -1.5708e+002 -5.6495e+002  3.7506e+001 63390 74458,74089,74245
 2.6000e+000 74294 -2.0035e+002 -6.6867e+002 -3.0224e+001 63390 74530,74167,74141
 2.6000e+000 74271 -2.3003e+002 -6.1327e+002 -1.3021e+002 63390 74167,74219,74193
 2.6000e+000 74412 -1.2403e+002 -5.7069e+002  2.0179e+000 63390 74141,74115,74386
 2.6000e+000 74435 -1.4428e+002 -6.2565e+002  2.2345e+000 63390 74530,74141,74386
 2.6000e+000 74484 -1.3616e+002 -4.6603e+002  1.3313e+000 63390 74219,74386,74458
 2.6000e+000 74507 -9.7122e+001 -4.6353e+002  6.4101e+001 63390 74219,74458,74245
 2.6000e+000 74556 -2.9144e+002 -6.3051e+002 -8.8367e+001 63390 74219,74167,74530
 2.6000e+000 74579 -2.3447e+002 -5.7478e+002 -5.1592e+001 63390 74219,74530,74386
 2.6000e+000 74680 -2.0751e+002 -5.7856e+002  4.1804e+001 63100 75089,74833,74703
 2.6000e+000 74729 -3.2379e+002 -6.5329e+002 -3.0773e+001 63100 74961,74703,74654
 2.6000e+000 74859 -1.5694e+002 -4.9007e+002  8.0645e+001 63100 74602,74703,74833
 2.6000e+000 74987 -2.7630e+002 -5.2928e+002 -9.0514e+000 63100 75089,74703,74961
 2.6000e+000 75115 -7.1146e+001 -5.2549e+002  2.5200e+001 63100 74628,74833,75089
 2.6000e+000 75138 -1.3850e+002 -4.7583e+002 -2.5249e+001 63100 74628,75089,74961
 2.6000e+000 75723 -2.0312e+002 -5.2305e+002  3.5556e+001 62532 75746,75504,75426
 2.6000e+000 75700 -2.2553e+002 -4.9747e+002  4.7941e+001 62532 75746,75426,75556
 2.6000e+000 75677 -2.9393e+002 -6.6916e+002 -3.2421e+001 62532 75426,75504,75452
 2.6000e+000 75654 -3.4879e+002 -4.4750e+002 -6.3326e+001 62532 75400,75556,75426
 2.6000e+000 75631 -3.7331e+002 -6.1422e+002 -1.8296e+002 62532 75400,75582,75556
 2.6000e+000 75608 -4.3142e+002 -2.5240e+002 -1.2493e+002 62532 75452,75504,75478
 2.6000e+000 75772 -2.2486e+002 -5.3280e+002  3.0033e+001 62532 75530,75504,75746
 2.6000e+000 75795 -2.5643e+002 -5.1312e+002  4.1030e+001 62532 75530,75746,75556
 2.6000e+000 76301 -3.2372e+002 -6.6879e+002 -5.2597e+000 62192 76324,76082,76030
 2.6000e+000 76278 -3.2811e+002 -6.2456e+002  1.1146e+001 62192 76324,76030,76004
 2.6000e+000 76255 -1.8332e+002 -6.3454e+002  6.3964e+001 62192 76030,76082,76056
 2.6000e+000 76232 -3.6350e+002 -7.3462e+002 -1.2203e+002 62192 76082,76134,76108
 2.6000e+000 76209 -2.9880e+002 -5.4648e+002 -6.1574e+001 62192 76004,76160,76134
 2.6000e+000 76186 -1.9814e+002 -6.3270e+002 -2.7779e+001 62192 75978,76160,76004
 2.6000e+000 76350 -3.5482e+002 -6.1719e+002 -9.2904e+000 62192 76134,76082,76324
 2.6000e+000 76373 -3.4100e+002 -5.4726e+002  2.1282e+000 62192 76134,76324,76004
 2.6000e+000 76879 -3.0960e+002 -6.5404e+002 -2.6661e+001 61788 76902,76660,76582
 2.6000e+000 76856 -3.3835e+002 -6.6933e+002 -3.2711e+001 61788 76902,76582,76556
 2.6000e+000 76833 -2.7598e+002 -5.5597e+002 -1.4844e+002 61788 76582,76660,76634
 2.6000e+000 76810 -3.2350e+002 -5.0644e+002 -1.5470e+002 61788 76582,76634,76608
 2.6000e+000 76787 -2.7951e+002 -7.1005e+002  7.0996e+001 61788 76556,76738,76686
 2.6000e+000 76764 -1.0146e+002 -4.3415e+002 -2.1943e+001 61788 76686,76738,76712
 2.6000e+000 76928 -2.8061e+002 -6.7141e+002 -2.8556e+001 61788 76686,76660,76902
 2.6000e+000 76951 -3.0607e+002 -6.8590e+002 -3.5213e+001 61788 76686,76902,76556
 2.6000e+000 77408 -3.5157e+002 -5.7256e+002 -2.1637e+001 61498 77212,77264,77238
 2.6000e+000 77385 -2.9946e+002 -4.9126e+002  2.4170e+001 61498 77160,77264,77212
 2.6000e+000 77362 -3.8648e+002 -5.1180e+002  2.0269e+001 61498 77160,77290,77264
 2.6000e+000 77339 -1.9171e+002 -5.5285e+002  2.9102e+001 61498 77160,77212,77186
 2.6000e+000 77316 -2.9368e+002 -4.6426e+002  2.1168e+002 61498 77134,77290,77160
 2.6000e+000 77678 -1.9177e+002 -7.9180e+002 -6.6021e+001 61129 77479,77557,77505
 2.6000e+000 77655 -3.0704e+002 -8.2925e+002 -9.7143e+000 61129 77479,77583,77557
 2.6000e+000 77632 -1.8767e+002 -7.6815e+002  4.9255e+001 61129 77453,77583,77479
 2.6000e+000 77609 -1.2221e+002 -7.8696e+002 -8.6175e+001 61129 77505,77557,77531
 2.6000e+000 77828 -1.3808e+002 -7.7442e+002  1.8231e+001 60931 77851,77727,77701
 2.6000e+000 77805 -2.1925e+002 -8.5974e+002  5.7337e+001 60931 77851,77701,77779
 2.6000e+000 77877 -3.8507e+002 -9.9014e+002  1.5965e+002 60931 77923,77851,77753
 2.6000e+000 77900 -1.2115e+002 -8.6355e+002  8.3148e+001 60931 77753,77851,77779
 2.6000e+000 77949 -1.6491e+002 -5.9096e+002  4.7234e+001 60931 77727,77851,77923
 2.6000e+000 78133 -9.0934e+001 -3.5146e+002 -3.2538e+001 60377 78055,78107,78081
 2.6000e+000 78535 -5.8923e+002 -8.3262e+002 -4.0715e+001 60015 78287,78391,78313
 2.6000e+000 78512 -3.4470e+002 -8.4108e+002 -7.2309e+001 60015 78287,78417,78391
 2.6000e+000 78489 -3.9654e+002 -9.2268e+002 -1.4547e+002 60015 78261,78417,78287
 2.6000e+000 78466 -2.5110e+002 -7.0360e+002  6.6162e+001 60015 78339,78391,78365
 2.6000e+000 78443 -2.8283e+002 -6.8352e+002  1.7820e+001 60015 78313,78391,78339
 2.6000e+000 78913 -2.4799e+002 -4.7988e+002  9.3797e+000 59725 78936,78743,78691
 2.6000e+000 78890 -3.1109e+002 -5.2821e+002 -1.4814e+001 59725 79008,78936,78691
 2.6000e+000 78867 -3.0764e+002 -5.1219e+002 -2.5660e+001 59725 79008,78691,78665
 2.6000e+000 78844 -1.2684e+002 -4.5930e+002  5.8518e+001 59725 78691,78743,78717
 2.6000e+000 78821 -1.2034e+002 -4.6728e+002 -2.3884e+002 59725 78639,78795,78769
 2.6000e+000 78962 -1.4337e+002 -5.3982e+002 -5.8370e+001 59725 78769,78743,78936
 2.6000e+000 78985 -3.3027e+002 -6.9174e+002 -1.2428e+002 59725 78769,78936,78639
 2.6000e+000 79034 -2.8556e+002 -5.1539e+002 -2.4125e+001 59725 78639,78936,79008
 2.6000e+000 79057 -2.9634e+002 -5.1224e+002 -3.2976e+001 59725 78639,79008,78665
 2.6000e+000 79386 -2.4201e+002 -6.9392e+002  5.5251e+001 59221 79187,79239,79213
 2.6000e+000 79363 -1.6149e+002 -5.9593e+002  1.4806e+001 59221 79187,79265,79239
 2.6000e+000 79340 -2.7765e+002 -6.3174e+002  3.0192e+001 59221 79187,79291,79265
 2.6000e+000 79317 -1.6640e+002 -3.7353e+002  8.0917e+000 59221 79161,79291,79187
 2.6000e+000 79813 -2.2336e+002 -7.2319e+002 -2.4712e+001 58831 79836,79542,79516
 2.6000e+000 79790 -2.1959e+002 -6.7665e+002 -7.3018e+001 58831 79980,79836,79516
 2.6000e+000 79767 -3.0986e+002 -8.3851e+002 -1.6812e+001 58831 79908,79646,79568
 2.6000e+000 79744 -1.2390e+002 -5.4728e+002  5.3101e+000 58831 79980,79516,79490
 2.6000e+000 79721 -1.1433e+002 -1.1217e+003 -2.5051e+002 58831 79568,79646,79594
 2.6000e+000 79698 -1.3784e+003 -4.3739e+003 -8.5769e+002 58831 79594,79646,79620
 2.6000e+000 79862 -1.7927e+002 -7.1611e+002 -2.2690e+001 58831 79568,79542,79836
 2.6000e+000 79885 -2.3920e+002 -7.1826e+002  1.3187e+001 58831 79908,79568,79836
 2.6000e+000 79934 -3.5780e+002 -7.9193e+002 -1.2226e+002 58831 79672,79646,79908
 2.6000e+000 79957 -3.1427e+002 -6.9923e+002 -1.0183e+002 58831 79672,79908,79836
 2.6000e+000 80006 -1.9934e+002 -4.8833e+002 -3.5250e+001 58831 79672,79836,79980
 2.6000e+000 80029 -2.2128e+002 -4.6106e+002  1.4111e+001 58831 79672,79980,79490
 2.6000e+000 80358 -1.4135e+002 -6.2719e+002 -2.8577e+000 58377 80381,80185,80159
 2.6000e+000 80335 -1.1753e+002 -6.2883e+002 -3.5604e+000 58377 80381,80159,80133
 2.6000e+000 80312 -6.1470e+001 -6.0075e+002  1.0067e+001 58377 80133,80263,80237
 2.6000e+000 80289 -1.9528e+002 -6.9299e+002  7.8026e+001 58377 80185,80237,80211
 2.6000e+000 80407 -1.7840e+002 -6.2661e+002  3.5452e+000 58377 80237,80185,80381
 2.6000e+000 80430 -1.3801e+002 -6.1657e+002  3.7831e+000 58377 80237,80381,80133
 2.6000e+000 80759 -1.6291e+002 -5.9737e+002  1.3707e+002 57873 80782,80586,80560
 2.6000e+000 80736 -2.2989e+002 -6.8000e+002  1.0347e+002 57873 80782,80560,80534
 2.6000e+000 80713 -2.1149e+002 -6.9967e+002  9.8392e+001 57873 80586,80638,80612
 2.6000e+000 80690 -7.4532e+001 -6.4879e+002  8.3117e+001 57873 80534,80664,80638
 2.6000e+000 80808 -2.0027e+002 -6.7206e+002  1.0465e+002 57873 80638,80586,80782
 2.6000e+000 80831 -2.0428e+002 -6.9604e+002  8.6168e+001 57873 80638,80782,80534
 2.6000e+000 81337 -2.0495e+002 -7.6749e+002 -7.1181e+001 57262 81360,81144,81092
 2.6000e+000 81314 -2.5920e+002 -8.9291e+002 -6.6197e+001 57262 81360,81092,81066
 2.6000e+000 81291 -3.0357e+002 -9.2842e+002  1.2564e+001 57262 81014,81196,81066
 2.6000e+000 81268 -1.4437e+002 -6.3060e+002 -4.5521e+001 57262 81092,81144,81118
 2.6000e+000 81245 -2.2762e+002 -5.5718e+002 -2.7671e+001 57262 81144,81196,81170
 2.6000e+000 81222 -3.3198e+002 -1.0073e+003  8.4966e+001 57262 81014,81066,81040
 2.6000e+000 81386 -2.4802e+002 -6.5887e+002  1.6953e+001 57262 81196,81144,81360
 2.6000e+000 81409 -3.0407e+002 -7.9001e+002  1.9141e+001 57262 81196,81360,81066
 2.6000e+000 81608 -1.7665e+002 -9.2547e+002  4.6461e+001 57007 81458,81536,81510
 2.6000e+000 81585 -1.6967e+002 -9.9580e+002  6.6200e+001 57007 81432,81536,81458
 2.6000e+000 81562 -5.3437e+002 -8.3979e+002  2.2386e+002 57007 81458,81510,81484
 2.6000e+000 82086 -4.0542e+002 -9.5380e+002 -8.9858e+001 56339 81792,81922,81818
 2.6000e+000 82063 -4.0564e+002 -1.1123e+003 -1.9158e+002 56339 81714,81922,81792
 2.6000e+000 82040 -4.1273e+002 -7.3025e+002 -7.6853e+001 56339 82109,81844,81818
 2.6000e+000 82017 -3.6291e+002 -8.5338e+002 -8.2280e+001 56339 82109,81818,81922
 2.6000e+000 81994 -3.2464e+002 -8.8580e+002 -9.3586e+001 56339 81844,81896,81870
 2.6000e+000 81971 -4.1105e+002 -1.0570e+003 -4.0368e+002 56339 81714,81792,81766
 2.6000e+000 81948 -8.6509e+002 -3.2685e+003 -7.2367e+002 56339 81714,81766,81740
 2.6000e+000 82135 -3.7432e+002 -8.2412e+002 -2.3642e+001 56339 81896,81844,82109
 2.6000e+000 82158 -3.6576e+002 -1.0080e+003 -4.4662e+001 56339 81896,82109,81922
 2.6000e+000 82536 -3.2925e+002 -7.6387e+002 -4.4054e+001 55699 82288,82392,82314
 2.6000e+000 82513 -3.9236e+002 -7.9155e+002 -4.7938e+001 55699 82288,82418,82392
 2.6000e+000 82490 -4.1444e+002 -9.6068e+002 -8.0565e+001 55699 82314,82392,82340
 2.6000e+000 82467 -9.2056e+001 -1.2264e+003 -1.6580e+002 55699 82340,82392,82366
 2.6000e+000 82444 -3.4996e+002 -8.6353e+002 -5.8209e+001 55699 82262,82418,82288
 2.6000e+000 83091 -4.1256e+002 -6.7949e+002  6.6136e+001 55409 82745,82901,82875
 2.6000e+000 83068 -2.8772e+002 -5.7531e+002  1.1583e+002 55409 82719,82901,82745
 2.6000e+000 83045 -3.3722e+002 -7.0119e+002  1.0022e+002 55409 82771,82849,82823
 2.6000e+000 83022 -5.7918e+002 -7.7675e+002  1.5923e+002 55409 82745,82849,82771
 2.6000e+000 82999 -3.4987e+002 -6.5350e+002  9.0858e+001 55409 82745,82875,82849
 2.6000e+000 82976 -4.5167e+002 -6.7289e+002  1.1478e+002 55409 82771,82823,82797
 2.6000e+000 82953 -7.4558e+001 -1.5302e+002 -4.9514e+001 55409 82719,82927,82901
 2.6000e+000 83388 -2.8082e+002 -8.4463e+002 -3.7237e+001 54905 83411,83218,83166
 2.6000e+000 83365 -1.7680e+002 -7.9507e+002 -1.8419e+001 54905 83411,83166,83114
 2.6000e+000 83342 -3.3900e+002 -7.9703e+002 -3.6693e+001 54905 83483,83270,83244
 2.6000e+000 83319 -3.3854e+002 -7.7394e+002 -9.1632e+001 54905 83166,83218,83192
 2.6000e+000 83296 -1.8552e+002 -8.5127e+002  1.7364e+001 54905 83114,83166,83140
 2.6000e+000 83437 -3.0527e+002 -7.9751e+002 -2.3608e+000 54905 83244,83218,83411
 2.6000e+000 83460 -2.9059e+002 -7.9953e+002 -1.2317e+001 54905 83483,83244,83411
 2.6000e+000 83509 -2.7718e+002 -7.4387e+002 -1.4003e+001 54905 83114,83270,83483
 2.6000e+000 83532 -2.5921e+002 -7.6443e+002  4.2275e+000 54905 83114,83483,83411
 2.6000e+000 83961 -2.3516e+002 -7.6840e+002  1.1610e+001 54593 83638,83768,83690
 2.6000e+000 83938 -1.0389e+002 -7.8669e+002  6.0514e+001 54593 83638,83794,83768
 2.6000e+000 83915 -2.6819e+002 -7.6847e+002  1.6514e+001 54593 83690,83768,83742
 2.6000e+000 83892 -1.5875e+002 -6.6203e+002 -1.1546e+002 54593 83638,83820,83794
 2.6000e+000 83869 -2.3083e+002 -7.0748e+002 -1.3310e+001 54593 83638,83690,83664
 2.6000e+000 83846 -1.6629e+002 -5.6227e+002 -1.4963e+002 54593 83690,83742,83716
 2.6000e+000 84209 -2.6672e+002 -1.0032e+003  9.0811e+001 54132 84232,84062,83984
 2.6000e+000 84186 -2.5444e+002 -8.5371e+002  4.9689e+001 54132 84232,83984,84114
 2.6000e+000 84163 -3.1519e+002 -1.1115e+003 -3.1396e+001 54132 83984,84062,84036
 2.6000e+000 84140 -3.5143e+002 -1.0691e+003 -5.9364e+001 54132 83984,84036,84010
 2.6000e+000 84258 -1.7584e+002 -1.1727e+003  6.5051e+001 54132 84088,84062,84232
 2.6000e+000 84281 -1.4381e+002 -1.0094e+003 -3.6952e+000 54132 84088,84232,84114
 2.6000e+000 84382 -2.6094e+002 -7.3708e+002 -1.0934e+001 53521 84304,84356,84330
 2.6000e+000 84632 -2.9675e+002 -8.1328e+002  2.5278e+001 53067 84655,84485,84459
 2.6000e+000 84609 -2.7480e+002 -8.2462e+002  3.0202e+001 53067 84655,84459,84407
 2.6000e+000 84586 -2.7747e+002 -7.7165e+002  1.7527e+001 53067 84485,84537,84511
 2.6000e+000 84563 -2.9322e+002 -8.9706e+002 -1.4593e+001 53067 84407,84459,84433
 2.6000e+000 84681 -3.0406e+002 -8.2053e+002  2.8241e+001 53067 84537,84485,84655
 2.6000e+000 84704 -2.9634e+002 -8.4211e+002  3.7758e+001 53067 84537,84655,84407
 2.6000e+000 85214 -2.8237e+002 -8.3613e+002 -4.0099e+001 52513 85021,85073,85047
 2.6000e+000 85191 -1.9300e+002 -5.9782e+002 -1.0349e+002 52513 84943,85073,85021
 2.6000e+000 85168 -2.1354e+002 -5.8498e+002 -2.0051e+000 52513 84943,85021,84995
 2.6000e+000 85145 -3.9958e+002 -1.0715e+003 -1.3246e+002 52513 84917,85073,84943
 2.6000e+000 85122 -1.9713e+002 -5.4110e+002 -1.7075e+001 52513 84943,84995,84969
 2.6000e+000 85099 -5.5147e+002 -9.4826e+002 -7.1061e+001 52513 84891,85073,84917
 2.6000e+000 85582 -2.9168e+002 -7.2667e+002  6.8497e+001 52037 85605,85311,85285
 2.6000e+000 85559 -2.9307e+002 -7.7861e+002  5.2829e+001 52037 85749,85605,85285
 2.6000e+000 85536 -9.1617e+001 -7.1087e+002  1.3966e+001 52037 85893,85677,85389
 2.6000e+000 85513 -1.8084e+002 -7.1634e+002  2.6762e+001 52037 85749,85285,85259
 2.6000e+000 85490  1.3710e+001 -6.6976e+002 -2.9267e+001 52037 85893,85389,85363
 2.6000e+000 85467 -1.0706e+002 -7.2183e+002 -2.2620e+001 52037 85259,85441,85415
 2.6000e+000 85631 -4.1043e+002 -8.0399e+002  2.6448e+001 52037 85337,85311,85605
 2.6000e+000 85654 -3.0029e+002 -7.8248e+002  1.2334e+002 52037 85677,85337,85605
 2.6000e+000 85703 -2.2873e+001 -7.7624e+002  4.5244e+001 52037 85415,85389,85677
 2.6000e+000 85726 -7.9426e+001 -7.4869e+002  9.4458e+001 52037 85821,85677,85605
 2.6000e+000 85775 -1.4795e+002 -7.8018e+002  8.6270e+001 52037 85821,85605,85749
 2.6000e+000 85798 -1.7352e+002 -7.9768e+002  3.2494e+001 52037 85415,85749,85259
 2.6000e+000 85847 -9.9673e+001 -7.7262e+002  3.8300e+001 52037 85415,85677,85821
 2.6000e+000 85870 -1.2470e+002 -7.8540e+002  3.2663e+001 52037 85415,85821,85749
 2.6000e+000 85919 -7.9698e+001 -7.6526e+002  1.2635e+002 52037 85337,85677,85893
 2.6000e+000 85942 -3.5835e+001 -7.5526e+002  8.5867e+001 52037 85337,85893,85363
 2.6000e+000 86224 -1.0831e+002 -4.0841e+002  4.1208e+001 51368 86375,86100,86074
 2.6000e+000 86201 -3.2345e+002 -4.8816e+002  4.3248e+001 51368 86375,86074,86247
 2.6000e+000 86178 -9.6230e+001 -6.3992e+002 -1.5851e+002 51368 86048,86152,86126
 2.6000e+000 86273 -2.1252e+002 -5.3165e+002 -1.3708e+002 51368 86048,86126,86247
 2.6000e+000 86401  3.4068e+000 -4.9692e+002 -5.6079e+001 51368 86126,86100,86375
 2.6000e+000 86424 -1.0243e+002 -5.0713e+002 -5.4251e+001 51368 86126,86375,86247
 2.6000e+000 86802 -3.4454e+002 -6.9527e+002 -1.1540e+000 51028 86528,86632,86580
 2.6000e+000 86779 -3.7097e+002 -8.2546e+002  3.3507e+001 51028 86528,86684,86632
 2.6000e+000 86756 -4.3713e+002 -9.1110e+002 -7.2903e-001 51028 86528,86580,86554
 2.6000e+000 86733 -2.4886e+002 -7.5991e+002  1.5370e+002 51028 86632,86684,86658
 2.6000e+000 86710 -3.5355e+002 -7.9167e+002 -8.8593e+001 51028 86580,86632,86606
 2.6000e+000 87131 -2.6842e+002 -7.2065e+002  1.1544e+002 50624 86958,87036,87010
 2.6000e+000 87108 -3.0593e+002 -6.6649e+002  1.0924e+002 50624 86932,87036,86958
 2.6000e+000 87085 -2.5089e+002 -7.0722e+002  7.8028e+001 50624 86958,87010,86984
 2.6000e+000 87062 -2.2910e+002 -6.4481e+002  9.5336e+001 50624 86906,87036,86932
 2.6000e+000 87330 -4.7532e+002 -9.0769e+002  1.3059e+000 50234 87353,87180,87154
 2.6000e+000 87307 -4.1405e+002 -9.2464e+002  1.4169e+001 50234 87353,87154,87258
 2.6000e+000 87284 -3.2200e+002 -8.4677e+002  1.3541e+001 50234 87206,87258,87232
 2.6000e+000 87379 -4.2841e+002 -9.0226e+002  2.8679e+001 50234 87206,87180,87353
 2.6000e+000 87402 -3.5414e+002 -9.1731e+002  3.3070e+001 50234 87206,87353,87258
 2.6000e+000 87650 -3.8339e+002 -8.4272e+002 -4.0430e+001 49730 87673,87503,87451
 2.6000e+000 87627 -2.4211e+002 -7.8205e+002 -3.7124e+001 49730 87673,87451,87425
 2.6000e+000 87604 -2.6620e+002 -6.4112e+002  6.3915e+001 49730 87503,87555,87529
 2.6000e+000 87581 -4.5607e+002 -6.8726e+002 -5.7442e+001 49730 87451,87503,87477
 2.6000e+000 87699 -3.9890e+002 -8.0223e+002 -4.0058e+000 49730 87555,87503,87673
 2.6000e+000 87722 -3.6825e+002 -7.9941e+002 -5.0235e+000 49730 87555,87673,87425
 2.6000e+000 88232 -2.8995e+002 -7.2123e+002  5.7085e+001 49176 88255,87935,87909
 2.6000e+000 88209 -3.7933e+002 -7.9493e+002  1.5746e+002 49176 88255,87909,88065
 2.6000e+000 88186 -3.4323e+002 -6.7344e+002  1.0173e+002 49176 87935,88039,87961
 2.6000e+000 88163 -3.2943e+002 -6.9707e+002  1.1520e+002 49176 87909,88091,88065
 2.6000e+000 88140 -4.5026e+002 -7.2291e+002  7.8006e+001 49176 87961,88039,88013
 2.6000e+000 88117 -3.8828e+002 -8.5295e+002 -3.6871e+001 49176 87961,88013,87987
 2.6000e+000 88281 -3.9391e+002 -7.5888e+002  1.3840e+002 49176 88039,87935,88255
 2.6000e+000 88304 -4.8464e+002 -8.2887e+002  2.3827e+002 49176 88039,88255,88065
 2.6000e+000 88503 -9.8131e+001 -4.3847e+002 -1.5300e+001 48772 88526,88379,88353
 2.6000e+000 88480 -1.1987e+002 -3.9175e+002 -7.6163e+000 48772 88526,88353,88327
 2.6000e+000 88457 -1.2410e+002 -5.1950e+002 -9.3607e+000 48772 88379,88431,88405
 2.6000e+000 88552 -8.2730e+001 -4.0179e+002 -2.2829e+001 48772 88431,88379,88526
 2.6000e+000 88575 -1.1134e+002 -3.6919e+002 -1.8763e+001 48772 88431,88526,88327
 2.6000e+000 89083 -2.0251e+002 -5.3042e+002 -1.1967e+002 48368 88786,88916,88864
 2.6000e+000 89060 -2.3884e+002 -5.7327e+002 -9.4704e+001 48368 88786,88942,88916
 2.6000e+000 89037 -2.7176e+002 -4.4634e+002 -9.2850e+000 48368 88786,88864,88812
 2.6000e+000 89014 -3.5049e+002 -6.7813e+002 -1.7852e+002 48368 88864,88916,88890
 2.6000e+000 88991 -8.5343e+001 -6.2181e+002  1.4878e+002 48368 88812,88864,88838
 2.6000e+000 88968 -4.7515e+001 -4.3372e+002  1.5782e-001 48368 88760,88942,88786
 2.6000e+000 89331 -2.9572e+002 -8.7131e+002 -2.1257e+001 47928 89158,89236,89210
 2.6000e+000 89308 -2.7741e+002 -7.6602e+002  1.2291e+001 47928 89132,89236,89158
 2.6000e+000 89285 -3.5660e+002 -6.3978e+002 -2.6885e+001 47928 89158,89210,89184
 2.6000e+000 89262 -4.1664e+002 -7.2070e+002  4.0188e-001 47928 89106,89236,89132
 2.6000e+000 89662 -3.7361e+002 -7.8628e+002 -3.6691e+001 47588 89463,89541,89515
 2.6000e+000 89639 -2.6891e+002 -6.1651e+002 -8.1400e+001 47588 89463,89567,89541
 2.6000e+000 89616 -2.9576e+002 -7.5617e+002  4.4745e+001 47588 89463,89515,89489
 2.6000e+000 89593 -3.8630e+002 -6.5390e+002 -7.9335e+001 47588 89437,89567,89463
 2.6000e+000 89763 -3.0063e+000 -2.0833e+002  2.5757e+001 47390 89685,89737,89711
 2.6000e+000 89913 -7.8826e+001 -6.0059e+002 -5.9716e+001 47078 89786,89838,89812
 2.6000e+000 89890 -2.7960e+002 -9.3456e+002  6.6658e+001 47078 89786,89864,89838
 2.6000e+000 90163 -3.5136e+002 -7.1630e+002  3.3668e+001 46474 89964,90042,89990
 2.6000e+000 90140 -3.0802e+002 -6.9748e+002  3.1512e+001 46474 89938,90042,89964
 2.6000e+000 90117 -3.8226e+002 -6.7501e+002  3.8327e+001 46474 89990,90042,90016
 2.6000e+000 90094 -3.8746e+002 -7.0539e+002  4.8669e+001 46474 89938,90068,90042
 2.6000e+000 90364 -3.2825e+002 -7.8127e+002  9.1464e+001 46184 90240,90292,90266
 2.6000e+000 90341 -3.8492e+002 -7.6817e+002  1.0253e+002 46184 90188,90292,90240
 2.6000e+000 90318 -3.0350e+002 -7.8123e+002  1.3417e+002 46184 90188,90240,90214
 2.6000e+000 90565 -3.1544e+002 -6.0031e+002 -4.5678e-001 45780 90588,90415,90389
 2.6000e+000 90542 -2.8505e+002 -6.1177e+002  1.0448e+001 45780 90588,90389,90493
 2.6000e+000 90519 -3.2061e+002 -6.3019e+002  4.7472e+000 45780 90415,90467,90441
 2.6000e+000 90614 -2.9332e+002 -6.0157e+002  1.7152e+001 45780 90467,90415,90588
 2.6000e+000 90637 -2.4958e+002 -5.9216e+002  3.4045e+001 45780 90467,90588,90493
 2.6000e+000 91196 -4.5370e+002 -7.9940e+002 -7.0462e+001 45226 91219,90876,90850
 2.6000e+000 91173 -2.6825e+002 -7.5856e+002  2.9946e+001 45226 91219,90850,91032
 2.6000e+000 91150 -2.2161e+002 -8.8373e+002 -8.2487e+001 45226 90824,91032,90850
 2.6000e+000 91127 -3.2679e+002 -5.9998e+002  8.9502e+000 45226 90876,90980,90902
 2.6000e+000 91104 -2.1305e+002 -6.1132e+002  6.7191e+001 45226 90876,91006,90980
 2.6000e+000 91081 -2.8685e+002 -6.2188e+002 -3.1378e+001 45226 90902,90980,90954
 2.6000e+000 91058 -1.9952e+002 -5.3770e+002 -8.2927e+001 45226 90902,90954,90928
 2.6000e+000 91245 -2.8395e+002 -7.1887e+002 -1.1447e+001 45226 91006,90876,91219
 2.6000e+000 91268 -1.1988e+002 -7.1424e+002  7.5062e+001 45226 91006,91219,91032
 2.6000e+000 91516 -2.1196e+002 -1.0603e+003  6.1677e+001 44836 91539,91421,91395
 2.6000e+000 91493 -1.8699e+002 -1.0789e+003  1.1713e+001 44836 91317,91421,91343
 2.6000e+000 91470 -2.9758e+002 -1.0329e+003  4.0827e+001 44836 91539,91395,91369
 2.6000e+000 91447 -3.1101e+002 -8.6249e+002  1.4970e+002 44836 91291,91421,91317
 2.6000e+000 91565 -2.5265e+002 -1.0706e+003  1.7299e+001 44836 91343,91421,91539
 2.6000e+000 91588 -3.2462e+002 -1.0732e+003 -1.8320e+001 44836 91343,91539,91369
 2.6000e+000 91787 -2.0933e+002 -6.8586e+002  4.9969e+001 44432 91810,91637,91611
 2.6000e+000 91764 -2.8498e+002 -7.8592e+002  8.5558e+001 44432 91810,91611,91715
 2.6000e+000 91741 -8.3748e+001 -5.4931e+002 -2.2637e+001 44432 91637,91689,91663
 2.6000e+000 91836 -2.8675e+002 -6.3311e+002  4.4807e+001 44432 91689,91637,91810
 2.6000e+000 91859 -3.0461e+002 -6.7594e+002  5.9945e+001 44432 91689,91810,91715
 2.6000e+000 92207 -4.6596e+002 -9.1381e+002  4.3830e+001 43864 92230,91936,91910
 2.6000e+000 92184 -5.2823e+002 -9.7397e+002  6.8360e+001 43864 92230,91910,92040
 2.6000e+000 92161 -5.0228e+002 -9.5530e+002  1.1937e+002 43864 91884,92040,91910
 2.6000e+000 92138 -4.3627e+002 -7.6438e+002 -4.5222e+000 43864 91936,92014,91988
 2.6000e+000 92115 -3.5509e+002 -1.0170e+003  1.9041e+002 43864 91936,91988,91962
 2.6000e+000 92092 -4.2773e+002 -8.1036e+002  7.6209e+001 43864 91884,92066,92040
 2.6000e+000 92256 -5.4196e+002 -8.1886e+002  4.8389e+001 43864 92014,91936,92230
 2.6000e+000 92279 -6.1107e+002 -9.0024e+002  7.9303e+001 43864 92014,92230,92040
 2.6000e+000 92529 -3.8303e+002 -7.4276e+002  6.6529e+001 43410 92552,92330,92304
 2.6000e+000 92506 -3.7569e+002 -7.2849e+002  8.4647e+000 43410 92552,92304,92408
 2.6000e+000 92483 -4.0151e+002 -7.4115e+002  1.8661e+001 43410 92304,92434,92408
 2.6000e+000 92460 -1.9135e+002 -6.3471e+002  5.0427e+000 43410 92330,92382,92356
 2.6000e+000 92578 -3.4470e+002 -7.2466e+002  4.5555e+001 43410 92382,92330,92552
 2.6000e+000 92601 -2.9714e+002 -6.7673e+002 -1.9230e+001 43410 92382,92552,92408
 2.6000e+000 92802 -2.4008e+002 -9.1742e+002  7.2885e+001 43162 92825,92704,92652
 2.6000e+000 92779 -1.7926e+002 -8.7671e+002  1.7382e+002 43162 92825,92652,92626
 2.6000e+000 92756 -1.3009e+002 -9.4574e+002  7.2420e+001 43162 92652,92704,92678
 2.6000e+000 92851 -3.6996e+002 -9.3222e+002 -1.4136e+001 43162 92730,92704,92825
 2.6000e+000 92874 -4.0695e+002 -7.0144e+002  1.4787e+002 43162 92730,92825,92626
 2.6000e+000 93463 -2.0615e+002 -4.9900e+002 -1.0413e+002 42758 93140,93270,93166
 2.6000e+000 93440 -2.6108e+002 -5.6180e+002 -7.1333e+001 42758 93140,93296,93270
 2.6000e+000 93417 -1.8775e+002 -5.3022e+002 -7.6794e+001 42758 93166,93270,93218
 2.6000e+000 93394 -1.3315e+002 -5.3425e+002 -9.1410e+001 42758 93218,93270,93244
 2.6000e+000 93371 -8.4543e+001 -6.2629e+002 -6.8905e+001 42758 93140,93322,93296
 2.6000e+000 93348 -2.4632e+002 -6.2798e+002  2.0218e+001 42758 93166,93218,93192
 2.6000e+000 93920 -2.0885e+002 -6.1523e+002 -1.5693e+001 42304 93943,93672,93646
 2.6000e+000 93897 -2.1445e+002 -5.9867e+002 -1.5736e+000 42304 93943,93646,93802
 2.6000e+000 93874 -2.1219e+002 -6.0396e+002  3.5969e+001 42304 93724,93802,93776
 2.6000e+000 93851 -2.8210e+002 -7.0618e+002  3.8245e+001 42304 93672,93724,93698
 2.6000e+000 93828 -3.6369e+002 -7.0426e+002 -2.1637e+001 42304 93724,93776,93750
 2.6000e+000 93969 -2.2160e+002 -6.2139e+002 -1.7820e+001 42304 93724,93672,93943
 2.6000e+000 93992 -2.3470e+002 -6.1071e+002 -7.4559e+000 42304 93724,93943,93802
 2.6000e+000 94321 -2.4158e+002 -8.1206e+002 -1.2669e+000 41478 94096,94148,94122
 2.6000e+000 94298 -3.1652e+002 -8.6369e+002  4.7582e+001 41478 94096,94226,94148
 2.6000e+000 94275 -4.2547e+002 -1.0911e+003 -1.5539e+001 41478 94148,94226,94174
 2.6000e+000 94252 -1.7120e+002 -8.1139e+002 -1.9640e+002 41478 94174,94226,94200
 2.6000e+000 94618 -2.5018e+002 -9.3527e+002  5.4646e+000 40910 94344,94422,94396
 2.6000e+000 94595 -3.9408e+002 -9.0504e+002 -2.8421e+001 40910 94344,94448,94422
 2.6000e+000 94572 -3.4646e+002 -7.8447e+002  6.9160e+000 40910 94344,94474,94448
 2.6000e+000 94549 -1.9601e+002 -9.9737e+002 -4.8798e+001 40910 94344,94396,94370
 2.6000e+000 94526 -5.1474e+002 -1.0191e+003  8.4092e+001 40910 94344,94500,94474
 2.6000e+000 94866 -3.0507e+002 -5.9827e+002 -6.2198e+001 40306 94667,94719,94693
 2.6000e+000 94843 -3.8404e+002 -6.5977e+002 -3.5501e+001 40306 94641,94719,94667
 2.6000e+000 94820 -4.3949e+002 -6.7614e+002  1.2267e+001 40306 94641,94745,94719
 2.6000e+000 94797 -3.4327e+002 -6.1853e+002 -1.3332e+001 40306 94641,94771,94745
 2.6000e+000 95089 -2.8672e+001 -5.1444e+002  7.3512e+001 39702 94913,94991,94939
 2.6000e+000 95066 -1.5242e+001 -4.3444e+002  2.3156e+001 39702 94913,95017,94991
 2.6000e+000 95043  6.2131e+001 -4.8214e+002  2.0467e+001 39702 94939,94991,94965
 2.6000e+000 95339 -2.8222e+002 -6.3949e+002 -6.6570e+001 39248 95140,95218,95166
 2.6000e+000 95316 -3.6434e+002 -6.9345e+002 -3.6204e+001 39248 95140,95244,95218
 2.6000e+000 95293 -2.0159e+002 -7.4373e+002 -8.2214e+001 39248 95114,95244,95140
 2.6000e+000 95270 -2.3702e+002 -7.0568e+002 -1.3309e+002 39248 95166,95218,95192
 2.6000e+000 95770 -3.9485e+002 -6.9063e+002  1.7357e+001 38694 95551,95629,95577
 2.6000e+000 95747 -2.9685e+002 -8.4388e+002  1.6607e+001 38694 95447,95629,95551
 2.6000e+000 95724 -2.3550e+002 -7.2371e+002 -3.4191e+001 38694 95447,95551,95473
 2.6000e+000 95701 -1.4475e+002 -6.8066e+002 -6.1703e+001 38694 95473,95551,95499
 2.6000e+000 95678 -1.3002e+002 -6.3791e+002 -1.3652e+002 38694 95499,95551,95525
 2.6000e+000 95655 -3.9393e+002 -6.8167e+002  9.9048e+000 38694 95577,95629,95603
 2.6000e+000 96325 -3.5059e+002 -7.6241e+002  1.7730e+001 38240 95953,96031,96005
 2.6000e+000 96302 -3.3483e+002 -4.6355e+002  1.1191e+002 38240 95953,96161,96031
 2.6000e+000 96279 -2.3198e+002 -4.2829e+002 -3.9364e+001 38240 96031,96161,96135
 2.6000e+000 96256 -2.6685e+002 -5.6880e+002  9.9655e+001 38240 96348,96109,96057
 2.6000e+000 96233 -2.3110e+002 -5.1086e+002  6.7662e+001 38240 96348,96057,96031
 2.6000e+000 96210 -2.0555e+002 -5.6680e+002  1.4110e+002 38240 96057,96109,96083
 2.6000e+000 96187 -4.2526e+002 -3.6476e+002 -4.8012e+001 38240 95953,96005,95979
 2.6000e+000 96374 -2.0402e+002 -6.6828e+002  5.7716e+001 38240 96135,96109,96348
 2.6000e+000 96397 -1.4384e+002 -5.6676e+002  1.7651e+001 38240 96135,96348,96031
 2.6000e+000 96618 -3.7078e+002 -1.0346e+003 -1.1411e+000 37821 96494,96546,96520
 2.6000e+000 96595 -2.4878e+002 -9.1514e+002  5.3020e+001 37821 96468,96546,96494
 2.6000e+000 96572 -1.5384e+002 -8.7432e+002  4.5527e+001 37821 96442,96546,96468
 2.6000e+000 97126 -2.1236e+002 -5.1016e+002 -3.8871e+001 37367 97149,96855,96829
 2.6000e+000 97103 -2.4248e+002 -5.2519e+002 -2.7996e+001 37367 97149,96829,96985
 2.6000e+000 97080 -2.0253e+002 -5.4908e+002 -3.9720e+001 37367 96803,96985,96829
 2.6000e+000 97057 -1.5172e+002 -4.8150e+002 -6.4045e+001 37367 96855,96907,96881
 2.6000e+000 97034 -3.1131e+002 -4.8053e+002 -1.0929e+001 37367 96907,96985,96959
 2.6000e+000 97011 -3.6476e+002 -4.6733e+002 -5.6401e+001 37367 96907,96959,96933
 2.6000e+000 97175 -2.4035e+002 -4.9000e+002 -5.4636e+001 37367 96907,96855,97149
 2.6000e+000 97198 -2.6214e+002 -5.0353e+002 -4.5058e+001 37367 96907,97149,96985
 2.6000e+000 97704 -3.3337e+002 -7.4352e+002  9.2657e+001 36863 97727,97511,97485
 2.6000e+000 97681 -3.1478e+002 -6.7527e+002  1.0908e+002 36863 97727,97485,97433
 2.6000e+000 97658 -4.2249e+002 -8.1004e+002  2.0645e+000 36863 97381,97563,97433
 2.6000e+000 97635 -2.0530e+002 -6.6581e+002 -3.2415e+001 36863 97511,97563,97537
 2.6000e+000 97612 -1.5767e+002 -4.8338e+002  1.1499e+001 36863 97433,97485,97459
 2.6000e+000 97589 -4.9840e+002 -8.0428e+002  6.8070e+001 36863 97381,97433,97407
 2.6000e+000 97753 -3.2333e+002 -8.0228e+002  5.6281e+001 36863 97563,97511,97727
 2.6000e+000 97776 -3.1154e+002 -7.3880e+002  7.0030e+001 36863 97563,97727,97433
 2.6000e+000 98331 -3.8822e+002 -8.7146e+002 -8.8532e-001 36287 98354,98089,98063
 2.6000e+000 98308 -3.5191e+002 -8.7439e+002  5.4469e+001 36287 98354,98063,98011
 2.6000e+000 98285 -4.7307e+002 -8.0297e+002  1.1692e+002 36287 98426,97985,98115
 2.6000e+000 98262 -3.4344e+002 -9.0010e+002  4.9473e+001 36287 98011,98063,98037
 2.6000e+000 98239 -4.4457e+002 -6.9285e+002  3.8361e+001 36287 97985,98141,98115
 2.6000e+000 98216 -4.4937e+002 -6.0105e+002  9.9019e+001 36287 97959,98141,97985
 2.6000e+000 98193 -2.9454e+002 -9.6820e+002  2.2749e+002 36287 97959,98167,98141
 2.6000e+000 98380 -3.7801e+002 -8.4954e+002 -1.4291e+001 36287 98115,98089,98354
 2.6000e+000 98403 -3.5982e+002 -7.9543e+002  3.1747e+000 36287 98426,98115,98354
 2.6000e+000 98452 -6.0467e+002 -9.3158e+002  1.9553e+002 36287 98011,97985,98426
 2.6000e+000 98475 -5.0982e+002 -9.6021e+002  8.8309e+001 36287 98011,98426,98354
 2.6000e+000 99030 -4.2087e+002 -1.1067e+003 -7.0175e+001 35726 99053,98736,98710
 2.6000e+000 99007 -3.4548e+002 -9.3121e+002  1.2806e+001 35726 99053,98710,98684
 2.6000e+000 98984 -4.5978e+002 -9.0625e+002 -9.3463e+001 35726 99125,98814,98736
 2.6000e+000 98961 -3.4276e+002 -7.5799e+002 -3.1042e+001 35726 98736,98814,98788
 2.6000e+000 98938 -4.1307e+002 -8.2123e+002  5.7394e+001 35726 98684,98866,98840
 2.6000e+000 98915 -2.8229e+002 -7.3767e+002 -1.4085e+001 35726 98736,98788,98762
 2.6000e+000 98892 -2.8964e+002 -8.5164e+002  2.9782e+001 35726 98658,98866,98684
 2.6000e+000 99079 -3.5642e+002 -9.1265e+002 -3.3633e+001 35726 99125,98736,99053
 2.6000e+000 99102 -4.3589e+002 -8.1596e+002  1.1226e+001 35726 98840,99053,98684
 2.6000e+000 99151 -5.5469e+002 -9.5064e+002 -1.1650e+002 35726 98840,98814,99125
 2.6000e+000 99174 -5.0134e+002 -9.6831e+002 -4.3209e+001 35726 98840,99125,99053
 2.6000e+000 99454 -1.3505e+002 -5.7975e+002 -4.4871e+001 35222 99278,99330,99304
 2.6000e+000 99431 -1.8266e+002 -5.4342e+002  2.5978e+001 35222 99278,99382,99330
 2.6000e+000 99408 -3.4087e+002 -6.6979e+002 -3.4232e+001 35222 99330,99382,99356
 2.6000e+000 99653 -2.1121e+002 -9.9153e+002  3.6322e+000 34867 99477,99529,99503
 2.6000e+000 99630 -2.7498e+002 -7.0093e+002 -6.5660e+001 34867 99477,99581,99529
 2.6000e+000 99607 -2.9407e+002 -1.1365e+003 -3.0159e+002 34867 99529,99581,99555
 2.6000e+000 100104 -1.7020e+002 -6.6790e+002 -1.5931e+001 34363 99781,99885,99807
 2.6000e+000 100081 -2.5777e+002 -7.1704e+002  1.8986e+001 34363 99781,99963,99885
 2.6000e+000 100058 -7.7918e+001 -6.1025e+002 -3.2567e+001 34363 99885,99963,99911
 2.6000e+000 100035 -1.0471e+002 -5.8427e+002  1.3907e+001 34363 99807,99885,99859
 2.6000e+000 100012 -8.1669e+001 -6.0277e+002 -8.4535e+001 34363 99911,99963,99937
 2.6000e+000 99989 -2.2692e+001 -5.4033e+002  4.5453e+001 34363 99807,99859,99833
 2.6000e+000 100303 -3.2362e+002 -6.0504e+002 -1.3916e+002 33909 100127,100205,100179
 2.6000e+000 100280 -4.8873e+002 -6.8887e+002 -1.0916e+002 33909 100127,100231,100205
 2.6000e+000 100257 -4.1436e+002 -7.6232e+002 -5.6956e+001 33909 100127,100179,100153
 2.6000e+000 100890 -1.9511e+002 -6.7537e+002 -7.8911e+001 33412 100645,100749,100697
 2.6000e+000 100867 -2.1895e+002 -8.3488e+002 -6.1229e+001 33412 100567,100749,100645
 2.6000e+000 100844 -2.1230e+002 -8.3151e+002 -6.6538e+001 33412 100567,100645,100619
 2.6000e+000 100821 -1.8820e+002 -7.8463e+002 -1.4599e+002 33412 100645,100697,100671
 2.6000e+000 100798 -2.7979e+002 -1.1219e+003 -2.2292e+001 33412 100567,100619,100593
 2.6000e+000 100775 -3.7328e+002 -7.0146e+002 -2.4220e+001 33412 100697,100749,100723
 2.6000e+000 101268 -2.1368e+002 -8.6129e+002  1.8819e+000 32908 101435,101291,101098
 2.6000e+000 101245 -3.2105e+002 -8.4515e+002  4.4622e+001 32908 101291,101072,101020
 2.6000e+000 101222 -3.2447e+002 -8.9621e+002 -9.9822e+001 32908 101363,101150,101124
 2.6000e+000 101199 -3.8792e+002 -9.1881e+002  1.6665e+002 32908 101020,101072,101046
 2.6000e+000 101176 -1.7886e+002 -7.3251e+002 -3.2143e+001 32908 100994,101150,101020
 2.6000e+000 101317 -2.1320e+002 -8.8888e+002  1.6368e+001 32908 101124,101098,101291
 2.6000e+000 101340 -2.7097e+002 -9.4167e+002 -8.6440e+000 32908 101363,101124,101291
 2.6000e+000 101389 -2.6133e+002 -8.0356e+002 -6.5524e+001 32908 101020,101150,101363
 2.6000e+000 101412 -2.1020e+002 -8.0855e+002  2.4315e+001 32908 101020,101363,101291
 2.6000e+000 101461 -1.9232e+002 -7.8180e+002  7.8079e+001 32908 101072,101291,101435
 2.6000e+000 101918 -1.9837e+002 -8.2468e+002 -7.4616e+001 32618 101941,101670,101644
 2.6000e+000 101895 -6.3863e+001 -8.1425e+002  1.8447e+001 32618 101941,101644,101774
 2.6000e+000 101872 -3.2779e+002 -7.1872e+002 -1.3216e+001 32618 102013,101696,101670
 2.6000e+000 101849 -6.9088e+001 -5.4739e+002 -9.8317e+001 32618 101696,101748,101722
 2.6000e+000 101826 -4.0070e+001 -7.8044e+002  7.1952e+000 32618 101644,101800,101774
 2.6000e+000 101967 -3.2304e+002 -8.2000e+002 -6.8198e+001 32618 102013,101670,101941
 2.6000e+000 101990 -2.6189e+002 -9.1513e+002  5.4365e+001 32618 101748,101941,101774
 2.6000e+000 102039 -2.9640e+002 -6.8196e+002  6.0031e+000 32618 101748,101696,102013
 2.6000e+000 102062 -1.8264e+002 -7.1909e+002 -2.0331e+001 32618 101748,102013,101941
 2.6000e+000 102440 -4.7561e+002 -1.0135e+003  7.6198e+001 32306 102463,102270,102244
 2.6000e+000 102417 -4.9021e+002 -1.0223e+003  5.3777e+000 32306 102463,102244,102192
 2.6000e+000 102394 -4.6230e+002 -9.0385e+002 -8.9504e+000 32306 102192,102244,102218
 2.6000e+000 102371 -3.0183e+002 -9.4025e+002  6.6843e+001 32306 102270,102322,102296
 2.6000e+000 102348 -2.3280e+002 -1.1480e+003 -7.2086e+001 32306 102166,102322,102192
 2.6000e+000 102489 -3.9741e+002 -9.9245e+002  9.7435e+001 32306 102322,102270,102463
 2.6000e+000 102512 -4.1134e+002 -1.0124e+003  2.2433e+001 32306 102322,102463,102192
 2.6000e+000 102662 -2.2107e+002 -8.2643e+002 -1.3382e+001 31852 102943,102587,102561
 2.6000e+000 102639 -1.3174e+002 -7.1083e+002  2.6003e+001 31852 102815,102685,102561
 2.6000e+000 102711 -2.5493e+002 -8.6783e+002 -3.1956e+001 31852 102943,102561,102685
 2.6000e+000 102841 -1.1658e+002 -5.9806e+002  8.4366e+001 31852 102535,102685,102815
 2.6000e+000 102969 -2.2628e+002 -8.6742e+002 -5.0951e+001 31852 102613,102587,102943
 2.6000e+000 102992 -2.5961e+002 -9.0462e+002 -6.9474e+001 31852 102613,102943,102685
 2.6000e+000 103370 -4.6046e+002 -1.0165e+003  3.9386e+001 31134 103096,103200,103122
 2.6000e+000 103347 -5.5880e+002 -1.2704e+003  1.1188e+002 31134 103096,103226,103200
 2.6000e+000 103324 -5.3959e+002 -1.0406e+003  4.1616e+001 31134 103122,103200,103174
 2.6000e+000 103301 -2.9765e+002 -1.0708e+003  1.4226e+001 31134 103096,103252,103226
 2.6000e+000 103278 -3.7624e+002 -1.1651e+003 -1.3690e+002 31134 103122,103174,103148
 2.6000e+000 103520 -1.2811e+002 -1.1906e+003  5.5022e-001 30822 103393,103445,103419
 2.6000e+000 103497 -4.5022e+001 -6.5766e+002  3.4389e+001 30822 103393,103471,103445
 2.6000e+000 103719 -1.8505e+002 -7.3979e+002  1.5981e+001 30182 103742,103621,103569
 2.6000e+000 103696 -2.4221e+002 -7.6154e+002 -5.2981e-001 30182 103742,103569,103543
 2.6000e+000 103673 -2.0147e+002 -7.4504e+002  2.2450e+001 30182 103569,103621,103595
 2.6000e+000 103768 -1.2821e+002 -7.6894e+002  3.3508e+001 30182 103647,103621,103742
 2.6000e+000 103791 -1.6871e+002 -7.8769e+002  1.0735e+001 30182 103647,103742,103543
 2.6000e+000 104252 -4.2436e+002 -7.9895e+002  3.4115e+001 29728 104030,104108,104056
 2.6000e+000 104229 -3.0471e+002 -5.4261e+002  6.5569e+001 29728 104004,104108,104030
 2.6000e+000 104206 -2.2933e+002 -5.9787e+002  5.1709e+001 29728 104004,104134,104108
 2.6000e+000 104183 -3.2653e+002 -6.9438e+002 -5.8218e+001 29728 103978,104134,104004
 2.6000e+000 104160 -2.1559e+002 -7.4149e+002 -5.2922e+001 29728 104056,104108,104082
 2.6000e+000 104630 -2.7125e+002 -8.3449e+002 -9.0896e+001 29217 104653,104382,104356
 2.6000e+000 104607 -2.1777e+002 -7.3747e+002 -2.0546e+001 29217 104653,104356,104512
 2.6000e+000 104584 -3.5830e+002 -8.3276e+002 -9.4495e+001 29217 104434,104512,104486
 2.6000e+000 104561 -2.2557e+002 -8.8729e+002 -1.3147e+002 29217 104382,104434,104408
 2.6000e+000 104538 -1.6220e+002 -6.0094e+002  3.2455e+001 29217 104434,104486,104460
 2.6000e+000 104679 -3.0054e+002 -8.4744e+002 -1.3101e+002 29217 104434,104382,104653
 2.6000e+000 104702 -2.9519e+002 -8.0991e+002 -6.8082e+001 29217 104434,104653,104512
 2.6000e+000 105178 -2.7583e+002 -8.4137e+002  2.3855e+001 28649 105201,104962,104936
 2.6000e+000 105155 -2.8561e+002 -8.2413e+002  3.1163e+001 28649 105201,104936,104884
 2.6000e+000 105132 -3.0752e+002 -7.6432e+002 -6.1446e+001 28649 105273,104858,105014
 2.6000e+000 105109 -4.4702e+002 -8.8259e+002  2.8071e+001 28649 104962,105014,104988
 2.6000e+000 105086 -1.7165e+002 -7.0265e+002 -9.0223e+001 28649 104884,104936,104910
 2.6000e+000 105063 -3.1055e+002 -6.9540e+002 -2.1040e+001 28649 104806,105014,104858
 2.6000e+000 105040 -3.8356e+002 -6.8036e+002 -5.9178e+001 28649 104806,104858,104832
 2.6000e+000 105227 -2.6107e+002 -8.4367e+002  1.6162e+001 28649 105014,104962,105201
 2.6000e+000 105250 -2.3042e+002 -7.9440e+002 -7.0833e+000 28649 105273,105014,105201
 2.6000e+000 105299 -3.9065e+002 -8.0171e+002 -5.2460e+001 28649 104884,104858,105273
 2.6000e+000 105322 -3.6205e+002 -8.5793e+002  1.2981e+001 28649 104884,105273,105201
 2.6000e+000 105673 -4.4423e+001 -7.8804e+002  9.7301e+000 28351 105474,105578,105552
 2.6000e+000 105650  1.6583e+001 -5.3411e+002 -1.2374e+001 28351 105448,105578,105474
 2.6000e+000 105627 -1.7263e+000 -7.3586e+002  5.6999e+000 28351 105500,105552,105526
 2.6000e+000 105604 -1.5599e+001 -7.7388e+002  4.7487e+000 28351 105474,105552,105500
 2.6000e+000 106130 -3.3910e+002 -5.3397e+002 -1.5817e+002 28004 106153,105882,105856
 2.6000e+000 106107 -3.0718e+002 -7.1115e+002 -9.7622e+001 28004 106153,105856,105986
 2.6000e+000 106084 -5.7626e+002 -7.8373e+002  3.9665e+001 28004 105934,105986,105960
 2.6000e+000 106061 -4.5787e+002 -8.2907e+002 -3.2350e+001 28004 105856,106012,105986
 2.6000e+000 106038 -5.5635e+002 -8.2825e+002 -6.9300e+001 28004 105882,105934,105908
 2.6000e+000 106179 -4.9162e+002 -6.7934e+002 -7.7107e+001 28004 105934,105882,106153
 2.6000e+000 106202 -3.4132e+002 -7.6868e+002 -4.5138e+001 28004 105934,106153,105986
 2.6000e+000 106885 -4.7375e+002 -6.9627e+002 -1.8406e+001 27564 106908,106620,106516
 2.6000e+000 106862 -4.6651e+002 -6.6996e+002 -5.0783e+000 27564 106908,106516,106490
 2.6000e+000 106839 -4.2715e+002 -6.5050e+002 -7.7296e+001 27564 106516,106620,106542
 2.6000e+000 106816 -4.3718e+002 -5.4497e+002 -3.2395e+001 27564 106620,106672,106646
 2.6000e+000 106793 -3.3483e+002 -7.2817e+002 -1.2949e+002 27564 106542,106620,106594
 2.6000e+000 106770 -4.5948e+002 -6.0005e+002  4.0172e+001 27564 106490,106698,106672
 2.6000e+000 106747 -3.6453e+002 -6.8378e+002  1.3132e+002 27564 106464,106698,106490
 2.6000e+000 106724 -6.5148e+001 -5.7390e+002 -1.9515e+002 27564 106542,106594,106568
 2.6000e+000 106934 -4.9160e+002 -6.7253e+002 -2.5099e+001 27564 106672,106620,106908
 2.6000e+000 106957 -4.8526e+002 -6.4417e+002 -1.9501e+001 27564 106672,106908,106490
 2.6000e+000 107463 -3.5745e+002 -7.3367e+002 -6.1871e+000 27053 107218,107322,107296
 2.6000e+000 107440 -4.2037e+002 -8.7515e+002  2.2811e+001 27053 107166,107322,107218
 2.6000e+000 107417 -3.6832e+002 -8.5000e+002 -1.5006e+001 27053 107218,107296,107244
 2.6000e+000 107394 -4.0541e+002 -7.0111e+002  7.0948e+001 27053 107140,107322,107166
 2.6000e+000 107371 -3.9899e+002 -8.9072e+002  2.6912e+001 27053 107166,107218,107192
 2.6000e+000 107348 -3.6967e+002 -1.1013e+003 -1.1205e+002 27053 107244,107296,107270
 2.6000e+000 108097 -3.4909e+002 -8.6211e+002 -4.8330e+001 26549 108192,108120,107803
 2.6000e+000 108074 -3.1833e+002 -9.8175e+002  6.0175e+001 26549 108120,107725,107933
 2.6000e+000 108051 -1.1641e+002 -1.1642e+003  6.2359e+001 26549 107751,107803,107777
 2.6000e+000 108028 -3.4260e+002 -9.2386e+002 -6.6627e+001 26549 108192,107803,107751
 2.6000e+000 108005 -2.1665e+002 -5.9602e+002 -6.6440e+000 26549 108264,107855,107803
 2.6000e+000 107982 -1.0841e+002 -6.7374e+002 -3.5524e+001 26549 107881,107933,107907
 2.6000e+000 107959 -2.9221e+002 -6.3677e+002  1.0008e+001 26549 107803,107855,107829
 2.6000e+000 108146 -2.7691e+002 -6.8920e+002 -4.3710e+001 26549 108264,107803,108120
 2.6000e+000 108169 -2.5679e+002 -8.2272e+002  2.3939e+001 26549 107881,108120,107933
 2.6000e+000 108218 -3.3398e+002 -7.9862e+002 -3.6403e+000 26549 107725,108120,108192
 2.6000e+000 108241 -3.2282e+002 -8.4616e+002 -2.4895e+001 26549 107725,108192,107751
 2.6000e+000 108290 -1.4314e+002 -7.1699e+002 -3.0182e+001 26549 107881,107855,108264
 2.6000e+000 108313 -1.9510e+002 -8.2043e+002 -5.6623e+001 26549 107881,108264,108120
 2.6000e+000 108512 -2.5532e+002 -1.0036e+003 -6.8811e+001 26137 108388,108440,108414
 2.6000e+000 108489 -1.5933e+002 -8.4433e+002 -9.8025e+000 26137 108362,108440,108388
 2.6000e+000 108466 -2.1307e+002 -8.9772e+002 -3.1734e+001 26137 108336,108440,108362
 2.6000e+000 108662 -2.7951e+002 -7.7332e+002 -6.3984e+001 25733 108817,108685,108535
 2.6000e+000 108639 -1.9140e+002 -8.3503e+002 -1.9454e+001 25733 109017,108817,108535
 2.6000e+000 108711 -3.0526e+002 -7.2978e+002 -2.7152e+001 25733 108561,108535,108685
 2.6000e+000 108843 -1.8763e+002 -7.6121e+002 -1.7149e+001 25733 108587,108685,108817
 2.6000e+000 108866 -1.6955e+002 -7.5220e+002 -6.3377e+000 25733 108889,108817,108613
 2.6000e+000 108915 -1.6016e+002 -7.3689e+002 -2.9508e+001 25733 108587,108817,108889
 2.6000e+000 109043 -1.5792e+002 -6.4370e+002  8.1958e+000 25733 108613,108817,109017
 2.6000e+000 109500 -5.3480e+002 -9.7069e+002  8.9831e+001 25229 109523,109356,109330
 2.6000e+000 109477 -3.1261e+002 -7.6220e+002 -4.3894e+001 25229 109595,109523,109330
 2.6000e+000 109454 -3.0645e+002 -7.0863e+002 -9.2856e+001 25229 109595,109330,109278
 2.6000e+000 109431 -3.2721e+002 -7.4380e+002 -5.7880e+001 25229 109667,109226,109382
 2.6000e+000 109408 -3.3416e+002 -7.7038e+002 -1.2968e+002 25229 109278,109330,109304
 2.6000e+000 109549 -1.6228e+002 -7.9646e+002  3.7034e+001 25229 109382,109356,109523
 2.6000e+000 109572 -2.8665e+002 -8.0961e+002 -6.9176e+001 25229 109667,109382,109523
 2.6000e+000 109621 -3.4854e+002 -8.8374e+002 -6.7502e+001 25229 109252,109523,109595
 2.6000e+000 109644 -2.2979e+002 -7.3780e+002 -3.7701e+001 25229 109739,109595,109278
 2.6000e+000 109693 -4.3755e+002 -8.5568e+002 -1.1811e+001 25229 109252,109226,109667
 2.6000e+000 109716 -3.4724e+002 -8.9103e+002 -4.2679e+001 25229 109252,109667,109523
 2.6000e+000 109765 -4.1060e+002 -8.1036e+002 -4.1303e+001 25229 109252,109595,109739
 2.6000e+000 110478 -2.6413e+002 -7.2000e+002  1.0526e+002 24917 110158,110236,110184
 2.6000e+000 110455 -3.7119e+002 -7.9775e+002 -3.4942e+000 24917 110158,110288,110236
 2.6000e+000 110432 -2.2527e+002 -9.5409e+002  1.5599e+001 24917 110236,110288,110262
 2.6000e+000 110409 -2.0866e+002 -8.1050e+002  1.1724e+002 24917 110184,110236,110210
 2.6000e+000 110386 -4.7412e+002 -8.9527e+002 -6.4459e+001 24917 110132,110288,110158
 2.6000e+000 110363 -4.2439e+002 -8.4252e+002  1.3321e+001 24917 110132,110314,110288
 2.6000e+000 110340 -4.6877e+002 -1.0030e+003  1.3638e+002 24917 110106,110314,110132
 2.6000e+000 110829 -1.4232e+002 -5.8085e+002 -2.4475e+001 24307 110604,110682,110630
 2.6000e+000 110806 -3.9109e+002 -1.1017e+003  6.6120e+001 24307 110604,110708,110682
 2.6000e+000 110783 -1.1961e+002 -9.8404e+002  4.8151e+001 24307 110604,110734,110708
 2.6000e+000 110760 -3.5942e+001 -5.3529e+002 -2.8297e+001 24307 110630,110682,110656
 2.6000e+000 111335 -2.3600e+002 -6.7357e+002 -9.5434e+001 23767 111012,111168,111038
 2.6000e+000 111312 -2.6329e+002 -7.4100e+002 -8.7721e+001 23767 111012,111194,111168
 2.6000e+000 111289 -4.5744e+002 -8.6879e+002  8.9481e+001 23767 111358,111064,111038
 2.6000e+000 111266 -3.2442e+002 -7.9989e+002 -2.3180e+001 23767 111358,111038,111168
 2.6000e+000 111243 -2.1110e+002 -7.3644e+002 -2.1041e+001 23767 111430,111142,111090
 2.6000e+000 111220 -5.2539e+000 -6.4716e+002  9.7291e+000 23767 111090,111142,111116
 2.6000e+000 111384 -3.6720e+002 -8.0734e+002 -1.5451e+001 23767 111090,111064,111358
 2.6000e+000 111407 -3.6773e+002 -7.5739e+002 -4.1026e+001 23767 111430,111090,111358
 2.6000e+000 111456 -6.4554e+001 -7.9668e+002 -5.8310e+001 23767 111168,111142,111430
 2.6000e+000 111479 -1.5370e+002 -7.6681e+002 -6.6637e+001 23767 111168,111430,111358
 2.6000e+000 111985 -2.1472e+002 -5.4629e+002  7.1323e+001 23477 111688,111844,111818
 2.6000e+000 111962 -1.9502e+002 -5.6653e+002 -7.9011e+001 23477 111662,111844,111688
 2.6000e+000 111939 -1.3601e+002 -9.2885e+002  1.0647e+002 23477 111766,111818,111792
 2.6000e+000 111916 -3.8309e+002 -8.6558e+002  6.4873e+001 23477 111740,111818,111766
 2.6000e+000 111893 -2.2179e+002 -4.8408e+002  8.3059e+001 23477 111688,111818,111740
 2.6000e+000 111870 -3.6876e+002 -6.3779e+002  1.5694e+002 23477 111688,111740,111714
 2.6000e+000 112314 -3.0347e+002 -6.1005e+002  1.5364e+000 23023 112141,112219,112193
 2.6000e+000 112291 -2.6178e+002 -5.9116e+002 -2.0193e+001 23023 112115,112219,112141
 2.6000e+000 112268 -2.5990e+002 -7.1127e+002  7.1192e+001 23023 112141,112193,112167
 2.6000e+000 112245 -2.7121e+002 -6.4581e+002 -2.3001e+001 23023 112089,112219,112115
 2.6000e+000 112692 -3.0618e+002 -7.8535e+002 -2.4356e+001 22768 112444,112574,112548
 2.6000e+000 112669 -2.4044e+002 -7.9899e+002  7.0221e-001 22768 112418,112574,112444
 2.6000e+000 112646 -3.8445e+002 -8.3475e+002  6.5423e+000 22768 112444,112522,112470
 2.6000e+000 112623 -2.9928e+002 -7.8245e+002 -2.4283e+001 22768 112444,112548,112522
 2.6000e+000 112600 -9.7530e+001 -7.0545e+002 -5.8288e+001 22768 112470,112522,112496
 2.6000e+000 113011 -1.5086e+002 -8.2055e+002 -5.9943e+001 22314 112763,112867,112789
 2.6000e+000 112988 -5.4498e+001 -8.3400e+002 -7.7498e+001 22314 112763,112893,112867
 2.6000e+000 112965 -1.5073e+002 -8.1474e+002  0.0000e+000 22314 112815,112867,112841
 2.6000e+000 112942 -2.0881e+002 -8.5203e+002 -4.1083e+001 22314 112789,112867,112815
 2.6000e+000 112919 -4.6847e+001 -6.4326e+002  1.7365e+002 22314 112737,112893,112763
 2.6000e+000 113519 -4.9931e+001 -6.3428e+002  1.4575e+002 21924 113614,113542,113248
 2.6000e+000 113496 -1.4237e+002 -6.2464e+002  6.0343e+001 21924 113542,113196,113378
 2.6000e+000 113473 -1.1709e+002 -6.4810e+002  1.5284e+002 21924 113614,113248,113222
 2.6000e+000 113450 -1.3819e+002 -8.8757e+002  5.0132e+001 21924 113686,113274,113248
 2.6000e+000 113427 -2.5703e+002 -9.5044e+002 -4.8862e+001 21924 113274,113352,113326
 2.6000e+000 113404 -4.2728e+002 -1.2473e+003 -1.1747e+002 21924 113274,113326,113300
 2.6000e+000 113568 -4.3724e+001 -7.5744e+002  1.0055e+002 21924 113686,113248,113542
 2.6000e+000 113591 -1.2256e+002 -5.7146e+002  6.6866e+001 21924 113352,113542,113378
 2.6000e+000 113640 -1.1594e+002 -6.3627e+002  1.1877e+002 21924 113196,113542,113614
 2.6000e+000 113663 -1.4084e+002 -6.2300e+002  1.1732e+002 21924 113196,113614,113222
 2.6000e+000 113712 -2.3879e+002 -7.4162e+002 -9.6937e+000 21924 113352,113274,113686
 2.6000e+000 113735 -1.9100e+002 -6.7437e+002  2.6751e+001 21924 113352,113686,113542
 2.6000e+000 113885 -5.1560e+002 -7.2622e+002 -7.6110e-001 21520 113980,113908,113784
 2.6000e+000 113862 -4.3520e+002 -6.9438e+002 -1.1519e+002 21520 114238,113908,113758
 2.6000e+000 113934 -3.5040e+002 -5.9274e+002  6.3878e+001 21520 114110,113908,113810
 2.6000e+000 113957 -3.0204e+002 -7.2279e+002 -7.2842e+001 21520 113810,113908,113836
 2.6000e+000 114006 -3.9335e+002 -6.2196e+002 -4.5524e+001 21520 113758,113908,113980
 2.6000e+000 114136 -4.9342e+002 -7.1536e+002  2.6587e+000 21520 113784,113908,114110
 2.6000e+000 114264 -5.4003e+002 -8.2588e+002 -1.6493e+002 21520 113836,113908,114238
 2.6000e+000 114662 -3.8221e+002 -9.7920e+002  1.3339e+001 21030 114414,114518,114492
 2.6000e+000 114639 -1.6072e+002 -7.8876e+002 -7.8298e+001 21030 114414,114544,114518
 2.6000e+000 114616 -4.8870e+002 -1.0304e+003 -1.4330e+001 21030 114440,114492,114466
 2.6000e+000 114593 -3.8753e+002 -9.9239e+002  1.1345e+001 21030 114414,114492,114440
 2.6000e+000 114570 -2.7482e+002 -8.1488e+002 -1.5591e+001 21030 114388,114544,114414
 2.6000e+000 114959 -6.1824e+002 -1.0275e+003  7.1472e+001 20512 114982,114711,114685
 2.6000e+000 114936 -5.6858e+002 -9.9247e+002 -1.9712e+001 20512 115054,114982,114685
 2.6000e+000 114913 -4.6683e+002 -8.8741e+002 -6.3157e+001 20512 115054,114685,114841
 2.6000e+000 114890 -3.7694e+002 -9.4396e+002  2.2966e+001 20512 114711,114763,114737
 2.6000e+000 114867 -2.2078e+002 -8.7595e+002  1.4891e+001 20512 114763,114815,114789
 2.6000e+000 115008 -5.3434e+002 -1.0108e+003  4.0352e+001 20512 114763,114711,114982
 2.6000e+000 115031 -4.8213e+002 -9.8154e+002 -2.2114e+001 20512 114763,114982,114815
 2.6000e+000 115080 -5.1752e+002 -1.0254e+003  3.9480e+000 20512 114815,114982,115054
 2.6000e+000 115103 -5.1778e+002 -1.0132e+003  2.8831e+000 20512 114815,115054,114841
 2.6000e+000 115507 -4.5100e+002 -8.9564e+002 -2.8613e+001 20143 115285,115389,115363
 2.6000e+000 115484 -5.1993e+002 -1.0211e+003 -1.5022e+000 20143 115259,115389,115285
 2.6000e+000 115461 -4.6788e+002 -8.6750e+002 -1.4157e+000 20143 115233,115389,115259
 2.6000e+000 115438 -4.2817e+002 -1.0617e+003  2.9128e+001 20143 115285,115337,115311
 2.6000e+000 115415 -6.0189e+002 -1.2384e+003 -5.2929e+001 20143 115285,115363,115337
 2.6000e+000 115875 -3.5976e+002 -8.3339e+002  1.2755e+000 19632 115656,115734,115682
 2.6000e+000 115852 -1.6662e+002 -7.5718e+002  9.8106e+001 19632 115552,115734,115656
 2.6000e+000 115829 -1.8163e+002 -7.5899e+002 -6.3927e+001 19632 115552,115656,115578
 2.6000e+000 115806 -3.5384e+002 -8.6004e+002  7.1168e+000 19632 115578,115656,115630
 2.6000e+000 115783 -3.9062e+002 -7.8843e+002  4.5238e+001 19632 115682,115734,115708
 2.6000e+000 115760 -4.3292e+002 -8.7864e+002 -8.2089e+001 19632 115578,115630,115604
 2.6000e+000 116025 -2.1008e+002 -8.5429e+002 -1.5914e+002 19178 115898,115950,115924
 2.6000e+000 116002 -2.7872e+002 -8.5617e+002 -8.3572e+001 19178 115898,115976,115950
 2.6000e+000 116633 -3.0042e+002 -8.2822e+002 -1.2729e+001 18738 116800,116656,116342
 2.6000e+000 116610 -3.1245e+002 -8.7601e+002  2.9019e+001 18738 116656,116238,116446
 2.6000e+000 116587 -3.6981e+002 -8.4528e+002 -4.7442e+001 18738 116728,116368,116342
 2.6000e+000 116564 -2.9516e+002 -7.9904e+002 -3.0149e+001 18738 116800,116342,116264
 2.6000e+000 116541 -3.3543e+002 -1.1670e+003  1.0090e+002 18738 116212,116446,116238
 2.6000e+000 116518 -7.0203e+001 -5.8585e+002  2.1483e+001 18738 116394,116446,116420
 2.6000e+000 116495  1.1695e+002 -6.6328e+002 -1.1442e+002 18738 116264,116342,116316
 2.6000e+000 116472 -1.3762e+002 -8.9061e+002  9.2243e+001 18738 116264,116316,116290
 2.6000e+000 116682 -3.5579e+002 -8.2846e+002  1.7978e+001 18738 116728,116342,116656
 2.6000e+000 116705 -3.1291e+002 -6.9962e+002  5.3232e+001 18738 116394,116656,116446
 2.6000e+000 116754 -4.7480e+002 -8.8600e+002 -8.1809e+001 18738 116394,116368,116728
 2.6000e+000 116777 -4.6910e+002 -8.6773e+002 -1.4538e+001 18738 116394,116728,116656
 2.6000e+000 116826 -2.9198e+002 -8.8534e+002  9.0317e+000 18738 116238,116656,116800
 2.6000e+000 116849 -2.7338e+002 -8.4841e+002 -1.2956e+001 18738 116238,116800,116264
 2.6000e+000 116999 -2.7351e+002 -8.7128e+002  3.6185e+001 18184 116872,116924,116898
 2.6000e+000 116976 -2.7253e+002 -4.7248e+002 -1.6824e+001 18184 116872,116950,116924
 2.6000e+000 117330 -6.0717e+001 -1.0478e+003  6.9134e+001 17694 117157,117235,117183
 2.6000e+000 117307 -3.3134e+002 -1.1837e+003  1.0161e+001 17694 117131,117235,117157
 2.6000e+000 117284 -2.3008e+002 -1.3184e+003 -6.4539e+001 17694 117105,117235,117131
 2.6000e+000 117261  1.4210e+002 -6.6212e+002 -3.0199e+001 17694 117183,117235,117209
 2.6000e+000 117480 -4.0238e+002 -9.4080e+002 -1.1371e+002 17290 117353,117405,117379
 2.6000e+000 117457 -2.0033e+002 -1.0469e+003 -1.2177e+002 17290 117353,117431,117405
 2.6000e+000 117679 -9.9719e+001 -7.5535e+002 -3.4097e+001 16718 117555,117607,117581
 2.6000e+000 117656 -3.7794e+002 -9.4870e+002  5.1552e+001 16718 117529,117607,117555
 2.6000e+000 117633  1.8915e+001 -9.1990e+002  3.6726e+001 16718 117503,117607,117529
 2.6000e+000 117782 -2.4649e+002 -8.4559e+002  2.2282e+001 16520 117704,117756,117730
 2.6000e+000 117983 -2.5258e+002 -1.0597e+003 -3.1140e+000 16208 117859,117911,117885
 2.6000e+000 117960 -2.1129e+002 -1.0341e+003 -1.4617e+001 16208 117833,117911,117859
 2.6000e+000 117937 -1.4260e+002 -9.3617e+002  2.9318e+001 16208 117807,117911,117833
 2.6000e+000 118135 -6.1884e+002 -1.0112e+003 -1.2350e+002 15674 118034,118086,118060
 2.6000e+000 118112 -3.0419e+002 -7.8322e+002  1.9914e+001 15674 118008,118086,118034
 2.6000e+000 118238 -9.9069e+001 -7.8976e+002  4.3775e+001 15355 118160,118212,118186
 2.6000e+000 118341 -5.0961e+002 -1.0076e+003  2.0903e+002 421 118263,118315,118289
 2.7000e+000 68152 -2.4343e+002 -8.9190e+002 -5.9145e+001 67838 68074,68126,68100
 2.7000e+000 68550 -1.0615e+002 -1.1260e+003  2.9122e+001 67526 68276,68380,68302
 2.7000e+000 68527 -1.9145e+001 -1.1411e+003  4.4217e+000 67526 68276,68406,68380
 2.7000e+000 68504 -1.2001e+002 -1.0099e+003  9.7453e+000 67526 68328,68380,68354
 2.7000e+000 68481 -6.0239e+001 -1.0190e+003  2.7459e+001 67526 68302,68380,68328
 2.7000e+000 68458 -5.7344e+001 -1.2259e+003 -1.5571e+001 67526 68276,68432,68406
 2.7000e+000 68651 -5.1270e+002 -8.5880e+002  1.3101e+002 67328 68573,68625,68599
 2.7000e+000 68970 -1.7355e+002 -8.1260e+002 -1.8090e+000 67016 68722,68800,68774
 2.7000e+000 68947 -1.8360e+002 -8.0805e+002 -1.9783e+001 67016 68722,68826,68800
 2.7000e+000 68924 -2.7719e+002 -8.1421e+002  3.6547e+000 67016 68696,68826,68722
 2.7000e+000 68901 -9.5405e+001 -8.6346e+002 -5.2721e+001 67016 68722,68774,68748
 2.7000e+000 68878 -3.7733e+002 -7.8183e+002 -1.2627e+002 67016 68696,68852,68826
 2.7000e+000 69291 -4.1439e+002 -9.8996e+002 -1.8796e+001 66654 69069,69147,69095
 2.7000e+000 69268 -2.9868e+002 -1.1169e+003  2.5855e+001 66654 69069,69173,69147
 2.7000e+000 69245 -4.1956e+002 -1.0099e+003  1.6472e+002 66654 69043,69173,69069
 2.7000e+000 69222 -5.6964e+002 -1.2041e+003  8.1344e+001 66654 69095,69147,69121
 2.7000e+000 69199 -5.5316e+002 -1.0853e+003  1.1728e+001 66654 69017,69173,69043
 2.7000e+000 69695 -1.6869e+002 -1.2303e+003  3.2300e+001 66456 69447,69577,69551
 2.7000e+000 69672  7.6605e+000 -1.0714e+003 -4.3790e+001 66456 69421,69577,69447
 2.7000e+000 69649  5.5919e+000 -7.6656e+002 -1.1373e+002 66456 69473,69551,69525
 2.7000e+000 69626 -1.0339e+002 -1.0931e+003  8.4354e+000 66456 69447,69551,69473
 2.7000e+000 69603  1.0241e+002 -6.6221e+002 -2.4760e+002 66456 69473,69525,69499
 2.7000e+000 70024 -3.1564e+002 -9.3216e+002 -1.2446e+001 66258 70047,69851,69825
 2.7000e+000 70001 -3.2806e+002 -9.0522e+002  3.3801e+001 66258 70047,69825,69903
 2.7000e+000 69978 -4.4502e+002 -1.1570e+003  1.0203e+002 66258 69799,69903,69825
 2.7000e+000 69955 -1.7188e+002 -1.4638e+003  2.8709e+002 66258 69799,69929,69903
 2.7000e+000 70073 -3.6843e+002 -9.4289e+002 -3.4718e+001 66258 69877,69851,70047
 2.7000e+000 70096 -3.8822e+002 -9.1193e+002  1.2896e+001 66258 69877,70047,69903
 2.7000e+000 70602  3.8005e+001 -6.6358e+002 -1.4199e+002 66060 70305,70435,70331
 2.7000e+000 70579 -4.5195e+002 -1.0975e+003  5.1213e+001 66060 70279,70435,70305
 2.7000e+000 70556 -4.7592e+002 -8.2806e+002 -1.7643e+002 66060 70331,70435,70409
 2.7000e+000 70533 -3.1378e+002 -8.4616e+002  1.5033e+002 66060 70279,70461,70435
 2.7000e+000 70510 -1.4052e+002 -6.0201e+002 -3.3680e+002 66060 70331,70409,70357
 2.7000e+000 70487 -7.1424e+000 -6.4451e+002 -8.6052e+001 66060 70357,70409,70383
 2.7000e+000 70703 -1.0309e+003 -1.6011e+003 -5.6438e+001 65862 70625,70677,70651
 2.7000e+000 71083 -2.4746e+002 -9.6453e+002  5.1627e+001 65664 70887,70965,70939
 2.7000e+000 71060 -1.4616e+002 -9.7597e+002  2.6382e+001 65664 70861,70965,70887
 2.7000e+000 71037 -1.8129e+002 -1.0151e+003  6.2888e+000 65664 70809,70965,70861
 2.7000e+000 71014 -1.6483e+002 -1.0297e+003 -2.4045e+001 65664 70809,70861,70835
 2.7000e+000 70991 -2.3316e+002 -9.6801e+002  1.1073e+001 65664 70887,70939,70913
 2.7000e+000 71611 -4.8678e+002 -1.4151e+003 -7.0572e+001 65260 71288,71444,71314
 2.7000e+000 71588 -2.7688e+002 -1.2728e+003 -7.5375e+000 65260 71288,71470,71444
 2.7000e+000 71565 -1.2935e+002 -8.4338e+002  7.7309e+001 65260 71314,71418,71392
 2.7000e+000 71542 -4.2493e+002 -1.2394e+003 -5.4195e+001 65260 71314,71444,71418
 2.7000e+000 71519 -4.3522e+002 -9.4439e+002  1.0115e+002 65260 71314,71392,71340
 2.7000e+000 71496 -3.0447e+002 -6.9391e+002  2.7756e+002 65260 71340,71392,71366
 2.7000e+000 72060 -3.4102e+002 -7.5465e+002 -4.2620e+001 64870 71737,71893,71789
 2.7000e+000 72037 -8.5235e+001 -6.4281e+002 -2.5488e+001 64870 71737,71919,71893
 2.7000e+000 72014 -3.7545e+002 -6.7876e+002  4.6789e+001 64870 71789,71841,71815
 2.7000e+000 71991 -2.6897e+002 -7.1016e+002  1.5528e+000 64870 71789,71893,71841
 2.7000e+000 71968 -3.0455e+002 -8.8658e+002 -1.5398e+002 64870 71737,71789,71763
 2.7000e+000 71945 -1.8438e+002 -7.6934e+002  0.0000e+000 64870 71841,71893,71867
 2.7000e+000 72517 -4.4342e+002 -7.1850e+002 -9.0301e+001 64466 72321,72399,72347
 2.7000e+000 72494 -4.3186e+002 -6.4373e+002 -7.2256e+001 64466 72269,72399,72321
 2.7000e+000 72471 -4.4827e+002 -8.0421e+002  4.6919e+001 64466 72347,72399,72373
 2.7000e+000 72448 -4.2328e+002 -7.0749e+002 -2.1008e+002 64466 72243,72399,72269
 2.7000e+000 72425 -5.3154e+002 -8.5039e+002 -3.9860e+001 64466 72269,72321,72295
 2.7000e+000 72944 -1.4315e+002 -5.7740e+002 -2.7164e+001 64062 73111,73039,72699
 2.7000e+000 72921 -8.4686e+001 -6.5097e+002 -5.4241e+001 64062 73183,72967,72647
 2.7000e+000 72898 -1.0360e+002 -6.5136e+002 -4.1632e+001 64062 72967,72803,72751
 2.7000e+000 72875 -9.8263e+001 -5.5823e+002 -3.1794e+001 64062 73111,72699,72673
 2.7000e+000 72852 -4.0269e+001 -6.9941e+002 -2.3574e+001 64062 73183,72647,72621
 2.7000e+000 72829 -8.1209e+001 -5.2428e+002 -1.6426e+002 64062 72751,72803,72777
 2.7000e+000 72993 -8.3464e+001 -5.9863e+002 -2.4375e+001 64062 73039,72647,72967
 2.7000e+000 73016 -2.1250e+002 -6.8714e+002 -4.6268e+001 64062 72725,72967,72751
 2.7000e+000 73065  8.7107e-001 -6.9836e+002  2.2014e+002 64062 72725,72699,73039
 2.7000e+000 73088 -9.3937e+001 -6.5944e+002 -6.1163e+001 64062 72725,73039,72967
 2.7000e+000 73137 -3.9484e+001 -5.7978e+002 -2.3416e+001 64062 72647,73039,73111
 2.7000e+000 73160 -3.3855e+001 -5.7802e+002 -2.1886e+001 64062 72647,73111,72673
 2.7000e+000 73209 -1.3023e+002 -6.9512e+002 -3.0030e+001 64062 72803,72967,73183
 2.7000e+000 73232 -1.0522e+002 -7.7700e+002  5.6131e+000 64062 72803,73183,72621
 2.7000e+000 73333 -8.6448e+002 -1.4182e+003  7.7050e+001 63814 73356,73281,73255
 2.7000e+000 73382 -6.8421e+002 -1.0408e+003  5.6717e+001 63814 73486,73356,73307
 2.7000e+000 73512 -8.5737e+002 -1.1133e+003 -5.0072e+001 63814 73281,73356,73486
 2.7000e+000 73839 -3.9891e+002 -1.0754e+003 -6.2504e+001 63616 73862,73692,73666
 2.7000e+000 73816 -3.6609e+002 -9.5359e+002 -1.3590e+001 63616 73934,73862,73666
 2.7000e+000 73793 -3.1267e+002 -9.6504e+002  3.5704e+001 63616 73934,73666,73640
 2.7000e+000 73770 -2.9941e+002 -9.9056e+002  5.1575e+001 63616 73614,73744,73640
 2.7000e+000 73888 -3.9115e+002 -9.5803e+002 -7.7478e+001 63616 73718,73692,73862
 2.7000e+000 73911 -4.3904e+002 -9.3039e+002 -8.5535e+000 63616 73718,73862,73744
 2.7000e+000 73960 -4.5740e+002 -9.8287e+002 -1.3693e+001 63616 73744,73862,73934
 2.7000e+000 73983 -4.1818e+002 -1.0075e+003  2.8092e+001 63616 73744,73934,73640
 2.7000e+000 74363 -1.9778e+002 -6.9999e+002 -1.3618e+001 63390 74386,74115,74089
 2.7000e+000 74340 -2.2387e+002 -6.5086e+002 -2.3502e+001 63390 74458,74386,74089
 2.7000e+000 74317 -1.9565e+002 -6.7164e+002  4.8046e+001 63390 74458,74089,74245
 2.7000e+000 74294 -2.5116e+002 -7.8655e+002 -2.5644e+001 63390 74530,74167,74141
 2.7000e+000 74271 -2.6942e+002 -7.0940e+002 -1.4496e+002 63390 74167,74219,74193
 2.7000e+000 74412 -1.6355e+002 -6.7583e+002 -1.6778e+000 63390 74141,74115,74386
 2.7000e+000 74435 -1.9230e+002 -7.3477e+002  7.2193e+000 63390 74530,74141,74386
 2.7000e+000 74484 -1.7015e+002 -5.5010e+002  4.7232e+000 63390 74219,74386,74458
 2.7000e+000 74507 -1.1980e+002 -5.4630e+002  8.2790e+001 63390 74219,74458,74245
 2.7000e+000 74556 -3.4898e+002 -7.4046e+002 -9.2280e+001 63390 74219,74167,74530
 2.7000e+000 74579 -2.8763e+002 -6.7351e+002 -5.4913e+001 63390 74219,74530,74386
 2.7000e+000 74680 -3.1861e+002 -6.6033e+002  8.4582e+001 63100 75089,74833,74703
 2.7000e+000 74729 -4.4742e+002 -8.1749e+002  2.6800e+001 63100 74961,74703,74654
 2.7000e+000 74859 -2.0638e+002 -5.7313e+002  1.2260e+002 63100 74602,74703,74833
 2.7000e+000 74987 -3.7662e+002 -6.4006e+002  4.3472e+001 63100 75089,74703,74961
 2.7000e+000 75115 -1.9960e+002 -6.4522e+002  9.0205e+001 63100 74628,74833,75089
 2.7000e+000 75138 -2.5601e+002 -6.2398e+002  4.9356e+001 63100 74628,75089,74961
 2.7000e+000 75723 -2.7011e+002 -6.3411e+002  1.3765e+001 62532 75746,75504,75426
 2.7000e+000 75700 -3.3495e+002 -5.3844e+002  4.7434e+001 62532 75746,75426,75556
 2.7000e+000 75677 -3.6924e+002 -7.7423e+002 -9.0329e+001 62532 75426,75504,75452
 2.7000e+000 75654 -4.3840e+002 -4.6271e+002 -9.2691e+001 62532 75400,75556,75426
 2.7000e+000 75631 -4.9100e+002 -7.2335e+002 -2.2804e+002 62532 75400,75582,75556
 2.7000e+000 75608 -4.5656e+002 -2.7773e+002 -2.2467e+002 62532 75452,75504,75478
 2.7000e+000 75772 -3.2501e+002 -6.8869e+002 -8.1869e+000 62532 75530,75504,75746
 2.7000e+000 75795 -4.1376e+002 -6.0550e+002  1.8530e+001 62532 75530,75746,75556
 2.7000e+000 76301 -3.7263e+002 -7.4761e+002 -2.7389e+001 62192 76324,76082,76030
 2.7000e+000 76278 -3.6004e+002 -7.0208e+002 -1.0135e+001 62192 76324,76030,76004
 2.7000e+000 76255 -2.7414e+002 -7.3538e+002  6.3732e+001 62192 76030,76082,76056
 2.7000e+000 76232 -4.3682e+002 -8.2544e+002 -1.2861e+002 62192 76082,76134,76108
 2.7000e+000 76209 -3.3204e+002 -6.1527e+002 -7.6928e+001 62192 76004,76160,76134
 2.7000e+000 76186 -2.1436e+002 -7.0109e+002 -3.5023e+001 62192 75978,76160,76004
 2.7000e+000 76350 -4.1810e+002 -6.9037e+002 -3.0614e+001 62192 76134,76082,76324
 2.7000e+000 76373 -3.9166e+002 -6.2260e+002 -1.5859e+001 62192 76134,76324,76004
 2.7000e+000 76879 -4.7246e+002 -7.0353e+002 -5.3854e+001 61788 76902,76660,76582
 2.7000e+000 76856 -3.9436e+002 -7.3920e+002 -8.0080e+001 61788 76902,76582,76556
 2.7000e+000 76833 -6.5287e+002 -7.3037e+002 -1.2295e+002 61788 76582,76660,76634
 2.7000e+000 76810 -6.0307e+002 -9.3330e+002 -6.8862e+001 61788 76582,76634,76608
 2.7000e+000 76787 -4.0236e+002 -8.0471e+002  4.1580e+001 61788 76556,76738,76686
 2.7000e+000 76764 -1.7437e+002 -5.4918e+002 -5.6263e+001 61788 76686,76738,76712
 2.7000e+000 76928 -4.9872e+002 -7.3100e+002 -4.3054e+001 61788 76686,76660,76902
 2.7000e+000 76951 -4.4249e+002 -7.9110e+002 -5.9963e+001 61788 76686,76902,76556
 2.7000e+000 77408 -4.2548e+002 -6.5520e+002 -8.6222e+000 61498 77212,77264,77238
 2.7000e+000 77385 -3.6486e+002 -5.5375e+002  3.8980e+001 61498 77160,77264,77212
 2.7000e+000 77362 -4.2613e+002 -5.6891e+002  3.5670e+001 61498 77160,77290,77264
 2.7000e+000 77339 -2.2299e+002 -6.3939e+002  4.8220e+001 61498 77160,77212,77186
 2.7000e+000 77316 -3.2489e+002 -4.8661e+002  2.1739e+002 61498 77134,77290,77160
 2.7000e+000 77678 -2.2593e+002 -9.0854e+002 -5.2716e+001 61129 77479,77557,77505
 2.7000e+000 77655 -3.2110e+002 -9.3997e+002 -6.1030e+000 61129 77479,77583,77557
 2.7000e+000 77632 -1.9883e+002 -8.8025e+002  5.4418e+001 61129 77453,77583,77479
 2.7000e+000 77609 -1.4259e+002 -8.9532e+002 -6.8973e+001 61129 77505,77557,77531
 2.7000e+000 77828 -1.6883e+002 -8.7997e+002  1.6623e+001 60931 77851,77727,77701
 2.7000e+000 77805 -2.5618e+002 -1.0042e+003  7.5117e+001 60931 77851,77701,77779
 2.7000e+000 77877 -4.5519e+002 -1.1163e+003  1.7443e+002 60931 77923,77851,77753
 2.7000e+000 77900 -1.5911e+002 -9.7793e+002  1.0495e+002 60931 77753,77851,77779
 2.7000e+000 77949 -2.0033e+002 -6.4243e+002  5.4339e+001 60931 77727,77851,77923
 2.7000e+000 78133 -1.0461e+002 -4.1702e+002 -3.8920e+001 60377 78055,78107,78081
 2.7000e+000 78535 -6.9641e+002 -9.7805e+002 -4.4858e+001 60015 78287,78391,78313
 2.7000e+000 78512 -4.2080e+002 -9.8055e+002 -8.2193e+001 60015 78287,78417,78391
 2.7000e+000 78489 -4.7979e+002 -1.0775e+003 -1.7009e+002 60015 78261,78417,78287
 2.7000e+000 78466 -3.1384e+002 -8.5474e+002  8.1483e+001 60015 78339,78391,78365
 2.7000e+000 78443 -3.4634e+002 -8.0825e+002  2.0562e+001 60015 78313,78391,78339
 2.7000e+000 78913 -2.9258e+002 -5.5382e+002  6.2289e+000 59725 78936,78743,78691
 2.7000e+000 78890 -3.5953e+002 -6.0255e+002 -1.9268e+001 59725 79008,78936,78691
 2.7000e+000 78867 -3.5399e+002 -5.7896e+002 -3.4367e+001 59725 79008,78691,78665
 2.7000e+000 78844 -1.6020e+002 -5.4006e+002  7.7611e+001 59725 78691,78743,78717
 2.7000e+000 78821 -1.4027e+002 -5.2647e+002 -2.5893e+002 59725 78639,78795,78769
 2.7000e+000 78962 -1.8442e+002 -6.1228e+002 -6.2585e+001 59725 78769,78743,78936
 2.7000e+000 78985 -3.7385e+002 -7.7491e+002 -1.3179e+002 59725 78769,78936,78639
 2.7000e+000 79034 -3.2372e+002 -5.8449e+002 -3.3232e+001 59725 78639,78936,79008
 2.7000e+000 79057 -3.3848e+002 -5.7989e+002 -4.5547e+001 59725 78639,79008,78665
 2.7000e+000 79386 -2.8972e+002 -8.0833e+002  6.3377e+001 59221 79187,79239,79213
 2.7000e+000 79363 -2.0444e+002 -7.0022e+002  1.8872e+001 59221 79187,79265,79239
 2.7000e+000 79340 -3.3935e+002 -7.4595e+002  3.0013e+001 59221 79187,79291,79265
 2.7000e+000 79317 -2.0995e+002 -4.4837e+002 -5.7486e+000 59221 79161,79291,79187
 2.7000e+000 79813 -2.6013e+002 -6.8513e+002 -2.4217e+001 58831 79836,79542,79516
 2.7000e+000 79790 -2.1926e+002 -6.6220e+002 -3.3818e+001 58831 79980,79836,79516
 2.7000e+000 79767 -3.2739e+002 -7.7529e+002 -8.3939e+001 58831 79908,79646,79568
 2.7000e+000 79744 -1.7548e+002 -5.9603e+002  6.3702e+000 58831 79980,79516,79490
 2.7000e+000 79721 -5.5330e+002 -8.6414e+002 -1.0970e+002 58831 79568,79646,79594
 2.7000e+000 79698 -1.9616e+003 -1.3238e+003 -8.9825e+002 58831 79594,79646,79620
 2.7000e+000 79862 -1.9059e+002 -5.6344e+002  3.0823e+001 58831 79568,79542,79836
 2.7000e+000 79885 -1.8857e+002 -6.6465e+002  2.0641e+001 58831 79908,79568,79836
 2.7000e+000 79934 -4.2625e+002 -7.6276e+002 -1.8518e+002 58831 79672,79646,79908
 2.7000e+000 79957 -3.9181e+002 -7.1125e+002 -8.3505e+001 58831 79672,79908,79836
 2.7000e+000 80006 -2.0756e+002 -5.6482e+002 -1.7150e+001 58831 79672,79836,79980
 2.7000e+000 80029 -2.2156e+002 -5.5016e+002  8.7259e+000 58831 79672,79980,79490
 2.7000e+000 80358 -1.8842e+002 -7.2921e+002 -1.7448e+000 58377 80381,80185,80159
 2.7000e+000 80335 -1.7358e+002 -7.2796e+002 -1.1658e+000 58377 80381,80159,80133
 2.7000e+000 80312 -8.4798e+001 -6.7978e+002 -2.5165e+000 58377 80133,80263,80237
 2.7000e+000 80289 -2.3545e+002 -8.0926e+002  8.5060e+001 58377 80185,80237,80211
 2.7000e+000 80407 -2.1242e+002 -7.2624e+002  1.7615e+000 58377 80237,80185,80381
 2.7000e+000 80430 -1.8690e+002 -7.1772e+002  3.4511e+000 58377 80237,80381,80133
 2.7000e+000 80759 -1.9433e+002 -7.0373e+002  1.6402e+002 57873 80782,80586,80560
 2.7000e+000 80736 -2.8427e+002 -8.0721e+002  1.2157e+002 57873 80782,80560,80534
 2.7000e+000 80713 -2.5923e+002 -8.3487e+002  1.1143e+002 57873 80586,80638,80612
 2.7000e+000 80690 -9.3039e+001 -7.7108e+002  9.5979e+001 57873 80534,80664,80638
 2.7000e+000 80808 -2.4154e+002 -7.9702e+002  1.2070e+002 57873 80638,80586,80782
 2.7000e+000 80831 -2.4972e+002 -8.2696e+002  9.8382e+001 57873 80638,80782,80534
 2.7000e+000 81337 -2.6601e+002 -7.7858e+002 -7.3927e+001 57262 81360,81144,81092
 2.7000e+000 81314 -3.1957e+002 -9.0537e+002 -7.4316e+001 57262 81360,81092,81066
 2.7000e+000 81291 -3.4869e+002 -9.4601e+002  7.1605e+000 57262 81014,81196,81066
 2.7000e+000 81268 -2.4198e+002 -5.9859e+002 -6.6926e+001 57262 81092,81144,81118
 2.7000e+000 81245 -3.0516e+002 -6.1694e+002 -9.7751e+000 57262 81144,81196,81170
 2.7000e+000 81222 -4.0482e+002 -1.0898e+003  9.0419e+001 57262 81014,81066,81040
 2.7000e+000 81386 -3.0242e+002 -6.6794e+002  1.3051e+001 57262 81196,81144,81360
 2.7000e+000 81409 -3.5963e+002 -8.0117e+002  9.4962e+000 57262 81196,81360,81066
 2.7000e+000 81608 -2.0953e+002 -9.1708e+002  4.4411e+001 57007 81458,81536,81510
 2.7000e+000 81585 -2.2398e+002 -1.0687e+003  6.4765e+001 57007 81432,81536,81458
 2.7000e+000 81562 -5.7652e+002 -8.4252e+002  2.1365e+002 57007 81458,81510,81484
 2.7000e+000 82086 -5.2078e+002 -9.7714e+002 -7.9619e+001 56339 81792,81922,81818
 2.7000e+000 82063 -7.5554e+002 -1.1215e+003 -1.4040e+002 56339 81714,81922,81792
 2.7000e+000 82040 -4.8414e+002 -8.2609e+002 -7.3232e+001 56339 82109,81844,81818
 2.7000e+000 82017 -4.8480e+002 -8.9369e+002 -8.2216e+001 56339 82109,81818,81922
 2.7000e+000 81994 -3.9747e+002 -9.5380e+002 -8.4162e+001 56339 81844,81896,81870
 2.7000e+000 81971 -4.9549e+002 -5.2120e+002 -1.1198e+002 56339 81714,81792,81766
 2.7000e+000 81948 -9.5250e+002 -6.0575e+002 -2.7686e+002 56339 81714,81766,81740
 2.7000e+000 82135 -4.2336e+002 -8.8152e+002 -3.6928e+001 56339 81896,81844,82109
 2.7000e+000 82158 -4.5773e+002 -9.9457e+002 -5.9677e+001 56339 81896,82109,81922
 2.7000e+000 82536 -3.8750e+002 -8.6308e+002 -5.1442e+001 55699 82288,82392,82314
 2.7000e+000 82513 -4.2151e+002 -8.7914e+002 -5.7183e+001 55699 82288,82418,82392
 2.7000e+000 82490 -4.6917e+002 -1.0766e+003 -8.5685e+001 55699 82314,82392,82340
 2.7000e+000 82467 -1.1925e+002 -1.3745e+003 -1.7281e+002 55699 82340,82392,82366
 2.7000e+000 82444 -3.8238e+002 -9.5244e+002 -6.7626e+001 55699 82262,82418,82288
 2.7000e+000 83091 -7.0374e+002 -8.3058e+002  1.3752e+002 55409 82745,82901,82875
 2.7000e+000 83068 -6.0275e+002 -7.5399e+002  1.7796e+002 55409 82719,82901,82745
 2.7000e+000 83045 -4.7692e+002 -8.4935e+002  1.1036e+002 55409 82771,82849,82823
 2.7000e+000 83022 -8.4001e+002 -9.4313e+002  2.3673e+002 55409 82745,82849,82771
 2.7000e+000 82999 -4.9429e+002 -7.4091e+002  1.3191e+002 55409 82745,82875,82849
 2.7000e+000 82976 -7.1570e+002 -7.8657e+002  1.4013e+002 55409 82771,82823,82797
 2.7000e+000 82953 -3.7720e+002 -6.9268e+002  1.4515e+002 55409 82719,82927,82901
 2.7000e+000 83388 -3.3257e+002 -9.8172e+002 -4.2340e+001 54905 83411,83218,83166
 2.7000e+000 83365 -2.1038e+002 -9.2574e+002 -2.1443e+001 54905 83411,83166,83114
 2.7000e+000 83342 -3.9005e+002 -9.2557e+002 -4.0185e+001 54905 83483,83270,83244
 2.7000e+000 83319 -4.0622e+002 -9.1176e+002 -9.8930e+001 54905 83166,83218,83192
 2.7000e+000 83296 -2.1902e+002 -9.8664e+002  1.9602e+001 54905 83114,83166,83140
 2.7000e+000 83437 -3.6587e+002 -9.3017e+002  1.3623e+000 54905 83244,83218,83411
 2.7000e+000 83460 -3.3985e+002 -9.3056e+002 -1.1998e+001 54905 83483,83244,83411
 2.7000e+000 83509 -3.2701e+002 -8.6563e+002 -1.5688e+001 54905 83114,83270,83483
 2.7000e+000 83532 -3.0647e+002 -8.8841e+002  4.6488e+000 54905 83114,83483,83411
 2.7000e+000 83961 -2.7197e+002 -8.7388e+002  5.8394e+000 54593 83638,83768,83690
 2.7000e+000 83938 -8.1212e+001 -8.7190e+002  5.3559e+001 54593 83638,83794,83768
 2.7000e+000 83915 -2.7717e+002 -8.5830e+002  1.6963e+001 54593 83690,83768,83742
 2.7000e+000 83892 -2.0155e+002 -7.5987e+002 -1.3709e+002 54593 83638,83820,83794
 2.7000e+000 83869 -2.5541e+002 -8.1271e+002 -2.0786e+000 54593 83638,83690,83664
 2.7000e+000 83846 -1.8041e+002 -6.2668e+002 -1.7461e+002 54593 83690,83742,83716
 2.7000e+000 84209 -3.2750e+002 -1.1507e+003  1.1503e+002 54132 84232,84062,83984
 2.7000e+000 84186 -3.1191e+002 -9.7436e+002  6.5667e+001 54132 84232,83984,84114
 2.7000e+000 84163 -3.7490e+002 -1.2608e+003 -1.7055e+001 54132 83984,84062,84036
 2.7000e+000 84140 -4.1304e+002 -1.2085e+003 -4.8367e+001 54132 83984,84036,84010
 2.7000e+000 84258 -2.1742e+002 -1.3536e+003  8.5512e+001 54132 84088,84062,84232
 2.7000e+000 84281 -1.7667e+002 -1.1589e+003  3.3018e+000 54132 84088,84232,84114
 2.7000e+000 84382 -2.4710e+002 -7.8419e+002 -2.0842e+001 53521 84304,84356,84330
 2.7000e+000 84632 -3.4543e+002 -9.4241e+002  2.8850e+001 53067 84655,84485,84459
 2.7000e+000 84609 -3.5246e+002 -9.3118e+002  2.8042e+001 53067 84655,84459,84407
 2.7000e+000 84586 -3.0995e+002 -8.7473e+002  8.1709e+000 53067 84485,84537,84511
 2.7000e+000 84563 -3.7579e+002 -1.0096e+003 -4.2225e+000 53067 84407,84459,84433
 2.7000e+000 84681 -3.4594e+002 -9.3258e+002  2.5902e+001 53067 84537,84485,84655
 2.7000e+000 84704 -3.4687e+002 -9.1681e+002  2.2209e+001 53067 84537,84655,84407
 2.7000e+000 85214 -3.0042e+002 -9.7744e+002 -1.1852e+002 52513 85021,85073,85047
 2.7000e+000 85191 -2.7237e+002 -7.3309e+002 -1.7093e+002 52513 84943,85073,85021
 2.7000e+000 85168 -2.2351e+002 -6.8012e+002 -2.8782e+001 52513 84943,85021,84995
 2.7000e+000 85145 -4.9301e+002 -1.2781e+003 -1.6663e+002 52513 84917,85073,84943
 2.7000e+000 85122 -2.1744e+002 -6.1728e+002 -4.8874e+001 52513 84943,84995,84969
 2.7000e+000 85099 -6.8111e+002 -1.1501e+003 -1.0220e+002 52513 84891,85073,84917
 2.7000e+000 85582 -3.3786e+002 -8.4956e+002  8.0388e+001 52037 85605,85311,85285
 2.7000e+000 85559 -3.4255e+002 -9.0704e+002  6.6165e+001 52037 85749,85605,85285
 2.7000e+000 85536 -1.0814e+002 -8.3298e+002  1.7572e+001 52037 85893,85677,85389
 2.7000e+000 85513 -2.1663e+002 -8.3249e+002  3.4566e+001 52037 85749,85285,85259
 2.7000e+000 85490  1.5778e+001 -7.8460e+002 -3.7586e+001 52037 85893,85389,85363
 2.7000e+000 85467 -1.3320e+002 -8.4818e+002 -2.8721e+001 52037 85259,85441,85415
 2.7000e+000 85631 -4.8350e+002 -9.4133e+002  3.2596e+001 52037 85337,85311,85605
 2.7000e+000 85654 -3.5326e+002 -9.1997e+002  1.4785e+002 52037 85677,85337,85605
 2.7000e+000 85703 -3.6402e+001 -9.0966e+002  5.3826e+001 52037 85415,85389,85677
 2.7000e+000 85726 -9.8149e+001 -8.7511e+002  1.1220e+002 52037 85821,85677,85605
 2.7000e+000 85775 -1.7767e+002 -9.1129e+002  1.0362e+002 52037 85821,85605,85749
 2.7000e+000 85798 -2.1077e+002 -9.2880e+002  3.9959e+001 52037 85415,85749,85259
 2.7000e+000 85847 -1.2103e+002 -9.0127e+002  4.7562e+001 52037 85415,85677,85821
 2.7000e+000 85870 -1.5043e+002 -9.1590e+002  4.1781e+001 52037 85415,85821,85749
 2.7000e+000 85919 -9.5685e+001 -9.0315e+002  1.4903e+002 52037 85337,85677,85893
 2.7000e+000 85942 -4.3386e+001 -8.9120e+002  9.7256e+001 52037 85337,85893,85363
 2.7000e+000 86224 -1.2551e+002 -4.4503e+002  9.0692e+001 51368 86375,86100,86074
 2.7000e+000 86201 -3.9222e+002 -5.5391e+002  7.8528e+001 51368 86375,86074,86247
 2.7000e+000 86178 -1.1870e+002 -8.7061e+002 -1.8620e+002 51368 86048,86152,86126
 2.7000e+000 86273 -2.8765e+002 -6.4939e+002 -1.6716e+002 51368 86048,86126,86247
 2.7000e+000 86401  1.6365e+001 -5.7602e+002 -3.1090e+001 51368 86126,86100,86375
 2.7000e+000 86424 -1.1513e+002 -6.0633e+002 -3.9433e+001 51368 86126,86375,86247
 2.7000e+000 86802 -4.1632e+002 -8.1871e+002  1.0273e+001 51028 86528,86632,86580
 2.7000e+000 86779 -4.3913e+002 -9.5904e+002  4.7452e+001 51028 86528,86684,86632
 2.7000e+000 86756 -5.1584e+002 -1.0490e+003 -9.2373e+000 51028 86528,86580,86554
 2.7000e+000 86733 -2.9555e+002 -8.8878e+002  1.9467e+002 51028 86632,86684,86658
 2.7000e+000 86710 -4.3746e+002 -9.5376e+002 -1.0796e+002 51028 86580,86632,86606
 2.7000e+000 87131 -3.2581e+002 -8.3620e+002  1.4875e+002 50624 86958,87036,87010
 2.7000e+000 87108 -4.5506e+002 -7.7629e+002  1.1135e+002 50624 86932,87036,86958
 2.7000e+000 87085 -3.3343e+002 -8.2992e+002  7.5317e+001 50624 86958,87010,86984
 2.7000e+000 87062 -3.6935e+002 -7.2731e+002  1.3505e+002 50624 86906,87036,86932
 2.7000e+000 87330 -5.8280e+002 -1.0386e+003  1.0686e+001 50234 87353,87180,87154
 2.7000e+000 87307 -5.0230e+002 -1.0409e+003  1.8302e+001 50234 87353,87154,87258
 2.7000e+000 87284 -3.6441e+002 -9.6912e+002  2.1221e+001 50234 87206,87258,87232
 2.7000e+000 87379 -5.1733e+002 -1.0699e+003  5.5003e+001 50234 87206,87180,87353
 2.7000e+000 87402 -4.0500e+002 -1.0558e+003  4.7710e+001 50234 87206,87353,87258
 2.7000e+000 87650 -4.4335e+002 -9.8447e+002 -4.5053e+001 49730 87673,87503,87451
 2.7000e+000 87627 -2.8236e+002 -9.1226e+002 -2.5487e+001 49730 87673,87451,87425
 2.7000e+000 87604 -2.9916e+002 -7.4733e+002  8.8014e+001 49730 87503,87555,87529
 2.7000e+000 87581 -5.3738e+002 -8.1017e+002 -6.3803e+001 49730 87451,87503,87477
 2.7000e+000 87699 -4.6165e+002 -9.2699e+002  2.3558e-001 49730 87555,87503,87673
 2.7000e+000 87722 -4.2870e+002 -9.1076e+002  6.6109e+000 49730 87555,87673,87425
 2.7000e+000 88232 -3.5253e+002 -8.4333e+002  6.9475e+001 49176 88255,87935,87909
 2.7000e+000 88209 -4.5648e+002 -9.3050e+002  1.8551e+002 49176 88255,87909,88065
 2.7000e+000 88186 -4.1661e+002 -7.9347e+002  1.2606e+002 49176 87935,88039,87961
 2.7000e+000 88163 -3.9814e+002 -8.3329e+002  1.4356e+002 49176 87909,88091,88065
 2.7000e+000 88140 -5.5384e+002 -8.5665e+002  9.7833e+001 49176 87961,88039,88013
 2.7000e+000 88117 -4.8357e+002 -1.0354e+003 -4.1654e+001 49176 87961,88013,87987
 2.7000e+000 88281 -4.7355e+002 -8.8665e+002  1.6619e+002 49176 88039,87935,88255
 2.7000e+000 88304 -5.7997e+002 -9.7024e+002  2.8180e+002 49176 88039,88255,88065
 2.7000e+000 88503 -1.2036e+002 -5.4607e+002 -1.2217e+001 48772 88526,88379,88353
 2.7000e+000 88480 -1.4961e+002 -4.6702e+002  1.7902e+000 48772 88526,88353,88327
 2.7000e+000 88457 -1.4685e+002 -6.2454e+002 -6.2198e+000 48772 88379,88431,88405
 2.7000e+000 88552 -9.7918e+001 -4.8342e+002 -2.3663e+001 48772 88431,88379,88526
 2.7000e+000 88575 -1.4168e+002 -4.3043e+002 -1.6743e+001 48772 88431,88526,88327
 2.7000e+000 89083 -2.2824e+002 -5.5946e+002 -1.3467e+002 48368 88786,88916,88864
 2.7000e+000 89060 -2.6756e+002 -6.3949e+002 -8.2221e+001 48368 88786,88942,88916
 2.7000e+000 89037 -3.1745e+002 -5.0015e+002 -1.0602e+001 48368 88786,88864,88812
 2.7000e+000 89014 -3.7225e+002 -7.8929e+002 -2.1448e+002 48368 88864,88916,88890
 2.7000e+000 88991 -1.0871e+002 -7.1774e+002  1.8136e+002 48368 88812,88864,88838
 2.7000e+000 88968 -5.7803e+001 -4.9436e+002  1.0205e+001 48368 88760,88942,88786
 2.7000e+000 89331 -3.7577e+002 -1.0525e+003  2.9612e+000 47928 89158,89236,89210
 2.7000e+000 89308 -3.3685e+002 -8.6094e+002  5.6944e+001 47928 89132,89236,89158
 2.7000e+000 89285 -4.4313e+002 -7.4505e+002  8.7773e-002 47928 89158,89210,89184
 2.7000e+000 89262 -5.0717e+002 -8.8102e+002  2.5508e+001 47928 89106,89236,89132
 2.7000e+000 89662 -4.5607e+002 -9.3096e+002 -2.1326e+001 47588 89463,89541,89515
 2.7000e+000 89639 -3.2142e+002 -7.3091e+002 -8.2186e+001 47588 89463,89567,89541
 2.7000e+000 89616 -3.7845e+002 -8.6975e+002  4.7175e+001 47588 89463,89515,89489
 2.7000e+000 89593 -4.4674e+002 -7.6942e+002 -8.1546e+001 47588 89437,89567,89463
 2.7000e+000 89763  1.5667e+000 -2.2224e+002  2.6699e+001 47390 89685,89737,89711
 2.7000e+000 89913 -8.8935e+001 -6.3919e+002 -5.9416e+001 47078 89786,89838,89812
 2.7000e+000 89890 -2.7595e+002 -1.0342e+003  8.6869e+001 47078 89786,89864,89838
 2.7000e+000 90163 -4.0993e+002 -8.2295e+002  4.0836e+001 46474 89964,90042,89990
 2.7000e+000 90140 -3.5203e+002 -7.9831e+002  4.0975e+001 46474 89938,90042,89964
 2.7000e+000 90117 -4.3701e+002 -7.9353e+002  4.3033e+001 46474 89990,90042,90016
 2.7000e+000 90094 -4.4622e+002 -8.1573e+002  6.2501e+001 46474 89938,90068,90042
 2.7000e+000 90364 -4.1783e+002 -9.1395e+002  9.6781e+001 46184 90240,90292,90266
 2.7000e+000 90341 -5.2201e+002 -8.7971e+002  1.2159e+002 46184 90188,90292,90240
 2.7000e+000 90318 -4.2312e+002 -9.2221e+002  1.6022e+002 46184 90188,90240,90214
 2.7000e+000 90565 -3.8909e+002 -6.9176e+002 -3.8227e+000 45780 90588,90415,90389
 2.7000e+000 90542 -3.3281e+002 -7.0372e+002  1.1431e+001 45780 90588,90389,90493
 2.7000e+000 90519 -3.8774e+002 -7.5385e+002  7.0574e+000 45780 90415,90467,90441
 2.7000e+000 90614 -3.4847e+002 -6.9977e+002  3.0595e+001 45780 90467,90415,90588
 2.7000e+000 90637 -2.7153e+002 -6.8025e+002  5.5574e+001 45780 90467,90588,90493
 2.7000e+000 91196 -5.2529e+002 -9.2713e+002 -7.3394e+001 45226 91219,90876,90850
 2.7000e+000 91173 -3.0809e+002 -8.7589e+002  3.9315e+001 45226 91219,90850,91032
 2.7000e+000 91150 -2.5301e+002 -1.0198e+003 -8.8413e+001 45226 90824,91032,90850
 2.7000e+000 91127 -3.9613e+002 -7.1195e+002  1.8231e+001 45226 90876,90980,90902
 2.7000e+000 91104 -2.3764e+002 -7.1437e+002  8.4996e+001 45226 90876,91006,90980
 2.7000e+000 91081 -3.3797e+002 -7.5279e+002 -5.0764e+001 45226 90902,90980,90954
 2.7000e+000 91058 -2.2043e+002 -6.4940e+002 -1.1081e+002 45226 90902,90954,90928
 2.7000e+000 91245 -3.2526e+002 -8.3943e+002 -4.2720e+000 45226 91006,90876,91219
 2.7000e+000 91268 -1.3280e+002 -8.2964e+002  9.2365e+001 45226 91006,91219,91032
 2.7000e+000 91516 -2.2818e+002 -1.2597e+003  9.2742e+001 44836 91539,91421,91395
 2.7000e+000 91493 -2.1793e+002 -1.3149e+003  7.7088e+000 44836 91317,91421,91343
 2.7000e+000 91470 -3.5188e+002 -1.2210e+003  6.3345e+001 44836 91539,91395,91369
 2.7000e+000 91447 -3.5940e+002 -1.0008e+003  2.0090e+002 44836 91291,91421,91317
 2.7000e+000 91565 -2.8591e+002 -1.2731e+003  2.8965e+001 44836 91343,91421,91539
 2.7000e+000 91588 -3.9054e+002 -1.2779e+003 -2.2003e+001 44836 91343,91539,91369
 2.7000e+000 91787 -3.0158e+002 -7.9589e+002  4.5008e+001 44432 91810,91637,91611
 2.7000e+000 91764 -3.5478e+002 -9.4010e+002  8.6855e+001 44432 91810,91611,91715
 2.7000e+000 91741 -1.3216e+002 -6.2640e+002 -4.0280e+001 44432 91637,91689,91663
 2.7000e+000 91836 -3.6555e+002 -7.2125e+002  4.6162e+001 44432 91689,91637,91810
 2.7000e+000 91859 -3.5323e+002 -7.9390e+002  6.8432e+001 44432 91689,91810,91715
 2.7000e+000 92207 -5.4724e+002 -1.0758e+003  7.2155e+001 43864 92230,91936,91910
 2.7000e+000 92184 -6.3959e+002 -1.1270e+003  1.0177e+002 43864 92230,91910,92040
 2.7000e+000 92161 -6.6515e+002 -1.1264e+003  1.7548e+002 43864 91884,92040,91910
 2.7000e+000 92138 -5.4928e+002 -9.3304e+002 -1.7223e+000 43864 91936,92014,91988
 2.7000e+000 92115 -4.4495e+002 -1.2455e+003  2.4514e+002 43864 91936,91988,91962
 2.7000e+000 92092 -5.5023e+002 -9.2753e+002  1.1338e+002 43864 91884,92066,92040
 2.7000e+000 92256 -6.5074e+002 -9.8840e+002  6.9094e+001 43864 92014,91936,92230
 2.7000e+000 92279 -7.3996e+002 -1.0527e+003  1.1050e+002 43864 92014,92230,92040
 2.7000e+000 92529 -4.4259e+002 -8.5712e+002  8.0654e+001 43410 92552,92330,92304
 2.7000e+000 92506 -4.3017e+002 -8.3394e+002  1.2603e+001 43410 92552,92304,92408
 2.7000e+000 92483 -4.6037e+002 -8.5745e+002  2.4845e+001 43410 92304,92434,92408
 2.7000e+000 92460 -2.3781e+002 -7.4371e+002  4.7853e+000 43410 92330,92382,92356
 2.7000e+000 92578 -4.0021e+002 -8.3662e+002  4.6633e+001 43410 92382,92330,92552
 2.7000e+000 92601 -3.3716e+002 -7.6509e+002 -2.9621e+001 43410 92382,92552,92408
 2.7000e+000 92802 -2.7650e+002 -1.1047e+003  9.8038e+001 43162 92825,92704,92652
 2.7000e+000 92779 -2.0140e+002 -1.0525e+003  2.2007e+002 43162 92825,92652,92626
 2.7000e+000 92756 -2.0506e+002 -1.1159e+003  1.0023e+002 43162 92652,92704,92678
 2.7000e+000 92851 -4.4173e+002 -1.1233e+003 -1.2268e+001 43162 92730,92704,92825
 2.7000e+000 92874 -4.7620e+002 -8.2285e+002  1.8597e+002 43162 92730,92825,92626
 2.7000e+000 93463 -2.4613e+002 -5.8502e+002 -1.2150e+002 42758 93140,93270,93166
 2.7000e+000 93440 -3.0628e+002 -6.5707e+002 -8.6670e+001 42758 93140,93296,93270
 2.7000e+000 93417 -2.1949e+002 -6.1906e+002 -9.0163e+001 42758 93166,93270,93218
 2.7000e+000 93394 -1.5364e+002 -6.2155e+002 -1.0580e+002 42758 93218,93270,93244
 2.7000e+000 93371 -1.0074e+002 -7.4584e+002 -7.8850e+001 42758 93140,93322,93296
 2.7000e+000 93348 -2.8786e+002 -7.3178e+002  2.4829e+001 42758 93166,93218,93192
 2.7000e+000 93920 -2.7145e+002 -7.2368e+002 -2.3717e+000 42304 93943,93672,93646
 2.7000e+000 93897 -2.6340e+002 -6.9048e+002  2.2599e+000 42304 93943,93646,93802
 2.7000e+000 93874 -2.4381e+002 -7.1286e+002  4.5347e+001 42304 93724,93802,93776
 2.7000e+000 93851 -3.4250e+002 -8.4041e+002  5.7731e+001 42304 93672,93724,93698
 2.7000e+000 93828 -4.1742e+002 -8.4185e+002 -2.2188e+001 42304 93724,93776,93750
 2.7000e+000 93969 -2.6599e+002 -7.3572e+002 -1.1874e+001 42304 93724,93672,93943
 2.7000e+000 93992 -2.7009e+002 -7.2047e+002 -6.9472e+000 42304 93724,93943,93802
 2.7000e+000 94321 -3.4634e+002 -9.5576e+002  1.9367e+001 41478 94096,94148,94122
 2.7000e+000 94298 -4.0221e+002 -9.9307e+002  5.5785e+001 41478 94096,94226,94148
 2.7000e+000 94275 -5.1685e+002 -1.2540e+003 -1.3757e+001 41478 94148,94226,94174
 2.7000e+000 94252 -2.2292e+002 -9.2242e+002 -2.1720e+002 41478 94174,94226,94200
 2.7000e+000 94618 -3.1215e+002 -1.0987e+003  7.1312e+000 40910 94344,94422,94396
 2.7000e+000 94595 -4.7438e+002 -1.0729e+003 -3.2808e+001 40910 94344,94448,94422
 2.7000e+000 94572 -4.1493e+002 -9.2503e+002 -1.9733e+000 40910 94344,94474,94448
 2.7000e+000 94549 -2.6184e+002 -1.1768e+003 -5.7462e+001 40910 94344,94396,94370
 2.7000e+000 94526 -6.1823e+002 -1.2066e+003  9.1251e+001 40910 94344,94500,94474
 2.7000e+000 94866 -3.6801e+002 -7.1319e+002 -6.7706e+001 40306 94667,94719,94693
 2.7000e+000 94843 -4.5594e+002 -7.8860e+002 -3.5421e+001 40306 94641,94719,94667
 2.7000e+000 94820 -5.2045e+002 -7.9281e+002  2.3935e+001 40306 94641,94745,94719
 2.7000e+000 94797 -4.1979e+002 -7.4905e+002  4.3077e+000 40306 94641,94771,94745
 2.7000e+000 95089 -3.2008e+001 -5.9899e+002  8.7353e+001 39702 94913,94991,94939
 2.7000e+000 95066 -1.4203e+001 -5.0068e+002  2.5595e+001 39702 94913,95017,94991
 2.7000e+000 95043  7.6863e+001 -5.6050e+002  2.2440e+001 39702 94939,94991,94965
 2.7000e+000 95339 -3.4662e+002 -7.6960e+002 -8.1646e+001 39248 95140,95218,95166
 2.7000e+000 95316 -4.3042e+002 -8.2994e+002 -4.3402e+001 39248 95140,95244,95218
 2.7000e+000 95293 -2.5897e+002 -8.9266e+002 -9.6367e+001 39248 95114,95244,95140
 2.7000e+000 95270 -2.9520e+002 -8.5801e+002 -1.6744e+002 39248 95166,95218,95192
 2.7000e+000 95770 -4.9039e+002 -7.9394e+002  3.3929e+001 38694 95551,95629,95577
 2.7000e+000 95747 -3.4836e+002 -9.9268e+002  3.5993e+001 38694 95447,95629,95551
 2.7000e+000 95724 -2.6380e+002 -8.2887e+002 -4.0436e+001 38694 95447,95551,95473
 2.7000e+000 95701 -1.7518e+002 -8.0998e+002 -6.3096e+001 38694 95473,95551,95499
 2.7000e+000 95678 -1.5258e+002 -7.5544e+002 -1.5475e+002 38694 95499,95551,95525
 2.7000e+000 95655 -4.9508e+002 -7.8037e+002  5.0099e+000 38694 95577,95629,95603
 2.7000e+000 96325 -4.0346e+002 -8.8010e+002  2.7389e+001 38240 95953,96031,96005
 2.7000e+000 96302 -3.8904e+002 -5.2791e+002  1.4553e+002 38240 95953,96161,96031
 2.7000e+000 96279 -2.6611e+002 -4.9102e+002 -4.2549e+001 38240 96031,96161,96135
 2.7000e+000 96256 -3.1346e+002 -6.5634e+002  1.2382e+002 38240 96348,96109,96057
 2.7000e+000 96233 -2.7014e+002 -5.8586e+002  8.4732e+001 38240 96348,96057,96031
 2.7000e+000 96210 -2.3536e+002 -6.5164e+002  1.7576e+002 38240 96057,96109,96083
 2.7000e+000 96187 -5.0767e+002 -3.8696e+002 -6.1457e+001 38240 95953,96005,95979
 2.7000e+000 96374 -2.3600e+002 -7.7742e+002  7.1888e+001 38240 96135,96109,96348
 2.7000e+000 96397 -1.6317e+002 -6.5363e+002  2.3114e+001 38240 96135,96348,96031
 2.7000e+000 96618 -4.5119e+002 -1.2050e+003  3.5558e-001 37821 96494,96546,96520
 2.7000e+000 96595 -2.9534e+002 -1.0694e+003  6.1061e+001 37821 96468,96546,96494
 2.7000e+000 96572 -1.8901e+002 -1.0237e+003  5.2618e+001 37821 96442,96546,96468
 2.7000e+000 97126 -2.6040e+002 -6.0521e+002 -5.3096e+001 37367 97149,96855,96829
 2.7000e+000 97103 -2.8775e+002 -6.2113e+002 -3.1610e+001 37367 97149,96829,96985
 2.7000e+000 97080 -2.3620e+002 -6.3577e+002 -3.9049e+001 37367 96803,96985,96829
 2.7000e+000 97057 -1.7720e+002 -5.7441e+002 -8.8491e+001 37367 96855,96907,96881
 2.7000e+000 97034 -3.5241e+002 -5.5205e+002 -1.5062e+001 37367 96907,96985,96959
 2.7000e+000 97011 -4.1251e+002 -5.1735e+002 -7.1495e+001 37367 96907,96959,96933
 2.7000e+000 97175 -2.8569e+002 -5.7237e+002 -6.8367e+001 37367 96907,96855,97149
 2.7000e+000 97198 -3.0552e+002 -5.8967e+002 -4.9219e+001 37367 96907,97149,96985
 2.7000e+000 97704 -4.0490e+002 -8.7181e+002  1.0251e+002 36863 97727,97511,97485
 2.7000e+000 97681 -3.8642e+002 -7.9106e+002  1.2810e+002 36863 97727,97485,97433
 2.7000e+000 97658 -5.0629e+002 -9.3623e+002  1.2522e+001 36863 97381,97563,97433
 2.7000e+000 97635 -2.6062e+002 -7.8938e+002 -3.4792e+001 36863 97511,97563,97537
 2.7000e+000 97612 -1.9850e+002 -5.7910e+002  2.1591e+001 36863 97433,97485,97459
 2.7000e+000 97589 -6.0085e+002 -9.6652e+002  8.4848e+001 36863 97381,97433,97407
 2.7000e+000 97753 -4.0067e+002 -9.4035e+002  6.1257e+001 36863 97563,97511,97727
 2.7000e+000 97776 -3.9197e+002 -8.6591e+002  8.3372e+001 36863 97563,97727,97433
 2.7000e+000 98331 -4.5614e+002 -1.0175e+003 -5.2148e+000 36287 98354,98089,98063
 2.7000e+000 98308 -4.1204e+002 -1.0286e+003  6.5572e+001 36287 98354,98063,98011
 2.7000e+000 98285 -5.6033e+002 -9.5848e+002  1.3513e+002 36287 98426,97985,98115
 2.7000e+000 98262 -3.9980e+002 -1.0649e+003  5.8263e+001 36287 98011,98063,98037
 2.7000e+000 98239 -5.2291e+002 -8.2455e+002  3.9978e+001 36287 97985,98141,98115
 2.7000e+000 98216 -5.6024e+002 -6.9252e+002  1.3077e+002 36287 97959,98141,97985
 2.7000e+000 98193 -4.3292e+002 -1.1993e+003  3.1906e+002 36287 97959,98167,98141
 2.7000e+000 98380 -4.4329e+002 -1.0007e+003 -1.4709e+001 36287 98115,98089,98354
 2.7000e+000 98403 -4.2284e+002 -9.4754e+002  2.7763e+000 36287 98426,98115,98354
 2.7000e+000 98452 -7.2008e+002 -1.1039e+003  2.3310e+002 36287 98011,97985,98426
 2.7000e+000 98475 -6.0291e+002 -1.1340e+003  1.0818e+002 36287 98011,98426,98354
 2.7000e+000 99030 -4.9689e+002 -1.2650e+003 -7.3999e+001 35726 99053,98736,98710
 2.7000e+000 99007 -4.1186e+002 -1.0720e+003  1.7164e+001 35726 99053,98710,98684
 2.7000e+000 98984 -5.4446e+002 -1.0385e+003 -1.0550e+002 35726 99125,98814,98736
 2.7000e+000 98961 -4.1347e+002 -8.8277e+002 -3.9754e+001 35726 98736,98814,98788
 2.7000e+000 98938 -5.0936e+002 -9.6628e+002  8.1119e+001 35726 98684,98866,98840
 2.7000e+000 98915 -3.4127e+002 -8.5740e+002 -2.3143e+001 35726 98736,98788,98762
 2.7000e+000 98892 -3.5143e+002 -1.0290e+003  3.2042e+001 35726 98658,98866,98684
 2.7000e+000 99079 -4.2365e+002 -1.0477e+003 -3.5416e+001 35726 99125,98736,99053
 2.7000e+000 99102 -5.1437e+002 -9.4771e+002  1.6587e+001 35726 98840,99053,98684
 2.7000e+000 99151 -6.5550e+002 -1.0901e+003 -1.2978e+002 35726 98840,98814,99125
 2.7000e+000 99174 -5.9420e+002 -1.1144e+003 -4.3813e+001 35726 98840,99125,99053
 2.7000e+000 99454 -1.7851e+002 -6.9099e+002 -4.7438e+001 35222 99278,99330,99304
 2.7000e+000 99431 -2.2718e+002 -6.5053e+002  2.5381e+001 35222 99278,99382,99330
 2.7000e+000 99408 -3.9665e+002 -7.9095e+002 -3.9879e+001 35222 99330,99382,99356
 2.7000e+000 99653 -2.5627e+002 -1.1317e+003  3.9804e+000 34867 99477,99529,99503
 2.7000e+000 99630 -3.2376e+002 -8.1744e+002 -7.0834e+001 34867 99477,99581,99529
 2.7000e+000 99607 -3.4036e+002 -1.3200e+003 -3.4885e+002 34867 99529,99581,99555
 2.7000e+000 100104 -2.0506e+002 -7.7954e+002 -1.8707e+001 34363 99781,99885,99807
 2.7000e+000 100081 -3.0270e+002 -8.3416e+002  1.9748e+001 34363 99781,99963,99885
 2.7000e+000 100058 -9.5906e+001 -7.1366e+002 -3.8816e+001 34363 99885,99963,99911
 2.7000e+000 100035 -1.2681e+002 -6.8399e+002  1.6061e+001 34363 99807,99885,99859
 2.7000e+000 100012 -9.8989e+001 -7.0412e+002 -1.0121e+002 34363 99911,99963,99937
 2.7000e+000 99989 -3.9344e+001 -6.3887e+002  4.4093e+001 34363 99807,99859,99833
 2.7000e+000 100303 -3.9525e+002 -7.1572e+002 -1.6899e+002 33909 100127,100205,100179
 2.7000e+000 100280 -5.6725e+002 -8.0478e+002 -1.3649e+002 33909 100127,100231,100205
 2.7000e+000 100257 -5.0428e+002 -9.1663e+002 -8.8498e+001 33909 100127,100179,100153
 2.7000e+000 100890 -2.4125e+002 -7.9014e+002 -9.7092e+001 33412 100645,100749,100697
 2.7000e+000 100867 -2.6446e+002 -9.6603e+002 -7.4587e+001 33412 100567,100749,100645
 2.7000e+000 100844 -2.5896e+002 -9.5103e+002 -7.5213e+001 33412 100567,100645,100619
 2.7000e+000 100821 -2.2375e+002 -9.1854e+002 -1.7645e+002 33412 100645,100697,100671
 2.7000e+000 100798 -3.4220e+002 -1.3031e+003 -2.3271e+001 33412 100567,100619,100593
 2.7000e+000 100775 -4.3278e+002 -8.0841e+002 -3.9918e+001 33412 100697,100749,100723
 2.7000e+000 101268 -2.5983e+002 -9.8859e+002  3.3349e+000 32908 101435,101291,101098
 2.7000e+000 101245 -3.7214e+002 -9.9359e+002  4.3059e+001 32908 101291,101072,101020
 2.7000e+000 101222 -3.7299e+002 -1.0649e+003 -1.2997e+002 32908 101363,101150,101124
 2.7000e+000 101199 -4.4781e+002 -1.0750e+003  1.8537e+002 32908 101020,101072,101046
 2.7000e+000 101176 -2.0807e+002 -8.4693e+002 -4.5812e+001 32908 100994,101150,101020
 2.7000e+000 101317 -2.6493e+002 -1.0443e+003  3.2400e+001 32908 101124,101098,101291
 2.7000e+000 101340 -3.1686e+002 -1.1292e+003 -1.1595e+001 32908 101363,101124,101291
 2.7000e+000 101389 -3.0004e+002 -9.4641e+002 -9.4991e+001 32908 101020,101150,101363
 2.7000e+000 101412 -2.3860e+002 -9.5469e+002  2.0453e+001 32908 101020,101363,101291
 2.7000e+000 101461 -2.3770e+002 -9.0450e+002  8.4583e+001 32908 101072,101291,101435
 2.7000e+000 101918 -2.2450e+002 -9.8839e+002 -9.1699e+001 32618 101941,101670,101644
 2.7000e+000 101895 -5.1183e+001 -9.5836e+002  2.7228e+001 32618 101941,101644,101774
 2.7000e+000 101872 -3.9079e+002 -8.3969e+002 -2.1469e+001 32618 102013,101696,101670
 2.7000e+000 101849 -7.7425e+001 -6.3482e+002 -1.1079e+002 32618 101696,101748,101722
 2.7000e+000 101826 -2.4662e+001 -9.1371e+002  1.6164e+001 32618 101644,101800,101774
 2.7000e+000 101967 -3.8502e+002 -9.6787e+002 -8.9524e+001 32618 102013,101670,101941
 2.7000e+000 101990 -3.0838e+002 -1.0784e+003  6.5080e+001 32618 101748,101941,101774
 2.7000e+000 102039 -3.5259e+002 -7.9238e+002  3.4389e+000 32618 101748,101696,102013
 2.7000e+000 102062 -2.1111e+002 -8.3998e+002 -2.8372e+001 32618 101748,102013,101941
 2.7000e+000 102440 -5.5501e+002 -1.1754e+003  8.9773e+001 32306 102463,102270,102244
 2.7000e+000 102417 -5.7271e+002 -1.1871e+003  8.0680e+000 32306 102463,102244,102192
 2.7000e+000 102394 -5.4615e+002 -1.0574e+003 -5.9694e+000 32306 102192,102244,102218
 2.7000e+000 102371 -3.6817e+002 -1.0893e+003  8.4828e+001 32306 102270,102322,102296
 2.7000e+000 102348 -2.7505e+002 -1.3179e+003 -6.9034e+001 32306 102166,102322,102192
 2.7000e+000 102489 -4.6304e+002 -1.1519e+003  1.1712e+002 32306 102322,102270,102463
 2.7000e+000 102512 -4.8039e+002 -1.1779e+003  3.0563e+001 32306 102322,102463,102192
 2.7000e+000 102662 -2.6091e+002 -9.8521e+002 -1.9704e+001 31852 102943,102587,102561
 2.7000e+000 102639 -1.5841e+002 -8.3545e+002  3.1246e+001 31852 102815,102685,102561
 2.7000e+000 102711 -3.0482e+002 -1.0247e+003 -3.7204e+001 31852 102943,102561,102685
 2.7000e+000 102841 -1.3837e+002 -7.1360e+002  9.4202e+001 31852 102535,102685,102815
 2.7000e+000 102969 -2.6297e+002 -1.0241e+003 -6.4718e+001 31852 102613,102587,102943
 2.7000e+000 102992 -3.0717e+002 -1.0608e+003 -8.1805e+001 31852 102613,102943,102685
 2.7000e+000 103370 -5.4664e+002 -1.1951e+003  4.8535e+001 31134 103096,103200,103122
 2.7000e+000 103347 -6.7525e+002 -1.5231e+003  1.3092e+002 31134 103096,103226,103200
 2.7000e+000 103324 -6.7247e+002 -1.2494e+003  6.4092e+001 31134 103122,103200,103174
 2.7000e+000 103301 -3.5885e+002 -1.2618e+003  1.0152e+001 31134 103096,103252,103226
 2.7000e+000 103278 -4.6879e+002 -1.4337e+003 -1.6166e+002 31134 103122,103174,103148
 2.7000e+000 103520 -1.7374e+002 -1.4569e+003 -2.9500e-001 30822 103393,103445,103419
 2.7000e+000 103497 -5.7484e+001 -7.5166e+002  3.8245e+001 30822 103393,103471,103445
 2.7000e+000 103719 -2.2278e+002 -8.5507e+002  1.8200e+001 30182 103742,103621,103569
 2.7000e+000 103696 -2.9079e+002 -8.7713e+002 -7.4828e-001 30182 103742,103569,103543
 2.7000e+000 103673 -2.4411e+002 -8.6255e+002  2.4091e+001 30182 103569,103621,103595
 2.7000e+000 103768 -1.5903e+002 -8.8447e+002  3.6148e+001 30182 103647,103621,103742
 2.7000e+000 103791 -2.0544e+002 -9.0069e+002  9.4021e+000 30182 103647,103742,103543
 2.7000e+000 104252 -4.9840e+002 -9.3505e+002  3.2689e+001 29728 104030,104108,104056
 2.7000e+000 104229 -3.5327e+002 -6.2927e+002  7.3647e+001 29728 104004,104108,104030
 2.7000e+000 104206 -2.7317e+002 -6.9361e+002  5.6833e+001 29728 104004,104134,104108
 2.7000e+000 104183 -3.8122e+002 -8.0201e+002 -6.4005e+001 29728 103978,104134,104004
 2.7000e+000 104160 -2.5961e+002 -8.5726e+002 -6.6983e+001 29728 104056,104108,104082
 2.7000e+000 104630 -3.2131e+002 -9.8608e+002 -1.1184e+002 29217 104653,104382,104356
 2.7000e+000 104607 -2.5633e+002 -8.6853e+002 -2.9954e+001 29217 104653,104356,104512
 2.7000e+000 104584 -4.2255e+002 -9.8749e+002 -1.1938e+002 29217 104434,104512,104486
 2.7000e+000 104561 -2.6461e+002 -1.0299e+003 -1.6727e+002 29217 104382,104434,104408
 2.7000e+000 104538 -1.9890e+002 -7.0537e+002  3.8479e+001 29217 104434,104486,104460
 2.7000e+000 104679 -3.5528e+002 -1.0007e+003 -1.6139e+002 29217 104434,104382,104653
 2.7000e+000 104702 -3.4742e+002 -9.5532e+002 -8.8174e+001 29217 104434,104653,104512
 2.7000e+000 105178 -3.2335e+002 -9.8479e+002  2.3789e+001 28649 105201,104962,104936
 2.7000e+000 105155 -3.3834e+002 -9.6391e+002  3.4521e+001 28649 105201,104936,104884
 2.7000e+000 105132 -3.6331e+002 -8.8977e+002 -7.6551e+001 28649 105273,104858,105014
 2.7000e+000 105109 -5.2594e+002 -1.0292e+003  2.0578e+001 28649 104962,105014,104988
 2.7000e+000 105086 -2.0659e+002 -8.2211e+002 -1.0629e+002 28649 104884,104936,104910
 2.7000e+000 105063 -3.6761e+002 -8.1185e+002 -3.0839e+001 28649 104806,105014,104858
 2.7000e+000 105040 -4.4470e+002 -7.8722e+002 -7.1747e+001 28649 104806,104858,104832
 2.7000e+000 105227 -3.1170e+002 -9.9317e+002  1.0770e+001 28649 105014,104962,105201
 2.7000e+000 105250 -2.7381e+002 -9.2691e+002 -1.3323e+001 28649 105273,105014,105201
 2.7000e+000 105299 -4.5953e+002 -9.3560e+002 -6.3207e+001 28649 104884,104858,105273
 2.7000e+000 105322 -4.2714e+002 -1.0043e+003  1.3129e+001 28649 104884,105273,105201
 2.7000e+000 105673 -4.9480e+001 -9.2820e+002  1.1537e+001 28351 105474,105578,105552
 2.7000e+000 105650  2.6513e+001 -6.1793e+002 -1.4233e+001 28351 105448,105578,105474
 2.7000e+000 105627  4.1322e+000 -8.6146e+002  6.9312e+000 28351 105500,105552,105526
 2.7000e+000 105604 -1.4342e+001 -9.1080e+002  5.2071e+000 28351 105474,105552,105500
 2.7000e+000 106130 -3.9765e+002 -6.1988e+002 -2.0030e+002 28004 106153,105882,105856
 2.7000e+000 106107 -3.5734e+002 -8.3662e+002 -1.2589e+002 28004 106153,105856,105986
 2.7000e+000 106084 -6.9854e+002 -9.3135e+002  4.1601e+001 28004 105934,105986,105960
 2.7000e+000 106061 -5.5243e+002 -9.6142e+002 -4.0858e+001 28004 105856,106012,105986
 2.7000e+000 106038 -6.6110e+002 -9.6776e+002 -8.4728e+001 28004 105882,105934,105908
 2.7000e+000 106179 -5.8634e+002 -7.9861e+002 -1.0077e+002 28004 105934,105882,106153
 2.7000e+000 106202 -4.0081e+002 -9.0840e+002 -6.1353e+001 28004 105934,106153,105986
 2.7000e+000 106885 -5.6626e+002 -8.2016e+002 -2.7060e+001 27564 106908,106620,106516
 2.7000e+000 106862 -5.5610e+002 -7.9216e+002 -1.3000e+001 27564 106908,106516,106490
 2.7000e+000 106839 -5.1879e+002 -7.6975e+002 -9.4927e+001 27564 106516,106620,106542
 2.7000e+000 106816 -5.0937e+002 -6.1840e+002 -4.6828e+001 27564 106620,106672,106646
 2.7000e+000 106793 -4.0403e+002 -8.7271e+002 -1.6444e+002 27564 106542,106620,106594
 2.7000e+000 106770 -5.5371e+002 -7.1216e+002  4.8481e+001 27564 106490,106698,106672
 2.7000e+000 106747 -4.4074e+002 -8.2319e+002  1.5905e+002 27564 106464,106698,106490
 2.7000e+000 106724 -7.9178e+001 -6.9248e+002 -2.3755e+002 27564 106542,106594,106568
 2.7000e+000 106934 -5.8614e+002 -7.9458e+002 -3.4189e+001 27564 106672,106620,106908
 2.7000e+000 106957 -5.7829e+002 -7.6542e+002 -2.8060e+001 27564 106672,106908,106490
 2.7000e+000 107463 -4.1467e+002 -8.4416e+002 -7.2555e+000 27053 107218,107322,107296
 2.7000e+000 107440 -4.8607e+002 -1.0046e+003  2.6375e+001 27053 107166,107322,107218
 2.7000e+000 107417 -4.3616e+002 -9.9286e+002 -2.1490e+001 27053 107218,107296,107244
 2.7000e+000 107394 -4.6672e+002 -8.0218e+002  8.2599e+001 27053 107140,107322,107166
 2.7000e+000 107371 -4.6220e+002 -1.0279e+003  3.3023e+001 27053 107166,107218,107192
 2.7000e+000 107348 -4.2900e+002 -1.2643e+003 -1.3572e+002 27053 107244,107296,107270
 2.7000e+000 108097 -4.1093e+002 -1.0134e+003 -5.9613e+001 26549 108192,108120,107803
 2.7000e+000 108074 -3.7258e+002 -1.1589e+003  6.9136e+001 26549 108120,107725,107933
 2.7000e+000 108051 -1.2567e+002 -1.3855e+003  8.1078e+001 26549 107751,107803,107777
 2.7000e+000 108028 -4.0326e+002 -1.0856e+003 -8.1260e+001 26549 108192,107803,107751
 2.7000e+000 108005 -2.5312e+002 -7.0107e+002 -8.1765e+000 26549 108264,107855,107803
 2.7000e+000 107982 -1.1956e+002 -7.9104e+002 -4.2506e+001 26549 107881,107933,107907
 2.7000e+000 107959 -3.4365e+002 -7.4807e+002  9.2879e+000 26549 107803,107855,107829
 2.7000e+000 108146 -3.2557e+002 -8.1121e+002 -5.2168e+001 26549 108264,107803,108120
 2.7000e+000 108169 -2.9781e+002 -9.6757e+002  2.8448e+001 26549 107881,108120,107933
 2.7000e+000 108218 -3.9300e+002 -9.3932e+002 -7.2824e+000 26549 107725,108120,108192
 2.7000e+000 108241 -3.7974e+002 -9.9462e+002 -3.2343e+001 26549 107725,108192,107751
 2.7000e+000 108290 -1.6529e+002 -8.4425e+002 -3.6477e+001 26549 107881,107855,108264
 2.7000e+000 108313 -2.2766e+002 -9.6669e+002 -6.8014e+001 26549 107881,108264,108120
 2.7000e+000 108512 -2.7383e+002 -1.1071e+003 -7.3917e+001 26137 108388,108440,108414
 2.7000e+000 108489 -1.9220e+002 -9.8471e+002 -1.3895e+001 26137 108362,108440,108388
 2.7000e+000 108466 -2.5101e+002 -1.0411e+003 -3.7225e+001 26137 108336,108440,108362
 2.7000e+000 108662 -3.3014e+002 -9.0146e+002 -7.4833e+001 25733 108817,108685,108535
 2.7000e+000 108639 -2.3947e+002 -9.8153e+002 -1.8902e+001 25733 109017,108817,108535
 2.7000e+000 108711 -3.6392e+002 -8.5907e+002 -3.1043e+001 25733 108561,108535,108685
 2.7000e+000 108843 -2.3326e+002 -9.0394e+002 -2.4492e+001 25733 108587,108685,108817
 2.7000e+000 108866 -2.0214e+002 -8.7636e+002 -6.3197e+000 25733 108889,108817,108613
 2.7000e+000 108915 -1.9593e+002 -8.5664e+002 -4.0901e+001 25733 108587,108817,108889
 2.7000e+000 109043 -1.9404e+002 -7.5229e+002  8.5490e+000 25733 108613,108817,109017
 2.7000e+000 109500 -6.2204e+002 -1.1270e+003  1.0516e+002 25229 109523,109356,109330
 2.7000e+000 109477 -3.6921e+002 -9.0197e+002 -4.9233e+001 25229 109595,109523,109330
 2.7000e+000 109454 -3.4722e+002 -8.2496e+002 -1.1609e+002 25229 109595,109330,109278
 2.7000e+000 109431 -3.7910e+002 -8.7290e+002 -6.8366e+001 25229 109667,109226,109382
 2.7000e+000 109408 -3.8878e+002 -8.9725e+002 -1.5770e+002 25229 109278,109330,109304
 2.7000e+000 109549 -1.9121e+002 -9.2553e+002  4.4005e+001 25229 109382,109356,109523
 2.7000e+000 109572 -3.3633e+002 -9.4271e+002 -8.0057e+001 25229 109667,109382,109523
 2.7000e+000 109621 -3.9642e+002 -1.0157e+003 -6.9141e+001 25229 109252,109523,109595
 2.7000e+000 109644 -2.6723e+002 -8.8373e+002 -5.4236e+001 25229 109739,109595,109278
 2.7000e+000 109693 -5.0235e+002 -9.8920e+002 -1.9749e+001 25229 109252,109226,109667
 2.7000e+000 109716 -4.0282e+002 -1.0240e+003 -5.0828e+001 25229 109252,109667,109523
 2.7000e+000 109765 -4.7616e+002 -9.5307e+002 -3.5763e+001 25229 109252,109595,109739
 2.7000e+000 110478 -3.0385e+002 -8.2059e+002  1.1376e+002 24917 110158,110236,110184
 2.7000e+000 110455 -4.2398e+002 -9.0395e+002  2.8981e+000 24917 110158,110288,110236
 2.7000e+000 110432 -2.6094e+002 -1.1013e+003  2.9997e+001 24917 110236,110288,110262
 2.7000e+000 110409 -2.4557e+002 -9.4044e+002  1.2406e+002 24917 110184,110236,110210
 2.7000e+000 110386 -5.5041e+002 -1.0329e+003 -6.9613e+001 24917 110132,110288,110158
 2.7000e+000 110363 -4.8653e+002 -9.7119e+002  1.6104e+001 24917 110132,110314,110288
 2.7000e+000 110340 -5.6230e+002 -1.2339e+003  1.8348e+002 24917 110106,110314,110132
 2.7000e+000 110829 -1.6134e+002 -6.5099e+002 -2.6301e+001 24307 110604,110682,110630
 2.7000e+000 110806 -4.5807e+002 -1.2838e+003  8.0473e+001 24307 110604,110708,110682
 2.7000e+000 110783 -1.4601e+002 -1.1445e+003  4.8911e+001 24307 110604,110734,110708
 2.7000e+000 110760 -4.5551e+001 -6.0140e+002 -3.0446e+001 24307 110630,110682,110656
 2.7000e+000 111335 -2.8144e+002 -7.9070e+002 -1.1356e+002 23767 111012,111168,111038
 2.7000e+000 111312 -3.1007e+002 -8.6179e+002 -1.0548e+002 23767 111012,111194,111168
 2.7000e+000 111289 -5.2800e+002 -1.0039e+003  9.4485e+001 23767 111358,111064,111038
 2.7000e+000 111266 -3.7978e+002 -9.3224e+002 -3.2119e+001 23767 111358,111038,111168
 2.7000e+000 111243 -2.4617e+002 -8.7048e+002 -2.5445e+001 23767 111430,111142,111090
 2.7000e+000 111220 -7.2062e-001 -7.6428e+002  8.9183e+000 23767 111090,111142,111116
 2.7000e+000 111384 -4.2801e+002 -9.3657e+002 -1.8995e+001 23767 111090,111064,111358
 2.7000e+000 111407 -4.3111e+002 -8.8891e+002 -4.6866e+001 23767 111430,111090,111358
 2.7000e+000 111456 -7.5461e+001 -9.3209e+002 -6.9936e+001 23767 111168,111142,111430
 2.7000e+000 111479 -1.8142e+002 -8.9155e+002 -7.8793e+001 23767 111168,111430,111358
 2.7000e+000 111985 -2.4557e+002 -6.4441e+002  8.3058e+001 23477 111688,111844,111818
 2.7000e+000 111962 -2.1925e+002 -6.5943e+002 -9.4064e+001 23477 111662,111844,111688
 2.7000e+000 111939 -1.6881e+002 -1.1012e+003  1.3310e+002 23477 111766,111818,111792
 2.7000e+000 111916 -4.5333e+002 -1.0127e+003  7.6870e+001 23477 111740,111818,111766
 2.7000e+000 111893 -2.6339e+002 -5.6400e+002  9.6776e+001 23477 111688,111818,111740
 2.7000e+000 111870 -4.3434e+002 -7.5337e+002  1.8861e+002 23477 111688,111740,111714
 2.7000e+000 112314 -3.6176e+002 -7.1587e+002 -4.0247e+000 23023 112141,112219,112193
 2.7000e+000 112291 -3.1070e+002 -6.8573e+002 -3.0043e+001 23023 112115,112219,112141
 2.7000e+000 112268 -3.1338e+002 -8.3316e+002  7.4482e+001 23023 112141,112193,112167
 2.7000e+000 112245 -3.2267e+002 -7.5618e+002 -3.3574e+001 23023 112089,112219,112115
 2.7000e+000 112692 -3.6511e+002 -9.3125e+002 -3.5178e+001 22768 112444,112574,112548
 2.7000e+000 112669 -2.8358e+002 -9.5080e+002 -4.1965e+000 22768 112418,112574,112444
 2.7000e+000 112646 -4.4850e+002 -9.8774e+002 -1.0352e-001 22768 112444,112522,112470
 2.7000e+000 112623 -3.5018e+002 -9.2531e+002 -3.5882e+001 22768 112444,112548,112522
 2.7000e+000 112600 -1.1194e+002 -8.3688e+002 -6.8831e+001 22768 112470,112522,112496
 2.7000e+000 113011 -1.7987e+002 -9.6469e+002 -7.2055e+001 22314 112763,112867,112789
 2.7000e+000 112988 -6.0623e+001 -9.8763e+002 -9.2437e+001 22314 112763,112893,112867
 2.7000e+000 112965 -1.7795e+002 -9.6069e+002  0.0000e+000 22314 112815,112867,112841
 2.7000e+000 112942 -2.4318e+002 -1.0010e+003 -4.6610e+001 22314 112789,112867,112815
 2.7000e+000 112919 -5.8090e+001 -7.5564e+002  2.1016e+002 22314 112737,112893,112763
 2.7000e+000 113519 -5.8901e+001 -7.4472e+002  1.7071e+002 21924 113614,113542,113248
 2.7000e+000 113496 -1.6704e+002 -7.2708e+002  6.5672e+001 21924 113542,113196,113378
 2.7000e+000 113473 -1.3810e+002 -7.6517e+002  1.8078e+002 21924 113614,113248,113222
 2.7000e+000 113450 -1.6135e+002 -1.0452e+003  5.8807e+001 21924 113686,113274,113248
 2.7000e+000 113427 -3.0242e+002 -1.1134e+003 -5.8242e+001 21924 113274,113352,113326
 2.7000e+000 113404 -5.0710e+002 -1.4770e+003 -1.3946e+002 21924 113274,113326,113300
 2.7000e+000 113568 -5.0686e+001 -8.8931e+002  1.1686e+002 21924 113686,113248,113542
 2.7000e+000 113591 -1.4712e+002 -6.7244e+002  7.3737e+001 21924 113352,113542,113378
 2.7000e+000 113640 -1.3709e+002 -7.4302e+002  1.3884e+002 21924 113196,113542,113614
 2.7000e+000 113663 -1.6524e+002 -7.3059e+002  1.3796e+002 21924 113196,113614,113222
 2.7000e+000 113712 -2.8050e+002 -8.7007e+002 -1.3066e+001 21924 113352,113274,113686
 2.7000e+000 113735 -2.2414e+002 -7.8879e+002  2.8322e+001 21924 113352,113686,113542
 2.7000e+000 113885 -6.0159e+002 -8.5060e+002 -9.6362e+000 21520 113980,113908,113784
 2.7000e+000 113862 -5.2519e+002 -8.3062e+002 -1.4525e+002 21520 114238,113908,113758
 2.7000e+000 113934 -4.1930e+002 -6.9462e+002  6.9897e+001 21520 114110,113908,113810
 2.7000e+000 113957 -3.6063e+002 -8.4617e+002 -9.3355e+001 21520 113810,113908,113836
 2.7000e+000 114006 -4.7269e+002 -7.4137e+002 -5.6529e+001 21520 113758,113908,113980
 2.7000e+000 114136 -5.8086e+002 -8.3486e+002  8.9402e-001 21520 113784,113908,114110
 2.7000e+000 114264 -6.4689e+002 -9.7019e+002 -1.9940e+002 21520 113836,113908,114238
 2.7000e+000 114662 -4.6134e+002 -1.1680e+003  1.0377e+001 21030 114414,114518,114492
 2.7000e+000 114639 -2.0482e+002 -9.4099e+002 -9.6033e+001 21030 114414,114544,114518
 2.7000e+000 114616 -5.7870e+002 -1.2332e+003 -1.1621e+001 21030 114440,114492,114466
 2.7000e+000 114593 -4.7092e+002 -1.1912e+003  8.4081e+000 21030 114414,114492,114440
 2.7000e+000 114570 -3.4287e+002 -9.7033e+002 -1.4875e+001 21030 114388,114544,114414
 2.7000e+000 114959 -7.3373e+002 -1.2027e+003  8.2924e+001 20512 114982,114711,114685
 2.7000e+000 114936 -6.7703e+002 -1.1683e+003 -2.5893e+001 20512 115054,114982,114685
 2.7000e+000 114913 -5.5755e+002 -1.0573e+003 -7.6408e+001 20512 115054,114685,114841
 2.7000e+000 114890 -4.4573e+002 -1.1015e+003  2.9233e+001 20512 114711,114763,114737
 2.7000e+000 114867 -2.5489e+002 -1.0240e+003  1.8547e+001 20512 114763,114815,114789
 2.7000e+000 115008 -6.3302e+002 -1.1805e+003  4.9465e+001 20512 114763,114711,114982
 2.7000e+000 115031 -5.7206e+002 -1.1508e+003 -2.5771e+001 20512 114763,114982,114815
 2.7000e+000 115080 -6.1450e+002 -1.2003e+003  3.2419e+000 20512 114815,114982,115054
 2.7000e+000 115103 -6.1208e+002 -1.1912e+003  1.6051e+000 20512 114815,115054,114841
 2.7000e+000 115507 -5.3859e+002 -1.0579e+003 -3.6619e+001 20143 115285,115389,115363
 2.7000e+000 115484 -6.1303e+002 -1.1949e+003 -7.6027e+000 20143 115259,115389,115285
 2.7000e+000 115461 -5.4785e+002 -1.0200e+003 -1.2972e+000 20143 115233,115389,115259
 2.7000e+000 115438 -5.0542e+002 -1.2270e+003  3.5017e+001 20143 115285,115337,115311
 2.7000e+000 115415 -7.0808e+002 -1.4415e+003 -6.5115e+001 20143 115285,115363,115337
 2.7000e+000 115875 -4.1709e+002 -9.6727e+002  4.8837e+000 19632 115656,115734,115682
 2.7000e+000 115852 -1.9192e+002 -8.7945e+002  1.1765e+002 19632 115552,115734,115656
 2.7000e+000 115829 -2.0813e+002 -8.7835e+002 -7.2625e+001 19632 115552,115656,115578
 2.7000e+000 115806 -4.0995e+002 -9.9110e+002  1.0288e+001 19632 115578,115656,115630
 2.7000e+000 115783 -4.5354e+002 -9.1941e+002  5.5151e+001 19632 115682,115734,115708
 2.7000e+000 115760 -5.0325e+002 -1.0199e+003 -9.2299e+001 19632 115578,115630,115604
 2.7000e+000 116025 -2.5009e+002 -1.0097e+003 -1.9350e+002 19178 115898,115950,115924
 2.7000e+000 116002 -3.3509e+002 -1.0243e+003 -1.0523e+002 19178 115898,115976,115950
 2.7000e+000 116633 -3.4387e+002 -9.6137e+002 -1.5971e+001 18738 116800,116656,116342
 2.7000e+000 116610 -3.5897e+002 -1.0158e+003  3.0337e+001 18738 116656,116238,116446
 2.7000e+000 116587 -4.2545e+002 -9.8309e+002 -5.4263e+001 18738 116728,116368,116342
 2.7000e+000 116564 -3.3827e+002 -9.2884e+002 -3.5458e+001 18738 116800,116342,116264
 2.7000e+000 116541 -3.7839e+002 -1.3337e+003  1.1410e+002 18738 116212,116446,116238
 2.7000e+000 116518 -8.3308e+001 -6.8063e+002  2.7068e+001 18738 116394,116446,116420
 2.7000e+000 116495  1.4197e+002 -7.7392e+002 -1.4316e+002 18738 116264,116342,116316
 2.7000e+000 116472 -1.5924e+002 -1.0550e+003  1.2318e+002 18738 116264,116316,116290
 2.7000e+000 116682 -4.0907e+002 -9.6266e+002  2.0056e+001 18738 116728,116342,116656
 2.7000e+000 116705 -3.5771e+002 -8.0679e+002  5.7933e+001 18738 116394,116656,116446
 2.7000e+000 116754 -5.4613e+002 -1.0296e+003 -9.7064e+001 18738 116394,116368,116728
 2.7000e+000 116777 -5.3863e+002 -1.0066e+003 -2.0553e+001 18738 116394,116728,116656
 2.7000e+000 116826 -3.3443e+002 -1.0253e+003  8.4421e+000 18738 116238,116656,116800
 2.7000e+000 116849 -3.1384e+002 -9.8402e+002 -1.6166e+001 18738 116238,116800,116264
 2.7000e+000 116999 -3.2279e+002 -1.0291e+003  4.3421e+001 18184 116872,116924,116898
 2.7000e+000 116976 -3.2149e+002 -5.5671e+002 -1.8883e+001 18184 116872,116950,116924
 2.7000e+000 117330 -6.9408e+001 -1.2324e+003  8.3560e+001 17694 117157,117235,117183
 2.7000e+000 117307 -3.9552e+002 -1.3931e+003  1.3638e+001 17694 117131,117235,117157
 2.7000e+000 117284 -2.7528e+002 -1.5565e+003 -7.6270e+001 17694 117105,117235,117131
 2.7000e+000 117261  1.7235e+002 -7.7471e+002 -3.4734e+001 17694 117183,117235,117209
 2.7000e+000 117480 -4.7052e+002 -1.1065e+003 -1.3071e+002 17290 117353,117405,117379
 2.7000e+000 117457 -2.3144e+002 -1.2290e+003 -1.4106e+002 17290 117353,117431,117405
 2.7000e+000 117679 -1.1985e+002 -8.9535e+002 -3.9549e+001 16718 117555,117607,117581
 2.7000e+000 117656 -4.4074e+002 -1.1177e+003  5.8853e+001 16718 117529,117607,117555
 2.7000e+000 117633  2.0207e+001 -1.0809e+003  4.3221e+001 16718 117503,117607,117529
 2.7000e+000 117782 -2.8268e+002 -9.7944e+002  2.5407e+001 16520 117704,117756,117730
 2.7000e+000 117983 -3.0125e+002 -1.2585e+003 -2.8781e+000 16208 117859,117911,117885
 2.7000e+000 117960 -2.4351e+002 -1.2251e+003 -1.6662e+001 16208 117833,117911,117859
 2.7000e+000 117937 -1.5469e+002 -1.1046e+003  3.7310e+001 16208 117807,117911,117833
 2.7000e+000 118135 -7.0972e+002 -1.1661e+003 -1.4073e+002 15674 118034,118086,118060
 2.7000e+000 118112 -3.5026e+002 -9.0648e+002  2.2705e+001 15674 118008,118086,118034
 2.7000e+000 118238 -1.1174e+002 -9.2624e+002  5.3338e+001 15355 118160,118212,118186
 2.7000e+000 118341 -5.8422e+002 -1.1595e+003  2.4205e+002 421 118263,118315,118289
 2.8000e+000 68152 -3.0404e+002 -1.0645e+003 -6.1058e+001 67838 68074,68126,68100
 2.8000e+000 68550 -1.6378e+002 -1.2822e+003  3.8380e+001 67526 68276,68380,68302
 2.8000e+000 68527 -2.4250e+001 -1.2867e+003  1.2276e+001 67526 68276,68406,68380
 2.8000e+000 68504 -1.9033e+002 -1.1489e+003  1.2832e+001 67526 68328,68380,68354
 2.8000e+000 68481 -1.1191e+002 -1.1613e+003  3.6446e+001 67526 68302,68380,68328
 2.8000e+000 68458 -4.8700e+001 -1.3459e+003 -1.8276e+001 67526 68276,68432,68406
 2.8000e+000 68651 -5.9495e+002 -9.8824e+002  1.4399e+002 67328 68573,68625,68599
 2.8000e+000 68970 -1.9602e+002 -9.3929e+002 -2.3946e+000 67016 68722,68800,68774
 2.8000e+000 68947 -2.0869e+002 -9.3510e+002 -2.4237e+001 67016 68722,68826,68800
 2.8000e+000 68924 -3.2012e+002 -9.3918e+002  3.0890e+000 67016 68696,68826,68722
 2.8000e+000 68901 -1.0173e+002 -9.9799e+002 -6.1927e+001 67016 68722,68774,68748
 2.8000e+000 68878 -4.3173e+002 -9.0028e+002 -1.4352e+002 67016 68696,68852,68826
 2.8000e+000 69291 -4.9118e+002 -1.1605e+003 -1.8116e+001 66654 69069,69147,69095
 2.8000e+000 69268 -3.5343e+002 -1.2720e+003  3.6245e+001 66654 69069,69173,69147
 2.8000e+000 69245 -4.7638e+002 -1.1325e+003  1.8620e+002 66654 69043,69173,69069
 2.8000e+000 69222 -6.5061e+002 -1.3698e+003  8.9578e+001 66654 69095,69147,69121
 2.8000e+000 69199 -6.6300e+002 -1.3106e+003  1.3979e+001 66654 69017,69173,69043
 2.8000e+000 69695 -2.2422e+002 -1.4205e+003  3.1119e+001 66456 69447,69577,69551
 2.8000e+000 69672  6.2761e-001 -1.2405e+003 -5.2139e+001 66456 69421,69577,69447
 2.8000e+000 69649 -2.1229e+001 -8.9674e+002 -1.4206e+002 66456 69473,69551,69525
 2.8000e+000 69626 -1.5408e+002 -1.2774e+003  6.4067e-002 66456 69447,69551,69473
 2.8000e+000 69603  8.7704e+001 -7.8200e+002 -2.9683e+002 66456 69473,69525,69499
 2.8000e+000 70024 -3.5501e+002 -1.0619e+003 -1.4990e+001 66258 70047,69851,69825
 2.8000e+000 70001 -3.7079e+002 -1.0334e+003  3.9127e+001 66258 70047,69825,69903
 2.8000e+000 69978 -4.9941e+002 -1.3355e+003  1.1826e+002 66258 69799,69903,69825
 2.8000e+000 69955 -1.9160e+002 -1.6763e+003  3.2567e+002 66258 69799,69929,69903
 2.8000e+000 70073 -4.1818e+002 -1.0760e+003 -3.9071e+001 66258 69877,69851,70047
 2.8000e+000 70096 -4.4282e+002 -1.0434e+003  1.6805e+001 66258 69877,70047,69903
 2.8000e+000 70602  4.7964e+001 -7.5344e+002 -1.6308e+002 66060 70305,70435,70331
 2.8000e+000 70579 -5.0743e+002 -1.2752e+003  5.9033e+001 66060 70279,70435,70305
 2.8000e+000 70556 -5.6219e+002 -9.4882e+002 -2.0349e+002 66060 70331,70435,70409
 2.8000e+000 70533 -3.3849e+002 -9.6783e+002  1.7981e+002 66060 70279,70461,70435
 2.8000e+000 70510 -1.7032e+002 -7.1091e+002 -3.9226e+002 66060 70331,70409,70357
 2.8000e+000 70487 -2.7987e+000 -7.5514e+002 -8.9281e+001 66060 70357,70409,70383
 2.8000e+000 70703 -1.2247e+003 -1.8901e+003 -7.7464e+001 65862 70625,70677,70651
 2.8000e+000 71083 -2.9922e+002 -1.1070e+003  5.8027e+001 65664 70887,70965,70939
 2.8000e+000 71060 -1.8663e+002 -1.1022e+003  2.7580e+001 65664 70861,70965,70887
 2.8000e+000 71037 -2.2187e+002 -1.1494e+003  9.5318e+000 65664 70809,70965,70861
 2.8000e+000 71014 -2.0742e+002 -1.1722e+003 -2.2329e+001 65664 70809,70861,70835
 2.8000e+000 70991 -2.7207e+002 -1.0761e+003  2.0644e+001 65664 70887,70939,70913
 2.8000e+000 71611 -5.6900e+002 -1.6180e+003 -7.2396e+001 65260 71288,71444,71314
 2.8000e+000 71588 -3.1720e+002 -1.4590e+003 -4.3402e+000 65260 71288,71470,71444
 2.8000e+000 71565 -1.6369e+002 -9.7865e+002  9.7432e+001 65260 71314,71418,71392
 2.8000e+000 71542 -5.0074e+002 -1.4198e+003 -5.1257e+001 65260 71314,71444,71418
 2.8000e+000 71519 -5.0608e+002 -1.0919e+003  1.2365e+002 65260 71314,71392,71340
 2.8000e+000 71496 -3.6089e+002 -8.1377e+002  3.1785e+002 65260 71340,71392,71366
 2.8000e+000 72060 -4.0806e+002 -8.7722e+002 -4.8362e+001 64870 71737,71893,71789
 2.8000e+000 72037 -1.2720e+002 -7.5420e+002 -2.8534e+001 64870 71737,71919,71893
 2.8000e+000 72014 -4.4414e+002 -7.9114e+002  4.8725e+001 64870 71789,71841,71815
 2.8000e+000 71991 -3.2802e+002 -8.2443e+002  5.7450e-003 64870 71789,71893,71841
 2.8000e+000 71968 -3.6890e+002 -1.0332e+003 -1.7445e+002 64870 71737,71789,71763
 2.8000e+000 71945 -2.3924e+002 -8.9404e+002  0.0000e+000 64870 71841,71893,71867
 2.8000e+000 72517 -5.1245e+002 -8.2223e+002 -1.0404e+002 64466 72321,72399,72347
 2.8000e+000 72494 -5.0054e+002 -7.4922e+002 -8.6345e+001 64466 72269,72399,72321
 2.8000e+000 72471 -5.1714e+002 -9.1564e+002  4.7774e+001 64466 72347,72399,72373
 2.8000e+000 72448 -4.8570e+002 -8.2061e+002 -2.4556e+002 64466 72243,72399,72269
 2.8000e+000 72425 -6.0585e+002 -9.5605e+002 -4.2842e+001 64466 72269,72321,72295
 2.8000e+000 72944 -1.8331e+002 -6.7008e+002 -4.0643e+001 64062 73111,73039,72699
 2.8000e+000 72921 -1.1572e+002 -7.5844e+002 -6.5706e+001 64062 73183,72967,72647
 2.8000e+000 72898 -1.4024e+002 -7.6304e+002 -5.6168e+001 64062 72967,72803,72751
 2.8000e+000 72875 -1.3180e+002 -6.4820e+002 -5.0085e+001 64062 73111,72699,72673
 2.8000e+000 72852 -6.5237e+001 -8.1070e+002 -3.1066e+001 64062 73183,72647,72621
 2.8000e+000 72829 -9.1805e+001 -6.0528e+002 -2.0131e+002 64062 72751,72803,72777
 2.8000e+000 72993 -1.1854e+002 -7.0380e+002 -3.4254e+001 64062 73039,72647,72967
 2.8000e+000 73016 -2.5782e+002 -7.9764e+002 -5.8175e+001 64062 72725,72967,72751
 2.8000e+000 73065 -3.2266e+001 -8.0729e+002  2.3809e+002 64062 72725,72699,73039
 2.8000e+000 73088 -1.2529e+002 -7.6154e+002 -7.6671e+001 64062 72725,73039,72967
 2.8000e+000 73137 -6.6558e+001 -6.8266e+002 -4.0007e+001 64062 72647,73039,73111
 2.8000e+000 73160 -6.0237e+001 -6.7975e+002 -4.0799e+001 64062 72647,73111,72673
 2.8000e+000 73209 -1.7048e+002 -8.0561e+002 -4.1054e+001 64062 72803,72967,73183
 2.8000e+000 73232 -1.3911e+002 -8.9097e+002  1.5867e-001 64062 72803,73183,72621
 2.8000e+000 73333 -1.0365e+003 -1.6425e+003  8.5913e+001 63814 73356,73281,73255
 2.8000e+000 73382 -8.2678e+002 -1.2245e+003  6.0872e+001 63814 73486,73356,73307
 2.8000e+000 73512 -1.0127e+003 -1.3022e+003 -5.6213e+001 63814 73281,73356,73486
 2.8000e+000 73839 -4.5855e+002 -1.2262e+003 -6.7057e+001 63616 73862,73692,73666
 2.8000e+000 73816 -4.3006e+002 -1.0876e+003 -1.1345e+001 63616 73934,73862,73666
 2.8000e+000 73793 -3.7455e+002 -1.1100e+003  4.2294e+001 63616 73934,73666,73640
 2.8000e+000 73770 -3.3920e+002 -1.1332e+003  7.2444e+001 63616 73614,73744,73640
 2.8000e+000 73888 -4.3828e+002 -1.0924e+003 -8.7243e+001 63616 73718,73692,73862
 2.8000e+000 73911 -5.0528e+002 -1.0612e+003 -1.1475e+000 63616 73718,73862,73744
 2.8000e+000 73960 -5.3059e+002 -1.1278e+003 -3.8924e+000 63616 73744,73862,73934
 2.8000e+000 73983 -4.8747e+002 -1.1577e+003  4.2613e+001 63616 73744,73934,73640
 2.8000e+000 74363 -2.2472e+002 -8.0237e+002 -1.9749e+001 63390 74386,74115,74089
 2.8000e+000 74340 -2.6699e+002 -7.5361e+002 -2.7433e+001 63390 74458,74386,74089
 2.8000e+000 74317 -2.3299e+002 -7.7807e+002  5.7943e+001 63390 74458,74089,74245
 2.8000e+000 74294 -2.9909e+002 -8.9955e+002 -2.4588e+001 63390 74530,74167,74141
 2.8000e+000 74271 -3.1149e+002 -8.0440e+002 -1.5947e+002 63390 74167,74219,74193
 2.8000e+000 74412 -2.0131e+002 -7.7963e+002 -6.2078e+000 63390 74141,74115,74386
 2.8000e+000 74435 -2.3663e+002 -8.4096e+002  9.6704e+000 63390 74530,74141,74386
 2.8000e+000 74484 -2.0316e+002 -6.3418e+002  6.3400e+000 63390 74219,74386,74458
 2.8000e+000 74507 -1.4294e+002 -6.2946e+002  9.9327e+001 63390 74219,74458,74245
 2.8000e+000 74556 -4.0506e+002 -8.4737e+002 -9.8714e+001 63390 74219,74167,74530
 2.8000e+000 74579 -3.3900e+002 -7.7158e+002 -5.9643e+001 63390 74219,74530,74386
 2.8000e+000 74680 -3.8502e+002 -7.5987e+002  9.4449e+001 63100 75089,74833,74703
 2.8000e+000 74729 -5.0759e+002 -9.0381e+002  3.1555e+001 63100 74961,74703,74654
 2.8000e+000 74859 -2.6450e+002 -6.5614e+002  1.3966e+002 63100 74602,74703,74833
 2.8000e+000 74987 -4.4397e+002 -7.4085e+002  5.3280e+001 63100 75089,74703,74961
 2.8000e+000 75115 -2.6352e+002 -7.4697e+002  1.0149e+002 63100 74628,74833,75089
 2.8000e+000 75138 -3.2080e+002 -7.2692e+002  6.0584e+001 63100 74628,75089,74961
 2.8000e+000 75723 -3.1345e+002 -7.2512e+002  1.6195e+001 62532 75746,75504,75426
 2.8000e+000 75700 -4.0370e+002 -6.0019e+002  6.1740e+001 62532 75746,75426,75556
 2.8000e+000 75677 -4.1550e+002 -8.6037e+002 -1.0610e+002 62532 75426,75504,75452
 2.8000e+000 75654 -5.2672e+002 -5.2188e+002 -9.1509e+001 62532 75400,75556,75426
 2.8000e+000 75631 -5.9214e+002 -8.7182e+002 -2.7966e+002 62532 75400,75582,75556
 2.8000e+000 75608 -5.4130e+002 -3.3057e+002 -2.4988e+002 62532 75452,75504,75478
 2.8000e+000 75772 -3.9104e+002 -7.9297e+002 -1.2542e+001 62532 75530,75504,75746
 2.8000e+000 75795 -5.1529e+002 -6.8646e+002  2.4290e+001 62532 75530,75746,75556
 2.8000e+000 76301 -4.2259e+002 -8.4268e+002 -4.3262e+001 62192 76324,76082,76030
 2.8000e+000 76278 -3.9725e+002 -7.9678e+002 -2.5293e+001 62192 76324,76030,76004
 2.8000e+000 76255 -3.1990e+002 -8.3531e+002  7.4930e+001 62192 76030,76082,76056
 2.8000e+000 76232 -5.1411e+002 -9.6728e+002 -1.5068e+002 62192 76082,76134,76108
 2.8000e+000 76209 -3.8783e+002 -7.0926e+002 -8.2012e+001 62192 76004,76160,76134
 2.8000e+000 76186 -2.6002e+002 -8.1769e+002 -3.6447e+001 62192 75978,76160,76004
 2.8000e+000 76350 -4.7846e+002 -7.8163e+002 -4.5713e+001 62192 76134,76082,76324
 2.8000e+000 76373 -4.4269e+002 -7.1624e+002 -2.8316e+001 62192 76134,76324,76004
 2.8000e+000 76879 -5.3325e+002 -7.8012e+002 -4.4592e+001 61788 76902,76660,76582
 2.8000e+000 76856 -4.8771e+002 -8.2923e+002 -7.6130e+001 61788 76902,76582,76556
 2.8000e+000 76833 -8.3628e+002 -8.0392e+002 -1.8621e+002 61788 76582,76660,76634
 2.8000e+000 76810 -7.1806e+002 -1.1433e+003 -1.0358e+002 61788 76582,76634,76608
 2.8000e+000 76787 -4.5343e+002 -9.1021e+002  5.6786e+001 61788 76556,76738,76686
 2.8000e+000 76764 -1.9277e+002 -6.1566e+002 -5.5646e+001 61788 76686,76738,76712
 2.8000e+000 76928 -5.3073e+002 -8.2426e+002 -3.5062e+001 61788 76686,76660,76902
 2.8000e+000 76951 -5.0335e+002 -8.9660e+002 -5.8327e+001 61788 76686,76902,76556
 2.8000e+000 77408 -4.8447e+002 -7.5100e+002 -7.5736e+000 61498 77212,77264,77238
 2.8000e+000 77385 -4.1354e+002 -6.3639e+002  5.3043e+001 61498 77160,77264,77212
 2.8000e+000 77362 -4.7365e+002 -6.4705e+002  5.2107e+001 61498 77160,77290,77264
 2.8000e+000 77339 -2.5648e+002 -7.3557e+002  6.4997e+001 61498 77160,77212,77186
 2.8000e+000 77316 -3.5798e+002 -5.3321e+002  2.3879e+002 61498 77134,77290,77160
 2.8000e+000 77678 -2.6150e+002 -9.9935e+002 -6.7789e+001 61129 77479,77557,77505
 2.8000e+000 77655 -3.6768e+002 -1.0597e+003 -1.7198e+001 61129 77479,77583,77557
 2.8000e+000 77632 -2.2890e+002 -1.0181e+003  5.3294e+001 61129 77453,77583,77479
 2.8000e+000 77609 -1.5852e+002 -9.8750e+002 -9.3034e+001 61129 77505,77557,77531
 2.8000e+000 77828 -2.0826e+002 -1.0033e+003  2.0968e+001 60931 77851,77727,77701
 2.8000e+000 77805 -3.0510e+002 -1.1312e+003  8.0906e+001 60931 77851,77701,77779
 2.8000e+000 77877 -5.3001e+002 -1.2802e+003  2.0422e+002 60931 77923,77851,77753
 2.8000e+000 77900 -1.8094e+002 -1.1158e+003  1.1659e+002 60931 77753,77851,77779
 2.8000e+000 77949 -2.3868e+002 -7.4526e+002  6.2394e+001 60931 77727,77851,77923
 2.8000e+000 78133 -1.4927e+002 -4.9558e+002 -4.6306e+001 60377 78055,78107,78081
 2.8000e+000 78535 -8.0015e+002 -1.1108e+003 -5.0028e+001 60015 78287,78391,78313
 2.8000e+000 78512 -4.8493e+002 -1.1044e+003 -9.4964e+001 60015 78287,78417,78391
 2.8000e+000 78489 -5.4651e+002 -1.2124e+003 -1.9417e+002 60015 78261,78417,78287
 2.8000e+000 78466 -3.7424e+002 -9.9671e+002  9.8558e+001 60015 78339,78391,78365
 2.8000e+000 78443 -4.0843e+002 -9.2090e+002  2.2765e+001 60015 78313,78391,78339
 2.8000e+000 78913 -3.3346e+002 -6.2299e+002  3.3059e+000 59725 78936,78743,78691
 2.8000e+000 78890 -4.1145e+002 -6.7198e+002 -2.5739e+001 59725 79008,78936,78691
 2.8000e+000 78867 -4.0442e+002 -6.4552e+002 -4.0406e+001 59725 79008,78691,78665
 2.8000e+000 78844 -1.8090e+002 -6.0854e+002  9.0325e+001 59725 78691,78743,78717
 2.8000e+000 78821 -1.5102e+002 -6.0508e+002 -2.9582e+002 59725 78639,78795,78769
 2.8000e+000 78962 -2.0122e+002 -6.8679e+002 -7.8873e+001 59725 78769,78743,78936
 2.8000e+000 78985 -4.2996e+002 -8.7439e+002 -1.6015e+002 59725 78769,78936,78639
 2.8000e+000 79034 -3.7460e+002 -6.5318e+002 -4.1853e+001 59725 78639,78936,79008
 2.8000e+000 79057 -3.8823e+002 -6.4762e+002 -5.3634e+001 59725 78639,79008,78665
 2.8000e+000 79386 -3.4456e+002 -9.3027e+002  6.9260e+001 59221 79187,79239,79213
 2.8000e+000 79363 -2.5140e+002 -8.0933e+002  1.9495e+001 59221 79187,79265,79239
 2.8000e+000 79340 -3.9416e+002 -8.5804e+002  3.0590e+001 59221 79187,79291,79265
 2.8000e+000 79317 -2.4664e+002 -5.2410e+002 -2.8366e+001 59221 79161,79291,79187
 2.8000e+000 79813 -3.1231e+002 -7.7198e+002 -2.5742e+001 58831 79836,79542,79516
 2.8000e+000 79790 -2.5356e+002 -7.4127e+002 -3.7020e+001 58831 79980,79836,79516
 2.8000e+000 79767 -3.5659e+002 -8.5361e+002 -8.2334e+001 58831 79908,79646,79568
 2.8000e+000 79744 -2.0174e+002 -6.6150e+002  1.1913e+001 58831 79980,79516,79490
 2.8000e+000 79721 -6.7913e+002 -9.8764e+002 -1.2377e+002 58831 79568,79646,79594
 2.8000e+000 79698 -1.5778e+003 -9.6889e+002 -6.2666e+002 58831 79594,79646,79620
 2.8000e+000 79862 -2.2345e+002 -6.5649e+002  2.6344e+001 58831 79568,79542,79836
 2.8000e+000 79885 -2.2202e+002 -7.4560e+002  1.7070e+001 58831 79908,79568,79836
 2.8000e+000 79934 -4.5295e+002 -8.3898e+002 -1.8188e+002 58831 79672,79646,79908
 2.8000e+000 79957 -4.1783e+002 -7.8788e+002 -8.5414e+001 58831 79672,79908,79836
 2.8000e+000 80006 -2.3913e+002 -6.2579e+002 -1.7231e+001 58831 79672,79836,79980
 2.8000e+000 80029 -2.5596e+002 -6.0770e+002  1.5015e+001 58831 79672,79980,79490
 2.8000e+000 80358 -2.3175e+002 -8.3938e+002 -9.6049e-001 58377 80381,80185,80159
 2.8000e+000 80335 -2.2069e+002 -8.3505e+002  9.5415e-001 58377 80381,80159,80133
 2.8000e+000 80312 -1.2227e+002 -7.7536e+002 -7.9778e+000 58377 80133,80263,80237
 2.8000e+000 80289 -2.8686e+002 -9.4036e+002  7.9455e+001 58377 80185,80237,80211
 2.8000e+000 80407 -2.5220e+002 -8.3358e+002  1.2221e+000 58377 80237,80185,80381
 2.8000e+000 80430 -2.3230e+002 -8.2366e+002  4.7989e+000 58377 80237,80381,80133
 2.8000e+000 80759 -2.2058e+002 -8.0243e+002  1.8085e+002 57873 80782,80586,80560
 2.8000e+000 80736 -3.3291e+002 -9.2508e+002  1.3022e+002 57873 80782,80560,80534
 2.8000e+000 80713 -3.0405e+002 -9.6144e+002  1.1328e+002 57873 80586,80638,80612
 2.8000e+000 80690 -1.0719e+002 -8.8318e+002  9.8542e+001 57873 80534,80664,80638
 2.8000e+000 80808 -2.7679e+002 -9.1266e+002  1.2656e+002 57873 80638,80586,80782
 2.8000e+000 80831 -2.8885e+002 -9.4783e+002  1.0101e+002 57873 80638,80782,80534
 2.8000e+000 81337 -3.2738e+002 -8.9134e+002 -9.1275e+001 57262 81360,81144,81092
 2.8000e+000 81314 -3.8872e+002 -1.0475e+003 -1.1197e+002 57262 81360,81092,81066
 2.8000e+000 81291 -3.8463e+002 -1.0742e+003 -4.8679e+000 57262 81014,81196,81066
 2.8000e+000 81268 -2.7097e+002 -6.7548e+002 -6.9463e+001 57262 81092,81144,81118
 2.8000e+000 81245 -3.1955e+002 -6.7805e+002 -1.7478e+001 57262 81144,81196,81170
 2.8000e+000 81222 -4.4396e+002 -1.2282e+003  8.9108e+001 57262 81014,81066,81040
 2.8000e+000 81386 -3.4688e+002 -7.5094e+002  1.4821e+001 57262 81196,81144,81360
 2.8000e+000 81409 -4.1883e+002 -9.1672e+002 -1.0776e+001 57262 81196,81360,81066
 2.8000e+000 81608 -2.1766e+002 -1.0711e+003  5.4285e+001 57007 81458,81536,81510
 2.8000e+000 81585 -2.2102e+002 -1.1815e+003  7.4355e+001 57007 81432,81536,81458
 2.8000e+000 81562 -6.6925e+002 -9.6805e+002  2.6894e+002 57007 81458,81510,81484
 2.8000e+000 82086 -5.9263e+002 -1.0837e+003 -7.9523e+001 56339 81792,81922,81818
 2.8000e+000 82063 -9.3279e+002 -1.2814e+003 -1.6097e+002 56339 81714,81922,81792
 2.8000e+000 82040 -5.5833e+002 -9.2473e+002 -8.7991e+001 56339 82109,81844,81818
 2.8000e+000 82017 -5.5572e+002 -1.0028e+003 -9.7049e+001 56339 82109,81818,81922
 2.8000e+000 81994 -4.6712e+002 -1.0962e+003 -1.0068e+002 56339 81844,81896,81870
 2.8000e+000 81971 -5.3787e+002 -3.9923e+002  2.1476e+001 56339 81714,81792,81766
 2.8000e+000 81948 -6.9495e+002 -3.9466e+002 -1.3436e+001 56339 81714,81766,81740
 2.8000e+000 82135 -4.9205e+002 -9.8854e+002 -4.5430e+001 56339 81896,81844,82109
 2.8000e+000 82158 -5.2757e+002 -1.1188e+003 -6.9935e+001 56339 81896,82109,81922
 2.8000e+000 82536 -4.4388e+002 -9.7747e+002 -5.5964e+001 55699 82288,82392,82314
 2.8000e+000 82513 -4.9019e+002 -1.0010e+003 -6.8745e+001 55699 82288,82418,82392
 2.8000e+000 82490 -5.3425e+002 -1.2235e+003 -9.3112e+001 55699 82314,82392,82340
 2.8000e+000 82467 -1.2764e+002 -1.5683e+003 -1.8855e+002 55699 82340,82392,82366
 2.8000e+000 82444 -4.3793e+002 -1.0990e+003 -8.2168e+001 55699 82262,82418,82288
 2.8000e+000 83091 -8.4294e+002 -9.6772e+002  1.5714e+002 55409 82745,82901,82875
 2.8000e+000 83068 -7.2579e+002 -9.0415e+002  2.0254e+002 55409 82719,82901,82745
 2.8000e+000 83045 -5.4233e+002 -9.5222e+002  1.4073e+002 55409 82771,82849,82823
 2.8000e+000 83022 -9.7741e+002 -1.0718e+003  2.7330e+002 55409 82745,82849,82771
 2.8000e+000 82999 -5.9167e+002 -8.5998e+002  1.6015e+002 55409 82745,82875,82849
 2.8000e+000 82976 -8.0611e+002 -8.9070e+002  1.7511e+002 55409 82771,82823,82797
 2.8000e+000 82953 -4.3687e+002 -8.4580e+002  1.6965e+002 55409 82719,82927,82901
 2.8000e+000 83388 -3.8778e+002 -1.1252e+003 -5.0601e+001 54905 83411,83218,83166
 2.8000e+000 83365 -2.5329e+002 -1.0607e+003 -2.5895e+001 54905 83411,83166,83114
 2.8000e+000 83342 -4.6022e+002 -1.0620e+003 -5.1842e+001 54905 83483,83270,83244
 2.8000e+000 83319 -4.7091e+002 -1.0504e+003 -1.1206e+002 54905 83166,83218,83192
 2.8000e+000 83296 -2.5598e+002 -1.1147e+003  2.3245e+001 54905 83114,83166,83140
 2.8000e+000 83437 -4.2256e+002 -1.0660e+003 -3.7968e+000 54905 83244,83218,83411
 2.8000e+000 83460 -3.9945e+002 -1.0680e+003 -1.7744e+001 54905 83483,83244,83411
 2.8000e+000 83509 -3.8365e+002 -9.9003e+002 -2.2280e+001 54905 83114,83270,83483
 2.8000e+000 83532 -3.5924e+002 -1.0178e+003  2.4692e+000 54905 83114,83483,83411
 2.8000e+000 83961 -2.9200e+002 -9.8316e+002  2.3451e+001 54593 83638,83768,83690
 2.8000e+000 83938 -7.3941e+001 -1.0685e+003  1.6027e+002 54593 83638,83794,83768
 2.8000e+000 83915 -3.2312e+002 -9.8693e+002  2.5693e+001 54593 83690,83768,83742
 2.8000e+000 83892 -1.8252e+002 -8.4838e+002 -1.6175e+002 54593 83638,83820,83794
 2.8000e+000 83869 -2.7636e+002 -8.9323e+002 -5.4300e-001 54593 83638,83690,83664
 2.8000e+000 83846 -1.9211e+002 -7.1302e+002 -1.9286e+002 54593 83690,83742,83716
 2.8000e+000 84209 -3.8399e+002 -1.3137e+003  1.3742e+002 54132 84232,84062,83984
 2.8000e+000 84186 -3.7030e+002 -1.1079e+003  7.9443e+001 54132 84232,83984,84114
 2.8000e+000 84163 -4.3829e+002 -1.4463e+003 -9.0609e+000 54132 83984,84062,84036
 2.8000e+000 84140 -4.7246e+002 -1.3490e+003 -4.5659e+001 54132 83984,84036,84010
 2.8000e+000 84258 -2.5790e+002 -1.5522e+003  1.0383e+002 54132 84088,84062,84232
 2.8000e+000 84281 -2.1504e+002 -1.3243e+003  7.2001e+000 54132 84088,84232,84114
 2.8000e+000 84382 -2.8297e+002 -8.8123e+002 -1.7134e+001 53521 84304,84356,84330
 2.8000e+000 84632 -4.0292e+002 -1.0740e+003  3.3523e+001 53067 84655,84485,84459
 2.8000e+000 84609 -4.1197e+002 -1.0583e+003  3.2463e+001 53067 84655,84459,84407
 2.8000e+000 84586 -3.5763e+002 -9.9229e+002  4.1786e+000 53067 84485,84537,84511
 2.8000e+000 84563 -4.3569e+002 -1.1392e+003  1.9894e-001 53067 84407,84459,84433
 2.8000e+000 84681 -4.0415e+002 -1.0604e+003  2.9419e+001 53067 84537,84485,84655
 2.8000e+000 84704 -4.0504e+002 -1.0387e+003  2.4422e+001 53067 84537,84655,84407
 2.8000e+000 85214 -3.3097e+002 -1.0833e+003 -1.3888e+002 52513 85021,85073,85047
 2.8000e+000 85191 -3.0137e+002 -8.1223e+002 -1.9520e+002 52513 84943,85073,85021
 2.8000e+000 85168 -2.6768e+002 -7.6202e+002 -2.5526e+001 52513 84943,85021,84995
 2.8000e+000 85145 -5.5496e+002 -1.4399e+003 -1.9211e+002 52513 84917,85073,84943
 2.8000e+000 85122 -2.5066e+002 -7.3660e+002 -3.5157e+001 52513 84943,84995,84969
 2.8000e+000 85099 -8.4675e+002 -1.2979e+003 -1.1733e+002 52513 84891,85073,84917
 2.8000e+000 85582 -3.8529e+002 -9.7511e+002  8.2340e+001 52037 85605,85311,85285
 2.8000e+000 85559 -4.0057e+002 -1.0404e+003  7.6043e+001 52037 85749,85605,85285
 2.8000e+000 85536 -1.3690e+002 -9.5885e+002  1.5121e+001 52037 85893,85677,85389
 2.8000e+000 85513 -2.6646e+002 -9.5728e+002  4.0505e+001 52037 85749,85285,85259
 2.8000e+000 85490  7.4507e+000 -9.0269e+002 -5.5265e+001 52037 85893,85389,85363
 2.8000e+000 85467 -1.8054e+002 -9.7991e+002 -3.4206e+001 52037 85259,85441,85415
 2.8000e+000 85631 -5.7034e+002 -1.0831e+003  3.2383e+001 52037 85337,85311,85605
 2.8000e+000 85654 -4.1807e+002 -1.0639e+003  1.6874e+002 52037 85677,85337,85605
 2.8000e+000 85703 -7.3049e+001 -1.0479e+003  5.6811e+001 52037 85415,85389,85677
 2.8000e+000 85726 -1.3270e+002 -1.0038e+003  1.2534e+002 52037 85821,85677,85605
 2.8000e+000 85775 -2.2295e+002 -1.0445e+003  1.1638e+002 52037 85821,85605,85749
 2.8000e+000 85798 -2.6566e+002 -1.0636e+003  4.3738e+001 52037 85415,85749,85259
 2.8000e+000 85847 -1.5821e+002 -1.0324e+003  5.2658e+001 52037 85415,85677,85821
 2.8000e+000 85870 -1.9202e+002 -1.0489e+003  4.6740e+001 52037 85415,85821,85749
 2.8000e+000 85919 -1.2539e+002 -1.0494e+003  1.6724e+002 52037 85337,85677,85893
 2.8000e+000 85942 -6.3445e+001 -1.0354e+003  1.0097e+002 52037 85337,85893,85363
 2.8000e+000 86224 -1.4259e+002 -4.6265e+002  1.2890e+002 51368 86375,86100,86074
 2.8000e+000 86201 -4.3519e+002 -5.9417e+002  9.9567e+001 51368 86375,86074,86247
 2.8000e+000 86178 -1.3242e+002 -1.0270e+003 -2.1828e+002 51368 86048,86152,86126
 2.8000e+000 86273 -3.5170e+002 -7.3906e+002 -1.9385e+002 51368 86048,86126,86247
 2.8000e+000 86401  1.6551e+001 -6.2774e+002 -1.0438e+001 51368 86126,86100,86375
 2.8000e+000 86424 -1.2866e+002 -6.8319e+002 -3.1073e+001 51368 86126,86375,86247
 2.8000e+000 86802 -4.8618e+002 -9.3851e+002  1.2581e+001 51028 86528,86632,86580
 2.8000e+000 86779 -5.0732e+002 -1.0939e+003  5.3889e+001 51028 86528,86684,86632
 2.8000e+000 86756 -6.0194e+002 -1.2070e+003 -1.7018e+001 51028 86528,86580,86554
 2.8000e+000 86733 -3.4009e+002 -1.0043e+003  2.2495e+002 51028 86632,86684,86658
 2.8000e+000 86710 -5.1638e+002 -1.1027e+003 -1.2793e+002 51028 86580,86632,86606
 2.8000e+000 87131 -3.7814e+002 -9.3816e+002  1.7342e+002 50624 86958,87036,87010
 2.8000e+000 87108 -5.1668e+002 -8.8393e+002  1.3135e+002 50624 86932,87036,86958
 2.8000e+000 87085 -3.7558e+002 -9.2648e+002  8.3587e+001 50624 86958,87010,86984
 2.8000e+000 87062 -4.1814e+002 -8.3261e+002  1.5106e+002 50624 86906,87036,86932
 2.8000e+000 87330 -6.7102e+002 -1.1765e+003  1.7075e+001 50234 87353,87180,87154
 2.8000e+000 87307 -5.8593e+002 -1.1725e+003  2.2205e+001 50234 87353,87154,87258
 2.8000e+000 87284 -4.3030e+002 -1.0958e+003  2.0636e+001 50234 87206,87258,87232
 2.8000e+000 87379 -6.0127e+002 -1.2207e+003  6.6757e+001 50234 87206,87180,87353
 2.8000e+000 87402 -4.7804e+002 -1.1953e+003  5.5106e+001 50234 87206,87353,87258
 2.8000e+000 87650 -5.1064e+002 -1.1191e+003 -5.2376e+001 49730 87673,87503,87451
 2.8000e+000 87627 -3.2374e+002 -1.0355e+003 -3.2095e+001 49730 87673,87451,87425
 2.8000e+000 87604 -3.4780e+002 -8.5488e+002  1.0052e+002 49730 87503,87555,87529
 2.8000e+000 87581 -6.2014e+002 -9.3399e+002 -7.2100e+001 49730 87451,87503,87477
 2.8000e+000 87699 -5.3254e+002 -1.0541e+003 -1.2333e+000 49730 87555,87503,87673
 2.8000e+000 87722 -4.9354e+002 -1.0377e+003  4.8698e+000 49730 87555,87673,87425
 2.8000e+000 88232 -4.0483e+002 -9.5177e+002  8.3786e+001 49176 88255,87935,87909
 2.8000e+000 88209 -5.2202e+002 -1.0441e+003  2.1807e+002 49176 88255,87909,88065
 2.8000e+000 88186 -4.9293e+002 -9.0404e+002  1.4776e+002 49176 87935,88039,87961
 2.8000e+000 88163 -4.5180e+002 -9.4837e+002  1.7667e+002 49176 87909,88091,88065
 2.8000e+000 88140 -6.5730e+002 -9.7954e+002  1.1594e+002 49176 87961,88039,88013
 2.8000e+000 88117 -5.8360e+002 -1.2275e+003 -4.8900e+001 49176 87961,88013,87987
 2.8000e+000 88281 -5.4429e+002 -1.0015e+003  1.8986e+002 49176 88039,87935,88255
 2.8000e+000 88304 -6.6540e+002 -1.0911e+003  3.2383e+002 49176 88039,88255,88065
 2.8000e+000 88503 -1.3798e+002 -6.2719e+002 -1.3120e+001 48772 88526,88379,88353
 2.8000e+000 88480 -1.7229e+002 -5.2978e+002  4.0188e+000 48772 88526,88353,88327
 2.8000e+000 88457 -1.6538e+002 -7.0986e+002 -5.1406e+000 48772 88379,88431,88405
 2.8000e+000 88552 -1.1097e+002 -5.5038e+002 -2.7052e+001 48772 88431,88379,88526
 2.8000e+000 88575 -1.6354e+002 -4.8543e+002 -1.8705e+001 48772 88431,88526,88327
 2.8000e+000 89083 -2.6785e+002 -6.2763e+002 -1.4506e+002 48368 88786,88916,88864
 2.8000e+000 89060 -2.9760e+002 -7.1469e+002 -8.5802e+001 48368 88786,88942,88916
 2.8000e+000 89037 -3.5931e+002 -5.5864e+002 -1.2555e+001 48368 88786,88864,88812
 2.8000e+000 89014 -4.3335e+002 -9.0674e+002 -2.4131e+002 48368 88864,88916,88890
 2.8000e+000 88991 -1.2417e+002 -8.4157e+002  2.3024e+002 48368 88812,88864,88838
 2.8000e+000 88968 -6.8463e+001 -5.5651e+002  1.5176e+001 48368 88760,88942,88786
 2.8000e+000 89331 -4.4561e+002 -1.2168e+003  1.3838e+001 47928 89158,89236,89210
 2.8000e+000 89308 -3.8540e+002 -9.4904e+002  8.1978e+001 47928 89132,89236,89158
 2.8000e+000 89285 -5.1868e+002 -8.4455e+002  1.3275e+001 47928 89158,89210,89184
 2.8000e+000 89262 -5.8762e+002 -1.0446e+003  2.7789e+001 47928 89106,89236,89132
 2.8000e+000 89662 -5.2785e+002 -1.0638e+003 -2.1515e+001 47588 89463,89541,89515
 2.8000e+000 89639 -3.6794e+002 -8.3384e+002 -9.4884e+001 47588 89463,89567,89541
 2.8000e+000 89616 -4.3559e+002 -9.7828e+002  5.5341e+001 47588 89463,89515,89489
 2.8000e+000 89593 -5.2200e+002 -8.8023e+002 -9.5462e+001 47588 89437,89567,89463
 2.8000e+000 89763 -3.0330e+000 -2.6437e+002  2.7329e+001 47390 89685,89737,89711
 2.8000e+000 89913 -1.1656e+002 -7.2256e+002 -6.3057e+001 47078 89786,89838,89812
 2.8000e+000 89890 -3.0705e+002 -1.2071e+003  1.1476e+002 47078 89786,89864,89838
 2.8000e+000 90163 -4.7160e+002 -9.4031e+002  5.2997e+001 46474 89964,90042,89990
 2.8000e+000 90140 -4.1547e+002 -9.1531e+002  4.5747e+001 46474 89938,90042,89964
 2.8000e+000 90117 -5.1487e+002 -9.0516e+002  5.3306e+001 46474 89990,90042,90016
 2.8000e+000 90094 -5.1986e+002 -9.4744e+002  7.1971e+001 46474 89938,90068,90042
 2.8000e+000 90364 -4.8950e+002 -1.0336e+003  1.1737e+002 46184 90240,90292,90266
 2.8000e+000 90341 -6.2280e+002 -1.0110e+003  1.3743e+002 46184 90188,90292,90240
 2.8000e+000 90318 -4.7446e+002 -1.0401e+003  1.9657e+002 46184 90188,90240,90214
 2.8000e+000 90565 -4.5491e+002 -7.9086e+002 -4.2698e+000 45780 90588,90415,90389
 2.8000e+000 90542 -3.8921e+002 -8.0284e+002  1.2835e+001 45780 90588,90389,90493
 2.8000e+000 90519 -4.5633e+002 -8.7337e+002  4.9132e+000 45780 90415,90467,90441
 2.8000e+000 90614 -4.0804e+002 -8.0097e+002  3.6309e+001 45780 90467,90415,90588
 2.8000e+000 90637 -3.1916e+002 -7.7759e+002  6.4452e+001 45780 90467,90588,90493
 2.8000e+000 91196 -6.1565e+002 -1.0595e+003 -8.6656e+001 45226 91219,90876,90850
 2.8000e+000 91173 -3.5785e+002 -9.9538e+002  4.3792e+001 45226 91219,90850,91032
 2.8000e+000 91150 -2.8869e+002 -1.1599e+003 -1.0106e+002 45226 90824,91032,90850
 2.8000e+000 91127 -4.7361e+002 -8.1784e+002  2.6550e+001 45226 90876,90980,90902
 2.8000e+000 91104 -2.7096e+002 -8.1063e+002  1.0130e+002 45226 90876,91006,90980
 2.8000e+000 91081 -4.0249e+002 -8.8340e+002 -7.5514e+001 45226 90902,90980,90954
 2.8000e+000 91058 -2.5100e+002 -7.5869e+002 -1.4490e+002 45226 90902,90954,90928
 2.8000e+000 91245 -3.7719e+002 -9.6035e+002 -4.3503e+000 45226 91006,90876,91219
 2.8000e+000 91268 -1.4921e+002 -9.4538e+002  1.0711e+002 45226 91006,91219,91032
 2.8000e+000 91516 -2.5899e+002 -1.4680e+003  1.1921e+002 44836 91539,91421,91395
 2.8000e+000 91493 -2.5366e+002 -1.5694e+003  3.0004e+000 44836 91317,91421,91343
 2.8000e+000 91470 -4.0924e+002 -1.4126e+003  7.8843e+001 44836 91539,91395,91369
 2.8000e+000 91447 -4.2376e+002 -1.1524e+003  2.5307e+002 44836 91291,91421,91317
 2.8000e+000 91565 -3.2860e+002 -1.4873e+003  4.2903e+001 44836 91343,91421,91539
 2.8000e+000 91588 -4.6034e+002 -1.4920e+003 -2.4001e+001 44836 91343,91539,91369
 2.8000e+000 91787 -3.4526e+002 -9.0584e+002  5.4851e+001 44432 91810,91637,91611
 2.8000e+000 91764 -4.0848e+002 -1.0669e+003  1.0261e+002 44432 91810,91611,91715
 2.8000e+000 91741 -1.6708e+002 -7.2206e+002 -5.3260e+001 44432 91637,91689,91663
 2.8000e+000 91836 -4.2007e+002 -8.2309e+002  5.4737e+001 44432 91689,91637,91810
 2.8000e+000 91859 -4.0855e+002 -9.0350e+002  8.0038e+001 44432 91689,91810,91715
 2.8000e+000 92207 -6.0959e+002 -1.2184e+003  8.3481e+001 43864 92230,91936,91910
 2.8000e+000 92184 -7.2773e+002 -1.2742e+003  1.1963e+002 43864 92230,91910,92040
 2.8000e+000 92161 -7.6321e+002 -1.2761e+003  2.0368e+002 43864 91884,92040,91910
 2.8000e+000 92138 -6.5281e+002 -1.0682e+003 -3.1457e+000 43864 91936,92014,91988
 2.8000e+000 92115 -5.3116e+002 -1.4468e+003  3.0106e+002 43864 91936,91988,91962
 2.8000e+000 92092 -6.3625e+002 -1.0527e+003  1.3435e+002 43864 91884,92066,92040
 2.8000e+000 92256 -7.4090e+002 -1.1189e+003  7.6845e+001 43864 92014,91936,92230
 2.8000e+000 92279 -8.5240e+002 -1.1872e+003  1.2883e+002 43864 92014,92230,92040
 2.8000e+000 92529 -5.2287e+002 -9.8494e+002  9.6259e+001 43410 92552,92330,92304
 2.8000e+000 92506 -5.0702e+002 -9.5718e+002  1.5438e+001 43410 92552,92304,92408
 2.8000e+000 92483 -5.4022e+002 -9.9777e+002  2.9661e+001 43410 92304,92434,92408
 2.8000e+000 92460 -2.7794e+002 -8.5136e+002  5.0410e+000 43410 92330,92382,92356
 2.8000e+000 92578 -4.7159e+002 -9.6045e+002  5.4107e+001 43410 92382,92330,92552
 2.8000e+000 92601 -3.9516e+002 -8.7395e+002 -3.6492e+001 43410 92382,92552,92408
 2.8000e+000 92802 -3.3337e+002 -1.2908e+003  1.2408e+002 43162 92825,92704,92652
 2.8000e+000 92779 -2.4827e+002 -1.2296e+003  2.6020e+002 43162 92825,92652,92626
 2.8000e+000 92756 -2.6749e+002 -1.3223e+003  1.1921e+002 43162 92652,92704,92678
 2.8000e+000 92851 -5.2701e+002 -1.3118e+003 -6.3954e+000 43162 92730,92704,92825
 2.8000e+000 92874 -5.5307e+002 -9.4848e+002  2.1673e+002 43162 92730,92825,92626
 2.8000e+000 93463 -2.8081e+002 -6.6914e+002 -1.3603e+002 42758 93140,93270,93166
 2.8000e+000 93440 -3.5472e+002 -7.4316e+002 -8.8816e+001 42758 93140,93296,93270
 2.8000e+000 93417 -2.5703e+002 -7.1022e+002 -9.9808e+001 42758 93166,93270,93218
 2.8000e+000 93394 -1.7705e+002 -7.1140e+002 -1.1729e+002 42758 93218,93270,93244
 2.8000e+000 93371 -9.9503e+001 -8.8137e+002 -6.9643e+001 42758 93140,93322,93296
 2.8000e+000 93348 -3.3030e+002 -8.3008e+002  2.4408e+001 42758 93166,93218,93192
 2.8000e+000 93920 -3.1456e+002 -8.3032e+002  2.8411e-001 42304 93943,93672,93646
 2.8000e+000 93897 -3.0181e+002 -7.8746e+002  3.2552e+000 42304 93943,93646,93802
 2.8000e+000 93874 -2.7437e+002 -8.1669e+002  5.5471e+001 42304 93724,93802,93776
 2.8000e+000 93851 -3.8814e+002 -9.6223e+002  6.5980e+001 42304 93672,93724,93698
 2.8000e+000 93828 -4.7600e+002 -9.6758e+002 -2.3382e+001 42304 93724,93776,93750
 2.8000e+000 93969 -3.0330e+002 -8.4589e+002 -1.2480e+001 42304 93724,93672,93943
 2.8000e+000 93992 -3.0598e+002 -8.2698e+002 -8.0904e+000 42304 93724,93943,93802
 2.8000e+000 94321 -4.0506e+002 -1.0859e+003  2.2148e+001 41478 94096,94148,94122
 2.8000e+000 94298 -4.6292e+002 -1.1220e+003  6.0286e+001 41478 94096,94226,94148
 2.8000e+000 94275 -5.9205e+002 -1.4404e+003 -2.1925e+001 41478 94148,94226,94174
 2.8000e+000 94252 -2.6164e+002 -1.0378e+003 -2.3843e+002 41478 94174,94226,94200
 2.8000e+000 94618 -3.6616e+002 -1.2576e+003  3.6097e+000 40910 94344,94422,94396
 2.8000e+000 94595 -5.4829e+002 -1.2249e+003 -4.1151e+001 40910 94344,94448,94422
 2.8000e+000 94572 -4.8183e+002 -1.0606e+003 -1.2837e+001 40910 94344,94474,94448
 2.8000e+000 94549 -3.1187e+002 -1.3667e+003 -8.3895e+001 40910 94344,94396,94370
 2.8000e+000 94526 -7.3019e+002 -1.3961e+003  9.9985e+001 40910 94344,94500,94474
 2.8000e+000 94866 -4.2346e+002 -8.1285e+002 -8.2995e+001 40306 94667,94719,94693
 2.8000e+000 94843 -5.2102e+002 -8.9866e+002 -4.6329e+001 40306 94641,94719,94667
 2.8000e+000 94820 -5.9374e+002 -8.9893e+002  2.0993e+001 40306 94641,94745,94719
 2.8000e+000 94797 -4.7892e+002 -8.5475e+002  1.3067e+000 40306 94641,94771,94745
 2.8000e+000 95089 -4.0260e+001 -6.7729e+002  8.7257e+001 39702 94913,94991,94939
 2.8000e+000 95066 -4.9617e+001 -5.6151e+002  9.3764e+000 39702 94913,95017,94991
 2.8000e+000 95043  4.7982e+000 -6.6977e+002 -1.7041e-001 39702 94939,94991,94965
 2.8000e+000 95339 -4.0048e+002 -8.8659e+002 -1.0156e+002 39248 95140,95218,95166
 2.8000e+000 95316 -5.0228e+002 -9.5788e+002 -5.7198e+001 39248 95140,95244,95218
 2.8000e+000 95293 -2.9788e+002 -1.0247e+003 -1.1458e+002 39248 95114,95244,95140
 2.8000e+000 95270 -3.3762e+002 -9.8526e+002 -1.9748e+002 39248 95166,95218,95192
 2.8000e+000 95770 -5.8250e+002 -9.1704e+002  4.2539e+001 38694 95551,95629,95577
 2.8000e+000 95747 -4.0455e+002 -1.1528e+003  4.7364e+001 38694 95447,95629,95551
 2.8000e+000 95724 -3.0513e+002 -9.6181e+002 -4.6911e+001 38694 95447,95551,95473
 2.8000e+000 95701 -2.0762e+002 -9.3245e+002 -7.3399e+001 38694 95473,95551,95499
 2.8000e+000 95678 -1.8183e+002 -8.7119e+002 -1.7579e+002 38694 95499,95551,95525
 2.8000e+000 95655 -5.8450e+002 -8.7757e+002 -1.1098e+001 38694 95577,95629,95603
 2.8000e+000 96325 -4.6107e+002 -9.8929e+002  3.0994e+001 38240 95953,96031,96005
 2.8000e+000 96302 -4.4585e+002 -6.0600e+002  1.6234e+002 38240 95953,96161,96031
 2.8000e+000 96279 -3.0668e+002 -5.6029e+002 -5.0905e+001 38240 96031,96161,96135
 2.8000e+000 96256 -3.6418e+002 -7.5120e+002  1.4674e+002 38240 96348,96109,96057
 2.8000e+000 96233 -3.1304e+002 -6.6865e+002  9.9060e+001 38240 96348,96057,96031
 2.8000e+000 96210 -2.6504e+002 -7.4211e+002  2.1147e+002 38240 96057,96109,96083
 2.8000e+000 96187 -5.9652e+002 -4.5028e+002 -7.8012e+001 38240 95953,96005,95979
 2.8000e+000 96374 -2.7065e+002 -8.9394e+002  8.4413e+001 38240 96135,96109,96348
 2.8000e+000 96397 -1.8477e+002 -7.4802e+002  2.5475e+001 38240 96135,96348,96031
 2.8000e+000 96618 -5.3674e+002 -1.3863e+003 -1.7884e+000 37821 96494,96546,96520
 2.8000e+000 96595 -3.5683e+002 -1.2319e+003  6.7280e+001 37821 96468,96546,96494
 2.8000e+000 96572 -2.3837e+002 -1.1809e+003  5.7832e+001 37821 96442,96546,96468
 2.8000e+000 97126 -3.0528e+002 -6.7868e+002 -6.3540e+001 37367 97149,96855,96829
 2.8000e+000 97103 -3.2756e+002 -6.9273e+002 -3.9177e+001 37367 97149,96829,96985
 2.8000e+000 97080 -2.6919e+002 -7.1332e+002 -4.9087e+001 37367 96803,96985,96829
 2.8000e+000 97057 -2.0204e+002 -6.5731e+002 -1.0688e+002 37367 96855,96907,96881
 2.8000e+000 97034 -3.9034e+002 -6.1716e+002 -1.9734e+001 37367 96907,96985,96959
 2.8000e+000 97011 -4.6254e+002 -5.6819e+002 -9.0503e+001 37367 96907,96959,96933
 2.8000e+000 97175 -3.2594e+002 -6.4408e+002 -7.6759e+001 37367 96907,96855,97149
 2.8000e+000 97198 -3.4215e+002 -6.6097e+002 -5.4932e+001 37367 96907,97149,96985
 2.8000e+000 97704 -4.7546e+002 -9.9982e+002  1.1917e+002 36863 97727,97511,97485
 2.8000e+000 97681 -4.5394e+002 -9.0777e+002  1.4698e+002 36863 97727,97485,97433
 2.8000e+000 97658 -5.8592e+002 -1.0710e+003  1.5978e+001 36863 97381,97563,97433
 2.8000e+000 97635 -2.9688e+002 -8.9994e+002 -4.0490e+001 36863 97511,97563,97537
 2.8000e+000 97612 -2.4409e+002 -6.7950e+002  3.2695e+001 36863 97433,97485,97459
 2.8000e+000 97589 -6.8351e+002 -1.0890e+003  9.3509e+001 36863 97381,97433,97407
 2.8000e+000 97753 -4.6904e+002 -1.0788e+003  7.1828e+001 36863 97563,97511,97727
 2.8000e+000 97776 -4.5813e+002 -9.9354e+002  9.5752e+001 36863 97563,97727,97433
 2.8000e+000 98331 -5.2617e+002 -1.1690e+003 -6.6354e+000 36287 98354,98089,98063
 2.8000e+000 98308 -4.7647e+002 -1.1874e+003  7.5858e+001 36287 98354,98063,98011
 2.8000e+000 98285 -6.4818e+002 -1.1180e+003  1.5467e+002 36287 98426,97985,98115
 2.8000e+000 98262 -4.5823e+002 -1.2314e+003  6.5225e+001 36287 98011,98063,98037
 2.8000e+000 98239 -5.9167e+002 -9.4952e+002  3.6630e+001 36287 97985,98141,98115
 2.8000e+000 98216 -6.9691e+002 -7.6644e+002  1.6807e+002 36287 97959,98141,97985
 2.8000e+000 98193 -5.5509e+002 -1.4806e+003  4.5121e+002 36287 97959,98167,98141
 2.8000e+000 98380 -5.0427e+002 -1.1556e+003 -1.2281e+001 36287 98115,98089,98354
 2.8000e+000 98403 -4.8764e+002 -1.1043e+003  4.2254e+000 36287 98426,98115,98354
 2.8000e+000 98452 -8.3450e+002 -1.2800e+003  2.7048e+002 36287 98011,97985,98426
 2.8000e+000 98475 -6.9576e+002 -1.3117e+003  1.2827e+002 36287 98011,98426,98354
 2.8000e+000 99030 -5.7855e+002 -1.4408e+003 -7.8966e+001 35726 99053,98736,98710
 2.8000e+000 99007 -4.9762e+002 -1.2316e+003  1.9985e+001 35726 99053,98710,98684
 2.8000e+000 98984 -6.3320e+002 -1.1922e+003 -1.2196e+002 35726 99125,98814,98736
 2.8000e+000 98961 -4.7083e+002 -1.0046e+003 -4.2887e+001 35726 98736,98814,98788
 2.8000e+000 98938 -6.0101e+002 -1.1200e+003  9.4927e+001 35726 98684,98866,98840
 2.8000e+000 98915 -3.8850e+002 -9.7364e+002 -3.0558e+001 35726 98736,98788,98762
 2.8000e+000 98892 -4.1867e+002 -1.2099e+003  2.8753e+001 35726 98658,98866,98684
 2.8000e+000 99079 -4.9649e+002 -1.2037e+003 -4.2217e+001 35726 99125,98736,99053
 2.8000e+000 99102 -6.0283e+002 -1.0964e+003  1.7641e+001 35726 98840,99053,98684
 2.8000e+000 99151 -7.5973e+002 -1.2506e+003 -1.4701e+002 35726 98840,98814,99125
 2.8000e+000 99174 -6.9145e+002 -1.2810e+003 -4.9164e+001 35726 98840,99125,99053
 2.8000e+000 99454 -2.0908e+002 -7.8724e+002 -5.2157e+001 35222 99278,99330,99304
 2.8000e+000 99431 -2.6226e+002 -7.4002e+002  2.7450e+001 35222 99278,99382,99330
 2.8000e+000 99408 -4.5461e+002 -9.1049e+002 -4.8065e+001 35222 99330,99382,99356
 2.8000e+000 99653 -3.0735e+002 -1.2900e+003  1.6582e+000 34867 99477,99529,99503
 2.8000e+000 99630 -3.9516e+002 -9.6873e+002 -7.2051e+001 34867 99477,99581,99529
 2.8000e+000 99607 -3.8924e+002 -1.4979e+003 -3.9718e+002 34867 99529,99581,99555
 2.8000e+000 100104 -2.3839e+002 -8.9228e+002 -1.3733e+001 34363 99781,99885,99807
 2.8000e+000 100081 -3.3413e+002 -9.4586e+002  2.3770e+001 34363 99781,99963,99885
 2.8000e+000 100058 -1.3765e+002 -8.3780e+002 -3.0065e+001 34363 99885,99963,99911
 2.8000e+000 100035 -1.5885e+002 -7.8919e+002  2.2829e+001 34363 99807,99885,99859
 2.8000e+000 100012 -6.0619e+001 -7.8860e+002 -1.2107e+002 34363 99911,99963,99937
 2.8000e+000 99989 -5.0526e+001 -7.3663e+002  4.6663e+001 34363 99807,99859,99833
 2.8000e+000 100303 -4.6985e+002 -8.1898e+002 -1.9519e+002 33909 100127,100205,100179
 2.8000e+000 100280 -6.5795e+002 -9.2185e+002 -1.5552e+002 33909 100127,100231,100205
 2.8000e+000 100257 -5.8323e+002 -1.0343e+003 -1.2260e+002 33909 100127,100179,100153
 2.8000e+000 100890 -2.8185e+002 -9.0512e+002 -1.0696e+002 33412 100645,100749,100697
 2.8000e+000 100867 -3.0952e+002 -1.1061e+003 -8.1309e+001 33412 100567,100749,100645
 2.8000e+000 100844 -3.0448e+002 -1.0893e+003 -8.1005e+001 33412 100567,100645,100619
 2.8000e+000 100821 -2.5576e+002 -1.0571e+003 -2.0044e+002 33412 100645,100697,100671
 2.8000e+000 100798 -4.0112e+002 -1.4881e+003 -2.3769e+001 33412 100567,100619,100593
 2.8000e+000 100775 -4.9368e+002 -9.2089e+002 -4.5066e+001 33412 100697,100749,100723
 2.8000e+000 101268 -3.0297e+002 -1.1025e+003  1.0379e+001 32908 101435,101291,101098
 2.8000e+000 101245 -4.2411e+002 -1.1323e+003  5.0755e+001 32908 101291,101072,101020
 2.8000e+000 101222 -4.2505e+002 -1.2241e+003 -1.5032e+002 32908 101363,101150,101124
 2.8000e+000 101199 -5.0914e+002 -1.2222e+003  2.1209e+002 32908 101020,101072,101046
 2.8000e+000 101176 -2.3860e+002 -9.5605e+002 -4.8074e+001 32908 100994,101150,101020
 2.8000e+000 101317 -3.1001e+002 -1.1862e+003  5.4562e+001 32908 101124,101098,101291
 2.8000e+000 101340 -3.6314e+002 -1.3033e+003 -7.2646e+000 32908 101363,101124,101291
 2.8000e+000 101389 -3.4108e+002 -1.0827e+003 -1.1204e+002 32908 101020,101150,101363
 2.8000e+000 101412 -2.6959e+002 -1.0930e+003  2.6807e+001 32908 101020,101363,101291
 2.8000e+000 101461 -2.8525e+002 -1.0245e+003  9.8193e+001 32908 101072,101291,101435
 2.8000e+000 101918 -2.5446e+002 -1.1600e+003 -1.0588e+002 32618 101941,101670,101644
 2.8000e+000 101895 -4.2964e+001 -1.1084e+003  3.8699e+001 32618 101941,101644,101774
 2.8000e+000 101872 -4.6023e+002 -9.6959e+002 -2.8426e+001 32618 102013,101696,101670
 2.8000e+000 101849 -8.9366e+001 -7.3188e+002 -1.2266e+002 32618 101696,101748,101722
 2.8000e+000 101826 -1.4117e+001 -1.0540e+003  2.7841e+001 32618 101644,101800,101774
 2.8000e+000 101967 -4.5275e+002 -1.1222e+003 -1.0892e+002 32618 102013,101670,101941
 2.8000e+000 101990 -3.5884e+002 -1.2438e+003  7.5327e+001 32618 101748,101941,101774
 2.8000e+000 102039 -4.1465e+002 -9.1326e+002  1.1007e+000 32618 101748,101696,102013
 2.8000e+000 102062 -2.4609e+002 -9.6950e+002 -3.6083e+001 32618 101748,102013,101941
 2.8000e+000 102440 -6.4357e+002 -1.3380e+003  9.7420e+001 32306 102463,102270,102244
 2.8000e+000 102417 -6.6706e+002 -1.3602e+003  7.5248e+000 32306 102463,102244,102192
 2.8000e+000 102394 -6.3498e+002 -1.2230e+003 -8.9485e+000 32306 102192,102244,102218
 2.8000e+000 102371 -4.2148e+002 -1.2299e+003  9.6707e+001 32306 102270,102322,102296
 2.8000e+000 102348 -3.3051e+002 -1.5167e+003 -6.9924e+001 32306 102166,102322,102192
 2.8000e+000 102489 -5.3738e+002 -1.3152e+003  1.3766e+002 32306 102322,102270,102463
 2.8000e+000 102512 -5.6244e+002 -1.3586e+003  4.2243e+001 32306 102322,102463,102192
 2.8000e+000 102662 -3.0680e+002 -1.1560e+003 -2.7109e+001 31852 102943,102587,102561
 2.8000e+000 102639 -1.9501e+002 -9.5935e+002  3.3903e+001 31852 102815,102685,102561
 2.8000e+000 102711 -3.6186e+002 -1.1903e+003 -4.1960e+001 31852 102943,102561,102685
 2.8000e+000 102841 -1.7575e+002 -8.3965e+002  9.5791e+001 31852 102535,102685,102815
 2.8000e+000 102969 -3.0457e+002 -1.1899e+003 -7.9592e+001 31852 102613,102587,102943
 2.8000e+000 102992 -3.6097e+002 -1.2235e+003 -9.3567e+001 31852 102613,102943,102685
 2.8000e+000 103370 -6.2459e+002 -1.3548e+003  5.2985e+001 31134 103096,103200,103122
 2.8000e+000 103347 -7.8961e+002 -1.7723e+003  1.5060e+002 31134 103096,103226,103200
 2.8000e+000 103324 -8.0248e+002 -1.4511e+003  8.9690e+001 31134 103122,103200,103174
 2.8000e+000 103301 -4.1962e+002 -1.4454e+003  6.7569e+000 31134 103096,103252,103226
 2.8000e+000 103278 -5.5242e+002 -1.6896e+003 -1.8268e+002 31134 103122,103174,103148
 2.8000e+000 103520 -2.1949e+002 -1.7310e+003  6.9144e-001 30822 103393,103445,103419
 2.8000e+000 103497 -7.1760e+001 -8.4635e+002  4.5609e+001 30822 103393,103471,103445
 2.8000e+000 103719 -2.7361e+002 -9.9042e+002  1.8445e+001 30182 103742,103621,103569
 2.8000e+000 103696 -3.4888e+002 -1.0154e+003 -2.6238e+000 30182 103742,103569,103543
 2.8000e+000 103673 -3.0136e+002 -1.0002e+003  2.5757e+001 30182 103569,103621,103595
 2.8000e+000 103768 -2.0232e+002 -1.0231e+003  3.8468e+001 30182 103647,103621,103742
 2.8000e+000 103791 -2.5378e+002 -1.0418e+003  8.8454e+000 30182 103647,103742,103543
 2.8000e+000 104252 -5.7731e+002 -1.0746e+003  3.4200e+001 29728 104030,104108,104056
 2.8000e+000 104229 -4.0813e+002 -7.2408e+002  8.5187e+001 29728 104004,104108,104030
 2.8000e+000 104206 -3.3160e+002 -8.0757e+002  6.1455e+001 29728 104004,104134,104108
 2.8000e+000 104183 -4.4565e+002 -9.1854e+002 -6.8529e+001 29728 103978,104134,104004
 2.8000e+000 104160 -3.0431e+002 -9.8076e+002 -7.9407e+001 29728 104056,104108,104082
 2.8000e+000 104630 -3.7528e+002 -1.1438e+003 -1.3076e+002 29217 104653,104382,104356
 2.8000e+000 104607 -2.9659e+002 -1.0026e+003 -3.3766e+001 29217 104653,104356,104512
 2.8000e+000 104584 -4.9298e+002 -1.1484e+003 -1.4104e+002 29217 104434,104512,104486
 2.8000e+000 104561 -3.0352e+002 -1.1662e+003 -2.0719e+002 29217 104382,104434,104408
 2.8000e+000 104538 -2.3439e+002 -8.1461e+002  4.8055e+001 29217 104434,104486,104460
 2.8000e+000 104679 -4.1576e+002 -1.1607e+003 -1.9169e+002 29217 104434,104382,104653
 2.8000e+000 104702 -4.0532e+002 -1.1069e+003 -1.0492e+002 29217 104434,104653,104512
 2.8000e+000 105178 -3.7268e+002 -1.1248e+003  2.4434e+001 28649 105201,104962,104936
 2.8000e+000 105155 -3.9082e+002 -1.1019e+003  3.7176e+001 28649 105201,104936,104884
 2.8000e+000 105132 -4.1875e+002 -1.0182e+003 -8.7687e+001 28649 105273,104858,105014
 2.8000e+000 105109 -6.0340e+002 -1.1777e+003  2.2149e+001 28649 104962,105014,104988
 2.8000e+000 105086 -2.3365e+002 -9.3948e+002 -1.1978e+002 28649 104884,104936,104910
 2.8000e+000 105063 -4.2786e+002 -9.3305e+002 -3.7660e+001 28649 104806,105014,104858
 2.8000e+000 105040 -5.1539e+002 -9.1298e+002 -8.4124e+001 28649 104806,104858,104832
 2.8000e+000 105227 -3.6115e+002 -1.1347e+003  9.9007e+000 28649 105014,104962,105201
 2.8000e+000 105250 -3.1857e+002 -1.0597e+003 -1.6670e+001 28649 105273,105014,105201
 2.8000e+000 105299 -5.2764e+002 -1.0700e+003 -7.2649e+001 28649 104884,104858,105273
 2.8000e+000 105322 -4.9145e+002 -1.1469e+003  1.3141e+001 28649 104884,105273,105201
 2.8000e+000 105673 -5.7590e+001 -1.0747e+003  1.4071e+001 28351 105474,105578,105552
 2.8000e+000 105650  3.1769e+001 -7.0971e+002 -1.6469e+001 28351 105448,105578,105474
 2.8000e+000 105627  1.1538e+001 -9.9022e+002  9.4745e+000 28351 105500,105552,105526
 2.8000e+000 105604 -1.2963e+001 -1.0526e+003  6.1063e+000 28351 105474,105552,105500
 2.8000e+000 106130 -4.5252e+002 -6.9713e+002 -2.4726e+002 28004 106153,105882,105856
 2.8000e+000 106107 -4.0565e+002 -9.5679e+002 -1.5965e+002 28004 106153,105856,105986
 2.8000e+000 106084 -8.2344e+002 -1.0736e+003  4.5883e+001 28004 105934,105986,105960
 2.8000e+000 106061 -6.4538e+002 -1.0786e+003 -5.4267e+001 28004 105856,106012,105986
 2.8000e+000 106038 -7.6076e+002 -1.1038e+003 -1.0518e+002 28004 105882,105934,105908
 2.8000e+000 106179 -6.7548e+002 -9.1213e+002 -1.2630e+002 28004 105934,105882,106153
 2.8000e+000 106202 -4.5620e+002 -1.0448e+003 -7.9847e+001 28004 105934,106153,105986
 2.8000e+000 106885 -6.5311e+002 -9.3055e+002 -3.0208e+001 27564 106908,106620,106516
 2.8000e+000 106862 -6.4337e+002 -8.9566e+002 -1.2588e+001 27564 106908,106516,106490
 2.8000e+000 106839 -6.0861e+002 -8.7534e+002 -1.1141e+002 27564 106516,106620,106542
 2.8000e+000 106816 -5.7611e+002 -6.6913e+002 -5.7811e+001 27564 106620,106672,106646
 2.8000e+000 106793 -4.7168e+002 -1.0067e+003 -2.0006e+002 27564 106542,106620,106594
 2.8000e+000 106770 -6.3852e+002 -7.9929e+002  5.4449e+001 27564 106490,106698,106672
 2.8000e+000 106747 -5.1065e+002 -9.4197e+002  1.8333e+002 27564 106464,106698,106490
 2.8000e+000 106724 -9.8114e+001 -8.0512e+002 -2.7833e+002 27564 106542,106594,106568
 2.8000e+000 106934 -6.7704e+002 -8.9802e+002 -3.9418e+001 27564 106672,106620,106908
 2.8000e+000 106957 -6.6879e+002 -8.6085e+002 -3.2099e+001 27564 106672,106908,106490
 2.8000e+000 107463 -4.8703e+002 -9.7139e+002 -7.6280e+000 27053 107218,107322,107296
 2.8000e+000 107440 -5.6953e+002 -1.1573e+003  2.8402e+001 27053 107166,107322,107218
 2.8000e+000 107417 -5.0791e+002 -1.1289e+003 -2.1945e+001 27053 107218,107296,107244
 2.8000e+000 107394 -5.5298e+002 -9.3163e+002  9.0108e+001 27053 107140,107322,107166
 2.8000e+000 107371 -5.4053e+002 -1.1831e+003  3.5641e+001 27053 107166,107218,107192
 2.8000e+000 107348 -5.0275e+002 -1.4390e+003 -1.4820e+002 27053 107244,107296,107270
 2.8000e+000 108097 -4.7778e+002 -1.1703e+003 -6.9589e+001 26549 108192,108120,107803
 2.8000e+000 108074 -4.3235e+002 -1.3432e+003  8.0206e+001 26549 108120,107725,107933
 2.8000e+000 108051 -1.3796e+002 -1.6191e+003  1.0527e+002 26549 107751,107803,107777
 2.8000e+000 108028 -4.6928e+002 -1.2529e+003 -9.4417e+001 26549 108192,107803,107751
 2.8000e+000 108005 -2.9315e+002 -8.1075e+002 -8.2711e+000 26549 108264,107855,107803
 2.8000e+000 107982 -1.3917e+002 -9.1344e+002 -4.7593e+001 26549 107881,107933,107907
 2.8000e+000 107959 -3.9652e+002 -8.6429e+002  1.1487e+001 26549 107803,107855,107829
 2.8000e+000 108146 -3.7908e+002 -9.3818e+002 -5.9424e+001 26549 108264,107803,108120
 2.8000e+000 108169 -3.4400e+002 -1.1184e+003  3.4304e+001 26549 107881,108120,107933
 2.8000e+000 108218 -4.5757e+002 -1.0855e+003 -9.3230e+000 26549 107725,108120,108192
 2.8000e+000 108241 -4.4240e+002 -1.1484e+003 -3.8038e+001 26549 107725,108192,107751
 2.8000e+000 108290 -1.8995e+002 -9.7686e+002 -4.1811e+001 26549 107881,107855,108264
 2.8000e+000 108313 -2.6358e+002 -1.1185e+003 -7.8725e+001 26549 107881,108264,108120
 2.8000e+000 108512 -3.4372e+002 -1.2866e+003 -8.6432e+001 26137 108388,108440,108414
 2.8000e+000 108489 -2.3603e+002 -1.1184e+003 -1.0999e+001 26137 108362,108440,108388
 2.8000e+000 108466 -3.1043e+002 -1.1920e+003 -4.1210e+001 26137 108336,108440,108362
 2.8000e+000 108662 -3.8436e+002 -1.0463e+003 -8.3110e+001 25733 108817,108685,108535
 2.8000e+000 108639 -2.8315e+002 -1.1351e+003 -2.0264e+001 25733 109017,108817,108535
 2.8000e+000 108711 -4.2383e+002 -9.9433e+002 -3.1584e+001 25733 108561,108535,108685
 2.8000e+000 108843 -2.7343e+002 -1.0408e+003 -2.5640e+001 25733 108587,108685,108817
 2.8000e+000 108866 -2.4265e+002 -1.0168e+003 -9.1362e+000 25733 108889,108817,108613
 2.8000e+000 108915 -2.3403e+002 -9.9660e+002 -4.3089e+001 25733 108587,108817,108889
 2.8000e+000 109043 -2.2974e+002 -8.7277e+002  8.9435e+000 25733 108613,108817,109017
 2.8000e+000 109500 -7.1656e+002 -1.2735e+003  1.1633e+002 25229 109523,109356,109330
 2.8000e+000 109477 -4.3101e+002 -1.0184e+003 -5.7066e+001 25229 109595,109523,109330
 2.8000e+000 109454 -4.0867e+002 -9.4126e+002 -1.2449e+002 25229 109595,109330,109278
 2.8000e+000 109431 -4.4112e+002 -9.9846e+002 -7.2933e+001 25229 109667,109226,109382
 2.8000e+000 109408 -4.4119e+002 -1.0257e+003 -1.7518e+002 25229 109278,109330,109304
 2.8000e+000 109549 -2.3221e+002 -1.0487e+003  5.2104e+001 25229 109382,109356,109523
 2.8000e+000 109572 -3.9430e+002 -1.0749e+003 -8.5373e+001 25229 109667,109382,109523
 2.8000e+000 109621 -4.6508e+002 -1.1580e+003 -8.1496e+001 25229 109252,109523,109595
 2.8000e+000 109644 -3.1208e+002 -9.9018e+002 -5.2540e+001 25229 109739,109595,109278
 2.8000e+000 109693 -5.7284e+002 -1.1266e+003 -1.9589e+001 25229 109252,109226,109667
 2.8000e+000 109716 -4.6607e+002 -1.1667e+003 -5.3944e+001 25229 109252,109667,109523
 2.8000e+000 109765 -5.4939e+002 -1.0784e+003 -4.6552e+001 25229 109252,109595,109739
 2.8000e+000 110478 -3.6093e+002 -9.5477e+002  1.2557e+002 24917 110158,110236,110184
 2.8000e+000 110455 -5.0029e+002 -1.0497e+003  2.2943e+000 24917 110158,110288,110236
 2.8000e+000 110432 -3.1710e+002 -1.2456e+003  2.5871e+001 24917 110236,110288,110262
 2.8000e+000 110409 -2.9819e+002 -1.0677e+003  1.3792e+002 24917 110184,110236,110210
 2.8000e+000 110386 -6.3525e+002 -1.1779e+003 -7.7198e+001 24917 110132,110288,110158
 2.8000e+000 110363 -5.5483e+002 -1.1129e+003  7.2220e-001 24917 110132,110314,110288
 2.8000e+000 110340 -6.3993e+002 -1.3965e+003  1.6833e+002 24917 110106,110314,110132
 2.8000e+000 110829 -2.0952e+002 -7.6933e+002 -3.3994e+001 24307 110604,110682,110630
 2.8000e+000 110806 -5.4245e+002 -1.4570e+003  8.8647e+001 24307 110604,110708,110682
 2.8000e+000 110783 -1.7669e+002 -1.2905e+003  4.3372e+001 24307 110604,110734,110708
 2.8000e+000 110760 -5.9621e+001 -7.0515e+002 -3.9276e+001 24307 110630,110682,110656
 2.8000e+000 111335 -3.1988e+002 -8.9647e+002 -1.3026e+002 23767 111012,111168,111038
 2.8000e+000 111312 -3.5760e+002 -9.8341e+002 -1.1848e+002 23767 111012,111194,111168
 2.8000e+000 111289 -6.0212e+002 -1.1450e+003  1.0727e+002 23767 111358,111064,111038
 2.8000e+000 111266 -4.3674e+002 -1.0647e+003 -3.3126e+001 23767 111358,111038,111168
 2.8000e+000 111243 -2.8304e+002 -9.9988e+002 -2.5467e+001 23767 111430,111142,111090
 2.8000e+000 111220 -1.8687e+000 -8.7834e+002  1.5144e+001 23767 111090,111142,111116
 2.8000e+000 111384 -4.9355e+002 -1.0708e+003 -2.0871e+001 23767 111090,111064,111358
 2.8000e+000 111407 -4.9564e+002 -1.0192e+003 -4.9251e+001 23767 111430,111090,111358
 2.8000e+000 111456 -8.8648e+001 -1.0671e+003 -7.6727e+001 23767 111168,111142,111430
 2.8000e+000 111479 -2.1031e+002 -1.0189e+003 -8.6577e+001 23767 111168,111430,111358
 2.8000e+000 111985 -2.7584e+002 -7.4446e+002  9.9129e+001 23477 111688,111844,111818
 2.8000e+000 111962 -2.4512e+002 -7.6247e+002 -1.1034e+002 23477 111662,111844,111688
 2.8000e+000 111939 -1.9896e+002 -1.2933e+003  1.6872e+002 23477 111766,111818,111792
 2.8000e+000 111916 -5.3100e+002 -1.1790e+003  9.6880e+001 23477 111740,111818,111766
 2.8000e+000 111893 -3.0538e+002 -6.4760e+002  1.1434e+002 23477 111688,111818,111740
 2.8000e+000 111870 -5.1012e+002 -8.8444e+002  2.2999e+002 23477 111688,111740,111714
 2.8000e+000 112314 -4.0959e+002 -8.1509e+002 -4.5679e+000 23023 112141,112219,112193
 2.8000e+000 112291 -3.6024e+002 -7.8342e+002 -2.9439e+001 23023 112115,112219,112141
 2.8000e+000 112268 -3.5696e+002 -9.4739e+002  8.2485e+001 23023 112141,112193,112167
 2.8000e+000 112245 -3.8329e+002 -8.8145e+002 -3.7369e+001 23023 112089,112219,112115
 2.8000e+000 112692 -4.2139e+002 -1.0578e+003 -4.2141e+001 22768 112444,112574,112548
 2.8000e+000 112669 -3.2471e+002 -1.0993e+003 -6.0740e+000 22768 112418,112574,112444
 2.8000e+000 112646 -5.1620e+002 -1.1329e+003 -3.2463e+000 22768 112444,112522,112470
 2.8000e+000 112623 -3.9916e+002 -1.0503e+003 -4.6750e+001 22768 112444,112548,112522
 2.8000e+000 112600 -1.4328e+002 -9.6609e+002 -7.6324e+001 22768 112470,112522,112496
 2.8000e+000 113011 -2.1045e+002 -1.1179e+003 -8.5241e+001 22314 112763,112867,112789
 2.8000e+000 112988 -6.5405e+001 -1.1523e+003 -1.0860e+002 22314 112763,112893,112867
 2.8000e+000 112965 -2.0715e+002 -1.1169e+003  0.0000e+000 22314 112815,112867,112841
 2.8000e+000 112942 -2.7928e+002 -1.1595e+003 -5.2098e+001 22314 112789,112867,112815
 2.8000e+000 112919 -7.1148e+001 -8.7371e+002  2.5090e+002 22314 112737,112893,112763
 2.8000e+000 113519 -6.1564e+001 -8.5832e+002  2.0312e+002 21924 113614,113542,113248
 2.8000e+000 113496 -1.9039e+002 -8.3528e+002  7.5432e+001 21924 113542,113196,113378
 2.8000e+000 113473 -1.5522e+002 -8.8369e+002  2.1552e+002 21924 113614,113248,113222
 2.8000e+000 113450 -1.8405e+002 -1.2224e+003  7.2906e+001 21924 113686,113274,113248
 2.8000e+000 113427 -3.4970e+002 -1.2849e+003 -6.6978e+001 21924 113274,113352,113326
 2.8000e+000 113404 -5.9727e+002 -1.7368e+003 -1.6291e+002 21924 113274,113326,113300
 2.8000e+000 113568 -5.3197e+001 -1.0327e+003  1.4000e+002 21924 113686,113248,113542
 2.8000e+000 113591 -1.6792e+002 -7.7284e+002  8.5618e+001 21924 113352,113542,113378
 2.8000e+000 113640 -1.5408e+002 -8.5510e+002  1.6539e+002 21924 113196,113542,113614
 2.8000e+000 113663 -1.8711e+002 -8.4136e+002  1.6458e+002 21924 113196,113614,113222
 2.8000e+000 113712 -3.2600e+002 -1.0094e+003 -1.4739e+001 21924 113352,113274,113686
 2.8000e+000 113735 -2.5870e+002 -9.0920e+002  3.2259e+001 21924 113352,113686,113542
 2.8000e+000 113885 -6.9292e+002 -9.7885e+002 -8.6964e+000 21520 113980,113908,113784
 2.8000e+000 113862 -6.1855e+002 -9.6942e+002 -1.7005e+002 21520 114238,113908,113758
 2.8000e+000 113934 -4.8782e+002 -8.0155e+002  8.7046e+001 21520 114110,113908,113810
 2.8000e+000 113957 -4.1288e+002 -9.7194e+002 -1.0976e+002 21520 113810,113908,113836
 2.8000e+000 114006 -5.5389e+002 -8.6118e+002 -5.9188e+001 21520 113758,113908,113980
 2.8000e+000 114136 -6.7452e+002 -9.5969e+002  7.6001e+000 21520 113784,113908,114110
 2.8000e+000 114264 -7.6130e+002 -1.1231e+003 -2.3077e+002 21520 113836,113908,114238
 2.8000e+000 114662 -5.3561e+002 -1.3355e+003  1.0624e+001 21030 114414,114518,114492
 2.8000e+000 114639 -2.4023e+002 -1.0826e+003 -1.1138e+002 21030 114414,114544,114518
 2.8000e+000 114616 -6.5271e+002 -1.3912e+003 -1.2060e+001 21030 114440,114492,114466
 2.8000e+000 114593 -5.4030e+002 -1.3473e+003  8.3824e+000 21030 114414,114492,114440
 2.8000e+000 114570 -3.9564e+002 -1.1153e+003 -2.0988e+001 21030 114388,114544,114414
 2.8000e+000 114959 -8.6412e+002 -1.4050e+003  1.0037e+002 20512 114982,114711,114685
 2.8000e+000 114936 -7.9831e+002 -1.3712e+003 -3.0196e+001 20512 115054,114982,114685
 2.8000e+000 114913 -6.5939e+002 -1.2563e+003 -8.8210e+001 20512 115054,114685,114841
 2.8000e+000 114890 -5.1181e+002 -1.2774e+003  3.4602e+001 20512 114711,114763,114737
 2.8000e+000 114867 -2.8020e+002 -1.1868e+003  2.1842e+001 20512 114763,114815,114789
 2.8000e+000 115008 -7.4408e+002 -1.3780e+003  6.1767e+001 20512 114763,114711,114982
 2.8000e+000 115031 -6.6771e+002 -1.3390e+003 -3.0888e+001 20512 114763,114982,114815
 2.8000e+000 115080 -7.2300e+002 -1.4009e+003  5.1723e+000 20512 114815,114982,115054
 2.8000e+000 115103 -7.1698e+002 -1.3961e+003  2.8366e+000 20512 114815,115054,114841
 2.8000e+000 115507 -6.3008e+002 -1.2357e+003 -4.1643e+001 20143 115285,115389,115363
 2.8000e+000 115484 -7.1429e+002 -1.3937e+003 -9.2775e+000 20143 115259,115389,115285
 2.8000e+000 115461 -6.4158e+002 -1.1957e+003 -3.3972e+000 20143 115233,115389,115259
 2.8000e+000 115438 -5.9271e+002 -1.4409e+003  4.2038e+001 20143 115285,115337,115311
 2.8000e+000 115415 -8.3485e+002 -1.6975e+003 -7.7621e+001 20143 115285,115363,115337
 2.8000e+000 115875 -4.8467e+002 -1.1049e+003  1.2158e+000 19632 115656,115734,115682
 2.8000e+000 115852 -2.3759e+002 -9.9874e+002  1.2411e+002 19632 115552,115734,115656
 2.8000e+000 115829 -2.5677e+002 -1.0013e+003 -7.9619e+001 19632 115552,115656,115578
 2.8000e+000 115806 -4.7477e+002 -1.1275e+003  1.0039e+001 19632 115578,115656,115630
 2.8000e+000 115783 -5.2615e+002 -1.0546e+003  5.7281e+001 19632 115682,115734,115708
 2.8000e+000 115760 -5.7757e+002 -1.1573e+003 -1.0413e+002 19632 115578,115630,115604
 2.8000e+000 116025 -2.8656e+002 -1.1396e+003 -2.2137e+002 19178 115898,115950,115924
 2.8000e+000 116002 -3.8540e+002 -1.1657e+003 -1.2275e+002 19178 115898,115976,115950
 2.8000e+000 116633 -4.1159e+002 -1.1014e+003 -1.9066e+001 18738 116800,116656,116342
 2.8000e+000 116610 -4.3125e+002 -1.1630e+003  3.3750e+001 18738 116656,116238,116446
 2.8000e+000 116587 -5.0176e+002 -1.1288e+003 -6.0019e+001 18738 116728,116368,116342
 2.8000e+000 116564 -4.0309e+002 -1.0651e+003 -4.0556e+001 18738 116800,116342,116264
 2.8000e+000 116541 -4.3917e+002 -1.4992e+003  1.3394e+002 18738 116212,116446,116238
 2.8000e+000 116518 -1.0355e+002 -7.9248e+002  3.7693e+001 18738 116394,116446,116420
 2.8000e+000 116495  1.3380e+002 -8.8623e+002 -1.4671e+002 18738 116264,116342,116316
 2.8000e+000 116472 -1.9745e+002 -1.1898e+003  1.3776e+002 18738 116264,116316,116290
 2.8000e+000 116682 -4.8377e+002 -1.1059e+003  2.0534e+001 18738 116728,116342,116656
 2.8000e+000 116705 -4.2735e+002 -9.3548e+002  6.2218e+001 18738 116394,116656,116446
 2.8000e+000 116754 -6.3362e+002 -1.1797e+003 -1.0652e+002 18738 116394,116368,116728
 2.8000e+000 116777 -6.2508e+002 -1.1538e+003 -2.3527e+001 18738 116394,116728,116656
 2.8000e+000 116826 -3.9915e+002 -1.1717e+003  9.5479e+000 18738 116238,116656,116800
 2.8000e+000 116849 -3.7325e+002 -1.1252e+003 -1.7694e+001 18738 116238,116800,116264
 2.8000e+000 116999 -3.7328e+002 -1.1992e+003  5.2262e+001 18184 116872,116924,116898
 2.8000e+000 116976 -3.7259e+002 -6.4676e+002 -1.9744e+001 18184 116872,116950,116924
 2.8000e+000 117330 -7.4576e+001 -1.4393e+003  1.0011e+002 17694 117157,117235,117183
 2.8000e+000 117307 -4.6223e+002 -1.6290e+003  1.7362e+001 17694 117131,117235,117157
 2.8000e+000 117284 -3.2012e+002 -1.8239e+003 -8.9243e+001 17694 117105,117235,117131
 2.8000e+000 117261  2.1501e+002 -8.9561e+002 -4.1248e+001 17694 117183,117235,117209
 2.8000e+000 117480 -5.4115e+002 -1.2612e+003 -1.5094e+002 17290 117353,117405,117379
 2.8000e+000 117457 -2.6424e+002 -1.4044e+003 -1.6282e+002 17290 117353,117431,117405
 2.8000e+000 117679 -1.4638e+002 -1.0173e+003 -4.3048e+001 16718 117555,117607,117581
 2.8000e+000 117656 -4.9324e+002 -1.2570e+003  6.2905e+001 16718 117529,117607,117555
 2.8000e+000 117633  2.7256e+001 -1.2127e+003  4.6353e+001 16718 117503,117607,117529
 2.8000e+000 117782 -3.3919e+002 -1.1260e+003  2.8946e+001 16520 117704,117756,117730
 2.8000e+000 117983 -3.4376e+002 -1.4245e+003 -3.6266e+000 16208 117859,117911,117885
 2.8000e+000 117960 -2.8308e+002 -1.3901e+003 -1.7467e+001 16208 117833,117911,117859
 2.8000e+000 117937 -1.8513e+002 -1.2573e+003  4.1957e+001 16208 117807,117911,117833
 2.8000e+000 118135 -8.2531e+002 -1.3336e+003 -1.5334e+002 15674 118034,118086,118060
 2.8000e+000 118112 -4.1626e+002 -1.0437e+003  2.5983e+001 15674 118008,118086,118034
 2.8000e+000 118238 -1.1227e+002 -1.0732e+003  6.3962e+001 15355 118160,118212,118186
 2.8000e+000 118341 -6.8000e+002 -1.3273e+003  2.7238e+002 421 118263,118315,118289
 2.9000e+000 68152 -3.2605e+002 -1.1697e+003 -5.7029e+001 67838 68074,68126,68100
 2.9000e+000 68550 -1.8035e+002 -1.4271e+003  3.8536e+001 67526 68276,68380,68302
 2.9000e+000 68527 -3.0620e+001 -1.4152e+003  2.2160e+001 67526 68276,68406,68380
 2.9000e+000 68504 -1.9980e+002 -1.2720e+003  1.3176e+001 67526 68328,68380,68354
 2.9000e+000 68481 -1.1849e+002 -1.2829e+003  3.6228e+001 67526 68302,68380,68328
 2.9000e+000 68458 -4.7504e+001 -1.4609e+003 -1.5068e+001 67526 68276,68432,68406
 2.9000e+000 68651 -6.7652e+002 -1.1268e+003  1.6268e+002 67328 68573,68625,68599
 2.9000e+000 68970 -2.2758e+002 -1.0675e+003 -3.3797e+000 67016 68722,68800,68774
 2.9000e+000 68947 -2.4233e+002 -1.0665e+003 -2.6641e+001 67016 68722,68826,68800
 2.9000e+000 68924 -3.6923e+002 -1.0698e+003  4.1834e+000 67016 68696,68826,68722
 2.9000e+000 68901 -1.0758e+002 -1.1347e+003 -7.3756e+001 67016 68722,68774,68748
 2.9000e+000 68878 -4.9358e+002 -1.0275e+003 -1.5956e+002 67016 68696,68852,68826
 2.9000e+000 69291 -5.5191e+002 -1.2877e+003 -2.2641e+001 66654 69069,69147,69095
 2.9000e+000 69268 -3.8613e+002 -1.4044e+003  4.3711e+001 66654 69069,69173,69147
 2.9000e+000 69245 -5.2957e+002 -1.2735e+003  2.0982e+002 66654 69043,69173,69069
 2.9000e+000 69222 -7.3284e+002 -1.5182e+003  1.0214e+002 66654 69095,69147,69121
 2.9000e+000 69199 -7.1915e+002 -1.4241e+003  1.6522e+001 66654 69017,69173,69043
 2.9000e+000 69695 -2.8784e+002 -1.6292e+003  2.9919e+001 66456 69447,69577,69551
 2.9000e+000 69672 -4.3937e+000 -1.4219e+003 -6.3087e+001 66456 69421,69577,69447
 2.9000e+000 69649 -4.3982e+001 -1.0385e+003 -1.7457e+002 66456 69473,69551,69525
 2.9000e+000 69626 -2.1233e+002 -1.4797e+003 -9.6860e+000 66456 69447,69551,69473
 2.9000e+000 69603  8.0141e+001 -8.9983e+002 -3.4451e+002 66456 69473,69525,69499
 2.9000e+000 70024 -4.2032e+002 -1.1923e+003 -1.7420e+001 66258 70047,69851,69825
 2.9000e+000 70001 -4.3837e+002 -1.1582e+003  4.5248e+001 66258 70047,69825,69903
 2.9000e+000 69978 -5.7684e+002 -1.4890e+003  1.3146e+002 66258 69799,69903,69825
 2.9000e+000 69955 -2.2647e+002 -1.8637e+003  3.6485e+002 66258 69799,69929,69903
 2.9000e+000 70073 -4.9407e+002 -1.2079e+003 -4.7491e+001 66258 69877,69851,70047
 2.9000e+000 70096 -5.2192e+002 -1.1682e+003  1.7253e+001 66258 69877,70047,69903
 2.9000e+000 70602  3.6431e+001 -8.7284e+002 -1.8256e+002 66060 70305,70435,70331
 2.9000e+000 70579 -5.7080e+002 -1.4854e+003  6.4812e+001 66060 70279,70435,70305
 2.9000e+000 70556 -6.5605e+002 -1.0846e+003 -2.3981e+002 66060 70331,70435,70409
 2.9000e+000 70533 -3.6393e+002 -1.1072e+003  2.0955e+002 66060 70279,70461,70435
 2.9000e+000 70510 -2.0451e+002 -8.2414e+002 -4.5901e+002 66060 70331,70409,70357
 2.9000e+000 70487 -1.0793e+001 -8.7749e+002 -9.3948e+001 66060 70357,70409,70383
 2.9000e+000 70703 -1.4319e+003 -2.2074e+003 -1.0346e+002 65862 70625,70677,70651
 2.9000e+000 71083 -3.2296e+002 -1.2258e+003  6.0121e+001 65664 70887,70965,70939
 2.9000e+000 71060 -2.0968e+002 -1.2239e+003  2.9843e+001 65664 70861,70965,70887
 2.9000e+000 71037 -2.5025e+002 -1.2787e+003  9.2222e+000 65664 70809,70965,70861
 2.9000e+000 71014 -2.3513e+002 -1.3042e+003 -2.4910e+001 65664 70809,70861,70835
 2.9000e+000 70991 -2.9482e+002 -1.2027e+003  1.2292e+001 65664 70887,70939,70913
 2.9000e+000 71611 -6.7683e+002 -1.8345e+003 -8.2476e+001 65260 71288,71444,71314
 2.9000e+000 71588 -3.7716e+002 -1.6468e+003 -2.5944e+000 65260 71288,71470,71444
 2.9000e+000 71565 -2.1279e+002 -1.1249e+003  1.1587e+002 65260 71314,71418,71392
 2.9000e+000 71542 -6.0646e+002 -1.6238e+003 -5.5853e+001 65260 71314,71444,71418
 2.9000e+000 71519 -5.8821e+002 -1.2534e+003  1.3878e+002 65260 71314,71392,71340
 2.9000e+000 71496 -4.2469e+002 -9.4649e+002  3.6417e+002 65260 71340,71392,71366
 2.9000e+000 72060 -4.6798e+002 -1.0052e+003 -5.4054e+001 64870 71737,71893,71789
 2.9000e+000 72037 -1.5441e+002 -8.6757e+002 -3.0709e+001 64870 71737,71919,71893
 2.9000e+000 72014 -5.1119e+002 -9.0856e+002  5.3943e+001 64870 71789,71841,71815
 2.9000e+000 71991 -3.7718e+002 -9.4335e+002  3.5740e-001 64870 71789,71893,71841
 2.9000e+000 71968 -4.2732e+002 -1.1837e+003 -1.9255e+002 64870 71737,71789,71763
 2.9000e+000 71945 -2.7765e+002 -1.0202e+003  0.0000e+000 64870 71841,71893,71867
 2.9000e+000 72517 -5.9303e+002 -9.2558e+002 -1.1909e+002 64466 72321,72399,72347
 2.9000e+000 72494 -5.8946e+002 -8.6521e+002 -1.0569e+002 64466 72269,72399,72321
 2.9000e+000 72471 -6.0031e+002 -1.0374e+003  5.4355e+001 64466 72347,72399,72373
 2.9000e+000 72448 -5.5475e+002 -9.3948e+002 -2.8811e+002 64466 72243,72399,72269
 2.9000e+000 72425 -6.9129e+002 -1.0484e+003 -5.0023e+001 64466 72269,72321,72295
 2.9000e+000 72944 -2.2262e+002 -7.6595e+002 -4.9181e+001 64062 73111,73039,72699
 2.9000e+000 72921 -1.5151e+002 -8.6221e+002 -8.1409e+001 64062 73183,72967,72647
 2.9000e+000 72898 -1.8409e+002 -8.7106e+002 -7.0938e+001 64062 72967,72803,72751
 2.9000e+000 72875 -1.7733e+002 -7.4686e+002 -6.1872e+001 64062 73111,72699,72673
 2.9000e+000 72852 -9.7764e+001 -9.1714e+002 -4.4443e+001 64062 73183,72647,72621
 2.9000e+000 72829 -1.0762e+002 -6.8481e+002 -2.3575e+002 64062 72751,72803,72777
 2.9000e+000 72993 -1.5876e+002 -8.0376e+002 -4.7551e+001 64062 73039,72647,72967
 2.9000e+000 73016 -3.0587e+002 -9.0529e+002 -7.1900e+001 64062 72725,72967,72751
 2.9000e+000 73065 -5.6512e+001 -9.1577e+002  2.6138e+002 64062 72725,72699,73039
 2.9000e+000 73088 -1.7039e+002 -8.7291e+002 -8.8901e+001 64062 72725,73039,72967
 2.9000e+000 73137 -1.1752e+002 -7.8702e+002 -5.2011e+001 64062 72647,73039,73111
 2.9000e+000 73160 -1.1360e+002 -7.8424e+002 -5.5175e+001 64062 72647,73111,72673
 2.9000e+000 73209 -2.1336e+002 -9.1191e+002 -5.6239e+001 64062 72803,72967,73183
 2.9000e+000 73232 -1.7836e+002 -9.9976e+002 -1.1595e+001 64062 72803,73183,72621
 2.9000e+000 73333 -1.2015e+003 -1.8671e+003  8.8567e+001 63814 73356,73281,73255
 2.9000e+000 73382 -9.7681e+002 -1.4153e+003  5.5909e+001 63814 73486,73356,73307
 2.9000e+000 73512 -1.1870e+003 -1.5028e+003 -6.3079e+001 63814 73281,73356,73486
 2.9000e+000 73839 -4.9840e+002 -1.3765e+003 -8.2343e+001 63616 73862,73692,73666
 2.9000e+000 73816 -4.8429e+002 -1.1996e+003 -1.1813e+001 63616 73934,73862,73666
 2.9000e+000 73793 -4.2998e+002 -1.2254e+003  4.1832e+001 63616 73934,73666,73640
 2.9000e+000 73770 -3.6903e+002 -1.2431e+003  7.9449e+001 63616 73614,73744,73640
 2.9000e+000 73888 -4.5912e+002 -1.2011e+003 -1.1228e+002 63616 73718,73692,73862
 2.9000e+000 73911 -5.5605e+002 -1.1619e+003  3.8527e+000 63616 73718,73862,73744
 2.9000e+000 73960 -5.8474e+002 -1.2418e+003 -2.5527e+000 63616 73744,73862,73934
 2.9000e+000 73983 -5.4202e+002 -1.2733e+003  4.4241e+001 63616 73744,73934,73640
 2.9000e+000 74363 -2.5844e+002 -9.0984e+002 -2.5531e+001 63390 74386,74115,74089
 2.9000e+000 74340 -3.1384e+002 -8.6044e+002 -3.1639e+001 63390 74458,74386,74089
 2.9000e+000 74317 -2.7191e+002 -8.8881e+002  6.9868e+001 63390 74458,74089,74245
 2.9000e+000 74294 -3.5263e+002 -1.0165e+003 -2.3884e+001 63390 74530,74167,74141
 2.9000e+000 74271 -3.5634e+002 -9.0471e+002 -1.7835e+002 63390 74167,74219,74193
 2.9000e+000 74412 -2.4218e+002 -8.8703e+002 -1.0061e+001 63390 74141,74115,74386
 2.9000e+000 74435 -2.8471e+002 -9.5169e+002  1.3160e+001 63390 74530,74141,74386
 2.9000e+000 74484 -2.3785e+002 -7.2021e+002  1.0180e+001 63390 74219,74386,74458
 2.9000e+000 74507 -1.6416e+002 -7.1377e+002  1.2046e+002 63390 74219,74458,74245
 2.9000e+000 74556 -4.6862e+002 -9.5826e+002 -1.0573e+002 63390 74219,74167,74530
 2.9000e+000 74579 -3.9631e+002 -8.7430e+002 -6.3382e+001 63390 74219,74530,74386
 2.9000e+000 74680 -4.7717e+002 -8.6955e+002  9.8709e+001 63100 75089,74833,74703
 2.9000e+000 74729 -5.8326e+002 -1.0012e+003  3.5435e+001 63100 74961,74703,74654
 2.9000e+000 74859 -3.4399e+002 -7.4404e+002  1.5350e+002 63100 74602,74703,74833
 2.9000e+000 74987 -5.3065e+002 -8.6188e+002  6.3197e+001 63100 75089,74703,74961
 2.9000e+000 75115 -3.6700e+002 -8.7000e+002  1.1223e+002 63100 74628,74833,75089
 2.9000e+000 75138 -4.1902e+002 -8.6138e+002  7.6931e+001 63100 74628,75089,74961
 2.9000e+000 75723 -3.8879e+002 -7.6891e+002  4.2651e+001 62532 75746,75504,75426
 2.9000e+000 75700 -4.8629e+002 -6.4020e+002  9.0379e+001 62532 75746,75426,75556
 2.9000e+000 75677 -4.9057e+002 -8.3464e+002 -1.7358e+002 62532 75426,75504,75452
 2.9000e+000 75654 -6.3005e+002 -5.4823e+002 -9.1557e+001 62532 75400,75556,75426
 2.9000e+000 75631 -7.2396e+002 -1.0384e+003 -3.3962e+002 62532 75400,75582,75556
 2.9000e+000 75608 -5.5187e+002 -2.1934e+002 -3.6143e+002 62532 75452,75504,75478
 2.9000e+000 75772 -4.7426e+002 -8.3487e+002  1.3050e+001 62532 75530,75504,75746
 2.9000e+000 75795 -6.0927e+002 -7.2745e+002  5.2182e+001 62532 75530,75746,75556
 2.9000e+000 76301 -4.8154e+002 -9.3115e+002 -4.2881e+001 62192 76324,76082,76030
 2.9000e+000 76278 -4.6433e+002 -8.8145e+002 -2.4276e+001 62192 76324,76030,76004
 2.9000e+000 76255 -3.4850e+002 -9.1611e+002  1.0253e+002 62192 76030,76082,76056
 2.9000e+000 76232 -5.7798e+002 -1.0856e+003 -1.5961e+002 62192 76082,76134,76108
 2.9000e+000 76209 -4.4962e+002 -7.9235e+002 -9.4923e+001 62192 76004,76160,76134
 2.9000e+000 76186 -3.0018e+002 -9.3106e+002 -4.0924e+001 62192 75978,76160,76004
 2.9000e+000 76350 -5.3416e+002 -8.6731e+002 -4.7187e+001 62192 76134,76082,76324
 2.9000e+000 76373 -5.0295e+002 -7.9443e+002 -3.0749e+001 62192 76134,76324,76004
 2.9000e+000 76879 -6.0531e+002 -8.5217e+002 -2.7755e+001 61788 76902,76660,76582
 2.9000e+000 76856 -5.9973e+002 -9.2063e+002 -6.7498e+001 61788 76902,76582,76556
 2.9000e+000 76833 -1.0745e+003 -8.7517e+002 -2.5100e+002 61788 76582,76660,76634
 2.9000e+000 76810 -8.6970e+002 -1.4128e+003 -1.3033e+002 61788 76582,76634,76608
 2.9000e+000 76787 -5.0638e+002 -1.0220e+003  7.3233e+001 61788 76556,76738,76686
 2.9000e+000 76764 -2.1504e+002 -6.9632e+002 -5.1528e+001 61788 76686,76738,76712
 2.9000e+000 76928 -5.6344e+002 -9.1980e+002 -2.0309e+001 61788 76686,76660,76902
 2.9000e+000 76951 -5.7174e+002 -1.0109e+003 -5.2780e+001 61788 76686,76902,76556
 2.9000e+000 77408 -5.6095e+002 -8.4756e+002  1.9497e+000 61498 77212,77264,77238
 2.9000e+000 77385 -4.7874e+002 -7.1141e+002  6.9900e+001 61498 77160,77264,77212
 2.9000e+000 77362 -5.1657e+002 -7.1363e+002  7.1738e+001 61498 77160,77290,77264
 2.9000e+000 77339 -2.9640e+002 -8.4172e+002  8.9583e+001 61498 77160,77212,77186
 2.9000e+000 77316 -3.8969e+002 -5.6530e+002  2.5320e+002 61498 77134,77290,77160
 2.9000e+000 77678 -2.7859e+002 -1.0462e+003 -7.5816e+001 61129 77479,77557,77505
 2.9000e+000 77655 -4.0632e+002 -1.1493e+003 -1.6498e+001 61129 77479,77583,77557
 2.9000e+000 77632 -2.6449e+002 -1.1416e+003  5.7789e+001 61129 77453,77583,77479
 2.9000e+000 77609 -1.2579e+002 -1.0434e+003 -1.3088e+002 61129 77505,77557,77531
 2.9000e+000 77828 -2.5205e+002 -1.1159e+003  3.1454e+001 60931 77851,77727,77701
 2.9000e+000 77805 -3.4386e+002 -1.2508e+003  9.5279e+001 60931 77851,77701,77779
 2.9000e+000 77877 -5.8507e+002 -1.4125e+003  2.2830e+002 60931 77923,77851,77753
 2.9000e+000 77900 -1.9767e+002 -1.2313e+003  1.3756e+002 60931 77753,77851,77779
 2.9000e+000 77949 -2.7428e+002 -8.4163e+002  7.7444e+001 60931 77727,77851,77923
 2.9000e+000 78133 -1.7303e+002 -5.6550e+002 -5.5269e+001 60377 78055,78107,78081
 2.9000e+000 78535 -9.0738e+002 -1.2519e+003 -5.6717e+001 60015 78287,78391,78313
 2.9000e+000 78512 -5.5893e+002 -1.2391e+003 -1.0766e+002 60015 78287,78417,78391
 2.9000e+000 78489 -6.2660e+002 -1.3616e+003 -2.2068e+002 60015 78261,78417,78287
 2.9000e+000 78466 -4.4002e+002 -1.1493e+003  1.1180e+002 60015 78339,78391,78365
 2.9000e+000 78443 -4.7295e+002 -1.0415e+003  2.3526e+001 60015 78313,78391,78339
 2.9000e+000 78913 -3.7933e+002 -6.9892e+002 -8.5927e-001 59725 78936,78743,78691
 2.9000e+000 78890 -4.6252e+002 -7.4823e+002 -3.1685e+001 59725 79008,78936,78691
 2.9000e+000 78867 -4.5388e+002 -7.1725e+002 -4.7980e+001 59725 79008,78691,78665
 2.9000e+000 78844 -2.1614e+002 -6.9180e+002  1.1071e+002 59725 78691,78743,78717
 2.9000e+000 78821 -1.5998e+002 -6.6685e+002 -3.2810e+002 59725 78639,78795,78769
 2.9000e+000 78962 -2.3514e+002 -7.6467e+002 -8.9085e+001 59725 78769,78743,78936
 2.9000e+000 78985 -4.8183e+002 -9.6795e+002 -1.7707e+002 59725 78769,78936,78639
 2.9000e+000 79034 -4.2241e+002 -7.2766e+002 -5.0535e+001 59725 78639,78936,79008
 2.9000e+000 79057 -4.3730e+002 -7.2092e+002 -6.3673e+001 59725 78639,79008,78665
 2.9000e+000 79386 -3.8914e+002 -1.0464e+003  7.7665e+001 59221 79187,79239,79213
 2.9000e+000 79363 -2.9484e+002 -9.1901e+002  2.5333e+001 59221 79187,79265,79239
 2.9000e+000 79340 -4.5610e+002 -9.7800e+002  3.1463e+001 59221 79187,79291,79265
 2.9000e+000 79317 -2.8931e+002 -6.0205e+002 -3.8722e+001 59221 79161,79291,79187
 2.9000e+000 79813 -3.5426e+002 -8.6056e+002 -2.8200e+001 58831 79836,79542,79516
 2.9000e+000 79790 -2.8856e+002 -8.3018e+002 -3.6521e+001 58831 79980,79836,79516
 2.9000e+000 79767 -3.7982e+002 -9.4949e+002 -7.5756e+001 58831 79908,79646,79568
 2.9000e+000 79744 -2.4445e+002 -7.3368e+002  2.6620e+001 58831 79980,79516,79490
 2.9000e+000 79721 -7.9923e+002 -1.1401e+003 -1.3963e+002 58831 79568,79646,79594
 2.9000e+000 79698 -1.2246e+003 -6.6008e+002 -3.9155e+002 58831 79594,79646,79620
 2.9000e+000 79862 -2.4769e+002 -7.4152e+002  2.5394e+001 58831 79568,79542,79836
 2.9000e+000 79885 -2.4884e+002 -8.3552e+002  1.6678e+001 58831 79908,79568,79836
 2.9000e+000 79934 -4.7374e+002 -9.2913e+002 -1.8038e+002 58831 79672,79646,79908
 2.9000e+000 79957 -4.3476e+002 -8.6966e+002 -9.1897e+001 58831 79672,79908,79836
 2.9000e+000 80006 -2.6062e+002 -6.8621e+002 -2.0332e+001 58831 79672,79836,79980
 2.9000e+000 80029 -2.9112e+002 -6.6347e+002  2.5368e+001 58831 79672,79980,79490
 2.9000e+000 80358 -2.7785e+002 -9.4563e+002 -1.5362e+000 58377 80381,80185,80159
 2.9000e+000 80335 -2.6410e+002 -9.4104e+002  5.2392e-001 58377 80381,80159,80133
 2.9000e+000 80312 -1.5107e+002 -8.6782e+002 -1.3709e+001 58377 80133,80263,80237
 2.9000e+000 80289 -3.3925e+002 -1.0583e+003  9.9225e+001 58377 80185,80237,80211
 2.9000e+000 80407 -3.0208e+002 -9.3943e+002  1.1353e+000 58377 80237,80185,80381
 2.9000e+000 80430 -2.7778e+002 -9.2807e+002  5.0082e+000 58377 80237,80381,80133
 2.9000e+000 80759 -2.5058e+002 -9.0942e+002  2.0212e+002 57873 80782,80586,80560
 2.9000e+000 80736 -3.8275e+002 -1.0499e+003  1.4393e+002 57873 80782,80560,80534
 2.9000e+000 80713 -3.5335e+002 -1.0965e+003  1.2050e+002 57873 80586,80638,80612
 2.9000e+000 80690 -1.2750e+002 -1.0032e+003  1.0697e+002 57873 80534,80664,80638
 2.9000e+000 80808 -3.1493e+002 -1.0351e+003  1.3846e+002 57873 80638,80586,80782
 2.9000e+000 80831 -3.3074e+002 -1.0756e+003  1.0963e+002 57873 80638,80782,80534
 2.9000e+000 81337 -3.6505e+002 -9.5772e+002 -1.0805e+002 57262 81360,81144,81092
 2.9000e+000 81314 -4.3317e+002 -1.1321e+003 -1.3323e+002 57262 81360,81092,81066
 2.9000e+000 81291 -4.3575e+002 -1.1625e+003 -1.6375e+001 57262 81014,81196,81066
 2.9000e+000 81268 -2.8311e+002 -7.5413e+002 -7.3784e+001 57262 81092,81144,81118
 2.9000e+000 81245 -3.5093e+002 -7.2949e+002 -2.0504e+001 57262 81144,81196,81170
 2.9000e+000 81222 -4.5946e+002 -1.2371e+003  9.4965e+001 57262 81014,81066,81040
 2.9000e+000 81386 -3.8521e+002 -8.0029e+002  1.0837e+001 57262 81196,81144,81360
 2.9000e+000 81409 -4.6546e+002 -9.8510e+002 -1.9792e+001 57262 81196,81360,81066
 2.9000e+000 81608 -2.5064e+002 -1.1652e+003  5.6087e+001 57007 81458,81536,81510
 2.9000e+000 81585 -2.6122e+002 -1.2804e+003  7.1729e+001 57007 81432,81536,81458
 2.9000e+000 81562 -7.3673e+002 -1.0475e+003  2.9117e+002 57007 81458,81510,81484
 2.9000e+000 82086 -6.9940e+002 -1.2452e+003 -5.8517e+001 56339 81792,81922,81818
 2.9000e+000 82063 -1.0338e+003 -1.5291e+003 -1.9186e+002 56339 81714,81922,81792
 2.9000e+000 82040 -6.8887e+002 -1.0659e+003 -1.0433e+002 56339 82109,81844,81818
 2.9000e+000 82017 -6.6630e+002 -1.1843e+003 -1.1253e+002 56339 82109,81818,81922
 2.9000e+000 81994 -5.5198e+002 -1.2774e+003 -1.3070e+002 56339 81844,81896,81870
 2.9000e+000 81971 -5.0781e+002 -3.3972e+002 -4.3558e+001 56339 81714,81792,81766
 2.9000e+000 81948 -6.6195e+002 -3.7268e+002 -7.7329e+001 56339 81714,81766,81740
 2.9000e+000 82135 -6.1385e+002 -1.1602e+003 -4.2125e+001 56339 81896,81844,82109
 2.9000e+000 82158 -6.4297e+002 -1.3523e+003 -7.0468e+001 56339 81896,82109,81922
 2.9000e+000 82536 -4.9500e+002 -1.0922e+003 -5.4094e+001 55699 82288,82392,82314
 2.9000e+000 82513 -5.3915e+002 -1.1150e+003 -6.7091e+001 55699 82288,82418,82392
 2.9000e+000 82490 -5.9473e+002 -1.3630e+003 -9.4413e+001 55699 82314,82392,82340
 2.9000e+000 82467 -1.3278e+002 -1.7465e+003 -1.9687e+002 55699 82340,82392,82366
 2.9000e+000 82444 -4.8983e+002 -1.2109e+003 -7.9712e+001 55699 82262,82418,82288
 2.9000e+000 83091 -9.5474e+002 -1.0952e+003  1.6857e+002 55409 82745,82901,82875
 2.9000e+000 83068 -8.1097e+002 -1.0357e+003  2.2286e+002 55409 82719,82901,82745
 2.9000e+000 83045 -6.0785e+002 -1.0513e+003  1.7966e+002 55409 82771,82849,82823
 2.9000e+000 83022 -1.1028e+003 -1.2008e+003  3.0117e+002 55409 82745,82849,82771
 2.9000e+000 82999 -6.7763e+002 -9.7624e+002  1.7846e+002 55409 82745,82875,82849
 2.9000e+000 82976 -8.7075e+002 -9.9222e+002  2.1458e+002 55409 82771,82823,82797
 2.9000e+000 82953 -4.6480e+002 -9.3578e+002  1.7123e+002 55409 82719,82927,82901
 2.9000e+000 83388 -4.4560e+002 -1.2723e+003 -5.6775e+001 54905 83411,83218,83166
 2.9000e+000 83365 -2.9130e+002 -1.1975e+003 -2.7935e+001 54905 83411,83166,83114
 2.9000e+000 83342 -5.2926e+002 -1.1991e+003 -5.9526e+001 54905 83483,83270,83244
 2.9000e+000 83319 -5.3220e+002 -1.1939e+003 -1.2169e+002 54905 83166,83218,83192
 2.9000e+000 83296 -2.9645e+002 -1.2686e+003  3.2842e+001 54905 83114,83166,83140
 2.9000e+000 83437 -4.8575e+002 -1.2042e+003 -3.2092e+000 54905 83244,83218,83411
 2.9000e+000 83460 -4.5925e+002 -1.2066e+003 -1.9277e+001 54905 83483,83244,83411
 2.9000e+000 83509 -4.4055e+002 -1.1144e+003 -2.4991e+001 54905 83114,83270,83483
 2.9000e+000 83532 -4.1238e+002 -1.1472e+003  4.0927e+000 54905 83114,83483,83411
 2.9000e+000 83961 -3.2766e+002 -1.0526e+003  3.2979e+001 54593 83638,83768,83690
 2.9000e+000 83938 -7.7687e+001 -1.1892e+003  2.2807e+002 54593 83638,83794,83768
 2.9000e+000 83915 -3.4914e+002 -1.0796e+003  1.8278e+001 54593 83690,83768,83742
 2.9000e+000 83892 -2.1470e+002 -9.0690e+002 -1.8640e+002 54593 83638,83820,83794
 2.9000e+000 83869 -3.1837e+002 -9.5181e+002 -5.2364e+000 54593 83638,83690,83664
 2.9000e+000 83846 -2.1153e+002 -7.8906e+002 -2.1079e+002 54593 83690,83742,83716
 2.9000e+000 84209 -4.4879e+002 -1.4797e+003  1.6551e+002 54132 84232,84062,83984
 2.9000e+000 84186 -4.3136e+002 -1.2421e+003  9.7158e+001 54132 84232,83984,84114
 2.9000e+000 84163 -5.0480e+002 -1.6236e+003  8.6791e+000 54132 83984,84062,84036
 2.9000e+000 84140 -5.3556e+002 -1.5026e+003 -3.0812e+001 54132 83984,84036,84010
 2.9000e+000 84258 -2.9883e+002 -1.7597e+003  1.2827e+002 54132 84088,84062,84232
 2.9000e+000 84281 -2.4467e+002 -1.4934e+003  1.4864e+001 54132 84088,84232,84114
 2.9000e+000 84382 -3.3643e+002 -9.5240e+002 -2.0657e+001 53521 84304,84356,84330
 2.9000e+000 84632 -4.5472e+002 -1.2127e+003  4.1806e+001 53067 84655,84485,84459
 2.9000e+000 84609 -4.5849e+002 -1.1971e+003  4.2204e+001 53067 84655,84459,84407
 2.9000e+000 84586 -4.1400e+002 -1.1357e+003  1.1424e+001 53067 84485,84537,84511
 2.9000e+000 84563 -4.8815e+002 -1.3127e+003 -1.2171e+001 53067 84407,84459,84433
 2.9000e+000 84681 -4.5907e+002 -1.1972e+003  3.7259e+001 53067 84537,84485,84655
 2.9000e+000 84704 -4.5771e+002 -1.1778e+003  3.4282e+001 53067 84537,84655,84407
 2.9000e+000 85214 -3.6578e+002 -1.1822e+003 -1.6820e+002 52513 85021,85073,85047
 2.9000e+000 85191 -3.4056e+002 -8.8907e+002 -2.2567e+002 52513 84943,85073,85021
 2.9000e+000 85168 -3.1995e+002 -8.4343e+002 -3.3677e+001 52513 84943,85021,84995
 2.9000e+000 85145 -6.3677e+002 -1.6083e+003 -2.3689e+002 52513 84917,85073,84943
 2.9000e+000 85122 -2.8229e+002 -8.5805e+002 -3.3412e+001 52513 84943,84995,84969
 2.9000e+000 85099 -9.9466e+002 -1.3911e+003 -1.2371e+002 52513 84891,85073,84917
 2.9000e+000 85582 -4.3784e+002 -1.1027e+003  9.2780e+001 52037 85605,85311,85285
 2.9000e+000 85559 -4.5976e+002 -1.1783e+003  8.9678e+001 52037 85749,85605,85285
 2.9000e+000 85536 -1.5230e+002 -1.0861e+003  1.9099e+001 52037 85893,85677,85389
 2.9000e+000 85513 -3.0887e+002 -1.0810e+003  4.7814e+001 52037 85749,85285,85259
 2.9000e+000 85490  1.2810e+001 -1.0216e+003 -7.0083e+001 52037 85893,85389,85363
 2.9000e+000 85467 -2.1297e+002 -1.1143e+003 -4.2148e+001 52037 85259,85441,85415
 2.9000e+000 85631 -6.6168e+002 -1.2291e+003  3.7623e+001 52037 85337,85311,85605
 2.9000e+000 85654 -4.8256e+002 -1.2117e+003  1.9882e+002 52037 85677,85337,85605
 2.9000e+000 85703 -7.7026e+001 -1.1892e+003  6.6903e+001 52037 85415,85389,85677
 2.9000e+000 85726 -1.5173e+002 -1.1359e+003  1.4610e+002 52037 85821,85677,85605
 2.9000e+000 85775 -2.5687e+002 -1.1834e+003  1.3553e+002 52037 85821,85605,85749
 2.9000e+000 85798 -3.1069e+002 -1.2049e+003  5.0229e+001 52037 85415,85749,85259
 2.9000e+000 85847 -1.8150e+002 -1.1693e+003  6.2162e+001 52037 85415,85677,85821
 2.9000e+000 85870 -2.2143e+002 -1.1888e+003  5.5050e+001 52037 85415,85821,85749
 2.9000e+000 85919 -1.4258e+002 -1.2024e+003  1.9206e+002 52037 85337,85677,85893
 2.9000e+000 85942 -7.0605e+001 -1.1859e+003  1.0787e+002 52037 85337,85893,85363
 2.9000e+000 86224 -1.5806e+002 -4.8234e+002  1.4804e+002 51368 86375,86100,86074
 2.9000e+000 86201 -4.5859e+002 -6.2977e+002  1.0123e+002 51368 86375,86074,86247
 2.9000e+000 86178 -1.4047e+002 -1.1585e+003 -2.5229e+002 51368 86048,86152,86126
 2.9000e+000 86273 -4.0182e+002 -8.2010e+002 -2.2097e+002 51368 86048,86126,86247
 2.9000e+000 86401  8.8362e+000 -6.7541e+002 -2.7728e+000 51368 86126,86100,86375
 2.9000e+000 86424 -1.4146e+002 -7.5585e+002 -3.5858e+001 51368 86126,86375,86247
 2.9000e+000 86802 -5.5408e+002 -1.0665e+003  2.0772e+001 51028 86528,86632,86580
 2.9000e+000 86779 -5.8590e+002 -1.2500e+003  7.1606e+001 51028 86528,86684,86632
 2.9000e+000 86756 -6.9636e+002 -1.3980e+003 -1.8554e+001 51028 86528,86580,86554
 2.9000e+000 86733 -3.9252e+002 -1.1361e+003  2.6857e+002 51028 86632,86684,86658
 2.9000e+000 86710 -5.8988e+002 -1.2699e+003 -1.5163e+002 51028 86580,86632,86606
 2.9000e+000 87131 -4.6704e+002 -1.0577e+003  1.9671e+002 50624 86958,87036,87010
 2.9000e+000 87108 -5.8039e+002 -1.0219e+003  1.6151e+002 50624 86932,87036,86958
 2.9000e+000 87085 -4.2890e+002 -1.0316e+003  1.0867e+002 50624 86958,87010,86984
 2.9000e+000 87062 -4.4992e+002 -9.5967e+002  1.7935e+002 50624 86906,87036,86932
 2.9000e+000 87330 -7.6464e+002 -1.3330e+003  2.1115e+001 50234 87353,87180,87154
 2.9000e+000 87307 -6.7704e+002 -1.3305e+003  2.7750e+001 50234 87353,87154,87258
 2.9000e+000 87284 -5.1336e+002 -1.2452e+003  7.9318e+000 50234 87206,87258,87232
 2.9000e+000 87379 -6.9367e+002 -1.3745e+003  7.2139e+001 50234 87206,87180,87353
 2.9000e+000 87402 -5.6800e+002 -1.3515e+003  6.1915e+001 50234 87206,87353,87258
 2.9000e+000 87650 -5.8117e+002 -1.2669e+003 -6.4675e+001 49730 87673,87503,87451
 2.9000e+000 87627 -3.6539e+002 -1.1708e+003 -4.3929e+001 49730 87673,87451,87425
 2.9000e+000 87604 -3.8235e+002 -9.4704e+002  1.1690e+002 49730 87503,87555,87529
 2.9000e+000 87581 -6.9698e+002 -1.0527e+003 -9.1364e+001 49730 87451,87503,87477
 2.9000e+000 87699 -6.0721e+002 -1.1935e+003 -7.1227e+000 49730 87555,87503,87673
 2.9000e+000 87722 -5.6161e+002 -1.1775e+003 -1.5700e+000 49730 87555,87673,87425
 2.9000e+000 88232 -4.6608e+002 -1.0703e+003  9.9620e+001 49176 88255,87935,87909
 2.9000e+000 88209 -5.9760e+002 -1.1713e+003  2.5181e+002 49176 88255,87909,88065
 2.9000e+000 88186 -5.7297e+002 -1.0212e+003  1.7221e+002 49176 87935,88039,87961
 2.9000e+000 88163 -5.1400e+002 -1.0730e+003  2.0926e+002 49176 87909,88091,88065
 2.9000e+000 88140 -7.6788e+002 -1.1104e+003  1.3754e+002 49176 87961,88039,88013
 2.9000e+000 88117 -6.8912e+002 -1.4285e+003 -5.3361e+001 49176 87961,88013,87987
 2.9000e+000 88281 -6.2454e+002 -1.1264e+003  2.1781e+002 49176 88039,87935,88255
 2.9000e+000 88304 -7.6171e+002 -1.2255e+003  3.6987e+002 49176 88039,88255,88065
 2.9000e+000 88503 -1.6208e+002 -7.2676e+002 -1.1367e+001 48772 88526,88379,88353
 2.9000e+000 88480 -1.9445e+002 -6.0184e+002  1.2056e+001 48772 88526,88353,88327
 2.9000e+000 88457 -1.9456e+002 -8.0632e+002 -3.3947e+000 48772 88379,88431,88405
 2.9000e+000 88552 -1.3298e+002 -6.2715e+002 -2.7373e+001 48772 88431,88379,88526
 2.9000e+000 88575 -1.9328e+002 -5.4731e+002 -1.6741e+001 48772 88431,88526,88327
 2.9000e+000 89083 -3.0372e+002 -6.9588e+002 -1.5420e+002 48368 88786,88916,88864
 2.9000e+000 89060 -3.3011e+002 -7.8043e+002 -9.6821e+001 48368 88786,88942,88916
 2.9000e+000 89037 -3.8627e+002 -6.0759e+002 -2.1693e+001 48368 88786,88864,88812
 2.9000e+000 89014 -4.8632e+002 -1.0083e+003 -2.6233e+002 48368 88864,88916,88890
 2.9000e+000 88991 -1.4183e+002 -9.7292e+002  2.8116e+002 48368 88812,88864,88838
 2.9000e+000 88968 -7.0505e+001 -6.0480e+002  1.3786e+001 48368 88760,88942,88786
 2.9000e+000 89331 -5.1204e+002 -1.3672e+003  2.2567e+001 47928 89158,89236,89210
 2.9000e+000 89308 -4.2526e+002 -1.0249e+003  9.6327e+001 47928 89132,89236,89158
 2.9000e+000 89285 -6.0488e+002 -9.4735e+002  1.8678e+001 47928 89158,89210,89184
 2.9000e+000 89262 -6.6911e+002 -1.1908e+003  1.8671e+001 47928 89106,89236,89132
 2.9000e+000 89662 -5.9821e+002 -1.2012e+003 -1.8076e+001 47588 89463,89541,89515
 2.9000e+000 89639 -4.1923e+002 -9.5024e+002 -1.0093e+002 47588 89463,89567,89541
 2.9000e+000 89616 -4.9087e+002 -1.0939e+003  6.9148e+001 47588 89463,89515,89489
 2.9000e+000 89593 -5.9764e+002 -1.0011e+003 -1.0486e+002 47588 89437,89567,89463
 2.9000e+000 89763 -9.7690e+000 -2.7842e+002  7.2768e+000 47390 89685,89737,89711
 2.9000e+000 89913 -1.1866e+002 -7.5828e+002 -5.6315e+001 47078 89786,89838,89812
 2.9000e+000 89890 -3.5579e+002 -1.3333e+003  1.5598e+002 47078 89786,89864,89838
 2.9000e+000 90163 -5.3209e+002 -1.0553e+003  6.0966e+001 46474 89964,90042,89990
 2.9000e+000 90140 -4.7962e+002 -1.0318e+003  5.2954e+001 46474 89938,90042,89964
 2.9000e+000 90117 -5.8046e+002 -1.0262e+003  5.8723e+001 46474 89990,90042,90016
 2.9000e+000 90094 -5.9435e+002 -1.0812e+003  8.4494e+001 46474 89938,90068,90042
 2.9000e+000 90364 -5.6202e+002 -1.1625e+003  1.3342e+002 46184 90240,90292,90266
 2.9000e+000 90341 -7.2064e+002 -1.1311e+003  1.5969e+002 46184 90188,90292,90240
 2.9000e+000 90318 -5.2507e+002 -1.1551e+003  2.3779e+002 46184 90188,90240,90214
 2.9000e+000 90565 -5.2960e+002 -8.8012e+002 -1.0137e+001 45780 90588,90415,90389
 2.9000e+000 90542 -4.5062e+002 -8.8596e+002  5.3921e+000 45780 90588,90389,90493
 2.9000e+000 90519 -5.1876e+002 -1.0088e+003 -8.7347e+000 45780 90415,90467,90441
 2.9000e+000 90614 -4.7379e+002 -8.9639e+002  3.9925e+001 45780 90467,90415,90588
 2.9000e+000 90637 -3.7054e+002 -8.6648e+002  6.7500e+001 45780 90467,90588,90493
 2.9000e+000 91196 -7.0480e+002 -1.2039e+003 -9.8680e+001 45226 91219,90876,90850
 2.9000e+000 91173 -4.0763e+002 -1.1272e+003  5.0736e+001 45226 91219,90850,91032
 2.9000e+000 91150 -3.2170e+002 -1.3095e+003 -1.0891e+002 45226 90824,91032,90850
 2.9000e+000 91127 -5.5368e+002 -9.2956e+002  3.2275e+001 45226 90876,90980,90902
 2.9000e+000 91104 -3.0641e+002 -9.1672e+002  1.2017e+002 45226 90876,91006,90980
 2.9000e+000 91081 -4.6880e+002 -1.0210e+003 -1.0476e+002 45226 90902,90980,90954
 2.9000e+000 91058 -2.7489e+002 -8.6901e+002 -1.8630e+002 45226 90902,90954,90928
 2.9000e+000 91245 -4.2884e+002 -1.0922e+003 -3.1582e+000 45226 91006,90876,91219
 2.9000e+000 91268 -1.6713e+002 -1.0730e+003  1.2432e+002 45226 91006,91219,91032
 2.9000e+000 91516 -2.9071e+002 -1.6544e+003  1.3837e+002 44836 91539,91421,91395
 2.9000e+000 91493 -2.8477e+002 -1.8019e+003 -4.0308e+000 44836 91317,91421,91343
 2.9000e+000 91470 -4.5872e+002 -1.5818e+003  8.6997e+001 44836 91539,91395,91369
 2.9000e+000 91447 -4.7780e+002 -1.2948e+003  2.9374e+002 44836 91291,91421,91317
 2.9000e+000 91565 -3.6799e+002 -1.6794e+003  5.4191e+001 44836 91343,91421,91539
 2.9000e+000 91588 -5.2061e+002 -1.6832e+003 -2.7189e+001 44836 91343,91539,91369
 2.9000e+000 91787 -3.9074e+002 -1.0178e+003  6.2357e+001 44432 91810,91637,91611
 2.9000e+000 91764 -4.7928e+002 -1.2270e+003  1.2551e+002 44432 91810,91611,91715
 2.9000e+000 91741 -1.9310e+002 -7.9179e+002 -6.2147e+001 44432 91637,91689,91663
 2.9000e+000 91836 -4.9266e+002 -9.1115e+002  6.0815e+001 44432 91689,91637,91810
 2.9000e+000 91859 -4.8185e+002 -1.0138e+003  9.3856e+001 44432 91689,91810,91715
 2.9000e+000 92207 -6.5395e+002 -1.3724e+003  1.0216e+002 43864 92230,91936,91910
 2.9000e+000 92184 -8.1676e+002 -1.4238e+003  1.4731e+002 43864 92230,91910,92040
 2.9000e+000 92161 -8.5724e+002 -1.4286e+003  2.2766e+002 43864 91884,92040,91910
 2.9000e+000 92138 -7.6923e+002 -1.2306e+003 -1.3509e+001 43864 91936,92014,91988
 2.9000e+000 92115 -6.1485e+002 -1.6591e+003  3.4196e+002 43864 91936,91988,91962
 2.9000e+000 92092 -7.3305e+002 -1.1884e+003  1.5585e+002 43864 91884,92066,92040
 2.9000e+000 92256 -8.2924e+002 -1.2715e+003  8.5923e+001 43864 92014,91936,92230
 2.9000e+000 92279 -9.7512e+002 -1.3284e+003  1.5455e+002 43864 92014,92230,92040
 2.9000e+000 92529 -6.0339e+002 -1.1043e+003  1.0502e+002 43410 92552,92330,92304
 2.9000e+000 92506 -5.8577e+002 -1.0762e+003  9.0608e+000 43410 92552,92304,92408
 2.9000e+000 92483 -6.2587e+002 -1.1387e+003  2.7065e+001 43410 92304,92434,92408
 2.9000e+000 92460 -3.1791e+002 -9.5521e+002  7.0703e+000 43410 92330,92382,92356
 2.9000e+000 92578 -5.4007e+002 -1.0748e+003  6.0977e+001 43410 92382,92330,92552
 2.9000e+000 92601 -4.5304e+002 -9.8319e+002 -4.6209e+001 43410 92382,92552,92408
 2.9000e+000 92802 -3.6287e+002 -1.4542e+003  1.4775e+002 43162 92825,92704,92652
 2.9000e+000 92779 -2.6856e+002 -1.3809e+003  2.9452e+002 43162 92825,92652,92626
 2.9000e+000 92756 -3.0072e+002 -1.4850e+003  1.4297e+002 43162 92652,92704,92678
 2.9000e+000 92851 -5.8586e+002 -1.4770e+003 -5.8887e+000 43162 92730,92704,92825
 2.9000e+000 92874 -5.9343e+002 -1.0347e+003  2.3624e+002 43162 92730,92825,92626
 2.9000e+000 93463 -3.2056e+002 -7.5899e+002 -1.5404e+002 42758 93140,93270,93166
 2.9000e+000 93440 -4.0131e+002 -8.3638e+002 -1.0148e+002 42758 93140,93296,93270
 2.9000e+000 93417 -2.9080e+002 -8.0317e+002 -1.1404e+002 42758 93166,93270,93218
 2.9000e+000 93394 -1.9993e+002 -8.0370e+002 -1.3313e+002 42758 93218,93270,93244
 2.9000e+000 93371 -1.1279e+002 -1.0184e+003 -7.0566e+001 42758 93140,93322,93296
 2.9000e+000 93348 -3.6742e+002 -9.2535e+002  2.1526e+001 42758 93166,93218,93192
 2.9000e+000 93920 -3.5317e+002 -9.3722e+002 -3.5171e-001 42304 93943,93672,93646
 2.9000e+000 93897 -3.4096e+002 -8.9692e+002  2.0371e+000 42304 93943,93646,93802
 2.9000e+000 93874 -3.1204e+002 -9.2726e+002  6.2091e+001 42304 93724,93802,93776
 2.9000e+000 93851 -4.5377e+002 -1.0979e+003  8.6344e+001 42304 93672,93724,93698
 2.9000e+000 93828 -5.3895e+002 -1.1001e+003 -2.7227e+001 42304 93724,93776,93750
 2.9000e+000 93969 -3.4213e+002 -9.5168e+002 -1.2135e+001 42304 93724,93672,93943
 2.9000e+000 93992 -3.4429e+002 -9.3377e+002 -8.3236e+000 42304 93724,93943,93802
 2.9000e+000 94321 -4.4981e+002 -1.2336e+003  2.9265e+001 41478 94096,94148,94122
 2.9000e+000 94298 -5.1913e+002 -1.2656e+003  7.7360e+001 41478 94096,94226,94148
 2.9000e+000 94275 -6.7901e+002 -1.6356e+003 -2.0564e+001 41478 94148,94226,94174
 2.9000e+000 94252 -3.0884e+002 -1.1510e+003 -2.4968e+002 41478 94174,94226,94200
 2.9000e+000 94618 -4.1220e+002 -1.4216e+003  7.1849e+000 40910 94344,94422,94396
 2.9000e+000 94595 -6.3162e+002 -1.3817e+003 -4.6837e+001 40910 94344,94448,94422
 2.9000e+000 94572 -5.5599e+002 -1.1967e+003 -2.2621e+001 40910 94344,94474,94448
 2.9000e+000 94549 -3.5159e+002 -1.5532e+003 -9.8179e+001 40910 94344,94396,94370
 2.9000e+000 94526 -8.3945e+002 -1.5966e+003  1.0904e+002 40910 94344,94500,94474
 2.9000e+000 94866 -4.9252e+002 -9.0513e+002 -9.5925e+001 40306 94667,94719,94693
 2.9000e+000 94843 -5.9164e+002 -1.0088e+003 -5.2339e+001 40306 94641,94719,94667
 2.9000e+000 94820 -6.7719e+002 -1.0140e+003  2.4245e+001 40306 94641,94745,94719
 2.9000e+000 94797 -5.4240e+002 -9.6619e+002  3.2489e+000 40306 94641,94771,94745
 2.9000e+000 95089 -4.4633e+001 -7.6020e+002  1.0380e+002 39702 94913,94991,94939
 2.9000e+000 95066 -6.3546e+001 -6.2501e+002  1.1452e+001 39702 94913,95017,94991
 2.9000e+000 95043  5.9773e-001 -7.5526e+002 -1.1798e+000 39702 94939,94991,94965
 2.9000e+000 95339 -4.5873e+002 -9.9899e+002 -1.1683e+002 39248 95140,95218,95166
 2.9000e+000 95316 -5.7849e+002 -1.0793e+003 -6.8770e+001 39248 95140,95244,95218
 2.9000e+000 95293 -3.4043e+002 -1.1531e+003 -1.3205e+002 39248 95114,95244,95140
 2.9000e+000 95270 -3.8476e+002 -1.1209e+003 -2.3333e+002 39248 95166,95218,95192
 2.9000e+000 95770 -6.5561e+002 -1.0386e+003  3.8227e+001 38694 95551,95629,95577
 2.9000e+000 95747 -4.5003e+002 -1.2768e+003  4.9933e+001 38694 95447,95629,95551
 2.9000e+000 95724 -3.4132e+002 -1.0707e+003 -5.7206e+001 38694 95447,95551,95473
 2.9000e+000 95701 -2.4282e+002 -1.0389e+003 -8.4225e+001 38694 95473,95551,95499
 2.9000e+000 95678 -1.9856e+002 -9.5905e+002 -2.0953e+002 38694 95499,95551,95525
 2.9000e+000 95655 -6.3615e+002 -9.3793e+002 -2.9310e+001 38694 95577,95629,95603
 2.9000e+000 96325 -5.1921e+002 -1.0938e+003  3.8668e+001 38240 95953,96031,96005
 2.9000e+000 96302 -5.0166e+002 -6.7868e+002  1.8214e+002 38240 95953,96161,96031
 2.9000e+000 96279 -3.4721e+002 -6.2773e+002 -5.7520e+001 38240 96031,96161,96135
 2.9000e+000 96256 -4.1173e+002 -8.4601e+002  1.7256e+002 38240 96348,96109,96057
 2.9000e+000 96233 -3.5267e+002 -7.4970e+002  1.1783e+002 38240 96348,96057,96031
 2.9000e+000 96210 -2.9396e+002 -8.2872e+002  2.4780e+002 38240 96057,96109,96083
 2.9000e+000 96187 -6.9112e+002 -5.0733e+002 -9.3751e+001 38240 95953,96005,95979
 2.9000e+000 96374 -3.0253e+002 -1.0127e+003  9.8551e+001 38240 96135,96109,96348
 2.9000e+000 96397 -2.0348e+002 -8.4232e+002  3.0952e+001 38240 96135,96348,96031
 2.9000e+000 96618 -6.0047e+002 -1.5272e+003  2.1465e+000 37821 96494,96546,96520
 2.9000e+000 96595 -4.1347e+002 -1.3747e+003  6.9953e+001 37821 96468,96546,96494
 2.9000e+000 96572 -2.9028e+002 -1.3216e+003  6.0108e+001 37821 96442,96546,96468
 2.9000e+000 97126 -3.5356e+002 -7.6835e+002 -7.8335e+001 37367 97149,96855,96829
 2.9000e+000 97103 -3.7469e+002 -7.8426e+002 -3.9962e+001 37367 97149,96829,96985
 2.9000e+000 97080 -3.1405e+002 -7.9961e+002 -4.7237e+001 37367 96803,96985,96829
 2.9000e+000 97057 -2.3108e+002 -7.4301e+002 -1.3269e+002 37367 96855,96907,96881
 2.9000e+000 97034 -4.3364e+002 -6.8905e+002 -2.2782e+001 37367 96907,96985,96959
 2.9000e+000 97011 -5.1513e+002 -6.1738e+002 -1.0827e+002 37367 96907,96959,96933
 2.9000e+000 97175 -3.7173e+002 -7.1741e+002 -9.1492e+001 37367 96907,96855,97149
 2.9000e+000 97198 -3.8749e+002 -7.3977e+002 -5.6979e+001 37367 96907,97149,96985
 2.9000e+000 97704 -5.4192e+002 -1.1222e+003  1.3815e+002 36863 97727,97511,97485
 2.9000e+000 97681 -5.1566e+002 -1.0174e+003  1.6596e+002 36863 97727,97485,97433
 2.9000e+000 97658 -6.5122e+002 -1.1910e+003  1.9199e+001 36863 97381,97563,97433
 2.9000e+000 97635 -3.3972e+002 -1.0050e+003 -5.0998e+001 36863 97511,97563,97537
 2.9000e+000 97612 -2.7505e+002 -7.6739e+002  4.1534e+001 36863 97433,97485,97459
 2.9000e+000 97589 -7.5297e+002 -1.2084e+003  9.9751e+001 36863 97381,97433,97407
 2.9000e+000 97753 -5.2954e+002 -1.2136e+003  8.3232e+001 36863 97563,97511,97727
 2.9000e+000 97776 -5.1403e+002 -1.1159e+003  1.0684e+002 36863 97563,97727,97433
 2.9000e+000 98331 -5.9634e+002 -1.3161e+003 -9.3138e+000 36287 98354,98089,98063
 2.9000e+000 98308 -5.3808e+002 -1.3390e+003  8.7128e+001 36287 98354,98063,98011
 2.9000e+000 98285 -7.3808e+002 -1.2749e+003  1.7100e+002 36287 98426,97985,98115
 2.9000e+000 98262 -5.0588e+002 -1.3802e+003  6.9557e+001 36287 98011,98063,98037
 2.9000e+000 98239 -6.5777e+002 -1.0727e+003  3.1670e+001 36287 97985,98141,98115
 2.9000e+000 98216 -8.4071e+002 -8.3922e+002  2.0330e+002 36287 97959,98141,97985
 2.9000e+000 98193 -7.0642e+002 -1.7702e+003  5.9520e+002 36287 97959,98167,98141
 2.9000e+000 98380 -5.6323e+002 -1.3046e+003 -1.1874e+001 36287 98115,98089,98354
 2.9000e+000 98403 -5.5249e+002 -1.2575e+003  2.7229e+000 36287 98426,98115,98354
 2.9000e+000 98452 -9.5343e+002 -1.4512e+003  3.0740e+002 36287 98011,97985,98426
 2.9000e+000 98475 -7.9052e+002 -1.4828e+003  1.4809e+002 36287 98011,98426,98354
 2.9000e+000 99030 -6.5565e+002 -1.6089e+003 -8.9444e+001 35726 99053,98736,98710
 2.9000e+000 99007 -5.7313e+002 -1.3811e+003  1.8106e+001 35726 99053,98710,98684
 2.9000e+000 98984 -7.1726e+002 -1.3349e+003 -1.4232e+002 35726 99125,98814,98736
 2.9000e+000 98961 -5.3160e+002 -1.1287e+003 -5.5365e+001 35726 98736,98814,98788
 2.9000e+000 98938 -6.9665e+002 -1.2672e+003  1.0430e+002 35726 98684,98866,98840
 2.9000e+000 98915 -4.4620e+002 -1.0972e+003 -3.9736e+001 35726 98736,98788,98762
 2.9000e+000 98892 -4.7592e+002 -1.3818e+003  2.1027e+001 35726 98658,98866,98684
 2.9000e+000 99079 -5.6430e+002 -1.3488e+003 -5.2625e+001 35726 99125,98736,99053
 2.9000e+000 99102 -6.8528e+002 -1.2346e+003  1.4791e+001 35726 98840,99053,98684
 2.9000e+000 99151 -8.5988e+002 -1.4005e+003 -1.6861e+002 35726 98840,98814,99125
 2.9000e+000 99174 -7.8433e+002 -1.4369e+003 -5.8484e+001 35726 98840,99125,99053
 2.9000e+000 99454 -2.3513e+002 -8.8307e+002 -5.5700e+001 35222 99278,99330,99304
 2.9000e+000 99431 -2.9794e+002 -8.3477e+002  3.4006e+001 35222 99278,99382,99330
 2.9000e+000 99408 -5.1598e+002 -1.0295e+003 -5.1914e+001 35222 99330,99382,99356
 2.9000e+000 99653 -3.4887e+002 -1.4369e+003 -3.2561e+000 34867 99477,99529,99503
 2.9000e+000 99630 -4.4236e+002 -1.0715e+003 -8.7578e+001 34867 99477,99581,99529
 2.9000e+000 99607 -4.3986e+002 -1.6870e+003 -4.5628e+002 34867 99529,99581,99555
 2.9000e+000 100104 -2.8041e+002 -1.0070e+003 -1.3157e+001 34363 99781,99885,99807
 2.9000e+000 100081 -3.7984e+002 -1.0618e+003  2.3420e+001 34363 99781,99963,99885
 2.9000e+000 100058 -1.6308e+002 -9.4775e+002 -3.4413e+001 34363 99885,99963,99911
 2.9000e+000 100035 -1.8771e+002 -8.9811e+002  2.7169e+001 34363 99807,99885,99859
 2.9000e+000 100012 -7.1426e+001 -8.8916e+002 -1.4253e+002 34363 99911,99963,99937
 2.9000e+000 99989 -7.2002e+001 -8.4547e+002  4.0957e+001 34363 99807,99859,99833
 2.9000e+000 100303 -5.5060e+002 -9.2994e+002 -2.2442e+002 33909 100127,100205,100179
 2.9000e+000 100280 -7.4336e+002 -1.0337e+003 -1.8503e+002 33909 100127,100231,100205
 2.9000e+000 100257 -6.6818e+002 -1.1621e+003 -1.6207e+002 33909 100127,100179,100153
 2.9000e+000 100890 -3.1892e+002 -1.0157e+003 -1.2298e+002 33412 100645,100749,100697
 2.9000e+000 100867 -3.5241e+002 -1.2434e+003 -9.4906e+001 33412 100567,100749,100645
 2.9000e+000 100844 -3.4825e+002 -1.2264e+003 -9.3758e+001 33412 100567,100645,100619
 2.9000e+000 100821 -2.8490e+002 -1.1921e+003 -2.3104e+002 33412 100645,100697,100671
 2.9000e+000 100798 -4.5301e+002 -1.6709e+003 -2.5655e+001 33412 100567,100619,100593
 2.9000e+000 100775 -5.5078e+002 -1.0281e+003 -5.6538e+001 33412 100697,100749,100723
 2.9000e+000 101268 -3.4245e+002 -1.2161e+003  1.5682e+001 32908 101435,101291,101098
 2.9000e+000 101245 -4.7865e+002 -1.2793e+003  5.9080e+001 32908 101291,101072,101020
 2.9000e+000 101222 -4.7617e+002 -1.3932e+003 -1.7952e+002 32908 101363,101150,101124
 2.9000e+000 101199 -5.6525e+002 -1.3599e+003  2.4023e+002 32908 101020,101072,101046
 2.9000e+000 101176 -2.5784e+002 -1.0574e+003 -5.4600e+001 32908 100994,101150,101020
 2.9000e+000 101317 -3.6310e+002 -1.3393e+003  8.0679e+001 32908 101124,101098,101291
 2.9000e+000 101340 -4.0889e+002 -1.4946e+003 -2.7285e+000 32908 101363,101124,101291
 2.9000e+000 101389 -3.7944e+002 -1.2218e+003 -1.3883e+002 32908 101020,101150,101363
 2.9000e+000 101412 -2.9467e+002 -1.2357e+003  3.1826e+001 32908 101020,101363,101291
 2.9000e+000 101461 -3.3147e+002 -1.1479e+003  1.1419e+002 32908 101072,101291,101435
 2.9000e+000 101918 -2.8422e+002 -1.3418e+003 -1.2061e+002 32618 101941,101670,101644
 2.9000e+000 101895 -3.0095e+001 -1.2596e+003  5.2201e+001 32618 101941,101644,101774
 2.9000e+000 101872 -5.3431e+002 -1.0975e+003 -3.7837e+001 32618 102013,101696,101670
 2.9000e+000 101849 -1.0444e+002 -8.2497e+002 -1.3330e+002 32618 101696,101748,101722
 2.9000e+000 101826  1.1352e+000 -1.1986e+003  4.0849e+001 32618 101644,101800,101774
 2.9000e+000 101967 -5.2546e+002 -1.2792e+003 -1.3210e+002 32618 102013,101670,101941
 2.9000e+000 101990 -4.1304e+002 -1.4104e+003  8.5247e+001 32618 101748,101941,101774
 2.9000e+000 102039 -4.8157e+002 -1.0299e+003 -2.3143e+000 32618 101748,101696,102013
 2.9000e+000 102062 -2.8314e+002 -1.0972e+003 -4.4986e+001 32618 101748,102013,101941
 2.9000e+000 102440 -7.3119e+002 -1.5141e+003  1.1448e+002 32306 102463,102270,102244
 2.9000e+000 102417 -7.5410e+002 -1.5298e+003  7.8404e+000 32306 102463,102244,102192
 2.9000e+000 102394 -7.0896e+002 -1.3649e+003 -1.4806e+001 32306 102192,102244,102218
 2.9000e+000 102371 -4.6786e+002 -1.3908e+003  1.0250e+002 32306 102270,102322,102296
 2.9000e+000 102348 -3.6286e+002 -1.6907e+003 -8.6499e+001 32306 102166,102322,102192
 2.9000e+000 102489 -6.0964e+002 -1.4829e+003  1.5038e+002 32306 102322,102270,102463
 2.9000e+000 102512 -6.3148e+002 -1.5169e+003  3.7608e+001 32306 102322,102463,102192
 2.9000e+000 102662 -3.5329e+002 -1.3327e+003 -4.0120e+001 31852 102943,102587,102561
 2.9000e+000 102639 -2.3004e+002 -1.0875e+003  3.4424e+001 31852 102815,102685,102561
 2.9000e+000 102711 -4.1907e+002 -1.3577e+003 -5.0319e+001 31852 102943,102561,102685
 2.9000e+000 102841 -2.2043e+002 -9.7222e+002  9.4664e+001 31852 102535,102685,102815
 2.9000e+000 102969 -3.4542e+002 -1.3573e+003 -9.8722e+001 31852 102613,102587,102943
 2.9000e+000 102992 -4.1378e+002 -1.3842e+003 -1.0750e+002 31852 102613,102943,102685
 2.9000e+000 103370 -7.0705e+002 -1.5180e+003  6.1122e+001 31134 103096,103200,103122
 2.9000e+000 103347 -9.0949e+002 -2.0266e+003  1.7030e+002 31134 103096,103226,103200
 2.9000e+000 103324 -9.4789e+002 -1.6629e+003  1.2190e+002 31134 103122,103200,103174
 2.9000e+000 103301 -4.8346e+002 -1.6322e+003  2.4436e+000 31134 103096,103252,103226
 2.9000e+000 103278 -6.5021e+002 -1.9798e+003 -2.0151e+002 31134 103122,103174,103148
 2.9000e+000 103520 -2.8249e+002 -2.0341e+003  1.2463e+000 30822 103393,103445,103419
 2.9000e+000 103497 -9.2605e+001 -9.3690e+002  4.8936e+001 30822 103393,103471,103445
 2.9000e+000 103719 -3.0819e+002 -1.0916e+003  2.1232e+001 30182 103742,103621,103569
 2.9000e+000 103696 -3.9261e+002 -1.1262e+003 -3.5789e+000 30182 103742,103569,103543
 2.9000e+000 103673 -3.2968e+002 -1.0998e+003  2.4619e+001 30182 103569,103621,103595
 2.9000e+000 103768 -2.2277e+002 -1.1350e+003  4.7488e+001 30182 103647,103621,103742
 2.9000e+000 103791 -2.8296e+002 -1.1660e+003  1.3837e+001 30182 103647,103742,103543
 2.9000e+000 104252 -6.5083e+002 -1.2052e+003  3.5222e+001 29728 104030,104108,104056
 2.9000e+000 104229 -4.6299e+002 -8.1928e+002  9.3630e+001 29728 104004,104108,104030
 2.9000e+000 104206 -3.7653e+002 -9.0803e+002  6.8832e+001 29728 104004,104134,104108
 2.9000e+000 104183 -5.0706e+002 -1.0418e+003 -7.5414e+001 29728 103978,104134,104004
 2.9000e+000 104160 -3.4555e+002 -1.0976e+003 -9.1267e+001 29728 104056,104108,104082
 2.9000e+000 104630 -4.2468e+002 -1.2939e+003 -1.5454e+002 29217 104653,104382,104356
 2.9000e+000 104607 -3.3374e+002 -1.1342e+003 -4.1269e+001 29217 104653,104356,104512
 2.9000e+000 104584 -5.6485e+002 -1.3049e+003 -1.6500e+002 29217 104434,104512,104486
 2.9000e+000 104561 -3.4289e+002 -1.2938e+003 -2.4926e+002 29217 104382,104434,104408
 2.9000e+000 104538 -2.7364e+002 -9.1963e+002  5.6217e+001 29217 104434,104486,104460
 2.9000e+000 104679 -4.7383e+002 -1.3137e+003 -2.2414e+002 29217 104434,104382,104653
 2.9000e+000 104702 -4.6138e+002 -1.2536e+003 -1.2277e+002 29217 104434,104653,104512
 2.9000e+000 105178 -4.2000e+002 -1.2704e+003  2.2686e+001 28649 105201,104962,104936
 2.9000e+000 105155 -4.4184e+002 -1.2450e+003  3.7906e+001 28649 105201,104936,104884
 2.9000e+000 105132 -4.7675e+002 -1.1574e+003 -9.9933e+001 28649 105273,104858,105014
 2.9000e+000 105109 -6.7904e+002 -1.3332e+003  3.0560e+001 28649 104962,105014,104988
 2.9000e+000 105086 -2.7391e+002 -1.0625e+003 -1.4136e+002 28649 104884,104936,104910
 2.9000e+000 105063 -4.9299e+002 -1.0618e+003 -4.3548e+001 28649 104806,105014,104858
 2.9000e+000 105040 -5.9066e+002 -1.0356e+003 -9.6174e+001 28649 104806,104858,104832
 2.9000e+000 105227 -4.0611e+002 -1.2756e+003  1.2147e+001 28649 105014,104962,105201
 2.9000e+000 105250 -3.6166e+002 -1.2008e+003 -1.8815e+001 28649 105273,105014,105201
 2.9000e+000 105299 -6.0509e+002 -1.2137e+003 -8.7682e+001 28649 104884,104858,105273
 2.9000e+000 105322 -5.6151e+002 -1.2957e+003  1.0271e+001 28649 104884,105273,105201
 2.9000e+000 105673 -6.4161e+001 -1.2201e+003  1.6802e+001 28351 105474,105578,105552
 2.9000e+000 105650  4.0104e+001 -7.9910e+002 -1.7453e+001 28351 105448,105578,105474
 2.9000e+000 105627  1.4990e+001 -1.1184e+003  1.0833e+001 28351 105500,105552,105526
 2.9000e+000 105604 -1.4620e+001 -1.1952e+003  7.2437e+000 28351 105474,105552,105500
 2.9000e+000 106130 -5.1585e+002 -7.7848e+002 -2.9251e+002 28004 106153,105882,105856
 2.9000e+000 106107 -4.6215e+002 -1.0782e+003 -1.9246e+002 28004 106153,105856,105986
 2.9000e+000 106084 -9.5819e+002 -1.2188e+003  4.8789e+001 28004 105934,105986,105960
 2.9000e+000 106061 -7.4995e+002 -1.1915e+003 -6.4389e+001 28004 105856,106012,105986
 2.9000e+000 106038 -8.6137e+002 -1.2272e+003 -1.2255e+002 28004 105882,105934,105908
 2.9000e+000 106179 -7.7134e+002 -1.0278e+003 -1.5132e+002 28004 105934,105882,106153
 2.9000e+000 106202 -5.1961e+002 -1.1821e+003 -9.8208e+001 28004 105934,106153,105986
 2.9000e+000 106885 -7.4948e+002 -1.0525e+003 -3.6042e+001 27564 106908,106620,106516
 2.9000e+000 106862 -7.3532e+002 -1.0116e+003 -1.5603e+001 27564 106908,106516,106490
 2.9000e+000 106839 -7.1644e+002 -9.9649e+002 -1.2929e+002 27564 106516,106620,106542
 2.9000e+000 106816 -6.4975e+002 -7.2451e+002 -7.0226e+001 27564 106620,106672,106646
 2.9000e+000 106793 -5.4212e+002 -1.1652e+003 -2.4464e+002 27564 106542,106620,106594
 2.9000e+000 106770 -7.2920e+002 -8.9861e+002  6.4522e+001 27564 106490,106698,106672
 2.9000e+000 106747 -5.8633e+002 -1.0658e+003  2.1048e+002 27564 106464,106698,106490
 2.9000e+000 106724 -1.1604e+002 -9.3714e+002 -3.3184e+002 27564 106542,106594,106568
 2.9000e+000 106934 -7.7809e+002 -1.0151e+003 -4.6582e+001 27564 106672,106620,106908
 2.9000e+000 106957 -7.6700e+002 -9.7251e+002 -3.7768e+001 27564 106672,106908,106490
 2.9000e+000 107463 -5.6188e+002 -1.0971e+003 -1.6737e+001 27053 107218,107322,107296
 2.9000e+000 107440 -6.5300e+002 -1.3012e+003  2.9043e+001 27053 107166,107322,107218
 2.9000e+000 107417 -5.8087e+002 -1.2659e+003 -3.0729e+001 27053 107218,107296,107244
 2.9000e+000 107394 -6.2146e+002 -1.0520e+003  9.9030e+001 27053 107140,107322,107166
 2.9000e+000 107371 -6.0933e+002 -1.3165e+003  3.1640e+001 27053 107166,107218,107192
 2.9000e+000 107348 -5.7759e+002 -1.6258e+003 -1.7293e+002 27053 107244,107296,107270
 2.9000e+000 108097 -5.4694e+002 -1.3260e+003 -7.8958e+001 26549 108192,108120,107803
 2.9000e+000 108074 -4.9516e+002 -1.5293e+003  9.1109e+001 26549 108120,107725,107933
 2.9000e+000 108051 -1.5515e+002 -1.8548e+003  1.3373e+002 26549 107751,107803,107777
 2.9000e+000 108028 -5.3816e+002 -1.4172e+003 -1.0623e+002 26549 108192,107803,107751
 2.9000e+000 108005 -3.3588e+002 -9.2095e+002 -7.9534e+000 26549 108264,107855,107803
 2.9000e+000 107982 -1.6118e+002 -1.0395e+003 -5.2874e+001 26549 107881,107933,107907
 2.9000e+000 107959 -4.5237e+002 -9.7986e+002  1.2393e+001 26549 107803,107855,107829
 2.9000e+000 108146 -4.3581e+002 -1.0658e+003 -6.6395e+001 26549 108264,107803,108120
 2.9000e+000 108169 -3.9289e+002 -1.2703e+003  3.9518e+001 26549 107881,108120,107933
 2.9000e+000 108218 -5.2499e+002 -1.2323e+003 -1.1883e+001 26549 107725,108120,108192
 2.9000e+000 108241 -5.0856e+002 -1.3013e+003 -4.3426e+001 26549 107725,108192,107751
 2.9000e+000 108290 -2.1692e+002 -1.1100e+003 -4.6961e+001 26549 107881,107855,108264
 2.9000e+000 108313 -3.0224e+002 -1.2712e+003 -8.9405e+001 26549 107881,108264,108120
 2.9000e+000 108512 -3.8481e+002 -1.4633e+003 -1.0072e+002 26137 108388,108440,108414
 2.9000e+000 108489 -2.5396e+002 -1.2506e+003 -1.5079e+001 26137 108362,108440,108388
 2.9000e+000 108466 -3.4704e+002 -1.3186e+003 -4.5236e+001 26137 108336,108440,108362
 2.9000e+000 108662 -4.3945e+002 -1.1814e+003 -9.4350e+001 25733 108817,108685,108535
 2.9000e+000 108639 -3.2291e+002 -1.2860e+003 -1.9670e+001 25733 109017,108817,108535
 2.9000e+000 108711 -4.7887e+002 -1.1112e+003 -3.7859e+001 25733 108561,108535,108685
 2.9000e+000 108843 -3.1307e+002 -1.1688e+003 -2.9021e+001 25733 108587,108685,108817
 2.9000e+000 108866 -2.7995e+002 -1.1489e+003 -7.8143e+000 25733 108889,108817,108613
 2.9000e+000 108915 -2.6606e+002 -1.1227e+003 -4.9969e+001 25733 108587,108817,108889
 2.9000e+000 109043 -2.6320e+002 -9.9111e+002  1.2494e+001 25733 108613,108817,109017
 2.9000e+000 109500 -8.0916e+002 -1.4370e+003  1.3282e+002 25229 109523,109356,109330
 2.9000e+000 109477 -4.8940e+002 -1.1608e+003 -6.2496e+001 25229 109595,109523,109330
 2.9000e+000 109454 -4.6007e+002 -1.0698e+003 -1.4197e+002 25229 109595,109330,109278
 2.9000e+000 109431 -4.9970e+002 -1.1181e+003 -8.2535e+001 25229 109667,109226,109382
 2.9000e+000 109408 -4.9990e+002 -1.1639e+003 -1.9768e+002 25229 109278,109330,109304
 2.9000e+000 109549 -2.6719e+002 -1.1846e+003  5.8174e+001 25229 109382,109356,109523
 2.9000e+000 109572 -4.4530e+002 -1.2051e+003 -9.6041e+001 25229 109667,109382,109523
 2.9000e+000 109621 -5.2316e+002 -1.3042e+003 -8.6863e+001 25229 109252,109523,109595
 2.9000e+000 109644 -3.5722e+002 -1.1331e+003 -6.3198e+001 25229 109739,109595,109278
 2.9000e+000 109693 -6.4511e+002 -1.2646e+003 -2.1814e+001 25229 109252,109226,109667
 2.9000e+000 109716 -5.2499e+002 -1.3125e+003 -6.1271e+001 25229 109252,109667,109523
 2.9000e+000 109765 -6.2081e+002 -1.2246e+003 -4.6897e+001 25229 109252,109595,109739
 2.9000e+000 110478 -4.0265e+002 -1.0581e+003  1.3785e+002 24917 110158,110236,110184
 2.9000e+000 110455 -5.7115e+002 -1.1689e+003  1.9891e+000 24917 110158,110288,110236
 2.9000e+000 110432 -3.7024e+002 -1.3989e+003  3.1933e+001 24917 110236,110288,110262
 2.9000e+000 110409 -3.6232e+002 -1.2132e+003  1.3944e+002 24917 110184,110236,110210
 2.9000e+000 110386 -7.1736e+002 -1.3088e+003 -8.3745e+001 24917 110132,110288,110158
 2.9000e+000 110363 -6.2556e+002 -1.2366e+003  4.7907e-001 24917 110132,110314,110288
 2.9000e+000 110340 -6.8976e+002 -1.4780e+003  1.8195e+002 24917 110106,110314,110132
 2.9000e+000 110829 -2.4809e+002 -8.8927e+002 -4.0599e+001 24307 110604,110682,110630
 2.9000e+000 110806 -6.1305e+002 -1.6158e+003  9.7192e+001 24307 110604,110708,110682
 2.9000e+000 110783 -1.9971e+002 -1.4326e+003  6.0570e+001 24307 110604,110734,110708
 2.9000e+000 110760 -7.0717e+001 -8.1334e+002 -4.6764e+001 24307 110630,110682,110656
 2.9000e+000 111335 -3.5993e+002 -1.0057e+003 -1.4655e+002 23767 111012,111168,111038
 2.9000e+000 111312 -4.0052e+002 -1.1005e+003 -1.3401e+002 23767 111012,111194,111168
 2.9000e+000 111289 -6.7837e+002 -1.2871e+003  1.1899e+002 23767 111358,111064,111038
 2.9000e+000 111266 -4.9207e+002 -1.1944e+003 -3.7091e+001 23767 111358,111038,111168
 2.9000e+000 111243 -3.1732e+002 -1.1274e+003 -2.9478e+001 23767 111430,111142,111090
 2.9000e+000 111220 -3.8193e-001 -9.9096e+002  6.4169e+000 23767 111090,111142,111116
 2.9000e+000 111384 -5.5864e+002 -1.2046e+003 -2.6718e+001 23767 111090,111064,111358
 2.9000e+000 111407 -5.5962e+002 -1.1481e+003 -5.6023e+001 23767 111430,111090,111358
 2.9000e+000 111456 -9.7034e+001 -1.2005e+003 -8.8000e+001 23767 111168,111142,111430
 2.9000e+000 111479 -2.3524e+002 -1.1443e+003 -9.9089e+001 23767 111168,111430,111358
 2.9000e+000 111985 -3.0330e+002 -8.3946e+002  1.1336e+002 23477 111688,111844,111818
 2.9000e+000 111962 -2.6509e+002 -8.5103e+002 -1.2596e+002 23477 111662,111844,111688
 2.9000e+000 111939 -2.2961e+002 -1.4773e+003  2.0373e+002 23477 111766,111818,111792
 2.9000e+000 111916 -6.0534e+002 -1.3337e+003  1.1457e+002 23477 111740,111818,111766
 2.9000e+000 111893 -3.4622e+002 -7.2460e+002  1.3023e+002 23477 111688,111818,111740
 2.9000e+000 111870 -5.8206e+002 -1.0075e+003  2.6909e+002 23477 111688,111740,111714
 2.9000e+000 112314 -4.6411e+002 -9.1979e+002 -6.3905e+000 23023 112141,112219,112193
 2.9000e+000 112291 -4.0624e+002 -8.7666e+002 -3.5013e+001 23023 112115,112219,112141
 2.9000e+000 112268 -4.0446e+002 -1.0599e+003  8.9485e+001 23023 112141,112193,112167
 2.9000e+000 112245 -4.3496e+002 -9.9205e+002 -4.5053e+001 23023 112089,112219,112115
 2.9000e+000 112692 -4.8114e+002 -1.1981e+003 -4.9414e+001 22768 112444,112574,112548
 2.9000e+000 112669 -3.6696e+002 -1.2381e+003 -6.3635e+000 22768 112418,112574,112444
 2.9000e+000 112646 -5.7602e+002 -1.2684e+003 -7.7126e+000 22768 112444,112522,112470
 2.9000e+000 112623 -4.5170e+002 -1.1873e+003 -5.3077e+001 22768 112444,112548,112522
 2.9000e+000 112600 -1.5479e+002 -1.0798e+003 -9.3543e+001 22768 112470,112522,112496
 2.9000e+000 113011 -2.4260e+002 -1.2650e+003 -9.8025e+001 22314 112763,112867,112789
 2.9000e+000 112988 -7.3826e+001 -1.3140e+003 -1.2330e+002 22314 112763,112893,112867
 2.9000e+000 112965 -2.3863e+002 -1.2708e+003  0.0000e+000 22314 112815,112867,112841
 2.9000e+000 112942 -3.1472e+002 -1.3115e+003 -5.6159e+001 22314 112789,112867,112815
 2.9000e+000 112919 -8.5827e+001 -9.8790e+002  2.9134e+002 22314 112737,112893,112763
 2.9000e+000 113519 -6.8021e+001 -9.7342e+002  2.3492e+002 21924 113614,113542,113248
 2.9000e+000 113496 -2.1473e+002 -9.3760e+002  8.2858e+001 21924 113542,113196,113378
 2.9000e+000 113473 -1.7552e+002 -1.0091e+003  2.5181e+002 21924 113614,113248,113222
 2.9000e+000 113450 -2.0786e+002 -1.3932e+003  8.6049e+001 21924 113686,113274,113248
 2.9000e+000 113427 -3.9917e+002 -1.4509e+003 -7.5070e+001 21924 113274,113352,113326
 2.9000e+000 113404 -6.8562e+002 -1.9829e+003 -1.8434e+002 21924 113274,113326,113300
 2.9000e+000 113568 -5.7376e+001 -1.1717e+003  1.6228e+002 21924 113686,113248,113542
 2.9000e+000 113591 -1.9279e+002 -8.7369e+002  9.6520e+001 21924 113352,113542,113378
 2.9000e+000 113640 -1.7453e+002 -9.6315e+002  1.9158e+002 21924 113196,113542,113614
 2.9000e+000 113663 -2.1055e+002 -9.5244e+002  1.9195e+002 21924 113196,113614,113222
 2.9000e+000 113712 -3.7297e+002 -1.1442e+003 -1.6493e+001 21924 113352,113274,113686
 2.9000e+000 113735 -2.9510e+002 -1.0267e+003  3.6483e+001 21924 113352,113686,113542
 2.9000e+000 113885 -7.8066e+002 -1.1026e+003 -1.1607e+001 21520 113980,113908,113784
 2.9000e+000 113862 -7.1758e+002 -1.1142e+003 -1.9969e+002 21520 114238,113908,113758
 2.9000e+000 113934 -5.5556e+002 -9.0000e+002  1.0393e+002 21520 114110,113908,113810
 2.9000e+000 113957 -4.6678e+002 -1.0948e+003 -1.2618e+002 21520 113810,113908,113836
 2.9000e+000 114006 -6.3807e+002 -9.8287e+002 -6.2987e+001 21520 113758,113908,113980
 2.9000e+000 114136 -7.6735e+002 -1.0784e+003  1.4091e+001 21520 113784,113908,114110
 2.9000e+000 114264 -8.7137e+002 -1.2706e+003 -2.6257e+002 21520 113836,113908,114238
 2.9000e+000 114662 -6.1948e+002 -1.5296e+003  9.1703e+000 21030 114414,114518,114492
 2.9000e+000 114639 -2.8284e+002 -1.2394e+003 -1.2987e+002 21030 114414,114544,114518
 2.9000e+000 114616 -7.3301e+002 -1.5816e+003 -8.0932e+000 21030 114440,114492,114466
 2.9000e+000 114593 -6.2241e+002 -1.5372e+003  6.9152e+000 21030 114414,114492,114440
 2.9000e+000 114570 -4.6271e+002 -1.2746e+003 -1.9840e+001 21030 114388,114544,114414
 2.9000e+000 114959 -9.9255e+002 -1.6012e+003  1.1884e+002 20512 114982,114711,114685
 2.9000e+000 114936 -9.1808e+002 -1.5697e+003 -3.3529e+001 20512 115054,114982,114685
 2.9000e+000 114913 -7.6008e+002 -1.4560e+003 -9.8529e+001 20512 115054,114685,114841
 2.9000e+000 114890 -5.7323e+002 -1.4497e+003  4.3315e+001 20512 114711,114763,114737
 2.9000e+000 114867 -3.0398e+002 -1.3415e+003  2.5474e+001 20512 114763,114815,114789
 2.9000e+000 115008 -8.5335e+002 -1.5696e+003  7.4793e+001 20512 114763,114711,114982
 2.9000e+000 115031 -7.6017e+002 -1.5187e+003 -3.5760e+001 20512 114763,114982,114815
 2.9000e+000 115080 -8.2938e+002 -1.5947e+003  8.4095e+000 20512 114815,114982,115054
 2.9000e+000 115103 -8.1878e+002 -1.5963e+003  5.3347e+000 20512 114815,115054,114841
 2.9000e+000 115507 -7.2476e+002 -1.4131e+003 -4.8514e+001 20143 115285,115389,115363
 2.9000e+000 115484 -8.1755e+002 -1.5891e+003 -1.3169e+001 20143 115259,115389,115285
 2.9000e+000 115461 -7.4329e+002 -1.3892e+003 -6.3161e+000 20143 115233,115389,115259
 2.9000e+000 115438 -6.7743e+002 -1.6366e+003  5.0342e+001 20143 115285,115337,115311
 2.9000e+000 115415 -9.5872e+002 -1.9392e+003 -9.0949e+001 20143 115285,115363,115337
 2.9000e+000 115875 -5.5249e+002 -1.2465e+003  1.3126e+000 19632 115656,115734,115682
 2.9000e+000 115852 -2.8233e+002 -1.1313e+003  1.3550e+002 19632 115552,115734,115656
 2.9000e+000 115829 -3.0334e+002 -1.1339e+003 -8.6446e+001 19632 115552,115656,115578
 2.9000e+000 115806 -5.3827e+002 -1.2668e+003  9.9910e+000 19632 115578,115656,115630
 2.9000e+000 115783 -5.9528e+002 -1.1864e+003  6.1827e+001 19632 115682,115734,115708
 2.9000e+000 115760 -6.5003e+002 -1.2979e+003 -1.1507e+002 19632 115578,115630,115604
 2.9000e+000 116025 -3.3268e+002 -1.3065e+003 -2.5007e+002 19178 115898,115950,115924
 2.9000e+000 116002 -4.3564e+002 -1.3178e+003 -1.4202e+002 19178 115898,115976,115950
 2.9000e+000 116633 -4.7013e+002 -1.2283e+003 -2.3047e+001 18738 116800,116656,116342
 2.9000e+000 116610 -4.9618e+002 -1.2964e+003  3.6915e+001 18738 116656,116238,116446
 2.9000e+000 116587 -5.6561e+002 -1.2576e+003 -7.0034e+001 18738 116728,116368,116342
 2.9000e+000 116564 -4.5738e+002 -1.1911e+003 -4.4643e+001 18738 116800,116342,116264
 2.9000e+000 116541 -5.0265e+002 -1.6661e+003  1.4874e+002 18738 116212,116446,116238
 2.9000e+000 116518 -1.2035e+002 -8.9141e+002  4.3696e+001 18738 116394,116446,116420
 2.9000e+000 116495  1.3935e+002 -9.9420e+002 -1.6778e+002 18738 116264,116342,116316
 2.9000e+000 116472 -2.4639e+002 -1.3269e+003  1.2660e+002 18738 116264,116316,116290
 2.9000e+000 116682 -5.4683e+002 -1.2343e+003  1.8857e+001 18738 116728,116342,116656
 2.9000e+000 116705 -4.8860e+002 -1.0510e+003  6.5409e+001 18738 116394,116656,116446
 2.9000e+000 116754 -7.1196e+002 -1.3146e+003 -1.1952e+002 18738 116394,116368,116728
 2.9000e+000 116777 -7.0360e+002 -1.2881e+003 -2.7814e+001 18738 116394,116728,116656
 2.9000e+000 116826 -4.5362e+002 -1.3034e+003  1.0314e+001 18738 116238,116656,116800
 2.9000e+000 116849 -4.2086e+002 -1.2544e+003 -1.7569e+001 18738 116238,116800,116264
 2.9000e+000 116999 -4.2705e+002 -1.3679e+003  6.1183e+001 18184 116872,116924,116898
 2.9000e+000 116976 -4.2502e+002 -7.3957e+002 -2.0433e+001 18184 116872,116950,116924
 2.9000e+000 117330 -7.9626e+001 -1.6402e+003  1.1613e+002 17694 117157,117235,117183
 2.9000e+000 117307 -5.2930e+002 -1.8570e+003  2.1291e+001 17694 117131,117235,117157
 2.9000e+000 117284 -3.6505e+002 -2.0840e+003 -1.0195e+002 17694 117105,117235,117131
 2.9000e+000 117261  2.5163e+002 -1.0173e+003 -4.5716e+001 17694 117183,117235,117209
 2.9000e+000 117480 -6.0858e+002 -1.4094e+003 -1.6595e+002 17290 117353,117405,117379
 2.9000e+000 117457 -2.9409e+002 -1.5742e+003 -1.7891e+002 17290 117353,117431,117405
 2.9000e+000 117679 -1.4014e+002 -1.1324e+003 -5.2122e+001 16718 117555,117607,117581
 2.9000e+000 117656 -5.5275e+002 -1.4116e+003  7.0313e+001 16718 117529,117607,117555
 2.9000e+000 117633  2.3748e+001 -1.3576e+003  5.4522e+001 16718 117503,117607,117529
 2.9000e+000 117782 -3.8040e+002 -1.2422e+003  3.1599e+001 16520 117704,117756,117730
 2.9000e+000 117983 -3.8927e+002 -1.6147e+003 -3.6756e+000 16208 117859,117911,117885
 2.9000e+000 117960 -3.2106e+002 -1.5665e+003 -2.8586e+001 16208 117833,117911,117859
 2.9000e+000 117937 -2.3222e+002 -1.4175e+003  3.8482e+001 16208 117807,117911,117833
 2.9000e+000 118135 -9.2090e+002 -1.4859e+003 -1.8034e+002 15674 118034,118086,118060
 2.9000e+000 118112 -4.6731e+002 -1.1576e+003  2.8430e+001 15674 118008,118086,118034
 2.9000e+000 118238 -1.1225e+002 -1.2146e+003  7.5360e+001 15355 118160,118212,118186
 2.9000e+000 118341 -7.5725e+002 -1.4793e+003  3.0021e+002 421 118263,118315,118289
 3.0000e+000 68152 -4.1114e+002 -1.3569e+003 -5.8239e+001 67838 68074,68126,68100
 3.0000e+000 68550 -1.9569e+002 -1.5228e+003  4.4513e+001 67526 68276,68380,68302
 3.0000e+000 68527 -3.4707e+001 -1.5121e+003  2.5476e+001 67526 68276,68406,68380
 3.0000e+000 68504 -2.2377e+002 -1.3499e+003  1.5684e+001 67526 68328,68380,68354
 3.0000e+000 68481 -1.2621e+002 -1.3608e+003  4.1871e+001 67526 68302,68380,68328
 3.0000e+000 68458 -8.3405e+001 -1.6420e+003 -2.2608e+001 67526 68276,68432,68406
 3.0000e+000 68651 -7.7382e+002 -1.2553e+003  1.7471e+002 67328 68573,68625,68599
 3.0000e+000 68970 -2.5581e+002 -1.1910e+003 -8.7365e+000 67016 68722,68800,68774
 3.0000e+000 68947 -2.6947e+002 -1.1876e+003 -3.1864e+001 67016 68722,68826,68800
 3.0000e+000 68924 -4.1517e+002 -1.1849e+003  2.3856e+000 67016 68696,68826,68722
 3.0000e+000 68901 -8.8279e+001 -1.2639e+003 -9.1987e+001 67016 68722,68774,68748
 3.0000e+000 68878 -5.5084e+002 -1.1347e+003 -1.7867e+002 67016 68696,68852,68826
 3.0000e+000 69291 -6.3346e+002 -1.4554e+003 -1.4456e+001 66654 69069,69147,69095
 3.0000e+000 69268 -4.5145e+002 -1.5749e+003  5.9298e+001 66654 69069,69173,69147
 3.0000e+000 69245 -5.8379e+002 -1.3922e+003  2.2960e+002 66654 69043,69173,69069
 3.0000e+000 69222 -8.3643e+002 -1.7190e+003  1.2201e+002 66654 69095,69147,69121
 3.0000e+000 69199 -8.1203e+002 -1.6173e+003  2.1782e+001 66654 69017,69173,69043
 3.0000e+000 69695 -3.8869e+002 -1.8522e+003  2.0779e+001 66456 69447,69577,69551
 3.0000e+000 69672 -3.0373e+001 -1.6161e+003 -8.1170e+001 66456 69421,69577,69447
 3.0000e+000 69649 -1.1323e+002 -1.2047e+003 -2.1919e+002 66456 69473,69551,69525
 3.0000e+000 69626 -3.1482e+002 -1.7143e+003 -2.9600e+001 66456 69447,69551,69473
 3.0000e+000 69603  1.9943e+001 -1.0636e+003 -4.1284e+002 66456 69473,69525,69499
 3.0000e+000 70024 -4.8879e+002 -1.3191e+003 -4.0490e+001 66258 70047,69851,69825
 3.0000e+000 70001 -5.2544e+002 -1.3157e+003  3.2641e+001 66258 70047,69825,69903
 3.0000e+000 69978 -7.2812e+002 -1.6588e+003  1.3647e+002 66258 69799,69903,69825
 3.0000e+000 69955 -3.0889e+002 -2.0549e+003  4.0735e+002 66258 69799,69929,69903
 3.0000e+000 70073 -5.6672e+002 -1.3534e+003 -3.5158e+001 66258 69877,69851,70047
 3.0000e+000 70096 -6.2140e+002 -1.3583e+003  4.1205e+001 66258 69877,70047,69903
 3.0000e+000 70602  3.5813e+001 -9.8969e+002 -1.9052e+002 66060 70305,70435,70331
 3.0000e+000 70579 -6.2014e+002 -1.7054e+003  8.2450e+001 66060 70279,70435,70305
 3.0000e+000 70556 -7.5793e+002 -1.2174e+003 -2.7336e+002 66060 70331,70435,70409
 3.0000e+000 70533 -3.6895e+002 -1.2463e+003  2.5830e+002 66060 70279,70461,70435
 3.0000e+000 70510 -2.3400e+002 -9.5083e+002 -5.3093e+002 66060 70331,70409,70357
 3.0000e+000 70487 -1.0220e+001 -1.0103e+003 -1.0104e+002 66060 70357,70409,70383
 3.0000e+000 70703 -1.7069e+003 -2.5903e+003 -1.4103e+002 65862 70625,70677,70651
 3.0000e+000 71083 -3.5748e+002 -1.3159e+003  7.4563e+001 65664 70887,70965,70939
 3.0000e+000 71060 -2.2380e+002 -1.2749e+003  3.3603e+001 65664 70861,70965,70887
 3.0000e+000 71037 -2.7471e+002 -1.3579e+003  1.1448e+001 65664 70809,70965,70861
 3.0000e+000 71014 -2.5022e+002 -1.3834e+003 -3.5244e+001 65664 70809,70861,70835
 3.0000e+000 70991 -3.4649e+002 -1.3194e+003  4.2052e+001 65664 70887,70939,70913
 3.0000e+000 71611 -8.4645e+002 -2.0003e+003 -7.9090e+001 65260 71288,71444,71314
 3.0000e+000 71588 -4.0309e+002 -1.7923e+003 -5.3023e+000 65260 71288,71470,71444
 3.0000e+000 71565 -3.6308e+002 -1.3101e+003  1.5195e+002 65260 71314,71418,71392
 3.0000e+000 71542 -7.9312e+002 -1.7988e+003 -2.9103e+001 65260 71314,71444,71418
 3.0000e+000 71519 -7.2135e+002 -1.4273e+003  1.8159e+002 65260 71314,71392,71340
 3.0000e+000 71496 -5.4938e+002 -1.1083e+003  4.2536e+002 65260 71340,71392,71366
 3.0000e+000 72060 -5.4320e+002 -1.1276e+003 -5.9685e+001 64870 71737,71893,71789
 3.0000e+000 72037 -2.1865e+002 -9.8480e+002 -3.3722e+001 64870 71737,71919,71893
 3.0000e+000 72014 -5.8260e+002 -1.0227e+003  5.6303e+001 64870 71789,71841,71815
 3.0000e+000 71991 -4.4393e+002 -1.0600e+003 -3.1806e-001 64870 71789,71893,71841
 3.0000e+000 71968 -5.0571e+002 -1.3321e+003 -2.0640e+002 64870 71737,71789,71763
 3.0000e+000 71945 -3.3576e+002 -1.1471e+003  0.0000e+000 64870 71841,71893,71867
 3.0000e+000 72517 -6.8059e+002 -9.9586e+002 -1.4557e+002 64466 72321,72399,72347
 3.0000e+000 72494 -6.7354e+002 -9.6724e+002 -1.3824e+002 64466 72269,72399,72321
 3.0000e+000 72471 -6.9764e+002 -1.1205e+003  1.6475e+001 64466 72347,72399,72373
 3.0000e+000 72448 -6.2367e+002 -1.0467e+003 -3.4482e+002 64466 72243,72399,72269
 3.0000e+000 72425 -7.5552e+002 -1.0867e+003 -7.0655e+001 64466 72269,72321,72295
 3.0000e+000 72944 -2.9039e+002 -8.5272e+002 -7.0777e+001 64062 73111,73039,72699
 3.0000e+000 72921 -2.0776e+002 -9.5488e+002 -9.7765e+001 64062 73183,72967,72647
 3.0000e+000 72898 -2.5458e+002 -9.7407e+002 -9.8212e+001 64062 72967,72803,72751
 3.0000e+000 72875 -2.4311e+002 -8.3298e+002 -8.8278e+001 64062 73111,72699,72673
 3.0000e+000 72852 -1.5469e+002 -1.0040e+003 -6.1521e+001 64062 73183,72647,72621
 3.0000e+000 72829 -1.2548e+002 -7.4134e+002 -2.9237e+002 64062 72751,72803,72777
 3.0000e+000 72993 -2.2634e+002 -9.0244e+002 -6.6462e+001 64062 73039,72647,72967
 3.0000e+000 73016 -3.7216e+002 -9.9768e+002 -9.2076e+001 64062 72725,72967,72751
 3.0000e+000 73065 -1.5302e+002 -1.0218e+003  2.5566e+002 64062 72725,72699,73039
 3.0000e+000 73088 -2.3362e+002 -9.6348e+002 -1.0973e+002 64062 72725,73039,72967
 3.0000e+000 73137 -1.8015e+002 -8.8473e+002 -7.7242e+001 64062 72647,73039,73111
 3.0000e+000 73160 -1.7709e+002 -8.8135e+002 -8.3026e+001 64062 72647,73111,72673
 3.0000e+000 73209 -2.8153e+002 -9.9709e+002 -8.0742e+001 64062 72803,72967,73183
 3.0000e+000 73232 -2.3799e+002 -1.0642e+003 -3.3795e+001 64062 72803,73183,72621
 3.0000e+000 73333 -1.4098e+003 -2.1024e+003  1.0915e+002 63814 73356,73281,73255
 3.0000e+000 73382 -1.1891e+003 -1.6322e+003  6.6325e+001 63814 73486,73356,73307
 3.0000e+000 73512 -1.3889e+003 -1.7156e+003 -5.2678e+001 63814 73281,73356,73486
 3.0000e+000 73839 -5.6106e+002 -1.4264e+003 -5.2415e+001 63616 73862,73692,73666
 3.0000e+000 73816 -5.1560e+002 -1.2859e+003  3.5841e+000 63616 73934,73862,73666
 3.0000e+000 73793 -4.3860e+002 -1.3107e+003  7.7679e+001 63616 73934,73666,73640
 3.0000e+000 73770 -4.0950e+002 -1.3889e+003  1.0052e+002 63616 73614,73744,73640
 3.0000e+000 73888 -5.3000e+002 -1.2959e+003 -7.6224e+001 63616 73718,73692,73862
 3.0000e+000 73911 -6.2593e+002 -1.2816e+003 -2.1995e+000 63616 73718,73862,73744
 3.0000e+000 73960 -6.5456e+002 -1.3373e+003  9.5271e+000 63616 73744,73862,73934
 3.0000e+000 73983 -5.9574e+002 -1.3758e+003  7.3377e+001 63616 73744,73934,73640
 3.0000e+000 74363 -2.8632e+002 -9.9642e+002 -3.4106e+001 63390 74386,74115,74089
 3.0000e+000 74340 -3.6426e+002 -9.5595e+002 -3.4738e+001 63390 74458,74386,74089
 3.0000e+000 74317 -3.1562e+002 -9.8912e+002  8.3464e+001 63390 74458,74089,74245
 3.0000e+000 74294 -4.0814e+002 -1.1102e+003 -1.6755e+001 63390 74530,74167,74141
 3.0000e+000 74271 -3.9568e+002 -9.8059e+002 -1.8521e+002 63390 74167,74219,74193
 3.0000e+000 74412 -2.9064e+002 -9.7705e+002 -1.6206e+001 63390 74141,74115,74386
 3.0000e+000 74435 -3.4165e+002 -1.0400e+003  1.8215e+001 63390 74530,74141,74386
 3.0000e+000 74484 -2.7568e+002 -7.9348e+002  1.4589e+001 63390 74219,74386,74458
 3.0000e+000 74507 -1.9021e+002 -7.8635e+002  1.4273e+002 63390 74219,74458,74245
 3.0000e+000 74556 -5.2457e+002 -1.0469e+003 -1.0249e+002 63390 74219,74167,74530
 3.0000e+000 74579 -4.5232e+002 -9.5618e+002 -6.2362e+001 63390 74219,74530,74386
 3.0000e+000 74680 -6.8805e+002 -1.0142e+003  1.1458e+002 63100 75089,74833,74703
 3.0000e+000 74729 -7.4050e+002 -1.0608e+003  1.1233e+002 63100 74961,74703,74654
 3.0000e+000 74859 -4.7221e+002 -7.9229e+002  2.1105e+002 63100 74602,74703,74833
 3.0000e+000 74987 -7.3472e+002 -1.0587e+003  9.0520e+001 63100 75089,74703,74961
 3.0000e+000 75115 -5.7936e+002 -1.0858e+003  1.7360e+002 63100 74628,74833,75089
 3.0000e+000 75138 -6.2488e+002 -1.1298e+003  1.4984e+002 63100 74628,75089,74961
 3.0000e+000 75723 -6.9257e+002 -8.2723e+002  8.9321e+001 62532 75746,75504,75426
 3.0000e+000 75700 -7.8902e+002 -6.0165e+002  1.3013e+002 62532 75746,75426,75556
 3.0000e+000 75677 -5.8638e+002 -2.9367e+002 -4.9399e+002 62532 75426,75504,75452
 3.0000e+000 75654 -8.1315e+002 -4.1022e+002 -1.4075e+002 62532 75400,75556,75426
 3.0000e+000 75631 -9.9192e+002 -1.2005e+003 -4.3501e+002 62532 75400,75582,75556
 3.0000e+000 75608 -2.2379e+002 -5.8460e+002 -3.6041e+002 62532 75452,75504,75478
 3.0000e+000 75772 -7.4633e+002 -1.0128e+003  3.9406e+001 62532 75530,75504,75746
 3.0000e+000 75795 -8.6327e+002 -7.8462e+002  5.8594e+001 62532 75530,75746,75556
 3.0000e+000 76301 -5.0187e+002 -9.5445e+002 -6.6991e+001 62192 76324,76082,76030
 3.0000e+000 76278 -4.4729e+002 -9.1217e+002 -4.8588e+001 62192 76324,76030,76004
 3.0000e+000 76255 -4.3357e+002 -9.6707e+002  1.0689e+002 62192 76030,76082,76056
 3.0000e+000 76232 -6.5068e+002 -1.1619e+003 -1.5529e+002 62192 76082,76134,76108
 3.0000e+000 76209 -4.5847e+002 -8.3437e+002 -1.1548e+002 62192 76004,76160,76134
 3.0000e+000 76186 -3.1532e+002 -9.4258e+002 -6.0055e+001 62192 75978,76160,76004
 3.0000e+000 76350 -5.7794e+002 -8.9051e+002 -6.8840e+001 62192 76134,76082,76324
 3.0000e+000 76373 -5.2270e+002 -8.3738e+002 -4.6177e+001 62192 76134,76324,76004
 3.0000e+000 76879 -7.1244e+002 -9.4053e+002 -6.9153e+001 61788 76902,76660,76582
 3.0000e+000 76856 -6.2233e+002 -1.0015e+003 -1.0821e+002 61788 76902,76582,76556
 3.0000e+000 76833 -1.3144e+003 -1.1476e+003 -1.1982e+002 61788 76582,76660,76634
 3.0000e+000 76810 -8.5723e+002 -1.3313e+003 -1.0470e+002 61788 76582,76634,76608
 3.0000e+000 76787 -6.1608e+002 -1.0945e+003  3.8798e+001 61788 76556,76738,76686
 3.0000e+000 76764 -2.7796e+002 -7.9337e+002 -8.7805e+001 61788 76686,76738,76712
 3.0000e+000 76928 -7.3116e+002 -9.9092e+002 -5.3977e+001 61788 76686,76660,76902
 3.0000e+000 76951 -6.7009e+002 -1.0859e+003 -8.0408e+001 61788 76686,76902,76556
 3.0000e+000 77408 -6.1969e+002 -8.9448e+002  1.4493e+001 61498 77212,77264,77238
 3.0000e+000 77385 -5.1929e+002 -7.1964e+002  9.1094e+001 61498 77160,77264,77212
 3.0000e+000 77362 -5.1407e+002 -7.2797e+002  8.6143e+001 61498 77160,77290,77264
 3.0000e+000 77339 -3.2521e+002 -8.9282e+002  1.2516e+002 61498 77160,77212,77186
 3.0000e+000 77316 -3.8163e+002 -5.3669e+002  2.3881e+002 61498 77134,77290,77160
 3.0000e+000 77678 -3.0589e+002 -1.0230e+003 -4.1933e+001 61129 77479,77557,77505
 3.0000e+000 77655 -3.8493e+002 -1.1372e+003 -7.3055e+000 61129 77479,77583,77557
 3.0000e+000 77632 -2.5921e+002 -1.1690e+003  6.1004e+001 61129 77453,77583,77479
 3.0000e+000 77609 -1.7068e+002 -1.0082e+003 -7.7092e+001 61129 77505,77557,77531
 3.0000e+000 77828 -2.9141e+002 -1.1835e+003  4.3720e+001 60931 77851,77727,77701
 3.0000e+000 77805 -3.8030e+002 -1.3388e+003  1.1820e+002 60931 77851,77701,77779
 3.0000e+000 77877 -6.3306e+002 -1.4833e+003  2.4375e+002 60931 77923,77851,77753
 3.0000e+000 77900 -2.3087e+002 -1.2982e+003  1.6438e+002 60931 77753,77851,77779
 3.0000e+000 77949 -3.1341e+002 -8.9094e+002  9.2954e+001 60931 77727,77851,77923
 3.0000e+000 78133 -2.2099e+002 -6.4117e+002 -6.0183e+001 60377 78055,78107,78081
 3.0000e+000 78535 -9.9945e+002 -1.3583e+003 -5.9529e+001 60015 78287,78391,78313
 3.0000e+000 78512 -6.3128e+002 -1.3411e+003 -1.1422e+002 60015 78287,78417,78391
 3.0000e+000 78489 -7.0251e+002 -1.4731e+003 -2.3666e+002 60015 78261,78417,78287
 3.0000e+000 78466 -5.0324e+002 -1.2766e+003  1.2602e+002 60015 78339,78391,78365
 3.0000e+000 78443 -5.3217e+002 -1.1320e+003  2.6652e+001 60015 78313,78391,78339
 3.0000e+000 78913 -4.2274e+002 -7.5483e+002 -8.3797e+000 59725 78936,78743,78691
 3.0000e+000 78890 -5.0952e+002 -7.8545e+002 -3.8968e+001 59725 79008,78936,78691
 3.0000e+000 78867 -4.9849e+002 -7.4965e+002 -5.5237e+001 59725 79008,78691,78665
 3.0000e+000 78844 -2.6263e+002 -7.6121e+002  1.3301e+002 59725 78691,78743,78717
 3.0000e+000 78821 -2.4156e+002 -6.9876e+002 -3.5121e+002 59725 78639,78795,78769
 3.0000e+000 78962 -2.6843e+002 -8.0760e+002 -9.9423e+001 59725 78769,78743,78936
 3.0000e+000 78985 -5.2652e+002 -1.0078e+003 -1.8844e+002 59725 78769,78936,78639
 3.0000e+000 79034 -4.6835e+002 -7.6409e+002 -6.1707e+001 59725 78639,78936,79008
 3.0000e+000 79057 -4.8252e+002 -7.5649e+002 -7.4771e+001 59725 78639,79008,78665
 3.0000e+000 79386 -4.4839e+002 -1.1484e+003  8.6950e+001 59221 79187,79239,79213
 3.0000e+000 79363 -3.5181e+002 -1.0110e+003  3.0607e+001 59221 79187,79265,79239
 3.0000e+000 79340 -5.1632e+002 -1.0743e+003  3.1785e+001 59221 79187,79291,79265
 3.0000e+000 79317 -3.2566e+002 -6.5198e+002 -7.0391e+001 59221 79161,79291,79187
 3.0000e+000 79813 -4.2216e+002 -7.2616e+002 -1.9803e+001 58831 79836,79542,79516
 3.0000e+000 79790 -3.2498e+002 -7.3701e+002  2.9636e+001 58831 79980,79836,79516
 3.0000e+000 79767 -3.7801e+002 -6.6556e+002 -1.1902e+002 58831 79908,79646,79568
 3.0000e+000 79744 -3.0458e+002 -7.1671e+002  4.0690e+001 58831 79980,79516,79490
 3.0000e+000 79721 -8.7612e+002 -6.4623e+002 -5.7162e+001 58831 79568,79646,79594
 3.0000e+000 79698 -3.9546e+002 -1.1521e+002  2.1615e+002 58831 79594,79646,79620
 3.0000e+000 79862 -3.2793e+002 -5.8786e+002  4.2841e+001 58831 79568,79542,79836
 3.0000e+000 79885 -2.6198e+002 -6.5762e+002 -1.2219e+000 58831 79908,79568,79836
 3.0000e+000 79934 -4.6584e+002 -6.9688e+002 -1.2769e+002 58831 79672,79646,79908
 3.0000e+000 79957 -4.7621e+002 -7.4657e+002 -2.0326e+000 58831 79672,79908,79836
 3.0000e+000 80006 -3.2506e+002 -7.0825e+002  3.7529e+001 58831 79672,79836,79980
 3.0000e+000 80029 -3.2538e+002 -7.0408e+002  4.3105e+001 58831 79672,79980,79490
 3.0000e+000 80358 -3.5036e+002 -1.0376e+003  2.3943e+000 58377 80381,80185,80159
 3.0000e+000 80335 -3.5254e+002 -1.0244e+003  7.9208e+000 58377 80381,80159,80133
 3.0000e+000 80312 -2.0032e+002 -9.1714e+002 -3.1869e+001 58377 80133,80263,80237
 3.0000e+000 80289 -4.0293e+002 -1.1679e+003  1.0680e+002 58377 80185,80237,80211
 3.0000e+000 80407 -3.5534e+002 -1.0234e+003 -8.1246e-002 58377 80237,80185,80381
 3.0000e+000 80430 -3.5594e+002 -1.0107e+003  8.4814e+000 58377 80237,80381,80133
 3.0000e+000 80759 -2.7598e+002 -9.8780e+002  2.1967e+002 57873 80782,80586,80560
 3.0000e+000 80736 -4.3361e+002 -1.1499e+003  1.5227e+002 57873 80782,80560,80534
 3.0000e+000 80713 -4.0128e+002 -1.2118e+003  1.2057e+002 57873 80586,80638,80612
 3.0000e+000 80690 -1.3809e+002 -1.0945e+003  1.0704e+002 57873 80534,80664,80638
 3.0000e+000 80808 -3.5020e+002 -1.1326e+003  1.4416e+002 57873 80638,80586,80782
 3.0000e+000 80831 -3.7151e+002 -1.1794e+003  1.1164e+002 57873 80638,80782,80534
 3.0000e+000 81337 -4.4564e+002 -8.8391e+002 -1.0692e+002 57262 81360,81144,81092
 3.0000e+000 81314 -5.0603e+002 -1.0589e+003 -1.6329e+002 57262 81360,81092,81066
 3.0000e+000 81291 -4.3499e+002 -1.0676e+003 -3.2161e+001 57262 81014,81196,81066
 3.0000e+000 81268 -3.6695e+002 -6.4891e+002 -7.5207e+001 57262 81092,81144,81118
 3.0000e+000 81245 -3.6724e+002 -6.8047e+002 -6.3140e+000 57262 81144,81196,81170
 3.0000e+000 81222 -4.7951e+002 -1.1903e+003  8.7467e+001 57262 81014,81066,81040
 3.0000e+000 81386 -4.2576e+002 -7.1789e+002  9.9640e+000 57262 81196,81144,81360
 3.0000e+000 81409 -5.0822e+002 -9.0655e+002 -5.3703e+001 57262 81196,81360,81066
 3.0000e+000 81608 -2.7941e+002 -1.0447e+003  4.3625e+001 57007 81458,81536,81510
 3.0000e+000 81585 -3.0498e+002 -1.1527e+003  4.6701e+001 57007 81432,81536,81458
 3.0000e+000 81562 -7.3837e+002 -9.9314e+002  2.1918e+002 57007 81458,81510,81484
 3.0000e+000 82086 -8.5753e+002 -1.2538e+003  6.8780e+001 56339 81792,81922,81818
 3.0000e+000 82063 -1.1665e+003 -1.2879e+003  7.7981e+001 56339 81714,81922,81792
 3.0000e+000 82040 -7.9781e+002 -1.0989e+003 -9.0265e+001 56339 82109,81844,81818
 3.0000e+000 82017 -7.9844e+002 -1.1792e+003 -9.9101e+001 56339 82109,81818,81922
 3.0000e+000 81994 -6.6602e+002 -1.3846e+003 -1.5231e+002 56339 81844,81896,81870
 3.0000e+000 81971 -7.0163e+002 -2.0788e+002  1.1829e+002 56339 81714,81792,81766
 3.0000e+000 81948 -3.9176e+002 -1.9254e+002  2.7330e+002 56339 81714,81766,81740
 3.0000e+000 82135 -7.2674e+002 -1.1632e+003 -4.3336e+001 56339 81896,81844,82109
 3.0000e+000 82158 -7.6726e+002 -1.2993e+003 -6.8348e+001 56339 81896,82109,81922
 3.0000e+000 82536 -5.3683e+002 -1.1443e+003 -4.3045e+001 55699 82288,82392,82314
 3.0000e+000 82513 -5.6189e+002 -1.1621e+003 -6.2881e+001 55699 82288,82418,82392
 3.0000e+000 82490 -6.3608e+002 -1.4371e+003 -8.1234e+001 55699 82314,82392,82340
 3.0000e+000 82467 -1.7772e+002 -1.8229e+003 -1.7510e+002 55699 82340,82392,82366
 3.0000e+000 82444 -5.1145e+002 -1.2465e+003 -7.1534e+001 55699 82262,82418,82288
 3.0000e+000 83091 -1.2678e+003 -1.2646e+003  2.1105e+002 55409 82745,82901,82875
 3.0000e+000 83068 -1.2257e+003 -1.0904e+003  2.3577e+002 55409 82719,82901,82745
 3.0000e+000 83045 -7.3680e+002 -1.1685e+003  2.2259e+002 55409 82771,82849,82823
 3.0000e+000 83022 -1.3494e+003 -1.3539e+003  3.6424e+002 55409 82745,82849,82771
 3.0000e+000 82999 -8.6035e+002 -1.0894e+003  2.2328e+002 55409 82745,82875,82849
 3.0000e+000 82976 -1.0940e+003 -1.0944e+003  2.7090e+002 55409 82771,82823,82797
 3.0000e+000 82953 -9.4603e+002 -1.7068e+003  5.1960e+002 55409 82719,82927,82901
 3.0000e+000 83388 -5.0313e+002 -1.3708e+003 -5.6346e+001 54905 83411,83218,83166
 3.0000e+000 83365 -3.3026e+002 -1.2990e+003 -3.0538e+001 54905 83411,83166,83114
 3.0000e+000 83342 -5.9548e+002 -1.3052e+003 -6.6097e+001 54905 83483,83270,83244
 3.0000e+000 83319 -5.9488e+002 -1.3172e+003 -1.0648e+002 54905 83166,83218,83192
 3.0000e+000 83296 -3.3236e+002 -1.3688e+003  3.7231e+001 54905 83114,83166,83140
 3.0000e+000 83437 -5.5332e+002 -1.3079e+003  3.9497e+000 54905 83244,83218,83411
 3.0000e+000 83460 -5.1628e+002 -1.3133e+003 -2.0939e+001 54905 83483,83244,83411
 3.0000e+000 83509 -4.9681e+002 -1.2105e+003 -2.7564e+001 54905 83114,83270,83483
 3.0000e+000 83532 -4.6420e+002 -1.2467e+003  4.9518e+000 54905 83114,83483,83411
 3.0000e+000 83961 -3.2424e+002 -1.0836e+003  5.3397e+001 54593 83638,83768,83690
 3.0000e+000 83938 -6.1656e+001 -1.3045e+003  3.3141e+002 54593 83638,83794,83768
 3.0000e+000 83915 -3.6249e+002 -1.1303e+003  2.7879e+001 54593 83690,83768,83742
 3.0000e+000 83892 -1.9328e+002 -9.0954e+002 -2.1913e+002 54593 83638,83820,83794
 3.0000e+000 83869 -3.0261e+002 -9.0956e+002 -5.1306e+000 54593 83638,83690,83664
 3.0000e+000 83846 -2.0695e+002 -8.0660e+002 -2.2238e+002 54593 83690,83742,83716
 3.0000e+000 84209 -5.2036e+002 -1.5861e+003  1.9490e+002 54132 84232,84062,83984
 3.0000e+000 84186 -5.0537e+002 -1.3161e+003  1.1650e+002 54132 84232,83984,84114
 3.0000e+000 84163 -5.7166e+002 -1.7262e+003  3.2454e+001 54132 83984,84062,84036
 3.0000e+000 84140 -5.8810e+002 -1.5678e+003 -4.8693e+000 54132 83984,84036,84010
 3.0000e+000 84258 -3.5299e+002 -1.9074e+003  1.5354e+002 54132 84088,84062,84232
 3.0000e+000 84281 -2.9589e+002 -1.6032e+003  2.3516e+001 54132 84088,84232,84114
 3.0000e+000 84382 -3.0232e+002 -8.8945e+002 -2.3415e+001 53521 84304,84356,84330
 3.0000e+000 84632 -5.0439e+002 -1.3157e+003  5.4884e+001 53067 84655,84485,84459
 3.0000e+000 84609 -5.3430e+002 -1.2760e+003  4.8636e+001 53067 84655,84459,84407
 3.0000e+000 84586 -4.4757e+002 -1.2202e+003  7.5719e+000 53067 84485,84537,84511
 3.0000e+000 84563 -5.6117e+002 -1.3692e+003  1.7408e+001 53067 84407,84459,84433
 3.0000e+000 84681 -5.0290e+002 -1.2817e+003  4.3443e+001 53067 84537,84485,84655
 3.0000e+000 84704 -5.0794e+002 -1.2249e+003  2.6548e+001 53067 84537,84655,84407
 3.0000e+000 85214 -3.4035e+002 -1.2164e+003 -2.6794e+002 52513 85021,85073,85047
 3.0000e+000 85191 -4.1692e+002 -9.6111e+002 -2.9567e+002 52513 84943,85073,85021
 3.0000e+000 85168 -3.2973e+002 -8.8297e+002 -7.7007e+001 52513 84943,85021,84995
 3.0000e+000 85145 -7.1738e+002 -1.7382e+003 -2.7196e+002 52513 84917,85073,84943
 3.0000e+000 85122 -3.0811e+002 -9.4033e+002 -6.2170e+001 52513 84943,84995,84969
 3.0000e+000 85099 -1.1741e+003 -1.4637e+003 -1.2663e+002 52513 84891,85073,84917
 3.0000e+000 85582 -4.7784e+002 -1.2078e+003  1.0791e+002 52037 85605,85311,85285
 3.0000e+000 85559 -5.0871e+002 -1.2892e+003  1.1174e+002 52037 85749,85605,85285
 3.0000e+000 85536 -1.6216e+002 -1.1911e+003  2.7377e+001 52037 85893,85677,85389
 3.0000e+000 85513 -3.4968e+002 -1.1748e+003  6.1697e+001 52037 85749,85285,85259
 3.0000e+000 85490  2.0826e+001 -1.1191e+003 -8.2533e+001 52037 85893,85389,85363
 3.0000e+000 85467 -2.5340e+002 -1.2383e+003 -5.1992e+001 52037 85259,85441,85415
 3.0000e+000 85631 -7.4528e+002 -1.3560e+003  4.5522e+001 52037 85337,85311,85605
 3.0000e+000 85654 -5.3728e+002 -1.3366e+003  2.3209e+002 52037 85677,85337,85605
 3.0000e+000 85703 -7.7597e+001 -1.3066e+003  8.0351e+001 52037 85415,85389,85677
 3.0000e+000 85726 -1.6847e+002 -1.2453e+003  1.7061e+002 52037 85821,85677,85605
 3.0000e+000 85775 -2.8887e+002 -1.2990e+003  1.6048e+002 52037 85821,85605,85749
 3.0000e+000 85798 -3.6079e+002 -1.3189e+003  6.0096e+001 52037 85415,85749,85259
 3.0000e+000 85847 -2.0146e+002 -1.2808e+003  7.5532e+001 52037 85415,85677,85821
 3.0000e+000 85870 -2.4781e+002 -1.3026e+003  6.9065e+001 52037 85415,85821,85749
 3.0000e+000 85919 -1.5578e+002 -1.3358e+003  2.1827e+002 52037 85337,85677,85893
 3.0000e+000 85942 -7.4944e+001 -1.3169e+003  1.1426e+002 52037 85337,85893,85363
 3.0000e+000 86224 -1.8641e+002 -4.7122e+002  2.0879e+002 51368 86375,86100,86074
 3.0000e+000 86201 -4.7467e+002 -6.4574e+002  1.1858e+002 51368 86375,86074,86247
 3.0000e+000 86178 -1.5156e+002 -1.3939e+003 -2.7653e+002 51368 86048,86152,86126
 3.0000e+000 86273 -4.8851e+002 -9.4288e+002 -2.3984e+002 51368 86048,86126,86247
 3.0000e+000 86401 -1.3116e+001 -7.1960e+002  4.7028e+001 51368 86126,86100,86375
 3.0000e+000 86424 -1.6157e+002 -8.6008e+002 -1.6727e+001 51368 86126,86375,86247
 3.0000e+000 86802 -6.1798e+002 -1.1800e+003  4.5336e+001 51028 86528,86632,86580
 3.0000e+000 86779 -6.4523e+002 -1.3627e+003  9.6715e+001 51028 86528,86684,86632
 3.0000e+000 86756 -7.6379e+002 -1.5242e+003 -1.9920e+001 51028 86528,86580,86554
 3.0000e+000 86733 -4.4115e+002 -1.2531e+003  3.1623e+002 51028 86632,86684,86658
 3.0000e+000 86710 -6.5911e+002 -1.4295e+003 -1.6221e+002 51028 86580,86632,86606
 3.0000e+000 87131 -5.9074e+002 -1.1785e+003  2.4237e+002 50624 86958,87036,87010
 3.0000e+000 87108 -6.9319e+002 -1.1771e+003  2.0668e+002 50624 86932,87036,86958
 3.0000e+000 87085 -5.0433e+002 -1.1310e+003  1.1184e+002 50624 86958,87010,86984
 3.0000e+000 87062 -5.0556e+002 -1.0836e+003  2.3793e+002 50624 86906,87036,86932
 3.0000e+000 87330 -8.4602e+002 -1.4563e+003  6.2547e+001 50234 87353,87180,87154
 3.0000e+000 87307 -7.7248e+002 -1.4395e+003  6.0445e+001 50234 87353,87154,87258
 3.0000e+000 87284 -6.0755e+002 -1.3770e+003  1.0833e+001 50234 87206,87258,87232
 3.0000e+000 87379 -7.8467e+002 -1.5190e+003  1.1328e+002 50234 87206,87180,87353
 3.0000e+000 87402 -6.6696e+002 -1.4741e+003  9.4376e+001 50234 87206,87353,87258
 3.0000e+000 87650 -6.4563e+002 -1.4029e+003 -6.2928e+001 49730 87673,87503,87451
 3.0000e+000 87627 -4.1529e+002 -1.2961e+003 -2.6986e+001 49730 87673,87451,87425
 3.0000e+000 87604 -4.1791e+002 -1.0436e+003  1.4810e+002 49730 87503,87555,87529
 3.0000e+000 87581 -7.7466e+002 -1.1741e+003 -9.4726e+001 49730 87451,87503,87477
 3.0000e+000 87699 -6.7529e+002 -1.3147e+003  6.9518e-001 49730 87555,87503,87673
 3.0000e+000 87722 -6.2811e+002 -1.2862e+003  1.2787e+001 49730 87555,87673,87425
 3.0000e+000 88232 -5.2268e+002 -1.1711e+003  1.1665e+002 49176 88255,87935,87909
 3.0000e+000 88209 -6.7151e+002 -1.2892e+003  2.8624e+002 49176 88255,87909,88065
 3.0000e+000 88186 -6.4410e+002 -1.1234e+003  2.0705e+002 49176 87935,88039,87961
 3.0000e+000 88163 -5.7261e+002 -1.1975e+003  2.4642e+002 49176 87909,88091,88065
 3.0000e+000 88140 -8.9537e+002 -1.2369e+003  1.7160e+002 49176 87961,88039,88013
 3.0000e+000 88117 -8.0790e+002 -1.6531e+003 -5.4484e+001 49176 87961,88013,87987
 3.0000e+000 88281 -7.0029e+002 -1.2325e+003  2.5467e+002 49176 88039,87935,88255
 3.0000e+000 88304 -8.5707e+002 -1.3498e+003  4.2441e+002 49176 88039,88255,88065
 3.0000e+000 88503 -1.8131e+002 -8.2420e+002 -7.9244e-001 48772 88526,88379,88353
 3.0000e+000 88480 -2.2256e+002 -6.6028e+002  2.9599e+001 48772 88526,88353,88327
 3.0000e+000 88457 -2.1521e+002 -9.0247e+002  6.8446e+000 48772 88379,88431,88405
 3.0000e+000 88552 -1.4373e+002 -6.9369e+002 -2.1632e+001 48772 88431,88379,88526
 3.0000e+000 88575 -2.2226e+002 -5.8980e+002 -8.0838e+000 48772 88431,88526,88327
 3.0000e+000 89083 -3.1864e+002 -6.9257e+002 -1.6012e+002 48368 88786,88916,88864
 3.0000e+000 89060 -3.2494e+002 -8.0211e+002 -8.1496e+001 48368 88786,88942,88916
 3.0000e+000 89037 -4.0027e+002 -6.1279e+002 -2.8853e+001 48368 88786,88864,88812
 3.0000e+000 89014 -4.8811e+002 -1.0609e+003 -2.8353e+002 48368 88864,88916,88890
 3.0000e+000 88991 -1.4984e+002 -1.0537e+003  3.2592e+002 48368 88812,88864,88838
 3.0000e+000 88968 -6.4268e+001 -6.3412e+002  1.8535e+001 48368 88760,88942,88786
 3.0000e+000 89331 -5.8776e+002 -1.5435e+003  6.3614e+001 47928 89158,89236,89210
 3.0000e+000 89308 -4.4775e+002 -1.0434e+003  1.5446e+002 47928 89132,89236,89158
 3.0000e+000 89285 -6.9119e+002 -1.0150e+003  6.3480e+001 47928 89158,89210,89184
 3.0000e+000 89262 -7.3882e+002 -1.3518e+003  3.3284e+001 47928 89106,89236,89132
 3.0000e+000 89662 -6.6832e+002 -1.3336e+003 -5.4445e+000 47588 89463,89541,89515
 3.0000e+000 89639 -4.6132e+002 -1.0510e+003 -1.0192e+002 47588 89463,89567,89541
 3.0000e+000 89616 -5.4571e+002 -1.1711e+003  7.6986e+001 47588 89463,89515,89489
 3.0000e+000 89593 -6.4402e+002 -1.0960e+003 -1.1338e+002 47588 89437,89567,89463
 3.0000e+000 89763  4.6163e+000 -2.6801e+002 -4.1661e+000 47390 89685,89737,89711
 3.0000e+000 89913 -1.2657e+002 -7.5107e+002 -3.8706e+001 47078 89786,89838,89812
 3.0000e+000 89890 -3.4886e+002 -1.3582e+003  1.8310e+002 47078 89786,89864,89838
 3.0000e+000 90163 -5.9220e+002 -1.1569e+003  7.6129e+001 46474 89964,90042,89990
 3.0000e+000 90140 -5.2351e+002 -1.1264e+003  6.6001e+001 46474 89938,90042,89964
 3.0000e+000 90117 -6.4202e+002 -1.1365e+003  7.1066e+001 46474 89990,90042,90016
 3.0000e+000 90094 -6.4992e+002 -1.1857e+003  1.0124e+002 46474 89938,90068,90042
 3.0000e+000 90364 -6.7202e+002 -1.2714e+003  1.6130e+002 46184 90240,90292,90266
 3.0000e+000 90341 -8.8656e+002 -1.2618e+003  1.7800e+002 46184 90188,90292,90240
 3.0000e+000 90318 -6.2623e+002 -1.2699e+003  2.8434e+002 46184 90188,90240,90214
 3.0000e+000 90565 -6.0939e+002 -9.7614e+002 -9.9119e+000 45780 90588,90415,90389
 3.0000e+000 90542 -5.0803e+002 -9.8531e+002  1.2890e+001 45780 90588,90389,90493
 3.0000e+000 90519 -5.9725e+002 -1.1385e+003 -6.3008e+000 45780 90415,90467,90441
 3.0000e+000 90614 -5.3874e+002 -9.9387e+002  5.5114e+001 45780 90467,90415,90588
 3.0000e+000 90637 -4.0625e+002 -9.5532e+002  9.3426e+001 45780 90467,90588,90493
 3.0000e+000 91196 -7.8004e+002 -1.3174e+003 -9.8034e+001 45226 91219,90876,90850
 3.0000e+000 91173 -4.4962e+002 -1.2262e+003  6.2005e+001 45226 91219,90850,91032
 3.0000e+000 91150 -3.4327e+002 -1.4217e+003 -1.0772e+002 45226 90824,91032,90850
 3.0000e+000 91127 -6.3140e+002 -1.0293e+003  5.2510e+001 45226 90876,90980,90902
 3.0000e+000 91104 -3.2872e+002 -1.0010e+003  1.4853e+002 45226 90876,91006,90980
 3.0000e+000 91081 -5.3386e+002 -1.1581e+003 -1.3039e+002 45226 90902,90980,90954
 3.0000e+000 91058 -2.7590e+002 -9.6552e+002 -2.3005e+002 45226 90902,90954,90928
 3.0000e+000 91245 -4.7023e+002 -1.2023e+003  9.5246e+000 45226 91006,90876,91219
 3.0000e+000 91268 -1.7882e+002 -1.1741e+003  1.4544e+002 45226 91006,91219,91032
 3.0000e+000 91516 -2.9515e+002 -1.8596e+003  1.7753e+002 44836 91539,91421,91395
 3.0000e+000 91493 -3.0785e+002 -2.0691e+003 -1.4276e+001 44836 91317,91421,91343
 3.0000e+000 91470 -5.1206e+002 -1.7715e+003  1.1422e+002 44836 91539,91395,91369
 3.0000e+000 91447 -5.2354e+002 -1.3949e+003  3.6757e+002 44836 91291,91421,91317
 3.0000e+000 91565 -3.9236e+002 -1.8888e+003  6.9437e+001 44836 91343,91421,91539
 3.0000e+000 91588 -5.8959e+002 -1.8971e+003 -3.2872e+001 44836 91343,91539,91369
 3.0000e+000 91787 -4.7445e+002 -1.1288e+003  7.1327e+001 44432 91810,91637,91611
 3.0000e+000 91764 -5.6822e+002 -1.3698e+003  1.4400e+002 44432 91810,91611,91715
 3.0000e+000 91741 -2.6992e+002 -8.8538e+002 -8.1130e+001 44432 91637,91689,91663
 3.0000e+000 91836 -5.8380e+002 -1.0056e+003  6.9381e+001 44432 91689,91637,91810
 3.0000e+000 91859 -5.6485e+002 -1.1249e+003  1.0881e+002 44432 91689,91810,91715
 3.0000e+000 92207 -6.9862e+002 -1.5139e+003  1.4364e+002 43864 92230,91936,91910
 3.0000e+000 92184 -9.1393e+002 -1.5476e+003  1.9658e+002 43864 92230,91910,92040
 3.0000e+000 92161 -1.0132e+003 -1.5752e+003  2.8841e+002 43864 91884,92040,91910
 3.0000e+000 92138 -8.8411e+002 -1.3927e+003 -1.1427e+001 43864 91936,92014,91988
 3.0000e+000 92115 -7.0452e+002 -1.8715e+003  3.9884e+002 43864 91936,91988,91962
 3.0000e+000 92092 -8.6786e+002 -1.2819e+003  2.0190e+002 43864 91884,92066,92040
 3.0000e+000 92256 -9.2261e+002 -1.4263e+003  1.1288e+002 43864 92014,91936,92230
 3.0000e+000 92279 -1.1056e+003 -1.4518e+003  1.9920e+002 43864 92014,92230,92040
 3.0000e+000 92529 -6.7760e+002 -1.2187e+003  1.2273e+002 43410 92552,92330,92304
 3.0000e+000 92506 -6.5402e+002 -1.1844e+003  1.6406e+001 43410 92552,92304,92408
 3.0000e+000 92483 -6.9176e+002 -1.2681e+003  3.5233e+001 43410 92304,92434,92408
 3.0000e+000 92460 -3.6374e+002 -1.0542e+003  7.8288e+000 43410 92330,92382,92356
 3.0000e+000 92578 -6.0818e+002 -1.1872e+003  6.7195e+001 43410 92382,92330,92552
 3.0000e+000 92601 -5.0538e+002 -1.0765e+003 -5.1760e+001 43410 92382,92552,92408
 3.0000e+000 92802 -4.0073e+002 -1.6531e+003  1.7952e+002 43162 92825,92704,92652
 3.0000e+000 92779 -2.9365e+002 -1.5668e+003  3.4345e+002 43162 92825,92652,92626
 3.0000e+000 92756 -4.0173e+002 -1.6551e+003  1.7870e+002 43162 92652,92704,92678
 3.0000e+000 92851 -6.6290e+002 -1.6793e+003 -2.2619e+000 43162 92730,92704,92825
 3.0000e+000 92874 -6.5412e+002 -1.1463e+003  2.7144e+002 43162 92730,92825,92626
 3.0000e+000 93463 -3.5109e+002 -8.3519e+002 -1.6978e+002 42758 93140,93270,93166
 3.0000e+000 93440 -4.3728e+002 -9.0991e+002 -1.1149e+002 42758 93140,93296,93270
 3.0000e+000 93417 -3.1634e+002 -8.8011e+002 -1.2788e+002 42758 93166,93270,93218
 3.0000e+000 93394 -2.1870e+002 -8.8333e+002 -1.5016e+002 42758 93218,93270,93244
 3.0000e+000 93371 -1.2114e+002 -1.1245e+003 -7.1426e+001 42758 93140,93322,93296
 3.0000e+000 93348 -3.9575e+002 -1.0042e+003  1.5164e+001 42758 93166,93218,93192
 3.0000e+000 93920 -3.8550e+002 -1.0339e+003  1.1157e+001 42304 93943,93672,93646
 3.0000e+000 93897 -3.7064e+002 -9.8869e+002  1.2244e+001 42304 93943,93646,93802
 3.0000e+000 93874 -3.3910e+002 -1.0254e+003  7.8164e+001 42304 93724,93802,93776
 3.0000e+000 93851 -4.9777e+002 -1.2124e+003  1.0798e+002 42304 93672,93724,93698
 3.0000e+000 93828 -5.7873e+002 -1.2158e+003 -1.7507e+001 42304 93724,93776,93750
 3.0000e+000 93969 -3.7087e+002 -1.0508e+003 -2.4200e+000 42304 93724,93672,93943
 3.0000e+000 93992 -3.7228e+002 -1.0314e+003  8.9627e-001 42304 93724,93943,93802
 3.0000e+000 94321 -5.5142e+002 -1.3606e+003  5.2714e+001 41478 94096,94148,94122
 3.0000e+000 94298 -6.0010e+002 -1.3657e+003  8.9905e+001 41478 94096,94226,94148
 3.0000e+000 94275 -7.7331e+002 -1.8018e+003 -2.0916e+001 41478 94148,94226,94174
 3.0000e+000 94252 -3.6107e+002 -1.2550e+003 -2.7075e+002 41478 94174,94226,94200
 3.0000e+000 94618 -4.9381e+002 -1.5937e+003  7.2071e+000 40910 94344,94422,94396
 3.0000e+000 94595 -7.2162e+002 -1.5459e+003 -4.9555e+001 40910 94344,94448,94422
 3.0000e+000 94572 -6.3272e+002 -1.3344e+003 -4.1681e+001 40910 94344,94474,94448
 3.0000e+000 94549 -4.4106e+002 -1.7592e+003 -1.1945e+002 40910 94344,94396,94370
 3.0000e+000 94526 -9.6084e+002 -1.8069e+003  1.1321e+002 40910 94344,94500,94474
 3.0000e+000 94866 -5.5961e+002 -1.0068e+003 -1.0553e+002 40306 94667,94719,94693
 3.0000e+000 94843 -6.6269e+002 -1.1274e+003 -5.4967e+001 40306 94641,94719,94667
 3.0000e+000 94820 -7.5610e+002 -1.1212e+003  2.9798e+001 40306 94641,94745,94719
 3.0000e+000 94797 -6.1038e+002 -1.0825e+003  1.3489e+001 40306 94641,94771,94745
 3.0000e+000 95089 -5.0228e+001 -8.2608e+002  1.2227e+002 39702 94913,94991,94939
 3.0000e+000 95066 -8.0504e+001 -6.7389e+002  1.6871e+001 39702 94913,95017,94991
 3.0000e+000 95043  2.0039e+000 -8.2056e+002  1.0358e+000 39702 94939,94991,94965
 3.0000e+000 95339 -5.2811e+002 -1.1248e+003 -1.4018e+002 39248 95140,95218,95166
 3.0000e+000 95316 -6.5608e+002 -1.2155e+003 -8.1032e+001 39248 95140,95244,95218
 3.0000e+000 95293 -4.0270e+002 -1.3002e+003 -1.4883e+002 39248 95114,95244,95140
 3.0000e+000 95270 -4.3851e+002 -1.2705e+003 -2.7685e+002 39248 95166,95218,95192
 3.0000e+000 95770 -7.5602e+002 -1.1420e+003  5.7568e+001 38694 95551,95629,95577
 3.0000e+000 95747 -4.9895e+002 -1.4121e+003  7.6266e+001 38694 95447,95629,95551
 3.0000e+000 95724 -3.7094e+002 -1.1709e+003 -5.6042e+001 38694 95447,95551,95473
 3.0000e+000 95701 -2.6222e+002 -1.1492e+003 -8.3348e+001 38694 95473,95551,95499
 3.0000e+000 95678 -2.4058e+002 -1.0736e+003 -2.1877e+002 38694 95499,95551,95525
 3.0000e+000 95655 -7.3988e+002 -1.0283e+003 -3.9426e+001 38694 95577,95629,95603
 3.0000e+000 96325 -5.6593e+002 -1.1745e+003  5.7190e+001 38240 95953,96031,96005
 3.0000e+000 96302 -5.3640e+002 -7.0673e+002  2.0888e+002 38240 95953,96161,96031
 3.0000e+000 96279 -3.6748e+002 -6.5299e+002 -5.5577e+001 38240 96031,96161,96135
 3.0000e+000 96256 -4.5572e+002 -9.1457e+002  2.0443e+002 38240 96348,96109,96057
 3.0000e+000 96233 -3.8994e+002 -8.1442e+002  1.3418e+002 38240 96348,96057,96031
 3.0000e+000 96210 -3.0341e+002 -8.9254e+002  3.0078e+002 38240 96057,96109,96083
 3.0000e+000 96187 -7.8125e+002 -5.6964e+002 -1.0199e+002 38240 95953,96005,95979
 3.0000e+000 96374 -3.2497e+002 -1.0927e+003  1.2413e+002 38240 96135,96109,96348
 3.0000e+000 96397 -2.1476e+002 -9.1104e+002  3.9906e+001 38240 96135,96348,96031
 3.0000e+000 96618 -6.8326e+002 -1.6701e+003  1.0026e+001 37821 96494,96546,96520
 3.0000e+000 96595 -4.6743e+002 -1.5184e+003  7.6124e+001 37821 96468,96546,96494
 3.0000e+000 96572 -3.3369e+002 -1.4609e+003  6.5388e+001 37821 96442,96546,96468
 3.0000e+000 97126 -3.9832e+002 -8.4925e+002 -9.5878e+001 37367 97149,96855,96829
 3.0000e+000 97103 -4.0992e+002 -8.6235e+002 -4.5986e+001 37367 97149,96829,96985
 3.0000e+000 97080 -3.4005e+002 -8.6435e+002 -4.6881e+001 37367 96803,96985,96829
 3.0000e+000 97057 -2.3717e+002 -8.2119e+002 -1.5631e+002 37367 96855,96907,96881
 3.0000e+000 97034 -4.5127e+002 -7.2708e+002 -3.0071e+001 37367 96907,96985,96959
 3.0000e+000 97011 -5.3333e+002 -6.3349e+002 -1.2380e+002 37367 96907,96959,96933
 3.0000e+000 97175 -4.0728e+002 -7.8689e+002 -1.0531e+002 37367 96907,96855,97149
 3.0000e+000 97198 -4.1636e+002 -8.1064e+002 -6.0279e+001 37367 96907,97149,96985
 3.0000e+000 97704 -6.1661e+002 -1.2408e+003  1.5216e+002 36863 97727,97511,97485
 3.0000e+000 97681 -5.9033e+002 -1.1283e+003  1.8457e+002 36863 97727,97485,97433
 3.0000e+000 97658 -7.3206e+002 -1.3099e+003  3.1844e+001 36863 97381,97563,97433
 3.0000e+000 97635 -3.9371e+002 -1.1172e+003 -4.6782e+001 36863 97511,97563,97537
 3.0000e+000 97612 -3.1878e+002 -8.6262e+002  5.3560e+001 36863 97433,97485,97459
 3.0000e+000 97589 -8.4504e+002 -1.3533e+003  1.1454e+002 36863 97381,97433,97407
 3.0000e+000 97753 -6.0655e+002 -1.3391e+003  9.4138e+001 36863 97563,97511,97727
 3.0000e+000 97776 -5.9250e+002 -1.2344e+003  1.2189e+002 36863 97563,97727,97433
 3.0000e+000 98331 -6.5096e+002 -1.4442e+003 -1.4696e+001 36287 98354,98089,98063
 3.0000e+000 98308 -5.8931e+002 -1.4872e+003  9.6806e+001 36287 98354,98063,98011
 3.0000e+000 98285 -8.1443e+002 -1.4328e+003  1.9560e+002 36287 98426,97985,98115
 3.0000e+000 98262 -5.5044e+002 -1.5333e+003  7.5520e+001 36287 98011,98063,98037
 3.0000e+000 98239 -7.1080e+002 -1.1859e+003  2.5537e+001 36287 97985,98141,98115
 3.0000e+000 98216 -1.0050e+003 -8.9893e+002  2.4033e+002 36287 97959,98141,97985
 3.0000e+000 98193 -8.8560e+002 -2.0610e+003  7.6375e+002 36287 97959,98167,98141
 3.0000e+000 98380 -6.0198e+002 -1.4480e+003 -4.2334e+000 36287 98115,98089,98354
 3.0000e+000 98403 -5.9902e+002 -1.4121e+003  6.2238e+000 36287 98426,98115,98354
 3.0000e+000 98452 -1.0643e+003 -1.6263e+003  3.5554e+002 36287 98011,97985,98426
 3.0000e+000 98475 -8.7208e+002 -1.6586e+003  1.7595e+002 36287 98011,98426,98354
 3.0000e+000 99030 -7.3562e+002 -1.7565e+003 -9.0654e+001 35726 99053,98736,98710
 3.0000e+000 99007 -6.5528e+002 -1.5190e+003  2.1371e+001 35726 99053,98710,98684
 3.0000e+000 98984 -8.0672e+002 -1.4654e+003 -1.5602e+002 35726 99125,98814,98736
 3.0000e+000 98961 -6.0121e+002 -1.2445e+003 -6.2865e+001 35726 98736,98814,98788
 3.0000e+000 98938 -8.0366e+002 -1.4123e+003  1.2564e+002 35726 98684,98866,98840
 3.0000e+000 98915 -5.0860e+002 -1.2096e+003 -4.8221e+001 35726 98736,98788,98762
 3.0000e+000 98892 -5.4076e+002 -1.5615e+003  1.9573e+001 35726 98658,98866,98684
 3.0000e+000 99079 -6.3744e+002 -1.4819e+003 -5.6142e+001 35726 99125,98736,99053
 3.0000e+000 99102 -7.7152e+002 -1.3658e+003  1.7354e+001 35726 98840,99053,98684
 3.0000e+000 99151 -9.6532e+002 -1.5382e+003 -1.8365e+002 35726 98840,98814,99125
 3.0000e+000 99174 -8.8259e+002 -1.5809e+003 -6.0964e+001 35726 98840,99125,99053
 3.0000e+000 99454 -2.8903e+002 -9.8212e+002 -5.2582e+001 35222 99278,99330,99304
 3.0000e+000 99431 -3.4826e+002 -9.2737e+002  3.3796e+001 35222 99278,99382,99330
 3.0000e+000 99408 -5.6381e+002 -1.1296e+003 -5.2466e+001 35222 99330,99382,99356
 3.0000e+000 99653 -3.9983e+002 -1.5547e+003 -4.5066e+000 34867 99477,99529,99503
 3.0000e+000 99630 -4.9019e+002 -1.1624e+003 -9.6123e+001 34867 99477,99581,99529
 3.0000e+000 99607 -5.0006e+002 -1.8568e+003 -4.9025e+002 34867 99529,99581,99555
 3.0000e+000 100104 -3.1999e+002 -1.1061e+003 -1.7804e+001 34363 99781,99885,99807
 3.0000e+000 100081 -4.2027e+002 -1.1623e+003  2.1433e+001 34363 99781,99963,99885
 3.0000e+000 100058 -1.8666e+002 -1.0403e+003 -4.0559e+001 34363 99885,99963,99911
 3.0000e+000 100035 -2.1284e+002 -9.8445e+002  2.7957e+001 34363 99807,99885,99859
 3.0000e+000 100012 -8.4042e+001 -9.7518e+002 -1.5958e+002 34363 99911,99963,99937
 3.0000e+000 99989 -1.0416e+002 -9.3872e+002  2.8257e+001 34363 99807,99859,99833
 3.0000e+000 100303 -6.3794e+002 -1.0246e+003 -2.5955e+002 33909 100127,100205,100179
 3.0000e+000 100280 -8.1040e+002 -1.1315e+003 -2.1325e+002 33909 100127,100231,100205
 3.0000e+000 100257 -7.6022e+002 -1.2910e+003 -2.2713e+002 33909 100127,100179,100153
 3.0000e+000 100890 -3.6926e+002 -1.1174e+003 -1.3645e+002 33412 100645,100749,100697
 3.0000e+000 100867 -4.0570e+002 -1.3630e+003 -1.0544e+002 33412 100567,100749,100645
 3.0000e+000 100844 -4.0641e+002 -1.3451e+003 -9.9606e+001 33412 100567,100645,100619
 3.0000e+000 100821 -3.1577e+002 -1.3147e+003 -2.5770e+002 33412 100645,100697,100671
 3.0000e+000 100798 -5.1605e+002 -1.8295e+003 -1.9086e+001 33412 100567,100619,100593
 3.0000e+000 100775 -5.9945e+002 -1.1040e+003 -7.4599e+001 33412 100697,100749,100723
 3.0000e+000 101268 -3.8708e+002 -1.3150e+003  2.5747e+001 32908 101435,101291,101098
 3.0000e+000 101245 -5.2543e+002 -1.4196e+003  6.1939e+001 32908 101291,101072,101020
 3.0000e+000 101222 -5.1217e+002 -1.5585e+003 -2.2075e+002 32908 101363,101150,101124
 3.0000e+000 101199 -6.0741e+002 -1.4847e+003  2.5016e+002 32908 101020,101072,101046
 3.0000e+000 101176 -2.7027e+002 -1.1176e+003 -6.3436e+001 32908 100994,101150,101020
 3.0000e+000 101317 -4.2904e+002 -1.4883e+003  1.1719e+002 32908 101124,101098,101291
 3.0000e+000 101340 -4.4959e+002 -1.6968e+003  2.7363e+000 32908 101363,101124,101291
 3.0000e+000 101389 -4.0483e+002 -1.3462e+003 -1.8424e+002 32908 101020,101150,101363
 3.0000e+000 101412 -3.0595e+002 -1.3671e+003  2.9426e+001 32908 101020,101363,101291
 3.0000e+000 101461 -3.7863e+002 -1.2494e+003  1.2786e+002 32908 101072,101291,101435
 3.0000e+000 101918 -2.9244e+002 -1.5209e+003 -1.4007e+002 32618 101941,101670,101644
 3.0000e+000 101895  1.6904e+001 -1.3996e+003  7.0889e+001 32618 101941,101644,101774
 3.0000e+000 101872 -6.0559e+002 -1.2107e+003 -5.2288e+001 32618 102013,101696,101670
 3.0000e+000 101849 -1.1189e+002 -9.0626e+002 -1.3995e+002 32618 101696,101748,101722
 3.0000e+000 101826  4.5335e+001 -1.3175e+003  6.5360e+001 32618 101644,101800,101774
 3.0000e+000 101967 -5.9331e+002 -1.4266e+003 -1.6377e+002 32618 102013,101670,101941
 3.0000e+000 101990 -4.5431e+002 -1.5665e+003  9.5292e+001 32618 101748,101941,101774
 3.0000e+000 102039 -5.4209e+002 -1.1314e+003 -1.1046e+001 32618 101748,101696,102013
 3.0000e+000 102062 -3.0455e+002 -1.2099e+003 -6.0824e+001 32618 101748,102013,101941
 3.0000e+000 102440 -8.0707e+002 -1.6519e+003  1.2682e+002 32306 102463,102270,102244
 3.0000e+000 102417 -8.3301e+002 -1.6714e+003  1.0784e+001 32306 102463,102244,102192
 3.0000e+000 102394 -7.8106e+002 -1.5025e+003 -1.4743e+001 32306 102192,102244,102218
 3.0000e+000 102371 -5.3154e+002 -1.5184e+003  1.2014e+002 32306 102270,102322,102296
 3.0000e+000 102348 -4.0224e+002 -1.8486e+003 -8.8293e+001 32306 102166,102322,102192
 3.0000e+000 102489 -6.7262e+002 -1.6188e+003  1.6934e+002 32306 102322,102270,102463
 3.0000e+000 102512 -6.9780e+002 -1.6598e+003  4.6622e+001 32306 102322,102463,102192
 3.0000e+000 102662 -3.9843e+002 -1.5151e+003 -5.3971e+001 31852 102943,102587,102561
 3.0000e+000 102639 -2.7062e+002 -1.1993e+003  3.7337e+001 31852 102815,102685,102561
 3.0000e+000 102711 -4.7927e+002 -1.5178e+003 -5.3444e+001 31852 102943,102561,102685
 3.0000e+000 102841 -2.7415e+002 -1.1041e+003  8.7587e+001 31852 102535,102685,102815
 3.0000e+000 102969 -3.7982e+002 -1.5181e+003 -1.1853e+002 31852 102613,102587,102943
 3.0000e+000 102992 -4.6549e+002 -1.5282e+003 -1.1564e+002 31852 102613,102943,102685
 3.0000e+000 103370 -7.9082e+002 -1.6794e+003  6.5045e+001 31134 103096,103200,103122
 3.0000e+000 103347 -1.0329e+003 -2.2850e+003  1.8917e+002 31134 103096,103226,103200
 3.0000e+000 103324 -1.1038e+003 -1.8845e+003  1.5705e+002 31134 103122,103200,103174
 3.0000e+000 103301 -5.3727e+002 -1.8207e+003 -6.6285e+000 31134 103096,103252,103226
 3.0000e+000 103278 -7.4902e+002 -2.2863e+003 -2.2056e+002 31134 103122,103174,103148
 3.0000e+000 103520 -3.5950e+002 -2.3722e+003  9.0403e-001 30822 103393,103445,103419
 3.0000e+000 103497 -1.1317e+002 -9.9809e+002  4.8855e+001 30822 103393,103471,103445
 3.0000e+000 103719 -3.5100e+002 -1.1840e+003  2.0734e+001 30182 103742,103621,103569
 3.0000e+000 103696 -4.3908e+002 -1.2197e+003 -5.0909e+000 30182 103742,103569,103543
 3.0000e+000 103673 -3.7230e+002 -1.1906e+003  2.9943e+001 30182 103569,103621,103595
 3.0000e+000 103768 -2.6128e+002 -1.2302e+003  4.8612e+001 30182 103647,103621,103742
 3.0000e+000 103791 -3.2397e+002 -1.2620e+003  1.3487e+001 30182 103647,103742,103543
 3.0000e+000 104252 -7.2824e+002 -1.3325e+003  3.1524e+001 29728 104030,104108,104056
 3.0000e+000 104229 -5.1333e+002 -9.0117e+002  1.0397e+002 29728 104004,104108,104030
 3.0000e+000 104206 -4.3164e+002 -1.0047e+003  7.3762e+001 29728 104004,104134,104108
 3.0000e+000 104183 -5.6470e+002 -1.1375e+003 -7.6015e+001 29728 103978,104134,104004
 3.0000e+000 104160 -3.9823e+002 -1.2100e+003 -1.0472e+002 29728 104056,104108,104082
 3.0000e+000 104630 -4.7218e+002 -1.4482e+003 -1.7882e+002 29217 104653,104382,104356
 3.0000e+000 104607 -3.6096e+002 -1.2529e+003 -4.6879e+001 29217 104653,104356,104512
 3.0000e+000 104584 -6.2987e+002 -1.4742e+003 -1.9666e+002 29217 104434,104512,104486
 3.0000e+000 104561 -3.7275e+002 -1.4109e+003 -3.0544e+002 29217 104382,104434,104408
 3.0000e+000 104538 -3.1247e+002 -1.0290e+003  6.5093e+001 29217 104434,104486,104460
 3.0000e+000 104679 -5.2910e+002 -1.4702e+003 -2.6631e+002 29217 104434,104382,104653
 3.0000e+000 104702 -5.1142e+002 -1.3972e+003 -1.4823e+002 29217 104434,104653,104512
 3.0000e+000 105178 -4.6405e+002 -1.4036e+003  1.5130e+001 28649 105201,104962,104936
 3.0000e+000 105155 -4.9263e+002 -1.3792e+003  3.4190e+001 28649 105201,104936,104884
 3.0000e+000 105132 -5.3160e+002 -1.2816e+003 -1.1408e+002 28649 105273,104858,105014
 3.0000e+000 105109 -7.3876e+002 -1.4612e+003  1.9599e+001 28649 104962,105014,104988
 3.0000e+000 105086 -3.0787e+002 -1.1830e+003 -1.5526e+002 28649 104884,104936,104910
 3.0000e+000 105063 -5.5506e+002 -1.1768e+003 -5.2025e+001 28649 104806,105014,104858
 3.0000e+000 105040 -6.5866e+002 -1.1459e+003 -1.0851e+002 28649 104806,104858,104832
 3.0000e+000 105227 -4.5543e+002 -1.4105e+003  4.7390e+000 28649 105014,104962,105201
 3.0000e+000 105250 -4.0778e+002 -1.3283e+003 -2.6686e+001 28649 105273,105014,105201
 3.0000e+000 105299 -6.7109e+002 -1.3430e+003 -1.0063e+002 28649 104884,104858,105273
 3.0000e+000 105322 -6.2420e+002 -1.4313e+003  4.9834e+000 28649 104884,105273,105201
 3.0000e+000 105673 -7.0021e+001 -1.3611e+003  2.1167e+001 28351 105474,105578,105552
 3.0000e+000 105650  5.3892e+001 -8.6391e+002 -1.8812e+001 28351 105448,105578,105474
 3.0000e+000 105627  3.1814e+001 -1.2348e+003  1.5177e+001 28351 105500,105552,105526
 3.0000e+000 105604 -5.9783e+000 -1.3292e+003  9.3120e+000 28351 105474,105552,105500
 3.0000e+000 106130 -5.7422e+002 -8.5518e+002 -3.4638e+002 28004 106153,105882,105856
 3.0000e+000 106107 -5.1560e+002 -1.2006e+003 -2.3451e+002 28004 106153,105856,105986
 3.0000e+000 106084 -1.0876e+003 -1.3652e+003  4.9764e+001 28004 105934,105986,105960
 3.0000e+000 106061 -8.4183e+002 -1.2818e+003 -8.6834e+001 28004 105856,106012,105986
 3.0000e+000 106038 -9.5424e+002 -1.3477e+003 -1.4554e+002 28004 105882,105934,105908
 3.0000e+000 106179 -8.6087e+002 -1.1435e+003 -1.8075e+002 28004 105934,105882,106153
 3.0000e+000 106202 -5.7753e+002 -1.3235e+003 -1.2153e+002 28004 105934,106153,105986
 3.0000e+000 106885 -8.3336e+002 -1.1580e+003 -4.1619e+001 27564 106908,106620,106516
 3.0000e+000 106862 -8.1428e+002 -1.1108e+003 -1.8269e+001 27564 106908,106516,106490
 3.0000e+000 106839 -8.1010e+002 -1.0993e+003 -1.4947e+002 27564 106516,106620,106542
 3.0000e+000 106816 -7.1137e+002 -7.5934e+002 -8.2477e+001 27564 106620,106672,106646
 3.0000e+000 106793 -6.1387e+002 -1.3040e+003 -2.8952e+002 27564 106542,106620,106594
 3.0000e+000 106770 -8.2727e+002 -9.9106e+002  6.8193e+001 27564 106490,106698,106672
 3.0000e+000 106747 -6.6739e+002 -1.2010e+003  2.3610e+002 27564 106464,106698,106490
 3.0000e+000 106724 -1.3377e+002 -1.0559e+003 -3.7936e+002 27564 106542,106594,106568
 3.0000e+000 106934 -8.6789e+002 -1.1142e+003 -5.3936e+001 27564 106672,106620,106908
 3.0000e+000 106957 -8.5405e+002 -1.0665e+003 -4.3704e+001 27564 106672,106908,106490
 3.0000e+000 107463 -6.2902e+002 -1.2107e+003 -1.6832e+001 27053 107218,107322,107296
 3.0000e+000 107440 -7.2468e+002 -1.4242e+003  3.3935e+001 27053 107166,107322,107218
 3.0000e+000 107417 -6.5233e+002 -1.3971e+003 -3.3086e+001 27053 107218,107296,107244
 3.0000e+000 107394 -6.8676e+002 -1.1687e+003  1.0641e+002 27053 107140,107322,107166
 3.0000e+000 107371 -6.7123e+002 -1.4383e+003  3.5519e+001 27053 107166,107218,107192
 3.0000e+000 107348 -6.4502e+002 -1.7761e+003 -1.8607e+002 27053 107244,107296,107270
 3.0000e+000 108097 -6.0734e+002 -1.4741e+003 -9.1768e+001 26549 108192,108120,107803
 3.0000e+000 108074 -5.4849e+002 -1.7169e+003  9.9734e+001 26549 108120,107725,107933
 3.0000e+000 108051 -1.5774e+002 -2.1020e+003  1.7328e+002 26549 107751,107803,107777
 3.0000e+000 108028 -5.9970e+002 -1.5717e+003 -1.1986e+002 26549 108192,107803,107751
 3.0000e+000 108005 -3.6888e+002 -1.0248e+003 -9.2601e+000 26549 108264,107855,107803
 3.0000e+000 107982 -1.6536e+002 -1.1554e+003 -5.8688e+001 26549 107881,107933,107907
 3.0000e+000 107959 -4.9933e+002 -1.0888e+003  1.0856e+001 26549 107803,107855,107829
 3.0000e+000 108146 -4.8384e+002 -1.1880e+003 -7.5356e+001 26549 108264,107803,108120
 3.0000e+000 108169 -4.2796e+002 -1.4149e+003  4.5589e+001 26549 107881,108120,107933
 3.0000e+000 108218 -5.8752e+002 -1.3740e+003 -1.8970e+001 26549 107725,108120,108192
 3.0000e+000 108241 -5.7105e+002 -1.4469e+003 -5.1750e+001 26549 107725,108192,107751
 3.0000e+000 108290 -2.3297e+002 -1.2379e+003 -5.4154e+001 26549 107881,107855,108264
 3.0000e+000 108313 -3.3079e+002 -1.4195e+003 -1.0244e+002 26549 107881,108264,108120
 3.0000e+000 108512 -4.2714e+002 -1.5560e+003 -1.0119e+002 26137 108388,108440,108414
 3.0000e+000 108489 -2.8657e+002 -1.3241e+003 -1.1323e+001 26137 108362,108440,108388
 3.0000e+000 108466 -3.8976e+002 -1.4127e+003 -4.8909e+001 26137 108336,108440,108362
 3.0000e+000 108662 -4.9367e+002 -1.3245e+003 -1.0448e+002 25733 108817,108685,108535
 3.0000e+000 108639 -3.6543e+002 -1.4377e+003 -2.2753e+001 25733 109017,108817,108535
 3.0000e+000 108711 -5.3639e+002 -1.2400e+003 -4.1038e+001 25733 108561,108535,108685
 3.0000e+000 108843 -3.5764e+002 -1.2989e+003 -3.4644e+001 25733 108587,108685,108817
 3.0000e+000 108866 -3.1754e+002 -1.2797e+003 -1.0307e+001 25733 108889,108817,108613
 3.0000e+000 108915 -3.2264e+002 -1.2624e+003 -5.0193e+001 25733 108587,108817,108889
 3.0000e+000 109043 -2.9792e+002 -1.1066e+003  1.2203e+001 25733 108613,108817,109017
 3.0000e+000 109500 -8.9641e+002 -1.5737e+003  1.4251e+002 25229 109523,109356,109330
 3.0000e+000 109477 -5.4343e+002 -1.2640e+003 -7.1057e+001 25229 109595,109523,109330
 3.0000e+000 109454 -5.1003e+002 -1.1708e+003 -1.5193e+002 25229 109595,109330,109278
 3.0000e+000 109431 -5.5521e+002 -1.2320e+003 -8.9046e+001 25229 109667,109226,109382
 3.0000e+000 109408 -5.5313e+002 -1.2825e+003 -2.1830e+002 25229 109278,109330,109304
 3.0000e+000 109549 -3.1124e+002 -1.3000e+003  5.8479e+001 25229 109382,109356,109523
 3.0000e+000 109572 -4.9803e+002 -1.3237e+003 -1.0307e+002 25229 109667,109382,109523
 3.0000e+000 109621 -5.7990e+002 -1.4339e+003 -9.8596e+001 25229 109252,109523,109595
 3.0000e+000 109644 -3.9093e+002 -1.2272e+003 -6.2733e+001 25229 109739,109595,109278
 3.0000e+000 109693 -6.9812e+002 -1.3869e+003 -2.5499e+001 25229 109252,109226,109667
 3.0000e+000 109716 -5.7767e+002 -1.4416e+003 -6.8482e+001 25229 109252,109667,109523
 3.0000e+000 109765 -6.7912e+002 -1.3359e+003 -5.8376e+001 25229 109252,109595,109739
 3.0000e+000 110478 -4.4921e+002 -1.1671e+003  1.4809e+002 24917 110158,110236,110184
 3.0000e+000 110455 -6.3894e+002 -1.2907e+003 -1.5940e+000 24917 110158,110288,110236
 3.0000e+000 110432 -4.1736e+002 -1.5171e+003  2.4166e+001 24917 110236,110288,110262
 3.0000e+000 110409 -4.1444e+002 -1.3284e+003  1.4740e+002 24917 110184,110236,110210
 3.0000e+000 110386 -7.9018e+002 -1.4267e+003 -9.2156e+001 24917 110132,110288,110158
 3.0000e+000 110363 -6.7932e+002 -1.3483e+003 -1.1577e+001 24917 110132,110314,110288
 3.0000e+000 110340 -7.7645e+002 -1.7115e+003  2.2708e+002 24917 110106,110314,110132
 3.0000e+000 110829 -2.7988e+002 -9.5486e+002 -4.6842e+001 24307 110604,110682,110630
 3.0000e+000 110806 -6.7131e+002 -1.7277e+003  1.0181e+002 24307 110604,110708,110682
 3.0000e+000 110783 -2.2916e+002 -1.5246e+003  4.2335e+001 24307 110604,110734,110708
 3.0000e+000 110760 -7.4686e+001 -8.6704e+002 -5.3881e+001 24307 110630,110682,110656
 3.0000e+000 111335 -4.0232e+002 -1.1123e+003 -1.6230e+002 23767 111012,111168,111038
 3.0000e+000 111312 -4.4903e+002 -1.2242e+003 -1.4829e+002 23767 111012,111194,111168
 3.0000e+000 111289 -7.4516e+002 -1.4153e+003  1.2427e+002 23767 111358,111064,111038
 3.0000e+000 111266 -5.4562e+002 -1.3176e+003 -4.2765e+001 23767 111358,111038,111168
 3.0000e+000 111243 -3.5326e+002 -1.2562e+003 -3.3189e+001 23767 111430,111142,111090
 3.0000e+000 111220  6.1886e-001 -1.1038e+003  1.3590e+001 23767 111090,111142,111116
 3.0000e+000 111384 -6.1765e+002 -1.3276e+003 -3.0494e+001 23767 111090,111064,111358
 3.0000e+000 111407 -6.2034e+002 -1.2741e+003 -6.0544e+001 23767 111430,111090,111358
 3.0000e+000 111456 -1.1234e+002 -1.3289e+003 -9.8310e+001 23767 111168,111142,111430
 3.0000e+000 111479 -2.6488e+002 -1.2626e+003 -1.0962e+002 23767 111168,111430,111358
 3.0000e+000 111985 -3.2417e+002 -9.3462e+002  1.3042e+002 23477 111688,111844,111818
 3.0000e+000 111962 -2.7458e+002 -9.3395e+002 -1.4552e+002 23477 111662,111844,111688
 3.0000e+000 111939 -2.6010e+002 -1.6908e+003  2.5673e+002 23477 111766,111818,111792
 3.0000e+000 111916 -6.7658e+002 -1.4906e+003  1.3602e+002 23477 111740,111818,111766
 3.0000e+000 111893 -3.8539e+002 -8.0774e+002  1.4686e+002 23477 111688,111818,111740
 3.0000e+000 111870 -6.5392e+002 -1.1379e+003  3.0946e+002 23477 111688,111740,111714
 3.0000e+000 112314 -5.1748e+002 -1.0143e+003 -1.3528e+001 23023 112141,112219,112193
 3.0000e+000 112291 -4.5846e+002 -9.6061e+002 -4.1898e+001 23023 112115,112219,112141
 3.0000e+000 112268 -4.5271e+002 -1.1662e+003  9.0664e+001 23023 112141,112193,112167
 3.0000e+000 112245 -4.8780e+002 -1.0932e+003 -5.1654e+001 23023 112089,112219,112115
 3.0000e+000 112692 -5.3435e+002 -1.3269e+003 -5.8046e+001 22768 112444,112574,112548
 3.0000e+000 112669 -4.1091e+002 -1.3818e+003 -1.1843e+001 22768 112418,112574,112444
 3.0000e+000 112646 -6.2998e+002 -1.4025e+003 -1.6748e+001 22768 112444,112522,112470
 3.0000e+000 112623 -4.9367e+002 -1.3133e+003 -6.6482e+001 22768 112444,112548,112522
 3.0000e+000 112600 -1.6503e+002 -1.1955e+003 -9.9803e+001 22768 112470,112522,112496
 3.0000e+000 113011 -2.7352e+002 -1.4153e+003 -1.1401e+002 22314 112763,112867,112789
 3.0000e+000 112988 -7.0352e+001 -1.4829e+003 -1.4250e+002 22314 112763,112893,112867
 3.0000e+000 112965 -2.6547e+002 -1.4275e+003  0.0000e+000 22314 112815,112867,112841
 3.0000e+000 112942 -3.4621e+002 -1.4665e+003 -6.0785e+001 22314 112789,112867,112815
 3.0000e+000 112919 -1.0124e+002 -1.1030e+003  3.3583e+002 22314 112737,112893,112763
 3.0000e+000 113519 -6.4220e+001 -1.0830e+003  2.6747e+002 21924 113614,113542,113248
 3.0000e+000 113496 -2.3218e+002 -1.0333e+003  8.5181e+001 21924 113542,113196,113378
 3.0000e+000 113473 -1.9090e+002 -1.1291e+003  2.8904e+002 21924 113614,113248,113222
 3.0000e+000 113450 -2.2131e+002 -1.5674e+003  9.7067e+001 21924 113686,113274,113248
 3.0000e+000 113427 -4.3927e+002 -1.6163e+003 -8.8520e+001 21924 113274,113352,113326
 3.0000e+000 113404 -7.7145e+002 -2.2501e+003 -2.1208e+002 21924 113274,113326,113300
 3.0000e+000 113568 -4.9800e+001 -1.3100e+003  1.8250e+002 21924 113686,113248,113542
 3.0000e+000 113591 -2.1317e+002 -9.7483e+002  1.0104e+002 21924 113352,113542,113378
 3.0000e+000 113640 -1.8988e+002 -1.0668e+003  2.1639e+002 21924 113196,113542,113614
 3.0000e+000 113663 -2.3128e+002 -1.0574e+003  2.1765e+002 21924 113196,113614,113222
 3.0000e+000 113712 -4.1145e+002 -1.2775e+003 -2.2567e+001 21924 113352,113274,113686
 3.0000e+000 113735 -3.2216e+002 -1.1402e+003  3.6102e+001 21924 113352,113686,113542
 3.0000e+000 113885 -8.6534e+002 -1.2207e+003 -1.3480e+001 21520 113980,113908,113784
 3.0000e+000 113862 -8.1482e+002 -1.2498e+003 -2.2976e+002 21520 114238,113908,113758
 3.0000e+000 113934 -6.2038e+002 -9.9794e+002  1.1966e+002 21520 114110,113908,113810
 3.0000e+000 113957 -5.1679e+002 -1.2133e+003 -1.4364e+002 21520 113810,113908,113836
 3.0000e+000 114006 -7.2162e+002 -1.0994e+003 -6.5470e+001 21520 113758,113908,113980
 3.0000e+000 114136 -8.5439e+002 -1.1914e+003  2.0800e+001 21520 113784,113908,114110
 3.0000e+000 114264 -9.7706e+002 -1.4134e+003 -2.9573e+002 21520 113836,113908,114238
 3.0000e+000 114662 -6.9372e+002 -1.7184e+003  2.0446e+000 21030 114414,114518,114492
 3.0000e+000 114639 -3.2572e+002 -1.3820e+003 -1.5090e+002 21030 114414,114544,114518
 3.0000e+000 114616 -8.0860e+002 -1.7664e+003 -6.1881e+000 21030 114440,114492,114466
 3.0000e+000 114593 -6.9320e+002 -1.7180e+003 -4.1187e-001 21030 114414,114492,114440
 3.0000e+000 114570 -5.2324e+002 -1.4176e+003 -2.2129e+001 21030 114388,114544,114414
 3.0000e+000 114959 -1.1206e+003 -1.7931e+003  1.3572e+002 20512 114982,114711,114685
 3.0000e+000 114936 -1.0375e+003 -1.7647e+003 -3.8573e+001 20512 115054,114982,114685
 3.0000e+000 114913 -8.6307e+002 -1.6520e+003 -1.0938e+002 20512 115054,114685,114841
 3.0000e+000 114890 -6.3388e+002 -1.6162e+003  5.1666e+001 20512 114711,114763,114737
 3.0000e+000 114867 -3.2033e+002 -1.4980e+003  2.5457e+001 20512 114763,114815,114789
 3.0000e+000 115008 -9.6163e+002 -1.7557e+003  8.7875e+001 20512 114763,114711,114982
 3.0000e+000 115031 -8.5204e+002 -1.6968e+003 -4.1910e+001 20512 114763,114982,114815
 3.0000e+000 115080 -9.3769e+002 -1.7856e+003  8.9491e+000 20512 114815,114982,115054
 3.0000e+000 115103 -9.2298e+002 -1.7925e+003  5.2296e+000 20512 114815,115054,114841
 3.0000e+000 115507 -8.2582e+002 -1.6001e+003 -6.3031e+001 20143 115285,115389,115363
 3.0000e+000 115484 -9.1941e+002 -1.7723e+003 -2.6594e+001 20143 115259,115389,115285
 3.0000e+000 115461 -8.3179e+002 -1.5611e+003 -9.5903e+000 20143 115233,115389,115259
 3.0000e+000 115438 -7.6130e+002 -1.8209e+003  5.7596e+001 20143 115285,115337,115311
 3.0000e+000 115415 -1.0830e+003 -2.1782e+003 -1.0984e+002 20143 115285,115363,115337
 3.0000e+000 115875 -6.1146e+002 -1.3652e+003 -7.6999e-001 19632 115656,115734,115682
 3.0000e+000 115852 -3.2202e+002 -1.2432e+003  1.4280e+002 19632 115552,115734,115656
 3.0000e+000 115829 -3.4343e+002 -1.2429e+003 -9.3879e+001 19632 115552,115656,115578
 3.0000e+000 115806 -5.9384e+002 -1.3875e+003  8.9636e+000 19632 115578,115656,115630
 3.0000e+000 115783 -6.6456e+002 -1.3121e+003  6.7688e+001 19632 115682,115734,115708
 3.0000e+000 115760 -7.1033e+002 -1.4136e+003 -1.2450e+002 19632 115578,115630,115604
 3.0000e+000 116025 -3.8064e+002 -1.4590e+003 -2.8201e+002 19178 115898,115950,115924
 3.0000e+000 116002 -4.9285e+002 -1.4736e+003 -1.6567e+002 19178 115898,115976,115950
 3.0000e+000 116633 -5.1880e+002 -1.3286e+003 -2.4267e+001 18738 116800,116656,116342
 3.0000e+000 116610 -5.4640e+002 -1.4050e+003  3.8131e+001 18738 116656,116238,116446
 3.0000e+000 116587 -6.2264e+002 -1.3661e+003 -7.3164e+001 18738 116728,116368,116342
 3.0000e+000 116564 -5.0295e+002 -1.2886e+003 -4.7189e+001 18738 116800,116342,116264
 3.0000e+000 116541 -5.4011e+002 -1.7712e+003  1.6060e+002 18738 116212,116446,116238
 3.0000e+000 116518 -1.4065e+002 -9.7734e+002  5.0640e+001 18738 116394,116446,116420
 3.0000e+000 116495  1.4473e+002 -1.0727e+003 -1.7503e+002 18738 116264,116342,116316
 3.0000e+000 116472 -2.8195e+002 -1.4450e+003  1.6051e+002 18738 116264,116316,116290
 3.0000e+000 116682 -6.0202e+002 -1.3392e+003  2.0795e+001 18738 116728,116342,116656
 3.0000e+000 116705 -5.3835e+002 -1.1467e+003  6.8193e+001 18738 116394,116656,116446
 3.0000e+000 116754 -7.7894e+002 -1.4267e+003 -1.2864e+002 18738 116394,116368,116728
 3.0000e+000 116777 -7.6884e+002 -1.3957e+003 -3.1641e+001 18738 116394,116728,116656
 3.0000e+000 116826 -4.9903e+002 -1.4088e+003  1.3244e+001 18738 116238,116656,116800
 3.0000e+000 116849 -4.6086e+002 -1.3558e+003 -1.6518e+001 18738 116238,116800,116264
 3.0000e+000 116999 -4.7631e+002 -1.5397e+003  7.1162e+001 18184 116872,116924,116898
 3.0000e+000 116976 -4.7442e+002 -8.2871e+002 -2.0304e+001 18184 116872,116950,116924
 3.0000e+000 117330 -7.6261e+001 -1.8445e+003  1.3241e+002 17694 117157,117235,117183
 3.0000e+000 117307 -6.0113e+002 -2.0940e+003  2.2951e+001 17694 117131,117235,117157
 3.0000e+000 117284 -4.1232e+002 -2.3608e+003 -1.2067e+002 17694 117105,117235,117131
 3.0000e+000 117261  3.0679e+002 -1.1343e+003 -5.3877e+001 17694 117183,117235,117209
 3.0000e+000 117480 -6.6918e+002 -1.5456e+003 -1.8386e+002 17290 117353,117405,117379
 3.0000e+000 117457 -3.2935e+002 -1.7306e+003 -1.9656e+002 17290 117353,117431,117405
 3.0000e+000 117679 -1.5726e+002 -1.2546e+003 -5.5165e+001 16718 117555,117607,117581
 3.0000e+000 117656 -6.0703e+002 -1.5559e+003  7.6508e+001 16718 117529,117607,117555
 3.0000e+000 117633  2.8780e+001 -1.4964e+003  5.8724e+001 16718 117503,117607,117529
 3.0000e+000 117782 -4.1161e+002 -1.3319e+003  3.4072e+001 16520 117704,117756,117730
 3.0000e+000 117983 -4.3495e+002 -1.8030e+003 -4.7045e+000 16208 117859,117911,117885
 3.0000e+000 117960 -3.5025e+002 -1.7459e+003 -3.2970e+001 16208 117833,117911,117859
 3.0000e+000 117937 -2.4111e+002 -1.5672e+003  4.7329e+001 16208 117807,117911,117833
 3.0000e+000 118135 -9.9233e+002 -1.5842e+003 -1.8223e+002 15674 118034,118086,118060
 3.0000e+000 118112 -5.0684e+002 -1.2408e+003  3.0724e+001 15674 118008,118086,118034
 3.0000e+000 118238 -1.0637e+002 -1.3573e+003  8.7687e+001 15355 118160,118212,118186
 3.0000e+000 118341 -8.2548e+002 -1.6065e+003  3.2145e+002 421 118263,118315,118289
 3.1000e+000 68152 -4.3257e+002 -1.2000e+003 -5.0395e+001 67838 68074,68126,68100
 3.1000e+000 68550 -3.1324e+002 -1.2449e+003  2.9723e+001 67526 68276,68380,68302
 3.1000e+000 68527 -4.2377e+001 -1.1929e+003  2.0355e+001 67526 68276,68406,68380
 3.1000e+000 68504 -3.0023e+002 -1.0971e+003  7.6947e+000 67526 68328,68380,68354
 3.1000e+000 68481 -2.5700e+002 -1.1137e+003  2.7702e+001 67526 68302,68380,68328
 3.1000e+000 68458 -1.2584e+002 -1.4037e+003 -2.7353e+001 67526 68276,68432,68406
 3.1000e+000 68651 -7.9249e+002 -1.2349e+003  1.5710e+002 67328 68573,68625,68599
 3.1000e+000 68970 -3.2735e+002 -1.1485e+003 -6.4874e+000 67016 68722,68800,68774
 3.1000e+000 68947 -3.4025e+002 -1.1711e+003 -1.2928e+001 67016 68722,68826,68800
 3.1000e+000 68924 -4.1310e+002 -1.1575e+003  2.4268e+000 67016 68696,68826,68722
 3.1000e+000 68901 -2.0056e+002 -1.2184e+003 -8.0097e+001 67016 68722,68774,68748
 3.1000e+000 68878 -5.4432e+002 -1.1082e+003 -1.7274e+002 67016 68696,68852,68826
 3.1000e+000 69291 -5.8786e+002 -1.2953e+003 -1.1041e+001 66654 69069,69147,69095
 3.1000e+000 69268 -4.2951e+002 -1.3729e+003  5.2790e+001 66654 69069,69173,69147
 3.1000e+000 69245 -5.1276e+002 -1.1381e+003  1.9306e+002 66654 69043,69173,69069
 3.1000e+000 69222 -7.4907e+002 -1.5022e+003  9.9735e+001 66654 69095,69147,69121
 3.1000e+000 69199 -7.6962e+002 -1.5100e+003  3.1919e+001 66654 69017,69173,69043
 3.1000e+000 69695 -4.2128e+002 -1.7039e+003  1.4760e+001 66456 69447,69577,69551
 3.1000e+000 69672 -1.3067e+002 -1.5086e+003 -7.0307e+001 66456 69421,69577,69447
 3.1000e+000 69649 -1.5716e+002 -1.1288e+003 -2.0017e+002 66456 69473,69551,69525
 3.1000e+000 69626 -3.6127e+002 -1.5918e+003 -2.5795e+001 66456 69447,69551,69473
 3.1000e+000 69603 -3.0067e+001 -1.0036e+003 -3.9105e+002 66456 69473,69525,69499
 3.1000e+000 70024 -5.3772e+002 -1.2245e+003 -2.3787e+001 66258 70047,69851,69825
 3.1000e+000 70001 -5.6401e+002 -1.2075e+003  4.0470e+001 66258 70047,69825,69903
 3.1000e+000 69978 -7.1588e+002 -1.4829e+003  1.2112e+002 66258 69799,69903,69825
 3.1000e+000 69955 -3.5117e+002 -1.8464e+003  3.6011e+002 66258 69799,69929,69903
 3.1000e+000 70073 -6.0847e+002 -1.2485e+003 -3.4305e+001 66258 69877,69851,70047
 3.1000e+000 70096 -6.4810e+002 -1.2332e+003  3.2408e+001 66258 69877,70047,69903
 3.1000e+000 70602  4.5586e-001 -9.4449e+002 -1.9103e+002 66060 70305,70435,70331
 3.1000e+000 70579 -6.3888e+002 -1.6049e+003  7.1014e+001 66060 70279,70435,70305
 3.1000e+000 70556 -7.3618e+002 -1.1690e+003 -2.5269e+002 66060 70331,70435,70409
 3.1000e+000 70533 -4.2096e+002 -1.2014e+003  2.1785e+002 66060 70279,70461,70435
 3.1000e+000 70510 -2.2776e+002 -9.0664e+002 -5.0068e+002 66060 70331,70409,70357
 3.1000e+000 70487 -7.3794e+000 -9.5728e+002 -9.4888e+001 66060 70357,70409,70383
 3.1000e+000 70703 -1.5869e+003 -2.3675e+003 -1.1821e+002 65862 70625,70677,70651
 3.1000e+000 71083 -3.2618e+002 -1.1090e+003  3.6544e+001 65664 70887,70965,70939
 3.1000e+000 71060 -2.8697e+002 -1.0771e+003  2.1762e+001 65664 70861,70965,70887
 3.1000e+000 71037 -3.2059e+002 -1.1272e+003  5.8656e+000 65664 70809,70965,70861
 3.1000e+000 71014 -3.1164e+002 -1.1489e+003 -1.8137e+001 65664 70809,70861,70835
 3.1000e+000 70991 -3.4019e+002 -1.1142e+003  6.4303e+001 65664 70887,70939,70913
 3.1000e+000 71611 -8.1837e+002 -1.8333e+003 -6.7677e+001 65260 71288,71444,71314
 3.1000e+000 71588 -4.4570e+002 -1.6567e+003 -4.5388e+000 65260 71288,71470,71444
 3.1000e+000 71565 -3.8361e+002 -1.2274e+003  1.3756e+002 65260 71314,71418,71392
 3.1000e+000 71542 -7.7345e+002 -1.6641e+003 -2.5912e+001 65260 71314,71444,71418
 3.1000e+000 71519 -7.0306e+002 -1.3260e+003  1.7269e+002 65260 71314,71392,71340
 3.1000e+000 71496 -5.4248e+002 -1.0277e+003  4.0388e+002 65260 71340,71392,71366
 3.1000e+000 72060 -5.8521e+002 -1.1278e+003 -5.1827e+001 64870 71737,71893,71789
 3.1000e+000 72037 -3.0782e+002 -1.0060e+003 -3.0429e+001 64870 71737,71919,71893
 3.1000e+000 72014 -6.1190e+002 -1.0341e+003  5.4197e+001 64870 71789,71841,71815
 3.1000e+000 71991 -4.9730e+002 -1.0725e+003  1.6923e+000 64870 71789,71893,71841
 3.1000e+000 71968 -5.6375e+002 -1.3420e+003 -1.8274e+002 64870 71737,71789,71763
 3.1000e+000 71945 -3.9430e+002 -1.1461e+003  0.0000e+000 64870 71841,71893,71867
 3.1000e+000 72517 -6.7089e+002 -9.8764e+002 -1.4625e+002 64466 72321,72399,72347
 3.1000e+000 72494 -6.5689e+002 -9.3683e+002 -1.3294e+002 64466 72269,72399,72321
 3.1000e+000 72471 -6.8903e+002 -1.1093e+003  5.0991e+000 64466 72347,72399,72373
 3.1000e+000 72448 -6.1256e+002 -1.0139e+003 -3.2917e+002 64466 72243,72399,72269
 3.1000e+000 72425 -7.5378e+002 -1.0982e+003 -6.9580e+001 64466 72269,72321,72295
 3.1000e+000 72944 -3.3921e+002 -8.5663e+002 -5.3876e+001 64062 73111,73039,72699
 3.1000e+000 72921 -2.5800e+002 -9.4614e+002 -1.0154e+002 64062 73183,72967,72647
 3.1000e+000 72898 -3.1822e+002 -9.7350e+002 -8.3901e+001 64062 72967,72803,72751
 3.1000e+000 72875 -3.1481e+002 -8.4654e+002 -6.6229e+001 64062 73111,72699,72673
 3.1000e+000 72852 -1.9810e+002 -1.0046e+003 -6.0453e+001 64062 73183,72647,72621
 3.1000e+000 72829 -2.1598e+002 -7.7199e+002 -2.5552e+002 64062 72751,72803,72777
 3.1000e+000 72993 -2.9070e+002 -8.8514e+002 -6.4237e+001 64062 73039,72647,72967
 3.1000e+000 73016 -4.4072e+002 -9.9585e+002 -7.5736e+001 64062 72725,72967,72751
 3.1000e+000 73065 -2.1768e+002 -1.0133e+003  2.4255e+002 64062 72725,72699,73039
 3.1000e+000 73088 -3.1371e+002 -9.6762e+002 -9.0725e+001 64062 72725,73039,72967
 3.1000e+000 73137 -2.8253e+002 -8.8094e+002 -5.9955e+001 64062 72647,73039,73111
 3.1000e+000 73160 -2.8157e+002 -8.7879e+002 -6.4899e+001 64062 72647,73111,72673
 3.1000e+000 73209 -3.3348e+002 -9.9839e+002 -7.7203e+001 64062 72803,72967,73183
 3.1000e+000 73232 -2.9007e+002 -1.0866e+003 -2.6007e+001 64062 72803,73183,72621
 3.1000e+000 73333 -1.3319e+003 -1.9714e+003  1.0445e+002 63814 73356,73281,73255
 3.1000e+000 73382 -1.1074e+003 -1.5351e+003  7.1750e+001 63814 73486,73356,73307
 3.1000e+000 73512 -1.2954e+003 -1.6141e+003 -4.5670e+001 63814 73281,73356,73486
 3.1000e+000 73839 -5.2647e+002 -1.2248e+003 -5.1709e+001 63616 73862,73692,73666
 3.1000e+000 73816 -4.7238e+002 -1.0981e+003 -4.5327e-001 63616 73934,73862,73666
 3.1000e+000 73793 -4.0456e+002 -1.1368e+003  6.8570e+001 63616 73934,73666,73640
 3.1000e+000 73770 -3.6172e+002 -1.2129e+003  1.0511e+002 63616 73614,73744,73640
 3.1000e+000 73888 -5.3888e+002 -1.1131e+003 -6.0354e+001 63616 73718,73692,73862
 3.1000e+000 73911 -5.6685e+002 -1.0685e+003  2.1428e+001 63616 73718,73862,73744
 3.1000e+000 73960 -6.0094e+002 -1.1587e+003  1.7598e+001 63616 73744,73862,73934
 3.1000e+000 73983 -5.4506e+002 -1.1988e+003  7.8917e+001 63616 73744,73934,73640
 3.1000e+000 74363 -3.4922e+002 -1.0028e+003 -2.2864e+001 63390 74386,74115,74089
 3.1000e+000 74340 -3.9751e+002 -9.6193e+002 -2.7588e+001 63390 74458,74386,74089
 3.1000e+000 74317 -3.4326e+002 -9.9363e+002  9.3735e+001 63390 74458,74089,74245
 3.1000e+000 74294 -4.3810e+002 -1.0921e+003 -9.2532e+000 63390 74530,74167,74141
 3.1000e+000 74271 -4.1271e+002 -9.6678e+002 -1.6432e+002 63390 74167,74219,74193
 3.1000e+000 74412 -3.3143e+002 -9.8520e+002 -1.2278e+001 63390 74141,74115,74386
 3.1000e+000 74435 -3.7775e+002 -1.0332e+003  2.3242e+001 63390 74530,74141,74386
 3.1000e+000 74484 -3.0370e+002 -7.9861e+002  3.2807e+001 63390 74219,74386,74458
 3.1000e+000 74507 -2.0645e+002 -7.8708e+002  1.6392e+002 63390 74219,74458,74245
 3.1000e+000 74556 -5.4185e+002 -1.0390e+003 -8.2475e+001 63390 74219,74167,74530
 3.1000e+000 74579 -4.7748e+002 -9.6290e+002 -4.5330e+001 63390 74219,74530,74386
 3.1000e+000 74680 -6.5332e+002 -9.6400e+002  9.8440e+001 63100 75089,74833,74703
 3.1000e+000 74729 -7.1473e+002 -1.0713e+003  8.5304e+001 63100 74961,74703,74654
 3.1000e+000 74859 -4.7924e+002 -7.9052e+002  1.7372e+002 63100 74602,74703,74833
 3.1000e+000 74987 -6.8551e+002 -1.0036e+003  8.3038e+001 63100 75089,74703,74961
 3.1000e+000 75115 -5.7465e+002 -1.0260e+003  1.4794e+002 63100 74628,74833,75089
 3.1000e+000 75138 -6.0644e+002 -1.0656e+003  1.3272e+002 63100 74628,75089,74961
 3.1000e+000 75723 -6.6543e+002 -8.0919e+002  8.2641e+001 62532 75746,75504,75426
 3.1000e+000 75700 -7.6112e+002 -5.5854e+002  1.2210e+002 62532 75746,75426,75556
 3.1000e+000 75677 -5.5749e+002 -2.8688e+002 -4.8767e+002 62532 75426,75504,75452
 3.1000e+000 75654 -7.4849e+002 -3.4328e+002 -1.6389e+002 62532 75400,75556,75426
 3.1000e+000 75631 -9.3366e+002 -1.0841e+003 -4.0769e+002 62532 75400,75582,75556
 3.1000e+000 75608 -2.1886e+002 -5.7392e+002 -3.5545e+002 62532 75452,75504,75478
 3.1000e+000 75772 -7.1042e+002 -1.0278e+003  2.7537e+001 62532 75530,75504,75746
 3.1000e+000 75795 -8.2122e+002 -7.6707e+002  4.1908e+001 62532 75530,75746,75556
 3.1000e+000 76301 -4.7562e+002 -9.1192e+002 -6.4832e+001 62192 76324,76082,76030
 3.1000e+000 76278 -4.0367e+002 -8.6882e+002 -4.4880e+001 62192 76324,76030,76004
 3.1000e+000 76255 -4.2988e+002 -9.2832e+002  7.9580e+001 62192 76030,76082,76056
 3.1000e+000 76232 -6.3320e+002 -1.0883e+003 -1.4106e+002 62192 76082,76134,76108
 3.1000e+000 76209 -4.2448e+002 -7.8803e+002 -1.1584e+002 62192 76004,76160,76134
 3.1000e+000 76186 -2.8390e+002 -8.6932e+002 -6.1729e+001 62192 75978,76160,76004
 3.1000e+000 76350 -5.6576e+002 -8.4345e+002 -6.5030e+001 62192 76134,76082,76324
 3.1000e+000 76373 -4.9749e+002 -7.9279e+002 -3.8257e+001 62192 76134,76324,76004
 3.1000e+000 76879 -6.7975e+002 -8.1171e+002 -6.5965e+001 61788 76902,76660,76582
 3.1000e+000 76856 -5.9690e+002 -8.7168e+002 -1.0452e+002 61788 76902,76582,76556
 3.1000e+000 76833 -1.2240e+003 -1.0062e+003 -9.8783e+001 61788 76582,76660,76634
 3.1000e+000 76810 -8.0512e+002 -1.1901e+003 -8.0920e+001 61788 76582,76634,76608
 3.1000e+000 76787 -5.8004e+002 -9.5521e+002  1.4866e+001 61788 76556,76738,76686
 3.1000e+000 76764 -3.0157e+002 -7.3458e+002 -8.2786e+001 61788 76686,76738,76712
 3.1000e+000 76928 -6.9436e+002 -8.6193e+002 -5.1602e+001 61788 76686,76660,76902
 3.1000e+000 76951 -6.3897e+002 -9.5450e+002 -7.8144e+001 61788 76686,76902,76556
 3.1000e+000 77408 -6.0587e+002 -8.4343e+002  8.8686e+000 61498 77212,77264,77238
 3.1000e+000 77385 -5.1359e+002 -6.8261e+002  7.8171e+001 61498 77160,77264,77212
 3.1000e+000 77362 -5.1448e+002 -6.9852e+002  6.9490e+001 61498 77160,77290,77264
 3.1000e+000 77339 -3.1980e+002 -8.5473e+002  1.1130e+002 61498 77160,77212,77186
 3.1000e+000 77316 -3.8427e+002 -5.3392e+002  2.4347e+002 61498 77134,77290,77160
 3.1000e+000 77678 -3.2114e+002 -8.1827e+002 -2.3257e+001 61129 77479,77557,77505
 3.1000e+000 77655 -3.7515e+002 -9.1933e+002 -5.9957e-001 61129 77479,77583,77557
 3.1000e+000 77632 -2.8439e+002 -9.6345e+002  5.0170e+001 61129 77453,77583,77479
 3.1000e+000 77609 -1.6721e+002 -7.8482e+002 -4.5003e+001 61129 77505,77557,77531
 3.1000e+000 77828 -3.3318e+002 -1.0018e+003  4.1205e+001 60931 77851,77727,77701
 3.1000e+000 77805 -3.6951e+002 -1.1037e+003  9.1131e+001 60931 77851,77701,77779
 3.1000e+000 77877 -5.6217e+002 -1.2586e+003  2.0007e+002 60931 77923,77851,77753
 3.1000e+000 77900 -2.3856e+002 -1.1075e+003  1.2630e+002 60931 77753,77851,77779
 3.1000e+000 77949 -3.0772e+002 -7.7134e+002  8.9968e+001 60931 77727,77851,77923
 3.1000e+000 78133 -2.6743e+002 -6.6725e+002 -5.7924e+001 60377 78055,78107,78081
 3.1000e+000 78535 -9.8732e+002 -1.3245e+003 -5.7085e+001 60015 78287,78391,78313
 3.1000e+000 78512 -6.4366e+002 -1.3152e+003 -1.0647e+002 60015 78287,78417,78391
 3.1000e+000 78489 -7.1753e+002 -1.4379e+003 -2.1725e+002 60015 78261,78417,78287
 3.1000e+000 78466 -5.0948e+002 -1.2569e+003  1.2587e+002 60015 78339,78391,78365
 3.1000e+000 78443 -5.3411e+002 -1.1043e+003  2.8216e+001 60015 78313,78391,78339
 3.1000e+000 78913 -4.3393e+002 -7.4085e+002 -4.1265e+000 59725 78936,78743,78691
 3.1000e+000 78890 -5.0783e+002 -7.8556e+002 -3.1670e+001 59725 79008,78936,78691
 3.1000e+000 78867 -4.9450e+002 -7.3838e+002 -5.6523e+001 59725 79008,78691,78665
 3.1000e+000 78844 -2.8690e+002 -7.5469e+002  1.3832e+002 59725 78691,78743,78717
 3.1000e+000 78821 -2.5390e+002 -6.3697e+002 -3.4601e+002 59725 78639,78795,78769
 3.1000e+000 78962 -3.1397e+002 -7.9273e+002 -7.7105e+001 59725 78769,78743,78936
 3.1000e+000 78985 -5.1430e+002 -9.8793e+002 -1.5646e+002 59725 78769,78936,78639
 3.1000e+000 79034 -4.4768e+002 -7.5476e+002 -6.0171e+001 59725 78639,78936,79008
 3.1000e+000 79057 -4.7031e+002 -7.4447e+002 -8.0243e+001 59725 78639,79008,78665
 3.1000e+000 79386 -4.7067e+002 -1.1403e+003  8.3676e+001 59221 79187,79239,79213
 3.1000e+000 79363 -3.8072e+002 -1.0105e+003  3.0636e+001 59221 79187,79265,79239
 3.1000e+000 79340 -5.3584e+002 -1.0703e+003  3.1748e+001 59221 79187,79291,79265
 3.1000e+000 79317 -3.6554e+002 -6.8747e+002 -4.5731e+001 59221 79161,79291,79187
 3.1000e+000 79813 -3.6345e+002 -6.4268e+002 -1.2488e+001 58831 79836,79542,79516
 3.1000e+000 79790 -2.8419e+002 -6.4769e+002  2.3355e+001 58831 79980,79836,79516
 3.1000e+000 79767 -3.4442e+002 -6.3505e+002 -1.2696e+002 58831 79908,79646,79568
 3.1000e+000 79744 -2.8668e+002 -6.4622e+002  2.5012e+001 58831 79980,79516,79490
 3.1000e+000 79721 -8.7809e+002 -6.2781e+002 -7.1986e+001 58831 79568,79646,79594
 3.1000e+000 79698 -3.9061e+002 -1.1725e+002  2.0913e+002 58831 79594,79646,79620
 3.1000e+000 79862 -2.7484e+002 -4.8798e+002  5.7924e+001 58831 79568,79542,79836
 3.1000e+000 79885 -2.0355e+002 -5.9632e+002  7.8394e+000 58831 79908,79568,79836
 3.1000e+000 79934 -4.5033e+002 -6.6094e+002 -1.6265e+002 58831 79672,79646,79908
 3.1000e+000 79957 -4.5067e+002 -6.8922e+002 -2.1829e+001 58831 79672,79908,79836
 3.1000e+000 80006 -2.8230e+002 -6.4500e+002  2.2521e+001 58831 79672,79836,79980
 3.1000e+000 80029 -2.8483e+002 -6.4459e+002  2.4358e+001 58831 79672,79980,79490
 3.1000e+000 80358 -3.9350e+002 -1.0186e+003  2.7411e+000 58377 80381,80185,80159
 3.1000e+000 80335 -4.0245e+002 -1.0117e+003  5.6288e+000 58377 80381,80159,80133
 3.1000e+000 80312 -2.5006e+002 -9.2167e+002 -3.3477e+001 58377 80133,80263,80237
 3.1000e+000 80289 -4.3161e+002 -1.1526e+003  9.1287e+001 58377 80185,80237,80211
 3.1000e+000 80407 -3.8388e+002 -1.0121e+003 -4.0635e-001 58377 80237,80185,80381
 3.1000e+000 80430 -3.9735e+002 -1.0091e+003  3.6408e+000 58377 80237,80381,80133
 3.1000e+000 80759 -2.8715e+002 -9.7227e+002  2.0419e+002 57873 80782,80586,80560
 3.1000e+000 80736 -4.4665e+002 -1.1353e+003  1.3637e+002 57873 80782,80560,80534
 3.1000e+000 80713 -4.3772e+002 -1.2039e+003  9.5892e+001 57873 80586,80638,80612
 3.1000e+000 80690 -1.7495e+002 -1.0933e+003  9.5462e+001 57873 80534,80664,80638
 3.1000e+000 80808 -3.6197e+002 -1.1183e+003  1.2776e+002 57873 80638,80586,80782
 3.1000e+000 80831 -3.8375e+002 -1.1653e+003  9.5299e+001 57873 80638,80782,80534
 3.1000e+000 81337 -3.6392e+002 -7.3879e+002 -8.3000e+001 57262 81360,81144,81092
 3.1000e+000 81314 -4.1213e+002 -8.6619e+002 -1.0751e+002 57262 81360,81092,81066
 3.1000e+000 81291 -3.9813e+002 -8.8623e+002 -1.8317e+001 57262 81014,81196,81066
 3.1000e+000 81268 -3.1077e+002 -5.2422e+002 -6.2676e+001 57262 81092,81144,81118
 3.1000e+000 81245 -3.2292e+002 -5.9089e+002 -8.9765e+000 57262 81144,81196,81170
 3.1000e+000 81222 -4.2562e+002 -9.6364e+002  6.8579e+001 57262 81014,81066,81040
 3.1000e+000 81386 -3.7113e+002 -6.2141e+002  4.3204e+000 57262 81196,81144,81360
 3.1000e+000 81409 -4.3086e+002 -7.5795e+002 -2.4796e+001 57262 81196,81360,81066
 3.1000e+000 81608 -2.6052e+002 -8.4074e+002  3.4106e+001 57007 81458,81536,81510
 3.1000e+000 81585 -3.0392e+002 -8.9052e+002  1.1550e+001 57007 81432,81536,81458
 3.1000e+000 81562 -6.4391e+002 -7.9054e+002  1.9194e+002 57007 81458,81510,81484
 3.1000e+000 82086 -8.2834e+002 -1.1494e+003  5.9096e+001 56339 81792,81922,81818
 3.1000e+000 82063 -1.0405e+003 -1.2156e+003  4.1707e+001 56339 81714,81922,81792
 3.1000e+000 82040 -7.4864e+002 -1.0156e+003 -1.0906e+002 56339 82109,81844,81818
 3.1000e+000 82017 -7.6919e+002 -1.0777e+003 -1.2195e+002 56339 82109,81818,81922
 3.1000e+000 81994 -6.2714e+002 -1.2614e+003 -1.5011e+002 56339 81844,81896,81870
 3.1000e+000 81971 -6.1576e+002 -2.4296e+002  1.4802e+002 56339 81714,81792,81766
 3.1000e+000 81948 -3.7972e+002 -1.9669e+002  2.7020e+002 56339 81714,81766,81740
 3.1000e+000 82135 -6.6365e+002 -1.0698e+003 -6.7309e+001 56339 81896,81844,82109
 3.1000e+000 82158 -7.2364e+002 -1.1847e+003 -9.6803e+001 56339 81896,82109,81922
 3.1000e+000 82536 -5.2105e+002 -1.0805e+003 -3.6328e+001 55699 82288,82392,82314
 3.1000e+000 82513 -5.2036e+002 -1.0882e+003 -5.8863e+001 55699 82288,82418,82392
 3.1000e+000 82490 -6.1464e+002 -1.3544e+003 -7.2965e+001 55699 82314,82392,82340
 3.1000e+000 82467 -2.1179e+002 -1.6903e+003 -1.6092e+002 55699 82340,82392,82366
 3.1000e+000 82444 -4.6411e+002 -1.1531e+003 -6.2771e+001 55699 82262,82418,82288
 3.1000e+000 83091 -1.1143e+003 -1.1039e+003  1.9967e+002 55409 82745,82901,82875
 3.1000e+000 83068 -1.0231e+003 -1.0189e+003  2.3756e+002 55409 82719,82901,82745
 3.1000e+000 83045 -6.4155e+002 -1.0168e+003  1.9383e+002 55409 82771,82849,82823
 3.1000e+000 83022 -1.1652e+003 -1.1716e+003  3.2443e+002 55409 82745,82849,82771
 3.1000e+000 82999 -7.3699e+002 -9.4221e+002  2.0102e+002 55409 82745,82875,82849
 3.1000e+000 82976 -1.0399e+003 -9.0941e+002  2.4360e+002 55409 82771,82823,82797
 3.1000e+000 82953 -7.3509e+002 -1.3702e+003  3.8503e+002 55409 82719,82927,82901
 3.1000e+000 83388 -4.9334e+002 -1.2904e+003 -4.9370e+001 54905 83411,83218,83166
 3.1000e+000 83365 -3.2356e+002 -1.2434e+003 -3.7267e+001 54905 83411,83166,83114
 3.1000e+000 83342 -6.0652e+002 -1.2666e+003 -7.7634e+001 54905 83483,83270,83244
 3.1000e+000 83319 -5.7797e+002 -1.2538e+003 -8.6960e+001 54905 83166,83218,83192
 3.1000e+000 83296 -3.1948e+002 -1.3108e+003  4.1133e+001 54905 83114,83166,83140
 3.1000e+000 83437 -5.4179e+002 -1.2517e+003  3.1037e+000 54905 83244,83218,83411
 3.1000e+000 83460 -5.1127e+002 -1.2684e+003 -3.3327e+001 54905 83483,83244,83411
 3.1000e+000 83509 -4.8631e+002 -1.1698e+003 -3.5102e+001 54905 83114,83270,83483
 3.1000e+000 83532 -4.5249e+002 -1.2080e+003 -1.1892e+000 54905 83114,83483,83411
 3.1000e+000 83961 -2.8371e+002 -9.2471e+002  5.5144e+001 54593 83638,83768,83690
 3.1000e+000 83938 -5.2479e+001 -1.0034e+003  1.8586e+002 54593 83638,83794,83768
 3.1000e+000 83915 -2.7330e+002 -9.5586e+002  3.2380e+001 54593 83690,83768,83742
 3.1000e+000 83892 -1.8455e+002 -7.5721e+002 -1.6790e+002 54593 83638,83820,83794
 3.1000e+000 83869 -2.5725e+002 -7.5752e+002  7.0216e+000 54593 83638,83690,83664
 3.1000e+000 83846 -1.7917e+002 -6.5377e+002 -2.1443e+002 54593 83690,83742,83716
 3.1000e+000 84209 -5.1726e+002 -1.5058e+003  1.7431e+002 54132 84232,84062,83984
 3.1000e+000 84186 -5.0893e+002 -1.2514e+003  1.0249e+002 54132 84232,83984,84114
 3.1000e+000 84163 -5.6498e+002 -1.6274e+003  4.1003e+001 54132 83984,84062,84036
 3.1000e+000 84140 -5.7808e+002 -1.4927e+003  1.2016e+001 54132 83984,84036,84010
 3.1000e+000 84258 -3.6779e+002 -1.8027e+003  1.3322e+002 54132 84088,84062,84232
 3.1000e+000 84281 -3.2409e+002 -1.5195e+003  1.3193e+001 54132 84088,84232,84114
 3.1000e+000 84382 -2.3471e+002 -7.1335e+002 -1.3619e+001 53521 84304,84356,84330
 3.1000e+000 84632 -4.8522e+002 -1.2160e+003  3.1728e+001 53067 84655,84485,84459
 3.1000e+000 84609 -5.2260e+002 -1.1868e+003  2.2491e+001 53067 84655,84459,84407
 3.1000e+000 84586 -4.3139e+002 -1.1373e+003 -2.1225e+000 53067 84485,84537,84511
 3.1000e+000 84563 -5.5117e+002 -1.2832e+003 -9.2335e+000 53067 84407,84459,84433
 3.1000e+000 84681 -4.7549e+002 -1.1944e+003  2.3860e+001 53067 84537,84485,84655
 3.1000e+000 84704 -4.8576e+002 -1.1465e+003  5.1357e+000 53067 84537,84655,84407
 3.1000e+000 85214 -2.7157e+002 -1.0727e+003 -2.1987e+002 52513 85021,85073,85047
 3.1000e+000 85191 -3.2821e+002 -8.2877e+002 -2.5139e+002 52513 84943,85073,85021
 3.1000e+000 85168 -2.2104e+002 -7.4489e+002 -5.8112e+001 52513 84943,85021,84995
 3.1000e+000 85145 -5.7834e+002 -1.4955e+003 -2.1310e+002 52513 84917,85073,84943
 3.1000e+000 85122 -2.2989e+002 -7.1031e+002 -6.7704e+001 52513 84943,84995,84969
 3.1000e+000 85099 -9.1380e+002 -1.3219e+003 -1.1747e+002 52513 84891,85073,84917
 3.1000e+000 85582 -4.8011e+002 -1.1847e+003  1.1319e+002 52037 85605,85311,85285
 3.1000e+000 85559 -5.0603e+002 -1.2556e+003  1.1555e+002 52037 85749,85605,85285
 3.1000e+000 85536 -1.7985e+002 -1.1516e+003  1.7735e+001 52037 85893,85677,85389
 3.1000e+000 85513 -3.6727e+002 -1.1447e+003  6.6378e+001 52037 85749,85285,85259
 3.1000e+000 85490  2.7889e+000 -1.0804e+003 -8.7925e+001 52037 85893,85389,85363
 3.1000e+000 85467 -2.8771e+002 -1.2294e+003 -6.4678e+001 52037 85259,85441,85415
 3.1000e+000 85631 -7.2136e+002 -1.3252e+003  4.8409e+001 52037 85337,85311,85605
 3.1000e+000 85654 -5.2894e+002 -1.2977e+003  2.1807e+002 52037 85677,85337,85605
 3.1000e+000 85703 -1.2193e+002 -1.2681e+003  7.1246e+001 52037 85415,85389,85677
 3.1000e+000 85726 -1.8989e+002 -1.2161e+003  1.6229e+002 52037 85821,85677,85605
 3.1000e+000 85775 -3.1005e+002 -1.2674e+003  1.5843e+002 52037 85821,85605,85749
 3.1000e+000 85798 -3.9204e+002 -1.2821e+003  5.8098e+001 52037 85415,85749,85259
 3.1000e+000 85847 -2.1961e+002 -1.2442e+003  6.8475e+001 52037 85415,85677,85821
 3.1000e+000 85870 -2.6620e+002 -1.2635e+003  6.7760e+001 52037 85415,85821,85749
 3.1000e+000 85919 -1.7249e+002 -1.2907e+003  2.0880e+002 52037 85337,85677,85893
 3.1000e+000 85942 -9.1952e+001 -1.2721e+003  1.0879e+002 52037 85337,85893,85363
 3.1000e+000 86224 -1.5690e+002 -3.9487e+002  1.6029e+002 51368 86375,86100,86074
 3.1000e+000 86201 -3.8097e+002 -5.3898e+002  7.9656e+001 51368 86375,86074,86247
 3.1000e+000 86178 -1.2905e+002 -1.1748e+003 -2.3497e+002 51368 86048,86152,86126
 3.1000e+000 86273 -3.9243e+002 -7.9165e+002 -2.0980e+002 51368 86048,86126,86247
 3.1000e+000 86401 -1.8254e+001 -6.0501e+002  2.9996e+001 51368 86126,86100,86375
 3.1000e+000 86424 -1.3369e+002 -7.2732e+002 -2.6264e+001 51368 86126,86375,86247
 3.1000e+000 86802 -5.7439e+002 -1.1128e+003  3.4807e+001 51028 86528,86632,86580
 3.1000e+000 86779 -6.1232e+002 -1.2949e+003  8.6712e+001 51028 86528,86684,86632
 3.1000e+000 86756 -7.0814e+002 -1.4262e+003 -2.4660e+001 51028 86528,86580,86554
 3.1000e+000 86733 -4.2506e+002 -1.1994e+003  2.8680e+002 51028 86632,86684,86658
 3.1000e+000 86710 -6.2105e+002 -1.3304e+003 -1.4541e+002 51028 86580,86632,86606
 3.1000e+000 87131 -5.2521e+002 -1.0361e+003  2.1369e+002 50624 86958,87036,87010
 3.1000e+000 87108 -6.2010e+002 -1.0385e+003  1.8082e+002 50624 86932,87036,86958
 3.1000e+000 87085 -4.4945e+002 -9.9402e+002  1.0211e+002 50624 86958,87010,86984
 3.1000e+000 87062 -4.4894e+002 -9.4704e+002  2.1793e+002 50624 86906,87036,86932
 3.1000e+000 87330 -7.9658e+002 -1.2921e+003  2.0045e+001 50234 87353,87180,87154
 3.1000e+000 87307 -7.1930e+002 -1.2751e+003  1.8055e+001 50234 87353,87154,87258
 3.1000e+000 87284 -5.5622e+002 -1.2188e+003 -1.1701e+001 50234 87206,87258,87232
 3.1000e+000 87379 -7.3226e+002 -1.3588e+003  7.2544e+001 50234 87206,87180,87353
 3.1000e+000 87402 -6.0905e+002 -1.3125e+003  5.2815e+001 50234 87206,87353,87258
 3.1000e+000 87650 -5.9709e+002 -1.2794e+003 -7.2131e+001 49730 87673,87503,87451
 3.1000e+000 87627 -3.9016e+002 -1.1865e+003 -5.0319e+001 49730 87673,87451,87425
 3.1000e+000 87604 -3.8608e+002 -9.7416e+002  1.2160e+002 49730 87503,87555,87529
 3.1000e+000 87581 -7.1259e+002 -1.0747e+003 -9.9153e+001 49730 87451,87503,87477
 3.1000e+000 87699 -6.2348e+002 -1.2084e+003 -1.7027e+001 49730 87555,87503,87673
 3.1000e+000 87722 -5.8007e+002 -1.1918e+003 -1.0898e+001 49730 87555,87673,87425
 3.1000e+000 88232 -5.1210e+002 -1.1399e+003  1.0295e+002 49176 88255,87935,87909
 3.1000e+000 88209 -6.6082e+002 -1.2621e+003  2.7090e+002 49176 88255,87909,88065
 3.1000e+000 88186 -6.3431e+002 -1.0875e+003  1.9442e+002 49176 87935,88039,87961
 3.1000e+000 88163 -5.6244e+002 -1.1700e+003  2.3096e+002 49176 87909,88091,88065
 3.1000e+000 88140 -8.6119e+002 -1.1896e+003  1.6417e+002 49176 87961,88039,88013
 3.1000e+000 88117 -7.7395e+002 -1.5694e+003 -5.2182e+001 49176 87961,88013,87987
 3.1000e+000 88281 -6.8730e+002 -1.2006e+003  2.4364e+002 49176 88039,87935,88255
 3.1000e+000 88304 -8.4392e+002 -1.3218e+003  4.1177e+002 49176 88039,88255,88065
 3.1000e+000 88503 -1.8977e+002 -8.1007e+002 -4.2391e+000 48772 88526,88379,88353
 3.1000e+000 88480 -2.2297e+002 -6.5070e+002  2.7059e+001 48772 88526,88353,88327
 3.1000e+000 88457 -2.3611e+002 -8.9864e+002 -6.0519e+000 48772 88379,88431,88405
 3.1000e+000 88552 -1.5640e+002 -6.8222e+002 -2.3185e+001 48772 88431,88379,88526
 3.1000e+000 88575 -2.2842e+002 -5.8285e+002 -9.2285e+000 48772 88431,88526,88327
 3.1000e+000 89083 -2.4604e+002 -5.3624e+002 -1.4035e+002 48368 88786,88916,88864
 3.1000e+000 89060 -2.2237e+002 -6.3761e+002 -6.2681e+001 48368 88786,88942,88916
 3.1000e+000 89037 -3.0702e+002 -4.0837e+002 -1.1267e+001 48368 88786,88864,88812
 3.1000e+000 89014 -3.1726e+002 -7.4784e+002 -2.0780e+002 48368 88864,88916,88890
 3.1000e+000 88991 -8.9587e+001 -7.9595e+002  2.9230e+002 48368 88812,88864,88838
 3.1000e+000 88968 -3.4153e+001 -5.0057e+002  3.3212e+001 48368 88760,88942,88786
 3.1000e+000 89331 -4.3701e+002 -1.2639e+003  6.7481e+001 47928 89158,89236,89210
 3.1000e+000 89308 -3.1254e+002 -8.1804e+002  1.4958e+002 47928 89132,89236,89158
 3.1000e+000 89285 -5.6525e+002 -8.0891e+002  5.5374e+001 47928 89158,89210,89184
 3.1000e+000 89262 -5.5966e+002 -1.0559e+003  5.3132e+001 47928 89106,89236,89132
 3.1000e+000 89662 -6.2654e+002 -1.2502e+003 -4.1233e+000 47588 89463,89541,89515
 3.1000e+000 89639 -4.4406e+002 -1.0133e+003 -9.1498e+001 47588 89463,89567,89541
 3.1000e+000 89616 -5.1235e+002 -1.1195e+003  8.1845e+001 47588 89463,89515,89489
 3.1000e+000 89593 -6.1971e+002 -1.0444e+003 -1.1287e+002 47588 89437,89567,89463
 3.1000e+000 89763 -2.3690e-001 -1.0429e+002  2.8823e+001 47390 89685,89737,89711
 3.1000e+000 89913 -9.7671e+001 -5.8990e+002 -3.9217e+001 47078 89786,89838,89812
 3.1000e+000 89890 -2.3936e+002 -1.0404e+003  1.2237e+002 47078 89786,89864,89838
 3.1000e+000 90163 -5.5380e+002 -1.0868e+003  6.8240e+001 46474 89964,90042,89990
 3.1000e+000 90140 -4.8465e+002 -1.0555e+003  5.3536e+001 46474 89938,90042,89964
 3.1000e+000 90117 -6.0911e+002 -1.0471e+003  6.6453e+001 46474 89990,90042,90016
 3.1000e+000 90094 -6.1175e+002 -1.1094e+003  8.7947e+001 46474 89938,90068,90042
 3.1000e+000 90364 -5.7666e+002 -1.1045e+003  1.4133e+002 46184 90240,90292,90266
 3.1000e+000 90341 -7.7008e+002 -1.0841e+003  1.6258e+002 46184 90188,90292,90240
 3.1000e+000 90318 -5.4169e+002 -1.1108e+003  2.5544e+002 46184 90188,90240,90214
 3.1000e+000 90565 -5.5910e+002 -8.8294e+002 -2.8896e+001 45780 90588,90415,90389
 3.1000e+000 90542 -4.7012e+002 -8.8637e+002 -1.2529e+001 45780 90588,90389,90493
 3.1000e+000 90519 -5.4198e+002 -1.0182e+003 -2.0077e+001 45780 90415,90467,90441
 3.1000e+000 90614 -4.9709e+002 -9.0340e+002  2.8826e+001 45780 90467,90415,90588
 3.1000e+000 90637 -3.8225e+002 -8.6876e+002  5.8267e+001 45780 90467,90588,90493
 3.1000e+000 91196 -7.4232e+002 -1.2466e+003 -9.9497e+001 45226 91219,90876,90850
 3.1000e+000 91173 -4.2195e+002 -1.1592e+003  5.4873e+001 45226 91219,90850,91032
 3.1000e+000 91150 -3.2341e+002 -1.3347e+003 -9.9118e+001 45226 90824,91032,90850
 3.1000e+000 91127 -5.9292e+002 -9.6560e+002  4.4882e+001 45226 90876,90980,90902
 3.1000e+000 91104 -3.1715e+002 -9.4595e+002  1.3867e+002 45226 90876,91006,90980
 3.1000e+000 91081 -5.1768e+002 -1.0719e+003 -1.0352e+002 45226 90902,90980,90954
 3.1000e+000 91058 -2.8892e+002 -9.0638e+002 -1.8811e+002 45226 90902,90954,90928
 3.1000e+000 91245 -4.4178e+002 -1.1360e+003  4.2472e+000 45226 91006,90876,91219
 3.1000e+000 91268 -1.5878e+002 -1.1091e+003  1.3525e+002 45226 91006,91219,91032
 3.1000e+000 91516 -2.1101e+002 -1.5659e+003  1.5624e+002 44836 91539,91421,91395
 3.1000e+000 91493 -2.3205e+002 -1.7216e+003 -1.4509e+001 44836 91317,91421,91343
 3.1000e+000 91470 -4.2984e+002 -1.4793e+003  9.5033e+001 44836 91539,91395,91369
 3.1000e+000 91447 -4.0003e+002 -1.1464e+003  3.1523e+002 44836 91291,91421,91317
 3.1000e+000 91565 -3.1155e+002 -1.5944e+003  4.5333e+001 44836 91343,91421,91539
 3.1000e+000 91588 -5.0826e+002 -1.6019e+003 -5.5662e+001 44836 91343,91539,91369
 3.1000e+000 91787 -4.0415e+002 -9.8431e+002  5.1730e+001 44432 91810,91637,91611
 3.1000e+000 91764 -4.9317e+002 -1.1885e+003  1.1468e+002 44432 91810,91611,91715
 3.1000e+000 91741 -2.3064e+002 -7.7401e+002 -7.2406e+001 44432 91637,91689,91663
 3.1000e+000 91836 -5.0507e+002 -8.8017e+002  4.8468e+001 44432 91689,91637,91810
 3.1000e+000 91859 -4.9608e+002 -9.8034e+002  8.1701e+001 44432 91689,91810,91715
 3.1000e+000 92207 -5.5705e+002 -1.2858e+003  1.3380e+002 43864 92230,91936,91910
 3.1000e+000 92184 -7.6151e+002 -1.3180e+003  1.8468e+002 43864 92230,91910,92040
 3.1000e+000 92161 -8.9824e+002 -1.3618e+003  2.7996e+002 43864 91884,92040,91910
 3.1000e+000 92138 -7.1127e+002 -1.1652e+003  1.5118e+001 43864 91936,92014,91988
 3.1000e+000 92115 -5.7630e+002 -1.5570e+003  3.4061e+002 43864 91936,91988,91962
 3.1000e+000 92092 -7.3070e+002 -1.0855e+003  1.9215e+002 43864 91884,92066,92040
 3.1000e+000 92256 -7.6943e+002 -1.2031e+003  1.0575e+002 43864 92014,91936,92230
 3.1000e+000 92279 -9.4221e+002 -1.2273e+003  1.8821e+002 43864 92014,92230,92040
 3.1000e+000 92529 -6.2069e+002 -1.1060e+003  9.0552e+001 43410 92552,92330,92304
 3.1000e+000 92506 -6.0418e+002 -1.0828e+003  3.8611e+000 43410 92552,92304,92408
 3.1000e+000 92483 -6.4560e+002 -1.1642e+003  2.3661e+001 43410 92304,92434,92408
 3.1000e+000 92460 -3.3289e+002 -9.3709e+002 -1.1081e+001 43410 92330,92382,92356
 3.1000e+000 92578 -5.6289e+002 -1.0799e+003  5.2029e+001 43410 92382,92330,92552
 3.1000e+000 92601 -4.8374e+002 -1.0002e+003 -4.4763e+001 43410 92382,92552,92408
 3.1000e+000 92802 -3.1308e+002 -1.4144e+003  1.6092e+002 43162 92825,92704,92652
 3.1000e+000 92779 -2.2190e+002 -1.3301e+003  2.8996e+002 43162 92825,92652,92626
 3.1000e+000 92756 -2.9147e+002 -1.3989e+003  1.6768e+002 43162 92652,92704,92678
 3.1000e+000 92851 -5.3527e+002 -1.4301e+003 -4.9163e+000 43162 92730,92704,92825
 3.1000e+000 92874 -4.9346e+002 -9.1919e+002  2.0686e+002 43162 92730,92825,92626
 3.1000e+000 93463 -3.4002e+002 -8.0716e+002 -1.5795e+002 42758 93140,93270,93166
 3.1000e+000 93440 -4.2691e+002 -9.0086e+002 -1.0458e+002 42758 93140,93296,93270
 3.1000e+000 93417 -3.1303e+002 -8.5262e+002 -1.1753e+002 42758 93166,93270,93218
 3.1000e+000 93394 -2.1338e+002 -8.5086e+002 -1.3669e+002 42758 93218,93270,93244
 3.1000e+000 93371 -1.2267e+002 -1.0751e+003 -7.7286e+001 42758 93140,93322,93296
 3.1000e+000 93348 -3.9357e+002 -9.8310e+002  2.0219e+001 42758 93166,93218,93192
 3.1000e+000 93920 -3.5852e+002 -9.5417e+002  1.5688e+000 42304 93943,93672,93646
 3.1000e+000 93897 -3.4262e+002 -8.9900e+002  5.4529e+000 42304 93943,93646,93802
 3.1000e+000 93874 -3.1508e+002 -9.4483e+002  6.7525e+001 42304 93724,93802,93776
 3.1000e+000 93851 -4.8755e+002 -1.1287e+003  8.3688e+001 42304 93672,93724,93698
 3.1000e+000 93828 -5.3865e+002 -1.1190e+003 -2.1225e+001 42304 93724,93776,93750
 3.1000e+000 93969 -3.4406e+002 -9.7452e+002 -1.4441e+001 42304 93724,93672,93943
 3.1000e+000 93992 -3.4814e+002 -9.5005e+002 -8.7336e+000 42304 93724,93943,93802
 3.1000e+000 94321 -4.6435e+002 -1.1690e+003  3.9083e+001 41478 94096,94148,94122
 3.1000e+000 94298 -5.0657e+002 -1.1888e+003  6.8119e+001 41478 94096,94226,94148
 3.1000e+000 94275 -6.5781e+002 -1.5745e+003 -2.9526e+001 41478 94148,94226,94174
 3.1000e+000 94252 -3.0166e+002 -1.1505e+003 -2.6498e+002 41478 94174,94226,94200
 3.1000e+000 94618 -4.3214e+002 -1.4077e+003 -2.8118e+000 40910 94344,94422,94396
 3.1000e+000 94595 -6.3491e+002 -1.3741e+003 -5.4563e+001 40910 94344,94448,94422
 3.1000e+000 94572 -5.4984e+002 -1.1718e+003 -4.6971e+001 40910 94344,94474,94448
 3.1000e+000 94549 -3.8472e+002 -1.5467e+003 -1.0873e+002 40910 94344,94396,94370
 3.1000e+000 94526 -8.4671e+002 -1.5934e+003  9.2074e+001 40910 94344,94500,94474
 3.1000e+000 94866 -4.8657e+002 -8.9937e+002 -1.1309e+002 40306 94667,94719,94693
 3.1000e+000 94843 -5.9317e+002 -1.0070e+003 -6.7528e+001 40306 94641,94719,94667
 3.1000e+000 94820 -6.7981e+002 -1.0028e+003  1.1405e+001 40306 94641,94745,94719
 3.1000e+000 94797 -5.2925e+002 -9.5743e+002 -8.0653e+000 40306 94641,94771,94745
 3.1000e+000 95089 -7.8303e+001 -8.3459e+002  1.1241e+002 39702 94913,94991,94939
 3.1000e+000 95066 -9.0116e+001 -6.9692e+002  1.9794e+001 39702 94913,95017,94991
 3.1000e+000 95043 -3.8398e-001 -8.1521e+002  8.4042e+000 39702 94939,94991,94965
 3.1000e+000 95339 -4.6914e+002 -9.9892e+002 -1.3731e+002 39248 95140,95218,95166
 3.1000e+000 95316 -5.9713e+002 -1.0805e+003 -9.1146e+001 39248 95140,95244,95218
 3.1000e+000 95293 -3.5560e+002 -1.1390e+003 -1.4389e+002 39248 95114,95244,95140
 3.1000e+000 95270 -3.9009e+002 -1.1228e+003 -2.5407e+002 39248 95166,95218,95192
 3.1000e+000 95770 -5.9671e+002 -9.5884e+002  4.6732e+001 38694 95551,95629,95577
 3.1000e+000 95747 -3.9913e+002 -1.1777e+003  6.1258e+001 38694 95447,95629,95551
 3.1000e+000 95724 -3.0172e+002 -1.0055e+003 -5.3248e+001 38694 95447,95551,95473
 3.1000e+000 95701 -2.3292e+002 -9.4815e+002 -7.8609e+001 38694 95473,95551,95499
 3.1000e+000 95678 -1.9540e+002 -8.8234e+002 -1.8358e+002 38694 95499,95551,95525
 3.1000e+000 95655 -5.7880e+002 -8.7263e+002 -8.7015e+000 38694 95577,95629,95603
 3.1000e+000 96325 -5.3803e+002 -1.1265e+003  5.5328e+001 38240 95953,96031,96005
 3.1000e+000 96302 -5.1188e+002 -6.6395e+002  2.0827e+002 38240 95953,96161,96031
 3.1000e+000 96279 -3.5458e+002 -6.2269e+002 -4.4361e+001 38240 96031,96161,96135
 3.1000e+000 96256 -4.3351e+002 -8.6548e+002  1.8592e+002 38240 96348,96109,96057
 3.1000e+000 96233 -3.7415e+002 -7.7236e+002  1.2609e+002 38240 96348,96057,96031
 3.1000e+000 96210 -2.9285e+002 -8.5254e+002  2.7634e+002 38240 96057,96109,96083
 3.1000e+000 96187 -7.2954e+002 -5.4279e+002 -8.8629e+001 38240 95953,96005,95979
 3.1000e+000 96374 -3.2005e+002 -1.0286e+003  1.1312e+002 38240 96135,96109,96348
 3.1000e+000 96397 -2.2044e+002 -8.6180e+002  4.0502e+001 38240 96135,96348,96031
 3.1000e+000 96618 -5.2836e+002 -1.3869e+003  1.6241e+001 37821 96494,96546,96520
 3.1000e+000 96595 -3.3578e+002 -1.2575e+003  7.2313e+001 37821 96468,96546,96494
 3.1000e+000 96572 -2.0647e+002 -1.2019e+003  6.1963e+001 37821 96442,96546,96468
 3.1000e+000 97126 -3.6451e+002 -7.6578e+002 -9.0544e+001 37367 97149,96855,96829
 3.1000e+000 97103 -3.7083e+002 -7.7478e+002 -5.3010e+001 37367 97149,96829,96985
 3.1000e+000 97080 -3.0575e+002 -7.8737e+002 -5.8737e+001 37367 96803,96985,96829
 3.1000e+000 97057 -2.2390e+002 -7.5375e+002 -1.4390e+002 37367 96855,96907,96881
 3.1000e+000 97034 -4.1631e+002 -6.8107e+002 -3.0565e+001 37367 96907,96985,96959
 3.1000e+000 97011 -4.8682e+002 -6.0271e+002 -1.0936e+002 37367 96907,96959,96933
 3.1000e+000 97175 -3.6902e+002 -7.1913e+002 -9.6322e+001 37367 96907,96855,97149
 3.1000e+000 97198 -3.7422e+002 -7.3662e+002 -6.2412e+001 37367 96907,97149,96985
 3.1000e+000 97704 -5.1169e+002 -1.0638e+003  1.3788e+002 36863 97727,97511,97485
 3.1000e+000 97681 -4.8721e+002 -9.5555e+002  1.7077e+002 36863 97727,97485,97433
 3.1000e+000 97658 -6.0540e+002 -1.1081e+003  3.6920e+001 36863 97381,97563,97433
 3.1000e+000 97635 -3.2715e+002 -9.6485e+002 -4.0876e+001 36863 97511,97563,97537
 3.1000e+000 97612 -2.4267e+002 -7.0199e+002  4.4224e+001 36863 97433,97485,97459
 3.1000e+000 97589 -7.0137e+002 -1.1528e+003  1.0547e+002 36863 97381,97433,97407
 3.1000e+000 97753 -5.0474e+002 -1.1569e+003  8.3050e+001 36863 97563,97511,97727
 3.1000e+000 97776 -4.9259e+002 -1.0564e+003  1.1136e+002 36863 97563,97727,97433
 3.1000e+000 98331 -5.9122e+002 -1.3361e+003 -1.2561e+001 36287 98354,98089,98063
 3.1000e+000 98308 -5.3207e+002 -1.3715e+003  9.2017e+001 36287 98354,98063,98011
 3.1000e+000 98285 -7.4121e+002 -1.3164e+003  1.7864e+002 36287 98426,97985,98115
 3.1000e+000 98262 -4.8924e+002 -1.4196e+003  6.8946e+001 36287 98011,98063,98037
 3.1000e+000 98239 -6.5714e+002 -1.0994e+003  2.8321e+001 36287 97985,98141,98115
 3.1000e+000 98216 -8.8700e+002 -8.4060e+002  2.2012e+002 36287 97959,98141,97985
 3.1000e+000 98193 -7.6989e+002 -1.8810e+003  6.7147e+002 36287 97959,98167,98141
 3.1000e+000 98380 -5.5894e+002 -1.3366e+003 -7.0850e+000 36287 98115,98089,98354
 3.1000e+000 98403 -5.4582e+002 -1.2973e+003  5.5877e+000 36287 98426,98115,98354
 3.1000e+000 98452 -9.6758e+002 -1.4945e+003  3.2340e+002 36287 98011,97985,98426
 3.1000e+000 98475 -7.9489e+002 -1.5251e+003  1.5955e+002 36287 98011,98426,98354
 3.1000e+000 99030 -6.0693e+002 -1.5124e+003 -8.3343e+001 35726 99053,98736,98710
 3.1000e+000 99007 -5.2933e+002 -1.3012e+003  1.5877e+001 35726 99053,98710,98684
 3.1000e+000 98984 -6.7000e+002 -1.2590e+003 -1.3638e+002 35726 99125,98814,98736
 3.1000e+000 98961 -4.9617e+002 -1.0683e+003 -5.6074e+001 35726 98736,98814,98788
 3.1000e+000 98938 -6.4960e+002 -1.1956e+003  1.0377e+002 35726 98684,98866,98840
 3.1000e+000 98915 -4.1577e+002 -1.0376e+003 -4.5222e+001 35726 98736,98788,98762
 3.1000e+000 98892 -4.3425e+002 -1.2883e+003  3.4611e+001 35726 98658,98866,98684
 3.1000e+000 99079 -5.2233e+002 -1.2705e+003 -4.9214e+001 35726 99125,98736,99053
 3.1000e+000 99102 -6.3650e+002 -1.1624e+003  1.2440e+001 35726 98840,99053,98684
 3.1000e+000 99151 -8.0796e+002 -1.3230e+003 -1.6394e+002 35726 98840,98814,99125
 3.1000e+000 99174 -7.3441e+002 -1.3547e+003 -5.7242e+001 35726 98840,99125,99053
 3.1000e+000 99454 -2.3899e+002 -8.4093e+002 -4.7253e+001 35222 99278,99330,99304
 3.1000e+000 99431 -2.9411e+002 -7.9593e+002  3.1224e+001 35222 99278,99382,99330
 3.1000e+000 99408 -4.7388e+002 -9.7702e+002 -4.2053e+001 35222 99330,99382,99356
 3.1000e+000 99653 -2.9390e+002 -1.3044e+003 -4.2993e-001 34867 99477,99529,99503
 3.1000e+000 99630 -3.7290e+002 -9.5315e+002 -8.3182e+001 34867 99477,99581,99529
 3.1000e+000 99607 -3.9727e+002 -1.5696e+003 -4.1393e+002 34867 99529,99581,99555
 3.1000e+000 100104 -3.0094e+002 -1.0516e+003 -1.8061e+001 34363 99781,99885,99807
 3.1000e+000 100081 -4.1114e+002 -1.1134e+003  2.5263e+001 34363 99781,99963,99885
 3.1000e+000 100058 -1.7558e+002 -9.8825e+002 -3.7920e+001 34363 99885,99963,99911
 3.1000e+000 100035 -2.0384e+002 -9.2640e+002  2.6439e+001 34363 99807,99885,99859
 3.1000e+000 100012 -1.0557e+002 -9.4026e+002 -1.3943e+002 34363 99911,99963,99937
 3.1000e+000 99989 -9.0283e+001 -8.7662e+002  3.3570e+001 34363 99807,99859,99833
 3.1000e+000 100303 -5.6620e+002 -9.1112e+002 -2.4379e+002 33909 100127,100205,100179
 3.1000e+000 100280 -7.1728e+002 -1.0004e+003 -2.0671e+002 33909 100127,100231,100205
 3.1000e+000 100257 -6.5568e+002 -1.1123e+003 -2.2739e+002 33909 100127,100179,100153
 3.1000e+000 100890 -3.0184e+002 -9.7400e+002 -1.2937e+002 33412 100645,100749,100697
 3.1000e+000 100867 -3.2610e+002 -1.1865e+003 -9.6791e+001 33412 100567,100749,100645
 3.1000e+000 100844 -3.2416e+002 -1.1724e+003 -9.4470e+001 33412 100567,100645,100619
 3.1000e+000 100821 -2.8269e+002 -1.1601e+003 -2.4077e+002 33412 100645,100697,100671
 3.1000e+000 100798 -4.2029e+002 -1.5959e+003 -2.4047e+001 33412 100567,100619,100593
 3.1000e+000 100775 -5.2557e+002 -9.4544e+002 -7.0664e+001 33412 100697,100749,100723
 3.1000e+000 101268 -3.0376e+002 -1.1815e+003  2.1231e+001 32908 101435,101291,101098
 3.1000e+000 101245 -4.5306e+002 -1.2780e+003  6.4353e+001 32908 101291,101072,101020
 3.1000e+000 101222 -4.2960e+002 -1.4002e+003 -2.1812e+002 32908 101363,101150,101124
 3.1000e+000 101199 -5.1743e+002 -1.3280e+003  2.1390e+002 32908 101020,101072,101046
 3.1000e+000 101176 -2.2840e+002 -9.5387e+002 -5.8019e+001 32908 100994,101150,101020
 3.1000e+000 101317 -3.7621e+002 -1.3544e+003  1.0945e+002 32908 101124,101098,101291
 3.1000e+000 101340 -3.7317e+002 -1.5421e+003  3.3335e+000 32908 101363,101124,101291
 3.1000e+000 101389 -3.2554e+002 -1.1865e+003 -1.8566e+002 32908 101020,101150,101363
 3.1000e+000 101412 -2.2858e+002 -1.2094e+003  2.5540e+001 32908 101020,101363,101291
 3.1000e+000 101461 -2.9392e+002 -1.1115e+003  1.3085e+002 32908 101072,101291,101435
 3.1000e+000 101918 -2.7787e+002 -1.3997e+003 -1.3181e+002 32618 101941,101670,101644
 3.1000e+000 101895 -4.5907e-001 -1.3013e+003  5.7069e+001 32618 101941,101644,101774
 3.1000e+000 101872 -5.4904e+002 -1.1248e+003 -4.7466e+001 32618 102013,101696,101670
 3.1000e+000 101849 -1.0253e+002 -8.4274e+002 -1.3056e+002 32618 101696,101748,101722
 3.1000e+000 101826  2.4624e+001 -1.2251e+003  5.3014e+001 32618 101644,101800,101774
 3.1000e+000 101967 -5.4000e+002 -1.3237e+003 -1.4857e+002 32618 102013,101670,101941
 3.1000e+000 101990 -4.2243e+002 -1.4638e+003  9.0130e+001 32618 101748,101941,101774
 3.1000e+000 102039 -4.9410e+002 -1.0499e+003 -7.8145e+000 32618 101748,101696,102013
 3.1000e+000 102062 -2.8068e+002 -1.1246e+003 -5.2560e+001 32618 101748,102013,101941
 3.1000e+000 102440 -6.6252e+002 -1.3933e+003  1.0403e+002 32306 102463,102270,102244
 3.1000e+000 102417 -6.8400e+002 -1.4096e+003  4.9531e+000 32306 102463,102244,102192
 3.1000e+000 102394 -6.4382e+002 -1.2418e+003 -1.5925e+001 32306 102192,102244,102218
 3.1000e+000 102371 -4.0749e+002 -1.2789e+003  9.2799e+001 32306 102270,102322,102296
 3.1000e+000 102348 -3.3346e+002 -1.5829e+003 -9.1027e+001 32306 102166,102322,102192
 3.1000e+000 102489 -5.4935e+002 -1.3649e+003  1.3948e+002 32306 102322,102270,102463
 3.1000e+000 102512 -5.7040e+002 -1.3994e+003  3.4652e+001 32306 102322,102463,102192
 3.1000e+000 102662 -3.6845e+002 -1.3973e+003 -4.2219e+001 31852 102943,102587,102561
 3.1000e+000 102639 -2.4226e+002 -1.1161e+003  3.8988e+001 31852 102815,102685,102561
 3.1000e+000 102711 -4.3887e+002 -1.4113e+003 -4.7230e+001 31852 102943,102561,102685
 3.1000e+000 102841 -2.3836e+002 -1.0184e+003  9.0151e+001 31852 102535,102685,102815
 3.1000e+000 102969 -3.5611e+002 -1.4114e+003 -1.0125e+002 31852 102613,102587,102943
 3.1000e+000 102992 -4.3007e+002 -1.4298e+003 -1.0444e+002 31852 102613,102943,102685
 3.1000e+000 103370 -7.0939e+002 -1.5415e+003  6.0967e+001 31134 103096,103200,103122
 3.1000e+000 103347 -9.3205e+002 -2.0979e+003  1.7516e+002 31134 103096,103226,103200
 3.1000e+000 103324 -9.7560e+002 -1.7120e+003  1.3615e+002 31134 103122,103200,103174
 3.1000e+000 103301 -4.9040e+002 -1.6715e+003 -1.0021e+000 31134 103096,103252,103226
 3.1000e+000 103278 -6.5520e+002 -2.0510e+003 -2.0523e+002 31134 103122,103174,103148
 3.1000e+000 103520 -3.1721e+002 -2.1569e+003  7.4865e-001 30822 103393,103445,103419
 3.1000e+000 103497 -1.0722e+002 -9.5832e+002  4.9171e+001 30822 103393,103471,103445
 3.1000e+000 103719 -2.6119e+002 -9.7215e+002  1.8734e+001 30182 103742,103621,103569
 3.1000e+000 103696 -3.3215e+002 -1.0067e+003 -3.1135e+000 30182 103742,103569,103543
 3.1000e+000 103673 -2.7976e+002 -9.7655e+002  3.1828e+001 30182 103569,103621,103595
 3.1000e+000 103768 -1.8486e+002 -1.0149e+003  4.4229e+001 30182 103647,103621,103742
 3.1000e+000 103791 -2.3787e+002 -1.0494e+003  1.5507e+001 30182 103647,103742,103543
 3.1000e+000 104252 -5.9780e+002 -1.1193e+003  2.8654e+001 29728 104030,104108,104056
 3.1000e+000 104229 -4.2043e+002 -7.5202e+002  8.2226e+001 29728 104004,104108,104030
 3.1000e+000 104206 -3.3399e+002 -8.3071e+002  6.1321e+001 29728 104004,104134,104108
 3.1000e+000 104183 -4.5600e+002 -9.5795e+002 -7.3330e+001 29728 103978,104134,104004
 3.1000e+000 104160 -3.0179e+002 -1.0084e+003 -9.3754e+001 29728 104056,104108,104082
 3.1000e+000 104630 -4.2803e+002 -1.3389e+003 -1.6154e+002 29217 104653,104382,104356
 3.1000e+000 104607 -3.2587e+002 -1.1568e+003 -4.1007e+001 29217 104653,104356,104512
 3.1000e+000 104584 -5.7121e+002 -1.3585e+003 -1.7931e+002 29217 104434,104512,104486
 3.1000e+000 104561 -3.3284e+002 -1.3233e+003 -2.7391e+002 29217 104382,104434,104408
 3.1000e+000 104538 -2.7908e+002 -9.4859e+002  6.0028e+001 29217 104434,104486,104460
 3.1000e+000 104679 -4.7836e+002 -1.3588e+003 -2.4254e+002 29217 104434,104382,104653
 3.1000e+000 104702 -4.6254e+002 -1.2902e+003 -1.3467e+002 29217 104434,104653,104512
 3.1000e+000 105178 -3.9074e+002 -1.2243e+003  2.3308e+001 28649 105201,104962,104936
 3.1000e+000 105155 -4.0745e+002 -1.1950e+003  3.5893e+001 28649 105201,104936,104884
 3.1000e+000 105132 -4.3947e+002 -1.1024e+003 -1.1019e+002 28649 105273,104858,105014
 3.1000e+000 105109 -6.4773e+002 -1.2754e+003  2.0535e+001 28649 104962,105014,104988
 3.1000e+000 105086 -2.3595e+002 -1.0153e+003 -1.3792e+002 28649 104884,104936,104910
 3.1000e+000 105063 -4.5512e+002 -1.0035e+003 -5.2066e+001 28649 104806,105014,104858
 3.1000e+000 105040 -5.5915e+002 -9.9572e+002 -1.0699e+002 28649 104806,104858,104832
 3.1000e+000 105227 -3.6925e+002 -1.2310e+003  8.4684e+000 28649 105014,104962,105201
 3.1000e+000 105250 -3.2053e+002 -1.1495e+003 -2.5963e+001 28649 105273,105014,105201
 3.1000e+000 105299 -5.7127e+002 -1.1625e+003 -9.5079e+001 28649 104884,104858,105273
 3.1000e+000 105322 -5.2725e+002 -1.2506e+003  6.7393e+000 28649 104884,105273,105201
 3.1000e+000 105673 -7.4368e+001 -1.2627e+003  1.4850e+001 28351 105474,105578,105552
 3.1000e+000 105650  4.3978e+001 -7.9650e+002 -2.0616e+001 28351 105448,105578,105474
 3.1000e+000 105627 -5.8793e+000 -1.1627e+003  1.0661e+000 28351 105500,105552,105526
 3.1000e+000 105604 -2.7960e+001 -1.2391e+003  5.1491e+000 28351 105474,105552,105500
 3.1000e+000 106130 -5.0202e+002 -7.7526e+002 -3.1915e+002 28004 106153,105882,105856
 3.1000e+000 106107 -4.4868e+002 -1.0966e+003 -2.1497e+002 28004 106153,105856,105986
 3.1000e+000 106084 -9.7329e+002 -1.2482e+003  4.4798e+001 28004 105934,105986,105960
 3.1000e+000 106061 -7.5201e+002 -1.1992e+003 -7.9407e+001 28004 105856,106012,105986
 3.1000e+000 106038 -8.5909e+002 -1.2430e+003 -1.3235e+002 28004 105882,105934,105908
 3.1000e+000 106179 -7.6738e+002 -1.0420e+003 -1.6588e+002 28004 105934,105882,106153
 3.1000e+000 106202 -5.0515e+002 -1.2090e+003 -1.1073e+002 28004 105934,106153,105986
 3.1000e+000 106885 -7.4045e+002 -1.0475e+003 -3.7956e+001 27564 106908,106620,106516
 3.1000e+000 106862 -7.2113e+002 -1.0064e+003 -1.7777e+001 27564 106908,106516,106490
 3.1000e+000 106839 -7.0701e+002 -9.8821e+002 -1.3845e+002 27564 106516,106620,106542
 3.1000e+000 106816 -6.3380e+002 -6.9855e+002 -7.4250e+001 27564 106620,106672,106646
 3.1000e+000 106793 -5.3825e+002 -1.1556e+003 -2.5214e+002 27564 106542,106620,106594
 3.1000e+000 106770 -7.3238e+002 -8.9841e+002  6.5105e+001 27564 106490,106698,106672
 3.1000e+000 106747 -5.9355e+002 -1.0778e+003  2.1118e+002 27564 106464,106698,106490
 3.1000e+000 106724 -1.1600e+002 -9.4105e+002 -3.2788e+002 27564 106542,106594,106568
 3.1000e+000 106934 -7.7144e+002 -1.0097e+003 -4.8518e+001 27564 106672,106620,106908
 3.1000e+000 106957 -7.5804e+002 -9.6911e+002 -3.9386e+001 27564 106672,106908,106490
 3.1000e+000 107463 -5.0053e+002 -1.0026e+003 -1.6200e+001 27053 107218,107322,107296
 3.1000e+000 107440 -5.8142e+002 -1.1815e+003  3.4220e+001 27053 107166,107322,107218
 3.1000e+000 107417 -5.1751e+002 -1.1595e+003 -2.8712e+001 27053 107218,107296,107244
 3.1000e+000 107394 -5.6185e+002 -9.6228e+002  9.4580e+001 27053 107140,107322,107166
 3.1000e+000 107371 -5.4440e+002 -1.2081e+003  4.1326e+001 27053 107166,107218,107192
 3.1000e+000 107348 -5.1173e+002 -1.4950e+003 -1.6331e+002 27053 107244,107296,107270
 3.1000e+000 108097 -5.5500e+002 -1.3744e+003 -8.3823e+001 26549 108192,108120,107803
 3.1000e+000 108074 -5.0065e+002 -1.5923e+003  9.5563e+001 26549 108120,107725,107933
 3.1000e+000 108051 -1.4836e+002 -1.9638e+003  1.6192e+002 26549 107751,107803,107777
 3.1000e+000 108028 -5.4922e+002 -1.4688e+003 -1.0955e+002 26549 108192,107803,107751
 3.1000e+000 108005 -3.2338e+002 -9.4872e+002 -7.6850e+000 26549 108264,107855,107803
 3.1000e+000 107982 -1.5115e+002 -1.0732e+003 -5.6544e+001 26549 107881,107933,107907
 3.1000e+000 107959 -4.2674e+002 -9.9073e+002 -3.0488e+000 26549 107803,107855,107829
 3.1000e+000 108146 -4.3813e+002 -1.1016e+003 -6.9897e+001 26549 108264,107803,108120
 3.1000e+000 108169 -3.9259e+002 -1.3191e+003  4.0735e+001 26549 107881,108120,107933
 3.1000e+000 108218 -5.3966e+002 -1.2779e+003 -1.3210e+001 26549 107725,108120,108192
 3.1000e+000 108241 -5.2500e+002 -1.3483e+003 -4.3609e+001 26549 107725,108192,107751
 3.1000e+000 108290 -1.9249e+002 -1.1503e+003 -5.0950e+001 26549 107881,107855,108264
 3.1000e+000 108313 -2.8812e+002 -1.3175e+003 -9.7119e+001 26549 107881,108264,108120
 3.1000e+000 108512 -3.2695e+002 -1.2328e+003 -8.1138e+001 26137 108388,108440,108414
 3.1000e+000 108489 -2.1635e+002 -1.0583e+003 -4.6156e+000 26137 108362,108440,108388
 3.1000e+000 108466 -2.9424e+002 -1.1618e+003 -4.4523e+001 26137 108336,108440,108362
 3.1000e+000 108662 -4.1629e+002 -1.1573e+003 -1.0039e+002 25733 108817,108685,108535
 3.1000e+000 108639 -2.7998e+002 -1.2579e+003 -2.5378e+001 25733 109017,108817,108535
 3.1000e+000 108711 -4.5370e+002 -1.0700e+003 -4.1058e+001 25733 108561,108535,108685
 3.1000e+000 108843 -2.8270e+002 -1.1386e+003 -3.1422e+001 25733 108587,108685,108817
 3.1000e+000 108866 -2.5303e+002 -1.1195e+003 -3.9954e+000 25733 108889,108817,108613
 3.1000e+000 108915 -2.4752e+002 -1.0964e+003 -4.6927e+001 25733 108587,108817,108889
 3.1000e+000 109043 -2.3139e+002 -9.5789e+002  1.8151e+001 25733 108613,108817,109017
 3.1000e+000 109500 -7.5726e+002 -1.3566e+003  1.3102e+002 25229 109523,109356,109330
 3.1000e+000 109477 -4.3634e+002 -1.0712e+003 -6.2595e+001 25229 109595,109523,109330
 3.1000e+000 109454 -4.0608e+002 -9.8164e+002 -1.4052e+002 25229 109595,109330,109278
 3.1000e+000 109431 -4.4864e+002 -1.0307e+003 -8.9695e+001 25229 109667,109226,109382
 3.1000e+000 109408 -4.5863e+002 -1.0700e+003 -1.9049e+002 25229 109278,109330,109304
 3.1000e+000 109549 -2.2183e+002 -1.1039e+003  4.7852e+001 25229 109382,109356,109523
 3.1000e+000 109572 -3.9462e+002 -1.1184e+003 -1.0342e+002 25229 109667,109382,109523
 3.1000e+000 109621 -4.6960e+002 -1.2168e+003 -8.6950e+001 25229 109252,109523,109595
 3.1000e+000 109644 -3.0180e+002 -1.0424e+003 -6.0878e+001 25229 109739,109595,109278
 3.1000e+000 109693 -5.9668e+002 -1.1773e+003 -2.8752e+001 25229 109252,109226,109667
 3.1000e+000 109716 -4.7549e+002 -1.2247e+003 -6.8097e+001 25229 109252,109667,109523
 3.1000e+000 109765 -5.6619e+002 -1.1360e+003 -4.7590e+001 25229 109252,109595,109739
 3.1000e+000 110478 -3.5672e+002 -9.4784e+002  1.2489e+002 24917 110158,110236,110184
 3.1000e+000 110455 -5.0219e+002 -1.0468e+003 -1.7866e+000 24917 110158,110288,110236
 3.1000e+000 110432 -3.0928e+002 -1.2673e+003  2.7553e+001 24917 110236,110288,110262
 3.1000e+000 110409 -3.0273e+002 -1.0718e+003  1.3374e+002 24917 110184,110236,110210
 3.1000e+000 110386 -6.3720e+002 -1.1881e+003 -7.8384e+001 24917 110132,110288,110158
 3.1000e+000 110363 -5.6292e+002 -1.1293e+003 -8.6091e+000 24917 110132,110314,110288
 3.1000e+000 110340 -6.3971e+002 -1.4045e+003  1.8113e+002 24917 110106,110314,110132
 3.1000e+000 110829 -1.9986e+002 -7.3550e+002 -3.3124e+001 24307 110604,110682,110630
 3.1000e+000 110806 -5.2446e+002 -1.4258e+003  8.4165e+001 24307 110604,110708,110682
 3.1000e+000 110783 -1.6627e+002 -1.2593e+003  2.9384e+001 24307 110604,110734,110708
 3.1000e+000 110760 -5.7761e+001 -6.7466e+002 -3.8139e+001 24307 110630,110682,110656
 3.1000e+000 111335 -3.3339e+002 -9.4980e+002 -1.4189e+002 23767 111012,111168,111038
 3.1000e+000 111312 -3.5610e+002 -1.0302e+003 -1.3913e+002 23767 111012,111194,111168
 3.1000e+000 111289 -6.2568e+002 -1.2052e+003  1.0511e+002 23767 111358,111064,111038
 3.1000e+000 111266 -4.4991e+002 -1.1200e+003 -4.2482e+001 23767 111358,111038,111168
 3.1000e+000 111243 -2.9133e+002 -1.0489e+003 -3.5581e+001 23767 111430,111142,111090
 3.1000e+000 111220 -1.0837e+000 -9.2256e+002  2.1859e+001 23767 111090,111142,111116
 3.1000e+000 111384 -5.0842e+002 -1.1266e+003 -3.0629e+001 23767 111090,111064,111358
 3.1000e+000 111407 -5.1077e+002 -1.0715e+003 -6.1488e+001 23767 111430,111090,111358
 3.1000e+000 111456 -8.9269e+001 -1.1217e+003 -8.7715e+001 23767 111168,111142,111430
 3.1000e+000 111479 -2.1405e+002 -1.0738e+003 -9.8736e+001 23767 111168,111430,111358
 3.1000e+000 111985 -2.8048e+002 -8.4911e+002  1.1851e+002 23477 111688,111844,111818
 3.1000e+000 111962 -2.3997e+002 -8.6454e+002 -1.4008e+002 23477 111662,111844,111688
 3.1000e+000 111939 -2.1514e+002 -1.5482e+003  2.3555e+002 23477 111766,111818,111792
 3.1000e+000 111916 -6.1167e+002 -1.3622e+003  1.2300e+002 23477 111740,111818,111766
 3.1000e+000 111893 -3.4539e+002 -7.3811e+002  1.3050e+002 23477 111688,111818,111740
 3.1000e+000 111870 -5.8060e+002 -1.0301e+003  2.7474e+002 23477 111688,111740,111714
 3.1000e+000 112314 -4.4158e+002 -8.7441e+002 -1.0801e+001 23023 112141,112219,112193
 3.1000e+000 112291 -3.8195e+002 -8.3638e+002 -4.0752e+001 23023 112115,112219,112141
 3.1000e+000 112268 -3.6694e+002 -1.0201e+003  1.0039e+002 23023 112141,112193,112167
 3.1000e+000 112245 -3.9782e+002 -9.3807e+002 -4.4953e+001 23023 112089,112219,112115
 3.1000e+000 112692 -4.5527e+002 -1.1593e+003 -5.3016e+001 22768 112444,112574,112548
 3.1000e+000 112669 -3.4186e+002 -1.1907e+003 -9.6796e+000 22768 112418,112574,112444
 3.1000e+000 112646 -5.3562e+002 -1.2240e+003 -9.1469e+000 22768 112444,112522,112470
 3.1000e+000 112623 -4.0576e+002 -1.1401e+003 -5.6359e+001 22768 112444,112548,112522
 3.1000e+000 112600 -9.9805e+001 -1.0307e+003 -8.2581e+001 22768 112470,112522,112496
 3.1000e+000 113011 -2.6456e+002 -1.3036e+003 -1.0723e+002 22314 112763,112867,112789
 3.1000e+000 112988 -1.0188e+002 -1.3940e+003 -1.2355e+002 22314 112763,112893,112867
 3.1000e+000 112965 -2.7335e+002 -1.3390e+003  0.0000e+000 22314 112815,112867,112841
 3.1000e+000 112942 -3.3530e+002 -1.3557e+003 -5.0230e+001 22314 112789,112867,112815
 3.1000e+000 112919 -9.1379e+001 -1.0444e+003  3.0881e+002 22314 112737,112893,112763
 3.1000e+000 113519 -6.3877e+001 -1.0056e+003  2.3389e+002 21924 113614,113542,113248
 3.1000e+000 113496 -2.0248e+002 -9.4194e+002  7.4884e+001 21924 113542,113196,113378
 3.1000e+000 113473 -1.7528e+002 -1.0620e+003  2.5925e+002 21924 113614,113248,113222
 3.1000e+000 113450 -2.0698e+002 -1.4381e+003  1.0463e+002 21924 113686,113274,113248
 3.1000e+000 113427 -3.5295e+002 -1.4673e+003 -9.0273e+001 21924 113274,113352,113326
 3.1000e+000 113404 -6.8164e+002 -2.0929e+003 -2.1294e+002 21924 113274,113326,113300
 3.1000e+000 113568 -6.1887e+001 -1.2004e+003  1.6998e+002 21924 113686,113248,113542
 3.1000e+000 113591 -1.8227e+002 -8.7091e+002  1.0257e+002 21924 113352,113542,113378
 3.1000e+000 113640 -1.7476e+002 -9.7489e+002  1.8924e+002 21924 113196,113542,113614
 3.1000e+000 113663 -2.0615e+002 -9.7839e+002  1.9349e+002 21924 113196,113614,113222
 3.1000e+000 113712 -3.6162e+002 -1.1718e+003 -2.9535e+000 21924 113352,113274,113686
 3.1000e+000 113735 -2.8509e+002 -1.0388e+003  3.7093e+001 21924 113352,113686,113542
 3.1000e+000 113885 -7.6332e+002 -1.1052e+003 -8.0326e+000 21520 113980,113908,113784
 3.1000e+000 113862 -7.0633e+002 -1.1253e+003 -2.1050e+002 21520 114238,113908,113758
 3.1000e+000 113934 -5.2704e+002 -8.9501e+002  1.1428e+002 21520 114110,113908,113810
 3.1000e+000 113957 -4.2583e+002 -1.0937e+003 -1.3557e+002 21520 113810,113908,113836
 3.1000e+000 114006 -6.2085e+002 -9.8573e+002 -5.9326e+001 21520 113758,113908,113980
 3.1000e+000 114136 -7.5583e+002 -1.0835e+003  1.7443e+001 21520 113784,113908,114110
 3.1000e+000 114264 -8.6382e+002 -1.2843e+003 -2.7453e+002 21520 113836,113908,114238
 3.1000e+000 114662 -5.9676e+002 -1.5321e+003  6.9627e+000 21030 114414,114518,114492
 3.1000e+000 114639 -2.4539e+002 -1.2282e+003 -1.3819e+002 21030 114414,114544,114518
 3.1000e+000 114616 -7.0076e+002 -1.5737e+003 -1.0085e+001 21030 114440,114492,114466
 3.1000e+000 114593 -5.9631e+002 -1.5319e+003  4.7155e+000 21030 114414,114492,114440
 3.1000e+000 114570 -4.1624e+002 -1.2532e+003 -1.1350e+001 21030 114388,114544,114414
 3.1000e+000 114959 -1.0120e+003 -1.6570e+003  1.3290e+002 20512 114982,114711,114685
 3.1000e+000 114936 -9.2847e+002 -1.6195e+003 -3.3785e+001 20512 115054,114982,114685
 3.1000e+000 114913 -7.6444e+002 -1.4895e+003 -1.0155e+002 20512 115054,114685,114841
 3.1000e+000 114890 -5.5013e+002 -1.4921e+003  5.0126e+001 20512 114711,114763,114737
 3.1000e+000 114867 -2.4654e+002 -1.3928e+003  1.2001e+001 20512 114763,114815,114789
 3.1000e+000 115008 -8.5991e+002 -1.6231e+003  8.3701e+001 20512 114763,114711,114982
 3.1000e+000 115031 -7.5312e+002 -1.5634e+003 -4.1652e+001 20512 114763,114982,114815
 3.1000e+000 115080 -8.3980e+002 -1.6520e+003  8.6686e+000 20512 114815,114982,115054
 3.1000e+000 115103 -8.3142e+002 -1.6479e+003  5.7051e+000 20512 114815,115054,114841
 3.1000e+000 115507 -7.2060e+002 -1.4571e+003 -5.6365e+001 20143 115285,115389,115363
 3.1000e+000 115484 -8.1492e+002 -1.6258e+003 -1.8890e+001 20143 115259,115389,115285
 3.1000e+000 115461 -7.3196e+002 -1.4107e+003 -8.2569e+000 20143 115233,115389,115259
 3.1000e+000 115438 -6.6231e+002 -1.6809e+003  5.6173e+001 20143 115285,115337,115311
 3.1000e+000 115415 -9.6680e+002 -2.0129e+003 -9.9056e+001 20143 115285,115363,115337
 3.1000e+000 115875 -4.9915e+002 -1.1273e+003  1.9992e+000 19632 115656,115734,115682
 3.1000e+000 115852 -2.3597e+002 -1.0304e+003  1.3362e+002 19632 115552,115734,115656
 3.1000e+000 115829 -2.5076e+002 -1.0185e+003 -8.4823e+001 19632 115552,115656,115578
 3.1000e+000 115806 -4.7727e+002 -1.1503e+003  8.3470e+000 19632 115578,115656,115630
 3.1000e+000 115783 -5.3732e+002 -1.0849e+003  5.2236e+001 19632 115682,115734,115708
 3.1000e+000 115760 -5.7448e+002 -1.1668e+003 -1.0492e+002 19632 115578,115630,115604
 3.1000e+000 116025 -3.0051e+002 -1.2765e+003 -2.7076e+002 19178 115898,115950,115924
 3.1000e+000 116002 -4.2041e+002 -1.2973e+003 -1.4889e+002 19178 115898,115976,115950
 3.1000e+000 116633 -4.0388e+002 -1.0840e+003 -1.8808e+001 18738 116800,116656,116342
 3.1000e+000 116610 -4.1904e+002 -1.1457e+003  3.2210e+001 18738 116656,116238,116446
 3.1000e+000 116587 -4.9151e+002 -1.1108e+003 -6.5041e+001 18738 116728,116368,116342
 3.1000e+000 116564 -3.9190e+002 -1.0503e+003 -3.8320e+001 18738 116800,116342,116264
 3.1000e+000 116541 -4.2876e+002 -1.4728e+003  1.2788e+002 18738 116212,116446,116238
 3.1000e+000 116518 -1.0796e+002 -7.8871e+002  3.4618e+001 18738 116394,116446,116420
 3.1000e+000 116495  1.5461e+002 -8.6862e+002 -1.4627e+002 18738 116264,116342,116316
 3.1000e+000 116472 -2.2215e+002 -1.1892e+003  1.3425e+002 18738 116264,116316,116290
 3.1000e+000 116682 -4.7329e+002 -1.0876e+003  1.9254e+001 18738 116728,116342,116656
 3.1000e+000 116705 -4.1992e+002 -9.2847e+002  6.2320e+001 18738 116394,116656,116446
 3.1000e+000 116754 -6.2940e+002 -1.1644e+003 -1.1175e+002 18738 116394,116368,116728
 3.1000e+000 116777 -6.2119e+002 -1.1385e+003 -2.4865e+001 18738 116394,116728,116656
 3.1000e+000 116826 -3.8837e+002 -1.1517e+003  1.1813e+001 18738 116238,116656,116800
 3.1000e+000 116849 -3.5814e+002 -1.1074e+003 -1.3398e+001 18738 116238,116800,116264
 3.1000e+000 116999 -4.2849e+002 -1.4626e+003  8.9060e+001 18184 116872,116924,116898
 3.1000e+000 116976 -4.2310e+002 -7.5143e+002 -4.6196e+000 18184 116872,116950,116924
 3.1000e+000 117330 -9.3495e+001 -1.7382e+003  1.2377e+002 17694 117157,117235,117183
 3.1000e+000 117307 -5.6602e+002 -1.9724e+003  2.1308e+001 17694 117131,117235,117157
 3.1000e+000 117284 -3.8862e+002 -2.2235e+003 -1.1494e+002 17694 117105,117235,117131
 3.1000e+000 117261  3.6339e+002 -1.0593e+003 -8.3002e+001 17694 117183,117235,117209
 3.1000e+000 117480 -5.6016e+002 -1.3213e+003 -1.5322e+002 17290 117353,117405,117379
 3.1000e+000 117457 -2.7815e+002 -1.4724e+003 -1.6404e+002 17290 117353,117431,117405
 3.1000e+000 117679 -1.0114e+002 -1.0828e+003 -4.7474e+001 16718 117555,117607,117581
 3.1000e+000 117656 -5.2976e+002 -1.3497e+003  6.5883e+001 16718 117529,117607,117555
 3.1000e+000 117633  2.5472e+001 -1.2915e+003  5.4213e+001 16718 117503,117607,117529
 3.1000e+000 117782 -3.1493e+002 -1.0729e+003  2.8927e+001 16520 117704,117756,117730
 3.1000e+000 117983 -3.9756e+002 -1.6461e+003 -2.6363e+000 16208 117859,117911,117885
 3.1000e+000 117960 -2.6424e+002 -1.5705e+003 -3.3281e+001 16208 117833,117911,117859
 3.1000e+000 117937 -1.6242e+002 -1.3825e+003  5.1287e+001 16208 117807,117911,117833
 3.1000e+000 118135 -8.0362e+002 -1.2892e+003 -1.5439e+002 15674 118034,118086,118060
 3.1000e+000 118112 -3.9380e+002 -9.9767e+002  2.6033e+001 15674 118008,118086,118034
 3.1000e+000 118238 -3.9694e+001 -1.2599e+003  8.5306e+001 15355 118160,118212,118186
 3.1000e+000 118341 -6.6604e+002 -1.3283e+003  2.7393e+002 421 118263,118315,118289
 3.2000e+000 68152 -3.6657e+002 -9.8760e+002 -3.7410e+001 67838 68074,68126,68100
 3.2000e+000 68550 -3.0341e+002 -1.1131e+003  2.9058e+001 67526 68276,68380,68302
 3.2000e+000 68527 -5.5405e+001 -1.0625e+003  2.2682e+001 67526 68276,68406,68380
 3.2000e+000 68504 -2.9523e+002 -9.8652e+002  7.0401e+000 67526 68328,68380,68354
 3.2000e+000 68481 -2.5703e+002 -1.0049e+003  2.7410e+001 67526 68302,68380,68328
 3.2000e+000 68458 -1.1446e+002 -1.2245e+003 -3.7323e+001 67526 68276,68432,68406
 3.2000e+000 68651 -7.2192e+002 -1.1187e+003  1.4297e+002 67328 68573,68625,68599
 3.2000e+000 68970 -3.0023e+002 -1.0330e+003 -6.9461e-001 67016 68722,68800,68774
 3.2000e+000 68947 -3.1710e+002 -1.0635e+003 -8.4639e+000 67016 68722,68826,68800
 3.2000e+000 68924 -3.7681e+002 -1.0472e+003  3.3172e+000 67016 68696,68826,68722
 3.2000e+000 68901 -2.0574e+002 -1.0997e+003 -6.6053e+001 67016 68722,68774,68748
 3.2000e+000 68878 -4.9677e+002 -1.0030e+003 -1.5580e+002 67016 68696,68852,68826
 3.2000e+000 69291 -5.2777e+002 -1.1469e+003 -1.1922e+001 66654 69069,69147,69095
 3.2000e+000 69268 -3.8712e+002 -1.2084e+003  4.4440e+001 66654 69069,69173,69147
 3.2000e+000 69245 -4.7133e+002 -1.0072e+003  1.7599e+002 66654 69043,69173,69069
 3.2000e+000 69222 -6.6111e+002 -1.3125e+003  8.3170e+001 66654 69095,69147,69121
 3.2000e+000 69199 -6.7888e+002 -1.2624e+003  2.0594e+001 66654 69017,69173,69043
 3.2000e+000 69695 -3.8978e+002 -1.5095e+003  1.7113e+001 66456 69447,69577,69551
 3.2000e+000 69672 -1.3431e+002 -1.3387e+003 -5.7217e+001 66456 69421,69577,69447
 3.2000e+000 69649 -1.4429e+002 -9.9919e+002 -1.7232e+002 66456 69473,69551,69525
 3.2000e+000 69626 -3.3347e+002 -1.4029e+003 -1.8844e+001 66456 69447,69551,69473
 3.2000e+000 69603 -3.1272e+001 -8.9180e+002 -3.4375e+002 66456 69473,69525,69499
 3.2000e+000 70024 -5.0609e+002 -1.0910e+003 -1.7667e+001 66258 70047,69851,69825
 3.2000e+000 70001 -5.3020e+002 -1.0808e+003  3.7526e+001 66258 70047,69825,69903
 3.2000e+000 69978 -6.5855e+002 -1.3142e+003  1.0569e+002 66258 69799,69903,69825
 3.2000e+000 69955 -3.6095e+002 -1.6784e+003  3.0797e+002 66258 69799,69929,69903
 3.2000e+000 70073 -5.6421e+002 -1.1127e+003 -2.1884e+001 66258 69877,69851,70047
 3.2000e+000 70096 -6.0053e+002 -1.1057e+003  3.5437e+001 66258 69877,70047,69903
 3.2000e+000 70602  1.1973e+000 -8.4590e+002 -1.7548e+002 66060 70305,70435,70331
 3.2000e+000 70579 -5.8602e+002 -1.4202e+003  6.1795e+001 66060 70279,70435,70305
 3.2000e+000 70556 -6.3486e+002 -1.0498e+003 -2.1694e+002 66060 70331,70435,70409
 3.2000e+000 70533 -4.0276e+002 -1.0829e+003  1.8803e+002 66060 70279,70461,70435
 3.2000e+000 70510 -1.9652e+002 -8.0910e+002 -4.2918e+002 66060 70331,70409,70357
 3.2000e+000 70487 -7.5090e+000 -8.5349e+002 -9.0209e+001 66060 70357,70409,70383
 3.2000e+000 70703 -1.3906e+003 -2.0798e+003 -9.6781e+001 65862 70625,70677,70651
 3.2000e+000 71083 -3.0606e+002 -9.9431e+002  3.8244e+001 65664 70887,70965,70939
 3.2000e+000 71060 -2.7028e+002 -9.5517e+002  2.3339e+001 65664 70861,70965,70887
 3.2000e+000 71037 -3.0315e+002 -1.0007e+003  6.9039e+000 65664 70809,70965,70861
 3.2000e+000 71014 -2.8488e+002 -9.9790e+002 -1.7255e+001 65664 70809,70861,70835
 3.2000e+000 70991 -3.3052e+002 -1.0254e+003  6.5221e+001 65664 70887,70939,70913
 3.2000e+000 71611 -7.1055e+002 -1.6006e+003 -5.9486e+001 65260 71288,71444,71314
 3.2000e+000 71588 -3.9822e+002 -1.4615e+003 -1.2146e+001 65260 71288,71470,71444
 3.2000e+000 71565 -3.3362e+002 -1.0661e+003  1.2075e+002 65260 71314,71418,71392
 3.2000e+000 71542 -6.7441e+002 -1.4618e+003 -2.3789e+001 65260 71314,71444,71418
 3.2000e+000 71519 -6.1883e+002 -1.1505e+003  1.5708e+002 65260 71314,71392,71340
 3.2000e+000 71496 -4.8101e+002 -8.8923e+002  3.5157e+002 65260 71340,71392,71366
 3.2000e+000 72060 -5.3121e+002 -1.0206e+003 -4.6361e+001 64870 71737,71893,71789
 3.2000e+000 72037 -2.8478e+002 -9.1230e+002 -2.6718e+001 64870 71737,71919,71893
 3.2000e+000 72014 -5.5447e+002 -9.3805e+002  4.8307e+001 64870 71789,71841,71815
 3.2000e+000 71991 -4.5270e+002 -9.7226e+002  1.7133e+000 64870 71789,71893,71841
 3.2000e+000 71968 -5.1588e+002 -1.2196e+003 -1.6244e+002 64870 71737,71789,71763
 3.2000e+000 71945 -3.5919e+002 -1.0380e+003  0.0000e+000 64870 71841,71893,71867
 3.2000e+000 72517 -5.9894e+002 -8.9345e+002 -1.3199e+002 64466 72321,72399,72347
 3.2000e+000 72494 -5.7955e+002 -8.2732e+002 -1.1442e+002 64466 72269,72399,72321
 3.2000e+000 72471 -6.1425e+002 -1.0115e+003  2.3245e+001 64466 72347,72399,72373
 3.2000e+000 72448 -5.5402e+002 -9.0204e+002 -2.8885e+002 64466 72243,72399,72269
 3.2000e+000 72425 -6.7965e+002 -1.0168e+003 -6.7480e+001 64466 72269,72321,72295
 3.2000e+000 72944 -3.0716e+002 -7.8018e+002 -3.8654e+001 64062 73111,73039,72699
 3.2000e+000 72921 -2.3743e+002 -8.5865e+002 -8.8753e+001 64062 73183,72967,72647
 3.2000e+000 72898 -2.9146e+002 -8.8474e+002 -6.8324e+001 64062 72967,72803,72751
 3.2000e+000 72875 -2.9446e+002 -7.7500e+002 -4.9933e+001 64062 73111,72699,72673
 3.2000e+000 72852 -1.8366e+002 -9.1273e+002 -5.1788e+001 64062 73183,72647,72621
 3.2000e+000 72829 -2.1128e+002 -7.1241e+002 -2.1755e+002 64062 72751,72803,72777
 3.2000e+000 72993 -2.6761e+002 -8.0119e+002 -5.3517e+001 64062 73039,72647,72967
 3.2000e+000 73016 -4.0056e+002 -9.0493e+002 -6.1127e+001 64062 72725,72967,72751
 3.2000e+000 73065 -1.9147e+002 -9.2207e+002  2.2769e+002 64062 72725,72699,73039
 3.2000e+000 73088 -2.9396e+002 -8.8408e+002 -7.2732e+001 64062 72725,73039,72967
 3.2000e+000 73137 -2.7471e+002 -8.0282e+002 -4.5417e+001 64062 72647,73039,73111
 3.2000e+000 73160 -2.7597e+002 -8.0143e+002 -5.0792e+001 64062 72647,73111,72673
 3.2000e+000 73209 -3.0178e+002 -9.0685e+002 -6.5231e+001 64062 72803,72967,73183
 3.2000e+000 73232 -2.6493e+002 -9.9087e+002 -1.9941e+001 64062 72803,73183,72621
 3.2000e+000 73333 -1.1733e+003 -1.7415e+003  1.0329e+002 63814 73356,73281,73255
 3.2000e+000 73382 -9.5674e+002 -1.3407e+003  7.4918e+001 63814 73486,73356,73307
 3.2000e+000 73512 -1.1157e+003 -1.4080e+003 -3.7545e+001 63814 73281,73356,73486
 3.2000e+000 73839 -4.7985e+002 -1.0818e+003 -4.8895e+001 63616 73862,73692,73666
 3.2000e+000 73816 -4.1092e+002 -9.6610e+002 -1.5133e+000 63616 73934,73862,73666
 3.2000e+000 73793 -3.4246e+002 -1.0032e+003  6.7825e+001 63616 73934,73666,73640
 3.2000e+000 73770 -3.2578e+002 -1.0695e+003  1.0052e+002 63616 73614,73744,73640
 3.2000e+000 73888 -5.2531e+002 -9.8385e+002 -4.6466e+001 63616 73718,73692,73862
 3.2000e+000 73911 -5.0813e+002 -9.2735e+002  2.7286e+001 63616 73718,73862,73744
 3.2000e+000 73960 -5.4027e+002 -1.0248e+003  1.4414e+001 63616 73744,73862,73934
 3.2000e+000 73983 -4.8469e+002 -1.0652e+003  7.5683e+001 63616 73744,73934,73640
 3.2000e+000 74363 -3.1345e+002 -9.0855e+002 -1.6026e+001 63390 74386,74115,74089
 3.2000e+000 74340 -3.5767e+002 -8.6943e+002 -2.0768e+001 63390 74458,74386,74089
 3.2000e+000 74317 -3.1011e+002 -8.9846e+002  8.7573e+001 63390 74458,74089,74245
 3.2000e+000 74294 -3.9284e+002 -9.8889e+002 -6.8265e+000 63390 74530,74167,74141
 3.2000e+000 74271 -3.6526e+002 -8.7846e+002 -1.5119e+002 63390 74167,74219,74193
 3.2000e+000 74412 -2.9689e+002 -8.9477e+002 -8.4295e+000 63390 74141,74115,74386
 3.2000e+000 74435 -3.3731e+002 -9.3552e+002  2.3179e+001 63390 74530,74141,74386
 3.2000e+000 74484 -2.7368e+002 -7.2264e+002  3.2763e+001 63390 74219,74386,74458
 3.2000e+000 74507 -1.8758e+002 -7.1287e+002  1.5005e+002 63390 74219,74458,74245
 3.2000e+000 74556 -4.8709e+002 -9.4104e+002 -7.2924e+001 63390 74219,74167,74530
 3.2000e+000 74579 -4.2822e+002 -8.7224e+002 -3.8708e+001 63390 74219,74530,74386
 3.2000e+000 74680 -5.7163e+002 -8.7429e+002  8.9364e+001 63100 75089,74833,74703
 3.2000e+000 74729 -6.4641e+002 -1.0138e+003  7.4884e+001 63100 74961,74703,74654
 3.2000e+000 74859 -3.9884e+002 -7.2605e+002  1.5370e+002 63100 74602,74703,74833
 3.2000e+000 74987 -6.0072e+002 -9.0582e+002  7.4732e+001 63100 75089,74703,74961
 3.2000e+000 75115 -5.0223e+002 -9.2386e+002  1.3058e+002 63100 74628,74833,75089
 3.2000e+000 75138 -5.3097e+002 -9.5532e+002  1.1608e+002 63100 74628,75089,74961
 3.2000e+000 75723 -5.9685e+002 -7.4554e+002  8.0736e+001 62532 75746,75504,75426
 3.2000e+000 75700 -6.7879e+002 -4.8909e+002  1.1344e+002 62532 75746,75426,75556
 3.2000e+000 75677 -4.9966e+002 -2.6008e+002 -4.7231e+002 62532 75426,75504,75452
 3.2000e+000 75654 -6.4011e+002 -2.6400e+002 -1.7593e+002 62532 75400,75556,75426
 3.2000e+000 75631 -8.2085e+002 -9.0405e+002 -3.4522e+002 62532 75400,75582,75556
 3.2000e+000 75608 -2.1146e+002 -5.5146e+002 -3.3947e+002 62532 75452,75504,75478
 3.2000e+000 75772 -6.2246e+002 -9.8558e+002  2.4851e+001 62532 75530,75504,75746
 3.2000e+000 75795 -7.1027e+002 -7.1009e+002  3.0420e+001 62532 75530,75746,75556
 3.2000e+000 76301 -4.1655e+002 -8.4212e+002 -4.5699e+001 62192 76324,76082,76030
 3.2000e+000 76278 -3.5171e+002 -7.9017e+002 -2.3265e+001 62192 76324,76030,76004
 3.2000e+000 76255 -3.8644e+002 -8.5557e+002  5.4530e+001 62192 76030,76082,76056
 3.2000e+000 76232 -5.5661e+002 -9.5285e+002 -1.1516e+002 62192 76082,76134,76108
 3.2000e+000 76209 -3.6624e+002 -6.9471e+002 -1.0365e+002 62192 76004,76160,76134
 3.2000e+000 76186 -2.4095e+002 -7.5170e+002 -5.5312e+001 62192 75978,76160,76004
 3.2000e+000 76350 -5.0793e+002 -7.6467e+002 -4.7307e+001 62192 76134,76082,76324
 3.2000e+000 76373 -4.4147e+002 -6.9897e+002 -1.9984e+001 62192 76134,76324,76004
 3.2000e+000 76879 -6.0905e+002 -6.9477e+002 -6.6870e+001 61788 76902,76660,76582
 3.2000e+000 76856 -5.1520e+002 -7.5165e+002 -1.0418e+002 61788 76902,76582,76556
 3.2000e+000 76833 -1.0956e+003 -8.8005e+002 -7.8558e+001 61788 76582,76660,76634
 3.2000e+000 76810 -7.7666e+002 -1.0081e+003 -6.8301e+001 61788 76582,76634,76608
 3.2000e+000 76787 -5.3498e+002 -8.3957e+002  3.9637e+000 61788 76556,76738,76686
 3.2000e+000 76764 -3.1500e+002 -6.6766e+002 -7.2638e+001 61788 76686,76738,76712
 3.2000e+000 76928 -6.3372e+002 -7.4156e+002 -5.1653e+001 61788 76686,76660,76902
 3.2000e+000 76951 -5.6880e+002 -8.3179e+002 -7.6463e+001 61788 76686,76902,76556
 3.2000e+000 77408 -5.4732e+002 -7.5946e+002  1.0949e+001 61498 77212,77264,77238
 3.2000e+000 77385 -4.6563e+002 -6.0978e+002  6.3700e+001 61498 77160,77264,77212
 3.2000e+000 77362 -4.6971e+002 -6.2596e+002  5.5119e+001 61498 77160,77290,77264
 3.2000e+000 77339 -2.9711e+002 -7.7210e+002  9.5988e+001 61498 77160,77212,77186
 3.2000e+000 77316 -3.5142e+002 -4.8872e+002  2.2761e+002 61498 77134,77290,77160
 3.2000e+000 77678 -2.7494e+002 -6.9127e+002 -2.3605e+001 61129 77479,77557,77505
 3.2000e+000 77655 -3.2198e+002 -7.8390e+002 -4.0431e+000 61129 77479,77583,77557
 3.2000e+000 77632 -2.4644e+002 -8.2877e+002  3.8900e+001 61129 77453,77583,77479
 3.2000e+000 77609 -1.2891e+002 -6.5083e+002 -3.3908e+001 61129 77505,77557,77531
 3.2000e+000 77828 -2.9194e+002 -8.8070e+002  3.7932e+001 60931 77851,77727,77701
 3.2000e+000 77805 -3.3496e+002 -9.6934e+002  8.0768e+001 60931 77851,77701,77779
 3.2000e+000 77877 -5.0014e+002 -1.0995e+003  1.7508e+002 60931 77923,77851,77753
 3.2000e+000 77900 -2.2962e+002 -9.7242e+002  1.0903e+002 60931 77753,77851,77779
 3.2000e+000 77949 -2.8068e+002 -6.8227e+002  7.7774e+001 60931 77727,77851,77923
 3.2000e+000 78133 -2.4407e+002 -6.0466e+002 -5.1971e+001 60377 78055,78107,78081
 3.2000e+000 78535 -8.9467e+002 -1.1993e+003 -5.2577e+001 60015 78287,78391,78313
 3.2000e+000 78512 -5.7811e+002 -1.1954e+003 -9.6993e+001 60015 78287,78417,78391
 3.2000e+000 78489 -6.4548e+002 -1.3048e+003 -1.9530e+002 60015 78261,78417,78287
 3.2000e+000 78466 -4.6135e+002 -1.1280e+003  1.1248e+002 60015 78339,78391,78365
 3.2000e+000 78443 -4.8487e+002 -9.9946e+002  2.6521e+001 60015 78313,78391,78339
 3.2000e+000 78913 -3.8888e+002 -6.7057e+002 -3.1879e+000 59725 78936,78743,78691
 3.2000e+000 78890 -4.5293e+002 -7.1720e+002 -2.7729e+001 59725 79008,78936,78691
 3.2000e+000 78867 -4.4026e+002 -6.6983e+002 -5.4515e+001 59725 79008,78691,78665
 3.2000e+000 78844 -2.5104e+002 -6.8039e+002  1.2159e+002 59725 78691,78743,78717
 3.2000e+000 78821 -1.9828e+002 -5.7431e+002 -3.0048e+002 59725 78639,78795,78769
 3.2000e+000 78962 -2.9209e+002 -7.1759e+002 -6.3258e+001 59725 78769,78743,78936
 3.2000e+000 78985 -4.5285e+002 -8.9289e+002 -1.3202e+002 59725 78769,78936,78639
 3.2000e+000 79034 -3.8918e+002 -6.8474e+002 -5.5790e+001 59725 78639,78936,79008
 3.2000e+000 79057 -4.1416e+002 -6.7448e+002 -7.7492e+001 59725 78639,79008,78665
 3.2000e+000 79386 -4.2118e+002 -1.0233e+003  7.3224e+001 59221 79187,79239,79213
 3.2000e+000 79363 -3.4508e+002 -9.1499e+002  2.8986e+001 59221 79187,79265,79239
 3.2000e+000 79340 -4.7936e+002 -9.6681e+002  2.9939e+001 59221 79187,79291,79265
 3.2000e+000 79317 -3.2630e+002 -6.1911e+002 -3.0568e+001 59221 79161,79291,79187
 3.2000e+000 79813 -3.1720e+002 -5.7701e+002 -1.6636e+001 58831 79836,79542,79516
 3.2000e+000 79790 -2.4292e+002 -5.7893e+002  1.4210e+001 58831 79980,79836,79516
 3.2000e+000 79767 -3.1442e+002 -6.0163e+002 -1.4165e+002 58831 79908,79646,79568
 3.2000e+000 79744 -2.5583e+002 -5.8131e+002  1.4989e+001 58831 79980,79516,79490
 3.2000e+000 79721 -8.7191e+002 -6.0338e+002 -9.4038e+001 58831 79568,79646,79594
 3.2000e+000 79698 -3.7376e+002 -1.0634e+002  1.9750e+002 58831 79594,79646,79620
 3.2000e+000 79862 -2.2713e+002 -4.0020e+002  6.3631e+001 58831 79568,79542,79836
 3.2000e+000 79885 -1.5231e+002 -5.3869e+002  1.0129e+001 58831 79908,79568,79836
 3.2000e+000 79934 -4.3520e+002 -6.2432e+002 -1.9912e+002 58831 79672,79646,79908
 3.2000e+000 79957 -4.2921e+002 -6.3701e+002 -4.2557e+001 58831 79672,79908,79836
 3.2000e+000 80006 -2.3775e+002 -5.8051e+002  9.3710e+000 58831 79672,79836,79980
 3.2000e+000 80029 -2.4413e+002 -5.8062e+002  1.2324e+001 58831 79672,79980,79490
 3.2000e+000 80358 -3.5145e+002 -9.1930e+002  5.1818e+000 58377 80381,80185,80159
 3.2000e+000 80335 -3.5981e+002 -9.1261e+002  8.0229e+000 58377 80381,80159,80133
 3.2000e+000 80312 -2.1885e+002 -8.3162e+002 -2.5710e+001 58377 80133,80263,80237
 3.2000e+000 80289 -3.8163e+002 -1.0322e+003  8.7942e+001 58377 80185,80237,80211
 3.2000e+000 80407 -3.4273e+002 -9.1285e+002  2.1983e+000 58377 80237,80185,80381
 3.2000e+000 80430 -3.5519e+002 -9.0983e+002  6.1958e+000 58377 80237,80381,80133
 3.2000e+000 80759 -2.4872e+002 -8.7532e+002  1.9084e+002 57873 80782,80586,80560
 3.2000e+000 80736 -4.0321e+002 -1.0267e+003  1.2748e+002 57873 80782,80560,80534
 3.2000e+000 80713 -3.9096e+002 -1.0859e+003  8.7262e+001 57873 80586,80638,80612
 3.2000e+000 80690 -1.4873e+002 -9.8699e+002  8.7065e+001 57873 80534,80664,80638
 3.2000e+000 80808 -3.1889e+002 -1.0113e+003  1.1692e+002 57873 80638,80586,80782
 3.2000e+000 80831 -3.4219e+002 -1.0544e+003  8.7783e+001 57873 80638,80782,80534
 3.2000e+000 81337 -3.2769e+002 -6.5701e+002 -7.2477e+001 57262 81360,81144,81092
 3.2000e+000 81314 -3.7108e+002 -7.7061e+002 -9.2271e+001 57262 81360,81092,81066
 3.2000e+000 81291 -3.5865e+002 -7.8919e+002 -1.2657e+001 57262 81014,81196,81066
 3.2000e+000 81268 -2.9081e+002 -4.5432e+002 -5.9718e+001 57262 81092,81144,81118
 3.2000e+000 81245 -3.1282e+002 -5.3945e+002 -1.7261e+000 57262 81144,81196,81170
 3.2000e+000 81222 -3.7766e+002 -8.4409e+002  6.4521e+001 57262 81014,81066,81040
 3.2000e+000 81386 -3.3678e+002 -5.5390e+002  4.5784e+000 57262 81196,81144,81360
 3.2000e+000 81409 -3.8995e+002 -6.7565e+002 -1.9280e+001 57262 81196,81360,81066
 3.2000e+000 81608 -2.2907e+002 -7.0054e+002  2.7136e+001 57007 81458,81536,81510
 3.2000e+000 81585 -2.7388e+002 -7.6200e+002  5.9276e+000 57007 81432,81536,81458
 3.2000e+000 81562 -5.4480e+002 -6.6107e+002  1.5942e+002 57007 81458,81510,81484
 3.2000e+000 82086 -7.7540e+002 -1.0345e+003  4.5482e+001 56339 81792,81922,81818
 3.2000e+000 82063 -9.2693e+002 -1.1324e+003  3.5727e+000 56339 81714,81922,81792
 3.2000e+000 82040 -6.7297e+002 -9.3660e+002 -1.0836e+002 56339 82109,81844,81818
 3.2000e+000 82017 -7.2255e+002 -9.7301e+002 -1.2697e+002 56339 82109,81818,81922
 3.2000e+000 81994 -5.4028e+002 -1.1121e+003 -1.3611e+002 56339 81844,81896,81870
 3.2000e+000 81971 -5.3468e+002 -2.5578e+002  1.7264e+002 56339 81714,81792,81766
 3.2000e+000 81948 -3.6153e+002 -1.9272e+002  2.6916e+002 56339 81714,81766,81740
 3.2000e+000 82135 -5.6692e+002 -9.7555e+002 -7.4371e+001 56339 81896,81844,82109
 3.2000e+000 82158 -6.5540e+002 -1.0606e+003 -1.1020e+002 56339 81896,82109,81922
 3.2000e+000 82536 -4.5939e+002 -9.7196e+002 -3.6677e+001 55699 82288,82392,82314
 3.2000e+000 82513 -4.5365e+002 -9.7503e+002 -5.2541e+001 55699 82288,82418,82392
 3.2000e+000 82490 -5.4520e+002 -1.2174e+003 -7.0977e+001 55699 82314,82392,82340
 3.2000e+000 82467 -1.9523e+002 -1.5117e+003 -1.5158e+002 55699 82340,82392,82366
 3.2000e+000 82444 -4.1269e+002 -1.0159e+003 -5.4191e+001 55699 82262,82418,82288
 3.2000e+000 83091 -9.5384e+002 -9.5223e+002  1.8700e+002 55409 82745,82901,82875
 3.2000e+000 83068 -8.2331e+002 -9.2098e+002  2.3547e+002 55409 82719,82901,82745
 3.2000e+000 83045 -5.6478e+002 -9.0341e+002  1.6217e+002 55409 82771,82849,82823
 3.2000e+000 83022 -1.0149e+003 -1.0273e+003  2.9528e+002 55409 82745,82849,82771
 3.2000e+000 82999 -6.1786e+002 -8.0856e+002  1.7914e+002 55409 82745,82875,82849
 3.2000e+000 82976 -9.4060e+002 -8.0913e+002  2.1033e+002 55409 82771,82823,82797
 3.2000e+000 82953 -5.3141e+002 -9.9825e+002  2.5897e+002 55409 82719,82927,82901
 3.2000e+000 83388 -4.4392e+002 -1.1627e+003 -4.0360e+001 54905 83411,83218,83166
 3.2000e+000 83365 -2.9877e+002 -1.1239e+003 -3.0913e+001 54905 83411,83166,83114
 3.2000e+000 83342 -5.4303e+002 -1.1453e+003 -7.0650e+001 54905 83483,83270,83244
 3.2000e+000 83319 -5.2382e+002 -1.1235e+003 -7.8587e+001 54905 83166,83218,83192
 3.2000e+000 83296 -2.9994e+002 -1.1942e+003  3.7322e+001 54905 83114,83166,83140
 3.2000e+000 83437 -4.8801e+002 -1.1340e+003  6.0100e+000 54905 83244,83218,83411
 3.2000e+000 83460 -4.6024e+002 -1.1500e+003 -2.8402e+001 54905 83483,83244,83411
 3.2000e+000 83509 -4.3903e+002 -1.0542e+003 -3.2113e+001 54905 83114,83270,83483
 3.2000e+000 83532 -4.0738e+002 -1.0893e+003 -8.0986e-001 54905 83114,83483,83411
 3.2000e+000 83961 -2.5006e+002 -8.4097e+002  5.3726e+001 54593 83638,83768,83690
 3.2000e+000 83938 -5.7463e+001 -8.7824e+002  1.3438e+002 54593 83638,83794,83768
 3.2000e+000 83915 -2.5115e+002 -8.5907e+002  4.1691e+001 54593 83690,83768,83742
 3.2000e+000 83892 -1.8282e+002 -6.8661e+002 -1.4640e+002 54593 83638,83820,83794
 3.2000e+000 83869 -2.1442e+002 -6.4785e+002  4.8921e+000 54593 83638,83690,83664
 3.2000e+000 83846 -1.7171e+002 -5.7693e+002 -1.9275e+002 54593 83690,83742,83716
 3.2000e+000 84209 -4.5671e+002 -1.3589e+003  1.5400e+002 54132 84232,84062,83984
 3.2000e+000 84186 -4.4881e+002 -1.1358e+003  9.2135e+001 54132 84232,83984,84114
 3.2000e+000 84163 -5.0163e+002 -1.4674e+003  3.3867e+001 54132 83984,84062,84036
 3.2000e+000 84140 -5.3198e+002 -1.3516e+003 -2.2189e+000 54132 83984,84036,84010
 3.2000e+000 84258 -3.2570e+002 -1.6164e+003  1.1676e+002 54132 84088,84062,84232
 3.2000e+000 84281 -2.8821e+002 -1.3701e+003  1.2885e+001 54132 84088,84232,84114
 3.2000e+000 84382 -1.8612e+002 -6.0005e+002 -1.3900e+001 53521 84304,84356,84330
 3.2000e+000 84632 -4.2602e+002 -1.0797e+003  1.6693e+001 53067 84655,84485,84459
 3.2000e+000 84609 -4.6467e+002 -1.0613e+003  6.4223e+000 53067 84655,84459,84407
 3.2000e+000 84586 -3.7683e+002 -1.0130e+003 -4.8366e+000 53067 84485,84537,84511
 3.2000e+000 84563 -4.9328e+002 -1.1617e+003 -3.1596e+001 53067 84407,84459,84433
 3.2000e+000 84681 -4.1103e+002 -1.0679e+003  1.1606e+001 53067 84537,84485,84655
 3.2000e+000 84704 -4.2416e+002 -1.0321e+003 -6.2887e+000 53067 84537,84655,84407
 3.2000e+000 85214 -2.3768e+002 -9.7563e+002 -1.9004e+002 52513 85021,85073,85047
 3.2000e+000 85191 -2.8740e+002 -7.5121e+002 -2.2115e+002 52513 84943,85073,85021
 3.2000e+000 85168 -1.5919e+002 -6.6060e+002 -5.1235e+001 52513 84943,85021,84995
 3.2000e+000 85145 -4.8891e+002 -1.3075e+003 -1.7070e+002 52513 84917,85073,84943
 3.2000e+000 85122 -1.8250e+002 -5.7150e+002 -7.5892e+001 52513 84943,84995,84969
 3.2000e+000 85099 -7.8604e+002 -1.2061e+003 -1.1166e+002 52513 84891,85073,84917
 3.2000e+000 85582 -4.3148e+002 -1.0696e+003  1.0524e+002 52037 85605,85311,85285
 3.2000e+000 85559 -4.5060e+002 -1.1306e+003  1.0411e+002 52037 85749,85605,85285
 3.2000e+000 85536 -1.6386e+002 -1.0359e+003  1.4477e+001 52037 85893,85677,85389
 3.2000e+000 85513 -3.2746e+002 -1.0318e+003  6.0270e+001 52037 85749,85285,85259
 3.2000e+000 85490 -6.1034e-002 -9.7238e+002 -7.3981e+001 52037 85893,85389,85363
 3.2000e+000 85467 -2.5691e+002 -1.1086e+003 -5.8922e+001 52037 85259,85441,85415
 3.2000e+000 85631 -6.3577e+002 -1.1936e+003  4.4165e+001 52037 85337,85311,85605
 3.2000e+000 85654 -4.6795e+002 -1.1634e+003  1.9083e+002 52037 85677,85337,85605
 3.2000e+000 85703 -1.1508e+002 -1.1396e+003  6.2421e+001 52037 85415,85389,85677
 3.2000e+000 85726 -1.7040e+002 -1.0969e+003  1.4387e+002 52037 85821,85677,85605
 3.2000e+000 85775 -2.7756e+002 -1.1421e+003  1.4191e+002 52037 85821,85605,85749
 3.2000e+000 85798 -3.5056e+002 -1.1541e+003  5.2442e+001 52037 85415,85749,85259
 3.2000e+000 85847 -1.9609e+002 -1.1203e+003  5.9899e+001 52037 85415,85677,85821
 3.2000e+000 85870 -2.3736e+002 -1.1368e+003  6.0699e+001 52037 85415,85821,85749
 3.2000e+000 85919 -1.5521e+002 -1.1516e+003  1.8656e+002 52037 85337,85677,85893
 3.2000e+000 85942 -8.4048e+001 -1.1358e+003  1.0303e+002 52037 85337,85893,85363
 3.2000e+000 86224 -1.3505e+002 -3.6241e+002  1.3292e+002 51368 86375,86100,86074
 3.2000e+000 86201 -3.4274e+002 -4.8750e+002  7.0053e+001 51368 86375,86074,86247
 3.2000e+000 86178 -1.2075e+002 -1.0210e+003 -2.0111e+002 51368 86048,86152,86126
 3.2000e+000 86273 -3.3134e+002 -6.9230e+002 -1.8432e+002 51368 86048,86126,86247
 3.2000e+000 86401 -9.3303e+000 -5.4225e+002  1.7013e+001 51368 86126,86100,86375
 3.2000e+000 86424 -1.1494e+002 -6.3843e+002 -2.6441e+001 51368 86126,86375,86247
 3.2000e+000 86802 -5.0634e+002 -9.9360e+002  2.3236e+001 51028 86528,86632,86580
 3.2000e+000 86779 -5.3995e+002 -1.1598e+003  6.9693e+001 51028 86528,86684,86632
 3.2000e+000 86756 -6.3173e+002 -1.2853e+003 -2.6134e+001 51028 86528,86580,86554
 3.2000e+000 86733 -3.7312e+002 -1.0891e+003  2.5159e+002 51028 86632,86684,86658
 3.2000e+000 86710 -5.4978e+002 -1.1783e+003 -1.3031e+002 51028 86580,86632,86606
 3.2000e+000 87131 -4.7173e+002 -9.2381e+002  1.8947e+002 50624 86958,87036,87010
 3.2000e+000 87108 -5.6673e+002 -9.0548e+002  1.5847e+002 50624 86932,87036,86958
 3.2000e+000 87085 -4.2013e+002 -8.9279e+002  9.5689e+001 50624 86958,87010,86984
 3.2000e+000 87062 -4.1162e+002 -8.1724e+002  1.9983e+002 50624 86906,87036,86932
 3.2000e+000 87330 -7.2286e+002 -1.1350e+003 -1.2127e+000 50234 87353,87180,87154
 3.2000e+000 87307 -6.4258e+002 -1.1186e+003 -2.8602e+000 50234 87353,87154,87258
 3.2000e+000 87284 -4.9169e+002 -1.0902e+003 -1.9594e+001 50234 87206,87258,87232
 3.2000e+000 87379 -6.5560e+002 -1.2015e+003  5.2034e+001 50234 87206,87180,87353
 3.2000e+000 87402 -5.2904e+002 -1.1555e+003  3.2190e+001 50234 87206,87353,87258
 3.2000e+000 87650 -5.2842e+002 -1.1342e+003 -7.1129e+001 49730 87673,87503,87451
 3.2000e+000 87627 -3.6022e+002 -1.0580e+003 -4.9813e+001 49730 87673,87451,87425
 3.2000e+000 87604 -3.3653e+002 -8.6616e+002  9.8678e+001 49730 87503,87555,87529
 3.2000e+000 87581 -6.2813e+002 -9.4280e+002 -9.6127e+001 49730 87451,87503,87477
 3.2000e+000 87699 -5.4907e+002 -1.0735e+003 -2.4797e+001 49730 87555,87503,87673
 3.2000e+000 87722 -5.1456e+002 -1.0566e+003 -1.8027e+001 49730 87555,87673,87425
 3.2000e+000 88232 -4.5276e+002 -1.0250e+003  8.8654e+001 49176 88255,87935,87909
 3.2000e+000 88209 -5.8692e+002 -1.1394e+003  2.3793e+002 49176 88255,87909,88065
 3.2000e+000 88186 -5.5751e+002 -9.7501e+002  1.7165e+002 49176 87935,88039,87961
 3.2000e+000 88163 -4.9879e+002 -1.0462e+003  1.9759e+002 49176 87909,88091,88065
 3.2000e+000 88140 -7.5336e+002 -1.0628e+003  1.4648e+002 49176 87961,88039,88013
 3.2000e+000 88117 -6.7543e+002 -1.3709e+003 -4.0759e+001 49176 87961,88013,87987
 3.2000e+000 88281 -6.0859e+002 -1.0796e+003  2.1692e+002 49176 88039,87935,88255
 3.2000e+000 88304 -7.4847e+002 -1.1916e+003  3.6613e+002 49176 88039,88255,88065
 3.2000e+000 88503 -1.6809e+002 -7.2540e+002 -3.6162e+000 48772 88526,88379,88353
 3.2000e+000 88480 -2.0013e+002 -5.8742e+002  2.3529e+001 48772 88526,88353,88327
 3.2000e+000 88457 -2.1173e+002 -8.1312e+002 -6.5958e+000 48772 88379,88431,88405
 3.2000e+000 88552 -1.3806e+002 -6.1525e+002 -2.0234e+001 48772 88431,88379,88526
 3.2000e+000 88575 -2.0251e+002 -5.2798e+002 -7.7400e+000 48772 88431,88526,88327
 3.2000e+000 89083 -2.1297e+002 -4.7142e+002 -1.3096e+002 48368 88786,88916,88864
 3.2000e+000 89060 -2.1176e+002 -5.6766e+002 -6.0783e+001 48368 88786,88942,88916
 3.2000e+000 89037 -2.6939e+002 -3.3776e+002 -6.3873e+000 48368 88786,88864,88812
 3.2000e+000 89014 -2.7218e+002 -6.3266e+002 -1.8236e+002 48368 88864,88916,88890
 3.2000e+000 88991 -7.8304e+001 -6.6484e+002  2.5018e+002 48368 88812,88864,88838
 3.2000e+000 88968 -4.1894e+001 -4.5105e+002  1.5345e+001 48368 88760,88942,88786
 3.2000e+000 89331 -3.6680e+002 -1.1012e+003  5.6326e+001 47928 89158,89236,89210
 3.2000e+000 89308 -2.6553e+002 -7.2029e+002  1.3264e+002 47928 89132,89236,89158
 3.2000e+000 89285 -4.8840e+002 -7.0446e+002  4.1978e+001 47928 89158,89210,89184
 3.2000e+000 89262 -4.8300e+002 -9.0502e+002  5.4239e+001 47928 89106,89236,89132
 3.2000e+000 89662 -5.5630e+002 -1.1190e+003 -8.1571e+000 47588 89463,89541,89515
 3.2000e+000 89639 -3.9636e+002 -9.0575e+002 -8.4234e+001 47588 89463,89567,89541
 3.2000e+000 89616 -4.6243e+002 -1.0167e+003  6.3937e+001 47588 89463,89515,89489
 3.2000e+000 89593 -5.3269e+002 -9.2607e+002 -1.0342e+002 47588 89437,89567,89463
 3.2000e+000 89763  2.1871e-002 -8.1744e+001  3.5188e+001 47390 89685,89737,89711
 3.2000e+000 89913 -9.3592e+001 -5.3688e+002 -4.9509e+001 47078 89786,89838,89812
 3.2000e+000 89890 -2.0885e+002 -8.9369e+002  7.8200e+001 47078 89786,89864,89838
 3.2000e+000 90163 -4.9377e+002 -9.7457e+002  5.3937e+001 46474 89964,90042,89990
 3.2000e+000 90140 -4.2656e+002 -9.4506e+002  4.7681e+001 46474 89938,90042,89964
 3.2000e+000 90117 -5.4148e+002 -9.3457e+002  5.4084e+001 46474 89990,90042,90016
 3.2000e+000 90094 -5.3380e+002 -9.7519e+002  7.3594e+001 46474 89938,90068,90042
 3.2000e+000 90364 -5.0547e+002 -9.6354e+002  1.2639e+002 46184 90240,90292,90266
 3.2000e+000 90341 -6.6074e+002 -9.3462e+002  1.5006e+002 46184 90188,90292,90240
 3.2000e+000 90318 -4.7640e+002 -9.8988e+002  2.2426e+002 46184 90188,90240,90214
 3.2000e+000 90565 -4.9669e+002 -7.8800e+002 -3.4570e+001 45780 90588,90415,90389
 3.2000e+000 90542 -4.1898e+002 -7.9273e+002 -1.9686e+001 45780 90588,90389,90493
 3.2000e+000 90519 -4.8128e+002 -8.8574e+002 -1.8806e+001 45780 90415,90467,90441
 3.2000e+000 90614 -4.4145e+002 -8.0513e+002  1.5714e+001 45780 90467,90415,90588
 3.2000e+000 90637 -3.4023e+002 -7.7535e+002  4.2309e+001 45780 90467,90588,90493
 3.2000e+000 91196 -6.5145e+002 -1.1152e+003 -8.5888e+001 45226 91219,90876,90850
 3.2000e+000 91173 -3.7532e+002 -1.0425e+003  4.7898e+001 45226 91219,90850,91032
 3.2000e+000 91150 -2.9554e+002 -1.1991e+003 -9.0497e+001 45226 90824,91032,90850
 3.2000e+000 91127 -5.1205e+002 -8.6299e+002  3.6765e+001 45226 90876,90980,90902
 3.2000e+000 91104 -2.8323e+002 -8.5295e+002  1.2071e+002 45226 90876,91006,90980
 3.2000e+000 91081 -4.4580e+002 -9.4426e+002 -7.9983e+001 45226 90902,90980,90954
 3.2000e+000 91058 -2.5345e+002 -8.0263e+002 -1.5381e+002 45226 90902,90954,90928
 3.2000e+000 91245 -3.9310e+002 -1.0186e+003  2.8553e+000 45226 91006,90876,91219
 3.2000e+000 91268 -1.4792e+002 -9.9700e+002  1.1656e+002 45226 91006,91219,91032
 3.2000e+000 91516 -1.8837e+002 -1.3633e+003  1.2577e+002 44836 91539,91421,91395
 3.2000e+000 91493 -2.0329e+002 -1.4602e+003 -8.7280e+000 44836 91317,91421,91343
 3.2000e+000 91470 -3.7609e+002 -1.3064e+003  8.2771e+001 44836 91539,91395,91369
 3.2000e+000 91447 -3.4847e+002 -1.0089e+003  2.5634e+002 44836 91291,91421,91317
 3.2000e+000 91565 -2.7465e+002 -1.3816e+003  2.9128e+001 44836 91343,91421,91539
 3.2000e+000 91588 -4.3464e+002 -1.3908e+003 -4.7200e+001 44836 91343,91539,91369
 3.2000e+000 91787 -3.6027e+002 -8.7010e+002  4.6218e+001 44432 91810,91637,91611
 3.2000e+000 91764 -4.2989e+002 -1.0246e+003  9.4073e+001 44432 91810,91611,91715
 3.2000e+000 91741 -2.1411e+002 -7.0353e+002 -5.4891e+001 44432 91637,91689,91663
 3.2000e+000 91836 -4.3912e+002 -7.9121e+002  4.3569e+001 44432 91689,91637,91810
 3.2000e+000 91859 -4.3418e+002 -8.6719e+002  6.8515e+001 44432 91689,91810,91715
 3.2000e+000 92207 -5.0052e+002 -1.1364e+003  1.1556e+002 43864 92230,91936,91910
 3.2000e+000 92184 -6.6938e+002 -1.1725e+003  1.5937e+002 43864 92230,91910,92040
 3.2000e+000 92161 -7.9964e+002 -1.2144e+003  2.4897e+002 43864 91884,92040,91910
 3.2000e+000 92138 -5.9349e+002 -1.0082e+003  1.4945e+001 43864 91936,92014,91988
 3.2000e+000 92115 -4.8873e+002 -1.3388e+003  2.8138e+002 43864 91936,91988,91962
 3.2000e+000 92092 -6.3957e+002 -9.6975e+002  1.6864e+002 43864 91884,92066,92040
 3.2000e+000 92256 -6.7735e+002 -1.0562e+003  9.5136e+001 43864 92014,91936,92230
 3.2000e+000 92279 -8.2205e+002 -1.0894e+003  1.6427e+002 43864 92014,92230,92040
 3.2000e+000 92529 -5.4452e+002 -9.8542e+002  7.5724e+001 43410 92552,92330,92304
 3.2000e+000 92506 -5.3124e+002 -9.6551e+002  1.4970e+000 43410 92552,92304,92408
 3.2000e+000 92483 -5.6646e+002 -1.0220e+003  1.7408e+001 43410 92304,92434,92408
 3.2000e+000 92460 -3.0017e+002 -8.3488e+002 -1.3387e+001 43410 92330,92382,92356
 3.2000e+000 92578 -4.9571e+002 -9.6313e+002  4.3153e+001 43410 92382,92330,92552
 3.2000e+000 92601 -4.2880e+002 -8.9495e+002 -3.9759e+001 43410 92382,92552,92408
 3.2000e+000 92802 -2.6493e+002 -1.2304e+003  1.3315e+002 43162 92825,92704,92652
 3.2000e+000 92779 -1.8507e+002 -1.1590e+003  2.4812e+002 43162 92825,92652,92626
 3.2000e+000 92756 -2.3466e+002 -1.2027e+003  1.4458e+002 43162 92652,92704,92678
 3.2000e+000 92851 -4.5404e+002 -1.2441e+003 -7.2793e+000 43162 92730,92704,92825
 3.2000e+000 92874 -4.2904e+002 -8.1731e+002  1.7944e+002 43162 92730,92825,92626
 3.2000e+000 93463 -3.0336e+002 -7.2527e+002 -1.4040e+002 42758 93140,93270,93166
 3.2000e+000 93440 -3.8463e+002 -8.1605e+002 -9.1304e+001 42758 93140,93296,93270
 3.2000e+000 93417 -2.8187e+002 -7.6808e+002 -1.0338e+002 42758 93166,93270,93218
 3.2000e+000 93394 -1.9026e+002 -7.6620e+002 -1.2101e+002 42758 93218,93270,93244
 3.2000e+000 93371 -1.0828e+002 -9.5834e+002 -7.2671e+001 42758 93140,93322,93296
 3.2000e+000 93348 -3.5807e+002 -8.9433e+002  2.2858e+001 42758 93166,93218,93192
 3.2000e+000 93920 -3.1943e+002 -8.5172e+002 -3.2721e+000 42304 93943,93672,93646
 3.2000e+000 93897 -3.0638e+002 -8.0119e+002  2.2304e+000 42304 93943,93646,93802
 3.2000e+000 93874 -2.8229e+002 -8.3802e+002  5.6202e+001 42304 93724,93802,93776
 3.2000e+000 93851 -4.2879e+002 -1.0050e+003  6.8444e+001 42304 93672,93724,93698
 3.2000e+000 93828 -4.8320e+002 -9.9324e+002 -2.3133e+001 42304 93724,93776,93750
 3.2000e+000 93969 -3.0896e+002 -8.7035e+002 -1.7753e+001 42304 93724,93672,93943
 3.2000e+000 93992 -3.1434e+002 -8.4749e+002 -1.1254e+001 42304 93724,93943,93802
 3.2000e+000 94321 -4.1156e+002 -1.0199e+003  3.3751e+001 41478 94096,94148,94122
 3.2000e+000 94298 -4.4435e+002 -1.0354e+003  5.6362e+001 41478 94096,94226,94148
 3.2000e+000 94275 -5.6162e+002 -1.3722e+003 -2.5360e+001 41478 94148,94226,94174
 3.2000e+000 94252 -2.5090e+002 -1.0229e+003 -2.3968e+002 41478 94174,94226,94200
 3.2000e+000 94618 -3.8235e+002 -1.2342e+003 -6.9894e+000 40910 94344,94422,94396
 3.2000e+000 94595 -5.4507e+002 -1.2006e+003 -4.7368e+001 40910 94344,94448,94422
 3.2000e+000 94572 -4.7226e+002 -1.0259e+003 -3.5192e+001 40910 94344,94474,94448
 3.2000e+000 94549 -3.4144e+002 -1.3466e+003 -9.2659e+001 40910 94344,94396,94370
 3.2000e+000 94526 -7.3530e+002 -1.3845e+003  8.5267e+001 40910 94344,94500,94474
 3.2000e+000 94866 -4.3216e+002 -8.0735e+002 -9.6715e+001 40306 94667,94719,94693
 3.2000e+000 94843 -5.2339e+002 -8.9120e+002 -6.0989e+001 40306 94641,94719,94667
 3.2000e+000 94820 -6.0479e+002 -9.0034e+002  1.0462e+001 40306 94641,94745,94719
 3.2000e+000 94797 -4.7332e+002 -8.4545e+002 -1.3666e+001 40306 94641,94771,94745
 3.2000e+000 95089 -7.2917e+001 -7.5966e+002  9.6675e+001 39702 94913,94991,94939
 3.2000e+000 95066 -8.2613e+001 -6.4083e+002  1.6919e+001 39702 94913,95017,94991
 3.2000e+000 95043 -4.5284e+000 -7.4225e+002  7.2405e+000 39702 94939,94991,94965
 3.2000e+000 95339 -4.0865e+002 -8.7127e+002 -1.1976e+002 39248 95140,95218,95166
 3.2000e+000 95316 -5.2374e+002 -9.4720e+002 -7.5152e+001 39248 95140,95244,95218
 3.2000e+000 95293 -3.1661e+002 -1.0064e+003 -1.2649e+002 39248 95114,95244,95140
 3.2000e+000 95270 -3.4531e+002 -9.8191e+002 -2.2361e+002 39248 95166,95218,95192
 3.2000e+000 95770 -5.1425e+002 -8.4557e+002  3.8777e+001 38694 95551,95629,95577
 3.2000e+000 95747 -3.5013e+002 -1.0381e+003  4.8828e+001 38694 95447,95629,95551
 3.2000e+000 95724 -2.5984e+002 -8.7430e+002 -4.9289e+001 38694 95447,95551,95473
 3.2000e+000 95701 -2.0395e+002 -8.4016e+002 -6.7574e+001 38694 95473,95551,95499
 3.2000e+000 95678 -1.7959e+002 -7.8760e+002 -1.5634e+002 38694 95499,95551,95525
 3.2000e+000 95655 -5.0625e+002 -7.9636e+002  1.8864e+000 38694 95577,95629,95603
 3.2000e+000 96325 -4.8725e+002 -1.0399e+003  4.8700e+001 38240 95953,96031,96005
 3.2000e+000 96302 -4.5688e+002 -5.9568e+002  1.8736e+002 38240 95953,96161,96031
 3.2000e+000 96279 -3.1710e+002 -5.6259e+002 -3.6948e+001 38240 96031,96161,96135
 3.2000e+000 96256 -3.8587e+002 -7.7817e+002  1.6058e+002 38240 96348,96109,96057
 3.2000e+000 96233 -3.3486e+002 -6.9885e+002  1.0898e+002 38240 96348,96057,96031
 3.2000e+000 96210 -2.6610e+002 -7.7198e+002  2.3893e+002 38240 96057,96109,96083
 3.2000e+000 96187 -6.4204e+002 -4.8323e+002 -7.3235e+001 38240 95953,96005,95979
 3.2000e+000 96374 -2.8881e+002 -9.1723e+002  9.9443e+001 38240 96135,96109,96348
 3.2000e+000 96397 -2.0292e+002 -7.7502e+002  3.6674e+001 38240 96135,96348,96031
 3.2000e+000 96618 -4.5249e+002 -1.2109e+003  1.8345e+001 37821 96494,96546,96520
 3.2000e+000 96595 -2.8004e+002 -1.0975e+003  6.7318e+001 37821 96468,96546,96494
 3.2000e+000 96572 -1.6425e+002 -1.0477e+003  5.8081e+001 37821 96442,96546,96468
 3.2000e+000 97126 -3.2253e+002 -6.8951e+002 -8.1840e+001 37367 97149,96855,96829
 3.2000e+000 97103 -3.3053e+002 -6.9901e+002 -4.7727e+001 37367 97149,96829,96985
 3.2000e+000 97080 -2.7478e+002 -7.1040e+002 -5.3151e+001 37367 96803,96985,96829
 3.2000e+000 97057 -2.0122e+002 -6.7054e+002 -1.2645e+002 37367 96855,96907,96881
 3.2000e+000 97034 -3.7970e+002 -6.2185e+002 -2.5340e+001 37367 96907,96985,96959
 3.2000e+000 97011 -4.4724e+002 -5.6482e+002 -9.5155e+001 37367 96907,96959,96933
 3.2000e+000 97175 -3.2896e+002 -6.4615e+002 -8.8219e+001 37367 96907,96855,97149
 3.2000e+000 97198 -3.3523e+002 -6.6299e+002 -5.7457e+001 37367 96907,97149,96985
 3.2000e+000 97704 -4.3540e+002 -9.2889e+002  1.1908e+002 36863 97727,97511,97485
 3.2000e+000 97681 -4.1455e+002 -8.3421e+002  1.4944e+002 36863 97727,97485,97433
 3.2000e+000 97658 -5.2932e+002 -9.8158e+002  2.9524e+001 36863 97381,97563,97433
 3.2000e+000 97635 -2.8044e+002 -8.4680e+002 -3.2528e+001 36863 97511,97563,97537
 3.2000e+000 97612 -1.9720e+002 -5.9769e+002  3.0619e+001 36863 97433,97485,97459
 3.2000e+000 97589 -6.1735e+002 -1.0239e+003  9.2488e+001 36863 97381,97433,97407
 3.2000e+000 97753 -4.3132e+002 -1.0091e+003  7.1641e+001 36863 97563,97511,97727
 3.2000e+000 97776 -4.2190e+002 -9.2166e+002  9.7908e+001 36863 97563,97727,97433
 3.2000e+000 98331 -5.2725e+002 -1.1962e+003 -9.4134e+000 36287 98354,98089,98063
 3.2000e+000 98308 -4.7319e+002 -1.2211e+003  8.2877e+001 36287 98354,98063,98011
 3.2000e+000 98285 -6.5918e+002 -1.1638e+003  1.5892e+002 36287 98426,97985,98115
 3.2000e+000 98262 -4.4414e+002 -1.2706e+003  6.6705e+001 36287 98011,98063,98037
 3.2000e+000 98239 -5.9533e+002 -9.8481e+002  3.4038e+001 36287 97985,98141,98115
 3.2000e+000 98216 -7.4350e+002 -7.6915e+002  1.9043e+002 36287 97959,98141,97985
 3.2000e+000 98193 -6.2753e+002 -1.6116e+003  5.3694e+002 36287 97959,98167,98141
 3.2000e+000 98380 -5.0358e+002 -1.1903e+003 -9.6284e+000 36287 98115,98089,98354
 3.2000e+000 98403 -4.8736e+002 -1.1472e+003  4.4742e+000 36287 98426,98115,98354
 3.2000e+000 98452 -8.5842e+002 -1.3256e+003  2.8547e+002 36287 98011,97985,98426
 3.2000e+000 98475 -7.0842e+002 -1.3549e+003  1.3949e+002 36287 98011,98426,98354
 3.2000e+000 99030 -5.2695e+002 -1.3460e+003 -7.7527e+001 35726 99053,98736,98710
 3.2000e+000 99007 -4.4750e+002 -1.1468e+003  1.6100e+001 35726 99053,98710,98684
 3.2000e+000 98984 -5.8102e+002 -1.1099e+003 -1.1906e+002 35726 99125,98814,98736
 3.2000e+000 98961 -4.3724e+002 -9.4741e+002 -5.0591e+001 35726 98736,98814,98788
 3.2000e+000 98938 -5.5178e+002 -1.0411e+003  8.9517e+001 35726 98684,98866,98840
 3.2000e+000 98915 -3.5823e+002 -9.1707e+002 -4.0696e+001 35726 98736,98788,98762
 3.2000e+000 98892 -3.6956e+002 -1.1064e+003  3.8202e+001 35726 98658,98866,98684
 3.2000e+000 99079 -4.4944e+002 -1.1199e+003 -4.1783e+001 35726 99125,98736,99053
 3.2000e+000 99102 -5.5024e+002 -1.0171e+003  1.3743e+001 35726 98840,99053,98684
 3.2000e+000 99151 -7.0234e+002 -1.1662e+003 -1.4454e+002 35726 98840,98814,99125
 3.2000e+000 99174 -6.3645e+002 -1.1937e+003 -4.9996e+001 35726 98840,99125,99053
 3.2000e+000 99454 -2.0667e+002 -7.3326e+002 -4.4198e+001 35222 99278,99330,99304
 3.2000e+000 99431 -2.5831e+002 -6.9644e+002  2.8375e+001 35222 99278,99382,99330
 3.2000e+000 99408 -4.1319e+002 -8.5007e+002 -3.4426e+001 35222 99330,99382,99356
 3.2000e+000 99653 -2.4556e+002 -1.1403e+003  1.7453e+000 34867 99477,99529,99503
 3.2000e+000 99630 -3.1391e+002 -8.1289e+002 -7.6417e+001 34867 99477,99581,99529
 3.2000e+000 99607 -3.4086e+002 -1.3579e+003 -3.6345e+002 34867 99529,99581,99555
 3.2000e+000 100104 -2.5600e+002 -9.4073e+002 -1.7493e+001 34363 99781,99885,99807
 3.2000e+000 100081 -3.6351e+002 -1.0012e+003  2.5206e+001 34363 99781,99963,99885
 3.2000e+000 100058 -1.4778e+002 -8.8658e+002 -3.2698e+001 34363 99885,99963,99911
 3.2000e+000 100035 -1.7532e+002 -8.2152e+002  2.2558e+001 34363 99807,99885,99859
 3.2000e+000 100012 -8.4666e+001 -8.4347e+002 -1.2324e+002 34363 99911,99963,99937
 3.2000e+000 99989 -6.1979e+001 -7.6861e+002  4.0514e+001 34363 99807,99859,99833
 3.2000e+000 100303 -4.8469e+002 -8.0516e+002 -2.1886e+002 33909 100127,100205,100179
 3.2000e+000 100280 -6.3117e+002 -8.8779e+002 -1.8603e+002 33909 100127,100231,100205
 3.2000e+000 100257 -5.6497e+002 -9.7413e+002 -1.8968e+002 33909 100127,100179,100153
 3.2000e+000 100890 -2.5953e+002 -8.6218e+002 -1.1905e+002 33412 100645,100749,100697
 3.2000e+000 100867 -2.7814e+002 -1.0461e+003 -8.9761e+001 33412 100567,100749,100645
 3.2000e+000 100844 -2.7617e+002 -1.0370e+003 -8.8919e+001 33412 100567,100645,100619
 3.2000e+000 100821 -2.4946e+002 -1.0186e+003 -2.1298e+002 33412 100645,100697,100671
 3.2000e+000 100798 -3.5638e+002 -1.4052e+003 -2.4675e+001 33412 100567,100619,100593
 3.2000e+000 100775 -4.7131e+002 -8.4704e+002 -6.1033e+001 33412 100697,100749,100723
 3.2000e+000 101268 -2.5704e+002 -1.0693e+003  1.2581e+001 32908 101435,101291,101098
 3.2000e+000 101245 -3.9719e+002 -1.1325e+003  5.5835e+001 32908 101291,101072,101020
 3.2000e+000 101222 -3.7565e+002 -1.2261e+003 -1.9131e+002 32908 101363,101150,101124
 3.2000e+000 101199 -4.5336e+002 -1.1771e+003  1.8470e+002 32908 101020,101072,101046
 3.2000e+000 101176 -2.0464e+002 -8.3837e+002 -5.0641e+001 32908 100994,101150,101020
 3.2000e+000 101317 -3.2157e+002 -1.2032e+003  7.9512e+001 32908 101124,101098,101291
 3.2000e+000 101340 -3.2632e+002 -1.3473e+003 -2.5375e+000 32908 101363,101124,101291
 3.2000e+000 101389 -2.8507e+002 -1.0414e+003 -1.6258e+002 32908 101020,101150,101363
 3.2000e+000 101412 -2.0179e+002 -1.0614e+003  1.7853e+001 32908 101020,101363,101291
 3.2000e+000 101461 -2.4457e+002 -9.9970e+002  1.1200e+002 32908 101072,101291,101435
 3.2000e+000 101918 -2.5169e+002 -1.2236e+003 -1.1665e+002 32618 101941,101670,101644
 3.2000e+000 101895 -1.6786e+001 -1.1580e+003  4.4040e+001 32618 101941,101644,101774
 3.2000e+000 101872 -4.7965e+002 -1.0040e+003 -3.5324e+001 32618 102013,101696,101670
 3.2000e+000 101849 -8.9597e+001 -7.5505e+002 -1.1975e+002 32618 101696,101748,101722
 3.2000e+000 101826  7.5711e+000 -1.0913e+003  3.8883e+001 32618 101644,101800,101774
 3.2000e+000 101967 -4.7188e+002 -1.1747e+003 -1.2354e+002 32618 102013,101670,101941
 3.2000e+000 101990 -3.7078e+002 -1.3063e+003  8.1929e+001 32618 101748,101941,101774
 3.2000e+000 102039 -4.3087e+002 -9.4026e+002 -1.6964e+000 32618 101748,101696,102013
 3.2000e+000 102062 -2.4567e+002 -1.0041e+003 -4.1577e+001 32618 101748,102013,101941
 3.2000e+000 102440 -5.7587e+002 -1.2240e+003  9.1378e+001 32306 102463,102270,102244
 3.2000e+000 102417 -5.9353e+002 -1.2352e+003  3.8912e+000 32306 102463,102244,102192
 3.2000e+000 102394 -5.5930e+002 -1.0876e+003 -1.3970e+001 32306 102192,102244,102218
 3.2000e+000 102371 -3.6508e+002 -1.1405e+003  8.4158e+001 32306 102270,102322,102296
 3.2000e+000 102348 -2.9679e+002 -1.3967e+003 -8.9249e+001 32306 102166,102322,102192
 3.2000e+000 102489 -4.7843e+002 -1.1985e+003  1.1961e+002 32306 102322,102270,102463
 3.2000e+000 102512 -4.9534e+002 -1.2242e+003  2.7051e+001 32306 102322,102463,102192
 3.2000e+000 102662 -3.2214e+002 -1.2243e+003 -3.0406e+001 31852 102943,102587,102561
 3.2000e+000 102639 -2.0160e+002 -9.9641e+002  3.7372e+001 31852 102815,102685,102561
 3.2000e+000 102711 -3.7812e+002 -1.2507e+003 -4.1551e+001 31852 102943,102561,102685
 3.2000e+000 102841 -1.8288e+002 -8.8474e+002  9.4986e+001 31852 102535,102685,102815
 3.2000e+000 102969 -3.1725e+002 -1.2507e+003 -8.1444e+001 31852 102613,102587,102943
 3.2000e+000 102992 -3.7513e+002 -1.2778e+003 -9.1481e+001 31852 102613,102943,102685
 3.2000e+000 103370 -6.2910e+002 -1.3818e+003  5.2477e+001 31134 103096,103200,103122
 3.2000e+000 103347 -8.0979e+002 -1.8370e+003  1.5541e+002 31134 103096,103226,103200
 3.2000e+000 103324 -8.2784e+002 -1.4963e+003  9.8707e+001 31134 103122,103200,103174
 3.2000e+000 103301 -4.2605e+002 -1.4843e+003  4.5167e+000 31134 103096,103252,103226
 3.2000e+000 103278 -5.5954e+002 -1.7457e+003 -1.8848e+002 31134 103122,103174,103148
 3.2000e+000 103520 -2.5368e+002 -1.8682e+003  8.6754e-001 30822 103393,103445,103419
 3.2000e+000 103497 -8.5533e+001 -8.7870e+002  4.7579e+001 30822 103393,103471,103445
 3.2000e+000 103719 -2.1549e+002 -8.4274e+002  1.6764e+001 30182 103742,103621,103569
 3.2000e+000 103696 -2.7884e+002 -8.7094e+002 -2.2700e+000 30182 103742,103569,103543
 3.2000e+000 103673 -2.3336e+002 -8.4667e+002  3.0510e+001 30182 103569,103621,103595
 3.2000e+000 103768 -1.4916e+002 -8.7955e+002  3.8711e+001 30182 103647,103621,103742
 3.2000e+000 103791 -1.9562e+002 -9.0657e+002  1.3193e+001 30182 103647,103742,103543
 3.2000e+000 104252 -5.2124e+002 -9.8728e+002  2.5825e+001 29728 104030,104108,104056
 3.2000e+000 104229 -3.6787e+002 -6.6484e+002  6.9482e+001 29728 104004,104108,104030
 3.2000e+000 104206 -2.8279e+002 -7.2843e+002  5.3618e+001 29728 104004,104134,104108
 3.2000e+000 104183 -3.9306e+002 -8.3979e+002 -7.0646e+001 29728 103978,104134,104004
 3.2000e+000 104160 -2.5770e+002 -8.9167e+002 -8.3612e+001 29728 104056,104108,104082
 3.2000e+000 104630 -3.7631e+002 -1.1912e+003 -1.3892e+002 29217 104653,104382,104356
 3.2000e+000 104607 -2.8867e+002 -1.0327e+003 -3.5440e+001 29217 104653,104356,104512
 3.2000e+000 104584 -5.0313e+002 -1.2037e+003 -1.5638e+002 29217 104434,104512,104486
 3.2000e+000 104561 -2.9636e+002 -1.2042e+003 -2.2804e+002 29217 104382,104434,104408
 3.2000e+000 104538 -2.4090e+002 -8.4273e+002  5.1663e+001 29217 104434,104486,104460
 3.2000e+000 104679 -4.1803e+002 -1.2083e+003 -2.0851e+002 29217 104434,104382,104653
 3.2000e+000 104702 -4.0511e+002 -1.1481e+003 -1.1593e+002 29217 104434,104653,104512
 3.2000e+000 105178 -3.4207e+002 -1.0794e+003  2.3667e+001 28649 105201,104962,104936
 3.2000e+000 105155 -3.5541e+002 -1.0552e+003  3.3773e+001 28649 105201,104936,104884
 3.2000e+000 105132 -3.8292e+002 -9.6747e+002 -9.7245e+001 28649 105273,104858,105014
 3.2000e+000 105109 -5.6838e+002 -1.1192e+003  1.7892e+001 28649 104962,105014,104988
 3.2000e+000 105086 -2.0051e+002 -8.9012e+002 -1.2845e+002 28649 104884,104936,104910
 3.2000e+000 105063 -3.8999e+002 -8.8309e+002 -4.7915e+001 28649 104806,105014,104858
 3.2000e+000 105040 -4.8148e+002 -8.6828e+002 -9.6153e+001 28649 104806,104858,104832
 3.2000e+000 105227 -3.2153e+002 -1.0853e+003  1.0029e+001 28649 105014,104962,105201
 3.2000e+000 105250 -2.7677e+002 -1.0110e+003 -2.2009e+001 28649 105273,105014,105201
 3.2000e+000 105299 -4.9873e+002 -1.0217e+003 -8.2240e+001 28649 104884,104858,105273
 3.2000e+000 105322 -4.6012e+002 -1.1025e+003  8.6705e+000 28649 104884,105273,105201
 3.2000e+000 105673 -6.5754e+001 -1.1245e+003  1.3088e+001 28351 105474,105578,105552
 3.2000e+000 105650  3.8688e+001 -7.0980e+002 -1.9077e+001 28351 105448,105578,105474
 3.2000e+000 105627 -5.8280e+000 -1.0382e+003  1.3101e+000 28351 105500,105552,105526
 3.2000e+000 105604 -2.4901e+001 -1.1038e+003  4.7101e+000 28351 105474,105552,105500
 3.2000e+000 106130 -4.4269e+002 -6.9557e+002 -2.7073e+002 28004 106153,105882,105856
 3.2000e+000 106107 -3.9500e+002 -9.7586e+002 -1.7856e+002 28004 106153,105856,105986
 3.2000e+000 106084 -8.3406e+002 -1.1045e+003  3.9756e+001 28004 105934,105986,105960
 3.2000e+000 106061 -6.4443e+002 -1.0896e+003 -6.8492e+001 28004 105856,106012,105986
 3.2000e+000 106038 -7.6180e+002 -1.1166e+003 -1.1467e+002 28004 105882,105934,105908
 3.2000e+000 106179 -6.7692e+002 -9.2734e+002 -1.3877e+002 28004 105934,105882,106153
 3.2000e+000 106202 -4.4563e+002 -1.0717e+003 -9.0078e+001 28004 105934,106153,105986
 3.2000e+000 106885 -6.4756e+002 -9.3180e+002 -3.5961e+001 27564 106908,106620,106516
 3.2000e+000 106862 -6.3602e+002 -8.9804e+002 -1.9028e+001 27564 106908,106516,106490
 3.2000e+000 106839 -6.0989e+002 -8.7867e+002 -1.1868e+002 27564 106516,106620,106542
 3.2000e+000 106816 -5.6654e+002 -6.5981e+002 -6.2574e+001 27564 106620,106672,106646
 3.2000e+000 106793 -4.6806e+002 -1.0140e+003 -2.1026e+002 27564 106542,106620,106594
 3.2000e+000 106770 -6.4711e+002 -8.0689e+002  5.4019e+001 27564 106490,106698,106672
 3.2000e+000 106747 -5.2221e+002 -9.6232e+002  1.8357e+002 27564 106464,106698,106490
 3.2000e+000 106724 -9.6622e+001 -8.1689e+002 -2.8506e+002 27564 106542,106594,106568
 3.2000e+000 106934 -6.7195e+002 -9.0080e+002 -4.4622e+001 27564 106672,106620,106908
 3.2000e+000 106957 -6.6301e+002 -8.6562e+002 -3.7387e+001 27564 106672,106908,106490
 3.2000e+000 107463 -4.2531e+002 -8.6924e+002 -1.4118e+001 27053 107218,107322,107296
 3.2000e+000 107440 -4.9900e+002 -1.0323e+003  3.2522e+001 27053 107166,107322,107218
 3.2000e+000 107417 -4.4760e+002 -1.0286e+003 -2.8883e+001 27053 107218,107296,107244
 3.2000e+000 107394 -4.7261e+002 -8.2376e+002  9.1279e+001 27053 107140,107322,107166
 3.2000e+000 107371 -4.6648e+002 -1.0587e+003  3.9741e+001 27053 107166,107218,107192
 3.2000e+000 107348 -4.3756e+002 -1.3173e+003 -1.5162e+002 27053 107244,107296,107270
 3.2000e+000 108097 -4.8935e+002 -1.2289e+003 -7.4267e+001 26549 108192,108120,107803
 3.2000e+000 108074 -4.4161e+002 -1.4135e+003  8.6496e+001 26549 108120,107725,107933
 3.2000e+000 108051 -1.3974e+002 -1.7261e+003  1.2372e+002 26549 107751,107803,107777
 3.2000e+000 108028 -4.8313e+002 -1.3169e+003 -9.8654e+001 26549 108192,107803,107751
 3.2000e+000 108005 -2.8558e+002 -8.4425e+002 -8.4034e+000 26549 108264,107855,107803
 3.2000e+000 107982 -1.3249e+002 -9.5667e+002 -4.9989e+001 26549 107881,107933,107907
 3.2000e+000 107959 -3.7930e+002 -8.8340e+002 -2.8957e+000 26549 107803,107855,107829
 3.2000e+000 108146 -3.8378e+002 -9.8044e+002 -6.3479e+001 26549 108264,107803,108120
 3.2000e+000 108169 -3.4774e+002 -1.1748e+003  3.6563e+001 26549 107881,108120,107933
 3.2000e+000 108218 -4.7374e+002 -1.1387e+003 -8.7897e+000 26549 107725,108120,108192
 3.2000e+000 108241 -4.5954e+002 -1.2046e+003 -3.7521e+001 26549 107725,108192,107751
 3.2000e+000 108290 -1.7173e+002 -1.0231e+003 -4.5678e+001 26549 107881,107855,108264
 3.2000e+000 108313 -2.5434e+002 -1.1727e+003 -8.6114e+001 26549 107881,108264,108120
 3.2000e+000 108512 -2.7575e+002 -1.0789e+003 -7.1733e+001 26137 108388,108440,108414
 3.2000e+000 108489 -1.7682e+002 -9.2010e+002 -6.6193e+000 26137 108362,108440,108388
 3.2000e+000 108466 -2.3978e+002 -1.0095e+003 -4.0687e+001 26137 108336,108440,108362
 3.2000e+000 108662 -3.5753e+002 -1.0063e+003 -9.1753e+001 25733 108817,108685,108535
 3.2000e+000 108639 -2.3537e+002 -1.0949e+003 -2.6413e+001 25733 109017,108817,108535
 3.2000e+000 108711 -3.9164e+002 -9.3634e+002 -4.0065e+001 25733 108561,108535,108685
 3.2000e+000 108843 -2.3780e+002 -1.0034e+003 -2.9478e+001 25733 108587,108685,108817
 3.2000e+000 108866 -2.0723e+002 -9.7282e+002 -4.7341e+000 25733 108889,108817,108613
 3.2000e+000 108915 -2.0506e+002 -9.5273e+002 -4.3648e+001 25733 108587,108817,108889
 3.2000e+000 109043 -1.9149e+002 -8.2051e+002  1.5049e+001 25733 108613,108817,109017
 3.2000e+000 109500 -6.6007e+002 -1.1971e+003  1.1405e+002 25229 109523,109356,109330
 3.2000e+000 109477 -3.7612e+002 -9.4175e+002 -5.7513e+001 25229 109595,109523,109330
 3.2000e+000 109454 -3.4804e+002 -8.5686e+002 -1.3083e+002 25229 109595,109330,109278
 3.2000e+000 109431 -3.8638e+002 -9.1111e+002 -8.5126e+001 25229 109667,109226,109382
 3.2000e+000 109408 -3.9445e+002 -9.2274e+002 -1.6724e+002 25229 109278,109330,109304
 3.2000e+000 109549 -1.7926e+002 -9.7052e+002  4.0759e+001 25229 109382,109356,109523
 3.2000e+000 109572 -3.3919e+002 -9.8774e+002 -9.7496e+001 25229 109667,109382,109523
 3.2000e+000 109621 -4.0510e+002 -1.0657e+003 -7.8704e+001 25229 109252,109523,109595
 3.2000e+000 109644 -2.5659e+002 -9.1823e+002 -6.0321e+001 25229 109739,109595,109278
 3.2000e+000 109693 -5.2651e+002 -1.0373e+003 -3.1829e+001 25229 109252,109226,109667
 3.2000e+000 109716 -4.1401e+002 -1.0736e+003 -6.4573e+001 25229 109252,109667,109523
 3.2000e+000 109765 -4.9555e+002 -9.9855e+002 -4.1374e+001 25229 109252,109595,109739
 3.2000e+000 110478 -3.0789e+002 -8.3217e+002  1.1114e+002 24917 110158,110236,110184
 3.2000e+000 110455 -4.2783e+002 -9.1589e+002 -4.7035e-002 24917 110158,110288,110236
 3.2000e+000 110432 -2.5768e+002 -1.1220e+003  2.8847e+001 24917 110236,110288,110262
 3.2000e+000 110409 -2.4277e+002 -9.4406e+002  1.2457e+002 24917 110184,110236,110210
 3.2000e+000 110386 -5.5160e+002 -1.0504e+003 -6.9207e+001 24917 110132,110288,110158
 3.2000e+000 110363 -4.8509e+002 -9.9746e+002 -5.7195e+000 24917 110132,110314,110288
 3.2000e+000 110340 -5.6358e+002 -1.2499e+003  1.5011e+002 24917 110106,110314,110132
 3.2000e+000 110829 -1.4781e+002 -6.0302e+002 -2.4353e+001 24307 110604,110682,110630
 3.2000e+000 110806 -4.4061e+002 -1.2533e+003  7.8023e+001 24307 110604,110708,110682
 3.2000e+000 110783 -1.3445e+002 -1.1078e+003  2.1304e+001 24307 110604,110734,110708
 3.2000e+000 110760 -4.4456e+001 -5.5876e+002 -2.8066e+001 24307 110630,110682,110656
 3.2000e+000 111335 -2.8788e+002 -8.3211e+002 -1.2726e+002 23767 111012,111168,111038
 3.2000e+000 111312 -3.1062e+002 -9.1432e+002 -1.2486e+002 23767 111012,111194,111168
 3.2000e+000 111289 -5.4664e+002 -1.0570e+003  9.3785e+001 23767 111358,111064,111038
 3.2000e+000 111266 -3.8965e+002 -9.8277e+002 -3.9451e+001 23767 111358,111038,111168
 3.2000e+000 111243 -2.5204e+002 -9.0825e+002 -3.2694e+001 23767 111430,111142,111090
 3.2000e+000 111220  9.2367e-002 -7.9817e+002  2.1750e+001 23767 111090,111142,111116
 3.2000e+000 111384 -4.3979e+002 -9.8603e+002 -2.6740e+001 23767 111090,111064,111358
 3.2000e+000 111407 -4.4190e+002 -9.3219e+002 -5.6737e+001 23767 111430,111090,111358
 3.2000e+000 111456 -7.5092e+001 -9.7859e+002 -7.7332e+001 23767 111168,111142,111430
 3.2000e+000 111479 -1.8268e+002 -9.4074e+002 -8.7563e+001 23767 111168,111430,111358
 3.2000e+000 111985 -2.5489e+002 -7.5697e+002  1.0103e+002 23477 111688,111844,111818
 3.2000e+000 111962 -2.2174e+002 -7.7562e+002 -1.2463e+002 23477 111662,111844,111688
 3.2000e+000 111939 -1.7996e+002 -1.3432e+003  1.8658e+002 23477 111766,111818,111792
 3.2000e+000 111916 -5.3722e+002 -1.2047e+003  1.0086e+002 23477 111740,111818,111766
 3.2000e+000 111893 -3.0262e+002 -6.5320e+002  1.1443e+002 23477 111688,111818,111740
 3.2000e+000 111870 -5.0387e+002 -9.0015e+002  2.3618e+002 23477 111688,111740,111714
 3.2000e+000 112314 -3.8525e+002 -7.6434e+002 -5.8420e+000 23023 112141,112219,112193
 3.2000e+000 112291 -3.2763e+002 -7.4193e+002 -3.6019e+001 23023 112115,112219,112141
 3.2000e+000 112268 -3.2080e+002 -9.0900e+002  9.5278e+001 23023 112141,112193,112167
 3.2000e+000 112245 -3.3845e+002 -8.2332e+002 -3.8508e+001 23023 112089,112219,112115
 3.2000e+000 112692 -3.9337e+002 -1.0208e+003 -4.5815e+001 22768 112444,112574,112548
 3.2000e+000 112669 -2.9057e+002 -1.0323e+003 -6.0126e+000 22768 112418,112574,112444
 3.2000e+000 112646 -4.6470e+002 -1.0753e+003 -3.7860e+000 22768 112444,112522,112470
 3.2000e+000 112623 -3.5043e+002 -1.0028e+003 -4.5224e+001 22768 112444,112548,112522
 3.2000e+000 112600 -7.4543e+001 -9.0172e+002 -7.5018e+001 22768 112470,112522,112496
 3.2000e+000 113011 -2.2939e+002 -1.1606e+003 -9.3415e+001 22314 112763,112867,112789
 3.2000e+000 112988 -9.0188e+001 -1.2289e+003 -1.0925e+002 22314 112763,112893,112867
 3.2000e+000 112965 -2.3823e+002 -1.1836e+003  0.0000e+000 22314 112815,112867,112841
 3.2000e+000 112942 -3.0003e+002 -1.2080e+003 -4.7973e+001 22314 112789,112867,112815
 3.2000e+000 112919 -7.6562e+001 -9.2918e+002  2.6695e+002 22314 112737,112893,112763
 3.2000e+000 113519 -5.4143e+001 -8.9010e+002  2.0718e+002 21924 113614,113542,113248
 3.2000e+000 113496 -1.7709e+002 -8.4250e+002  7.0605e+001 21924 113542,113196,113378
 3.2000e+000 113473 -1.5324e+002 -9.3292e+002  2.2679e+002 21924 113614,113248,113222
 3.2000e+000 113450 -1.8134e+002 -1.2693e+003  9.1327e+001 21924 113686,113274,113248
 3.2000e+000 113427 -3.1171e+002 -1.3109e+003 -7.9416e+001 21924 113274,113352,113326
 3.2000e+000 113404 -5.9715e+002 -1.8460e+003 -1.8744e+002 21924 113274,113326,113300
 3.2000e+000 113568 -5.2947e+001 -1.0637e+003  1.5066e+002 21924 113686,113248,113542
 3.2000e+000 113591 -1.5716e+002 -7.7558e+002  9.3788e+001 21924 113352,113542,113378
 3.2000e+000 113640 -1.5258e+002 -8.6996e+002  1.6743e+002 21924 113196,113542,113614
 3.2000e+000 113663 -1.8259e+002 -8.6743e+002  1.6972e+002 21924 113196,113614,113222
 3.2000e+000 113712 -3.1732e+002 -1.0393e+003 -1.7001e+000 21924 113352,113274,113686
 3.2000e+000 113735 -2.4991e+002 -9.2492e+002  3.5605e+001 21924 113352,113686,113542
 3.2000e+000 113885 -6.7439e+002 -9.7998e+002 -9.6033e+000 21520 113980,113908,113784
 3.2000e+000 113862 -6.0874e+002 -9.8482e+002 -1.8285e+002 21520 114238,113908,113758
 3.2000e+000 113934 -4.6240e+002 -7.9417e+002  9.6512e+001 21520 114110,113908,113810
 3.2000e+000 113957 -3.7697e+002 -9.7115e+002 -1.1880e+002 21520 113810,113908,113836
 3.2000e+000 114006 -5.3652e+002 -8.6430e+002 -5.9289e+001 21520 113758,113908,113980
 3.2000e+000 114136 -6.6447e+002 -9.6101e+002  1.0727e+001 21520 113784,113908,114110
 3.2000e+000 114264 -7.5844e+002 -1.1368e+003 -2.4398e+002 21520 113836,113908,114238
 3.2000e+000 114662 -5.2393e+002 -1.3461e+003  1.2385e+001 21030 114414,114518,114492
 3.2000e+000 114639 -2.0689e+002 -1.0863e+003 -1.1787e+002 21030 114414,114544,114518
 3.2000e+000 114616 -6.1274e+002 -1.3901e+003 -8.8337e+000 21030 114440,114492,114466
 3.2000e+000 114593 -5.2870e+002 -1.3579e+003  1.0741e+001 21030 114414,114492,114440
 3.2000e+000 114570 -3.5908e+002 -1.1078e+003 -2.0971e+000 21030 114388,114544,114414
 3.2000e+000 114959 -8.8229e+002 -1.4589e+003  1.1287e+002 20512 114982,114711,114685
 3.2000e+000 114936 -8.0985e+002 -1.4220e+003 -2.9973e+001 20512 115054,114982,114685
 3.2000e+000 114913 -6.6888e+002 -1.2994e+003 -8.8951e+001 20512 115054,114685,114841
 3.2000e+000 114890 -4.8639e+002 -1.3192e+003  4.2691e+001 20512 114711,114763,114737
 3.2000e+000 114867 -2.2855e+002 -1.2315e+003  1.1413e+001 20512 114763,114815,114789
 3.2000e+000 115008 -7.5224e+002 -1.4301e+003  7.0288e+001 20512 114763,114711,114982
 3.2000e+000 115031 -6.6264e+002 -1.3818e+003 -3.6565e+001 20512 114763,114982,114815
 3.2000e+000 115080 -7.3549e+002 -1.4559e+003  5.2998e+000 20512 114815,114982,115054
 3.2000e+000 115103 -7.3079e+002 -1.4483e+003  3.0902e+000 20512 114815,115054,114841
 3.2000e+000 115507 -6.1878e+002 -1.2688e+003 -4.4331e+001 20143 115285,115389,115363
 3.2000e+000 115484 -7.1114e+002 -1.4382e+003 -8.2548e+000 20143 115259,115389,115285
 3.2000e+000 115461 -6.3870e+002 -1.2265e+003 -7.6903e+000 20143 115233,115389,115259
 3.2000e+000 115438 -5.7557e+002 -1.4859e+003  4.9293e+001 20143 115285,115337,115311
 3.2000e+000 115415 -8.3917e+002 -1.7671e+003 -8.1882e+001 20143 115285,115363,115337
 3.2000e+000 115875 -4.2723e+002 -9.8701e+002  5.2300e+000 19632 115656,115734,115682
 3.2000e+000 115852 -1.8735e+002 -9.0289e+002  1.2573e+002 19632 115552,115734,115656
 3.2000e+000 115829 -2.0207e+002 -8.9495e+002 -7.7170e+001 19632 115552,115656,115578
 3.2000e+000 115806 -4.1351e+002 -1.0157e+003  9.7539e+000 19632 115578,115656,115630
 3.2000e+000 115783 -4.5548e+002 -9.4248e+002  4.6427e+001 19632 115682,115734,115708
 3.2000e+000 115760 -4.9998e+002 -1.0298e+003 -9.0988e+001 19632 115578,115630,115604
 3.2000e+000 116025 -2.4769e+002 -1.1157e+003 -2.4163e+002 19178 115898,115950,115924
 3.2000e+000 116002 -3.6217e+002 -1.1410e+003 -1.2679e+002 19178 115898,115976,115950
 3.2000e+000 116633 -3.3675e+002 -9.4476e+002 -1.4255e+001 18738 116800,116656,116342
 3.2000e+000 116610 -3.4578e+002 -1.0009e+003  2.7684e+001 18738 116656,116238,116446
 3.2000e+000 116587 -4.2174e+002 -9.7477e+002 -5.4447e+001 18738 116728,116368,116342
 3.2000e+000 116564 -3.2842e+002 -9.1316e+002 -3.2883e+001 18738 116800,116342,116264
 3.2000e+000 116541 -3.5562e+002 -1.2924e+003  1.1221e+002 18738 116212,116446,116238
 3.2000e+000 116518 -8.3723e+001 -6.7548e+002  2.6725e+001 18738 116394,116446,116420
 3.2000e+000 116495  1.5617e+002 -7.4876e+002 -1.1930e+002 18738 116264,116342,116316
 3.2000e+000 116472 -1.8692e+002 -1.0435e+003  1.4090e+002 18738 116264,116316,116290
 3.2000e+000 116682 -4.0352e+002 -9.5015e+002  2.2234e+001 18738 116728,116342,116656
 3.2000e+000 116705 -3.5023e+002 -7.9865e+002  5.8070e+001 18738 116394,116656,116446
 3.2000e+000 116754 -5.4685e+002 -1.0227e+003 -1.0195e+002 18738 116394,116368,116728
 3.2000e+000 116777 -5.3735e+002 -9.9473e+002 -2.3017e+001 18738 116394,116728,116656
 3.2000e+000 116826 -3.2495e+002 -1.0067e+003  1.1745e+001 18738 116238,116656,116800
 3.2000e+000 116849 -3.0095e+002 -9.6606e+002 -1.1987e+001 18738 116238,116800,116264
 3.2000e+000 116999 -3.7634e+002 -1.2909e+003  7.7201e+001 18184 116872,116924,116898
 3.2000e+000 116976 -3.7259e+002 -6.5966e+002 -6.1774e+000 18184 116872,116950,116924
 3.2000e+000 117330 -8.1883e+001 -1.5352e+003  1.0702e+002 17694 117157,117235,117183
 3.2000e+000 117307 -4.9379e+002 -1.7403e+003  1.7481e+001 17694 117131,117235,117157
 3.2000e+000 117284 -3.3965e+002 -1.9589e+003 -1.0180e+002 17694 117105,117235,117131
 3.2000e+000 117261  3.1514e+002 -9.4135e+002 -7.3014e+001 17694 117183,117235,117209
 3.2000e+000 117480 -4.8944e+002 -1.1728e+003 -1.3323e+002 17290 117353,117405,117379
 3.2000e+000 117457 -2.4359e+002 -1.2946e+003 -1.4487e+002 17290 117353,117431,117405
 3.2000e+000 117679 -8.0147e+001 -9.5176e+002 -4.4056e+001 16718 117555,117607,117581
 3.2000e+000 117656 -4.6989e+002 -1.1945e+003  5.9107e+001 16718 117529,117607,117555
 3.2000e+000 117633  2.4074e+001 -1.1456e+003  4.7346e+001 16718 117503,117607,117529
 3.2000e+000 117782 -2.6272e+002 -9.3030e+002  2.5781e+001 16520 117704,117756,117730
 3.2000e+000 117983 -3.5375e+002 -1.4628e+003  2.2885e-001 16208 117859,117911,117885
 3.2000e+000 117960 -2.1409e+002 -1.3840e+003 -3.1456e+001 16208 117833,117911,117859
 3.2000e+000 117937 -1.2430e+002 -1.2138e+003  4.5233e+001 16208 117807,117911,117833
 3.2000e+000 118135 -6.8774e+002 -1.1088e+003 -1.2244e+002 15674 118034,118086,118060
 3.2000e+000 118112 -3.2980e+002 -8.6200e+002  2.3204e+001 15674 118008,118086,118034
 3.2000e+000 118238 -4.6554e+001 -1.1122e+003  7.1996e+001 15355 118160,118212,118186
 3.2000e+000 118341 -5.7815e+002 -1.1732e+003  2.4623e+002 421 118263,118315,118289
 3.3000e+000 68152 -3.1881e+002 -8.5948e+002 -2.9297e+001 67838 68074,68126,68100
 3.3000e+000 68550 -2.9529e+002 -9.6995e+002  1.9572e+001 67526 68276,68380,68302
 3.3000e+000 68527 -7.5297e+001 -9.2937e+002  1.0874e+001 67526 68276,68406,68380
 3.3000e+000 68504 -2.6682e+002 -8.3552e+002  4.4298e+000 67526 68328,68380,68354
 3.3000e+000 68481 -2.4306e+002 -8.4817e+002  1.7778e+001 67526 68302,68380,68328
 3.3000e+000 68458 -1.3706e+002 -1.0785e+003 -2.6439e+001 67526 68276,68432,68406
 3.3000e+000 68651 -6.4648e+002 -9.9022e+002  1.2992e+002 67328 68573,68625,68599
 3.3000e+000 68970 -2.4970e+002 -9.0139e+002  7.1232e+000 67016 68722,68800,68774
 3.3000e+000 68947 -2.7373e+002 -9.3895e+002 -7.3965e+000 67016 68722,68826,68800
 3.3000e+000 68924 -3.3309e+002 -9.1779e+002  3.5130e+000 67016 68696,68826,68722
 3.3000e+000 68901 -1.9203e+002 -9.6841e+002 -5.1595e+001 67016 68722,68774,68748
 3.3000e+000 68878 -4.4166e+002 -8.7924e+002 -1.3925e+002 67016 68696,68852,68826
 3.3000e+000 69291 -4.3915e+002 -9.6117e+002 -1.5909e+001 66654 69069,69147,69095
 3.3000e+000 69268 -3.2172e+002 -1.0298e+003  3.0355e+001 66654 69069,69173,69147
 3.3000e+000 69245 -3.9462e+002 -8.5984e+002  1.4284e+002 66654 69043,69173,69069
 3.3000e+000 69222 -5.6610e+002 -1.1309e+003  6.9167e+001 66654 69095,69147,69121
 3.3000e+000 69199 -6.0120e+002 -1.1563e+003  1.5131e+001 66654 69017,69173,69043
 3.3000e+000 69695 -3.1882e+002 -1.2952e+003  1.9575e+001 66456 69447,69577,69551
 3.3000e+000 69672 -1.0386e+002 -1.1506e+003 -4.3593e+001 66456 69421,69577,69447
 3.3000e+000 69649 -1.0310e+002 -8.5203e+002 -1.3995e+002 66456 69473,69551,69525
 3.3000e+000 69626 -2.6425e+002 -1.1888e+003 -1.1127e+001 66456 69447,69551,69473
 3.3000e+000 69603 -3.8631e+000 -7.5795e+002 -2.8883e+002 66456 69473,69525,69499
 3.3000e+000 70024 -4.2368e+002 -9.6093e+002 -3.3650e+000 66258 70047,69851,69825
 3.3000e+000 70001 -4.3557e+002 -9.4067e+002  3.6596e+001 66258 70047,69825,69903
 3.3000e+000 69978 -5.3167e+002 -1.1541e+003  9.3620e+001 66258 69799,69903,69825
 3.3000e+000 69955 -2.0480e+002 -1.4379e+003  3.0478e+002 66258 69799,69929,69903
 3.3000e+000 70073 -4.6826e+002 -9.7091e+002 -2.0243e+001 66258 69877,69851,70047
 3.3000e+000 70096 -4.8696e+002 -9.4815e+002  2.0928e+001 66258 69877,70047,69903
 3.3000e+000 70602 -6.4881e+000 -7.3892e+002 -1.5867e+002 66060 70305,70435,70331
 3.3000e+000 70579 -5.3031e+002 -1.2134e+003  4.9015e+001 66060 70279,70435,70305
 3.3000e+000 70556 -5.5392e+002 -9.1841e+002 -1.8966e+002 66060 70331,70435,70409
 3.3000e+000 70533 -3.8575e+002 -9.4588e+002  1.4715e+002 66060 70279,70461,70435
 3.3000e+000 70510 -1.8560e+002 -6.8270e+002 -3.6623e+002 66060 70331,70409,70357
 3.3000e+000 70487 -2.3282e+001 -7.2328e+002 -8.2052e+001 66060 70357,70409,70383
 3.3000e+000 70703 -1.1710e+003 -1.7485e+003 -6.8218e+001 65862 70625,70677,70651
 3.3000e+000 71083 -2.6755e+002 -8.4651e+002  2.2357e+001 65664 70887,70965,70939
 3.3000e+000 71060 -2.5416e+002 -8.4808e+002  1.9033e+001 65664 70861,70965,70887
 3.3000e+000 71037 -2.7999e+002 -8.7398e+002  3.5047e+000 65664 70809,70965,70861
 3.3000e+000 71014 -2.7079e+002 -8.9079e+002 -1.8392e+001 65664 70809,70861,70835
 3.3000e+000 70991 -2.9096e+002 -8.7886e+002  4.5582e+001 65664 70887,70939,70913
 3.3000e+000 71611 -5.6549e+002 -1.4239e+003 -6.2262e+001 65260 71288,71444,71314
 3.3000e+000 71588 -3.4241e+002 -1.3017e+003 -1.3792e+001 65260 71288,71470,71444
 3.3000e+000 71565 -2.3203e+002 -9.0338e+002  8.6352e+001 65260 71314,71418,71392
 3.3000e+000 71542 -5.1978e+002 -1.2811e+003 -4.0696e+001 65260 71314,71444,71418
 3.3000e+000 71519 -5.1203e+002 -9.8908e+002  1.1779e+002 65260 71314,71392,71340
 3.3000e+000 71496 -3.8930e+002 -7.5876e+002  3.0129e+002 65260 71340,71392,71366
 3.3000e+000 72060 -4.6796e+002 -9.0153e+002 -4.1426e+001 64870 71737,71893,71789
 3.3000e+000 72037 -2.5591e+002 -8.0819e+002 -2.3771e+001 64870 71737,71919,71893
 3.3000e+000 72014 -4.8377e+002 -8.2574e+002  4.1752e+001 64870 71789,71841,71815
 3.3000e+000 71991 -3.9891e+002 -8.5736e+002  6.3641e-001 64870 71789,71893,71841
 3.3000e+000 71968 -4.5436e+002 -1.0752e+003 -1.4346e+002 64870 71737,71789,71763
 3.3000e+000 71945 -3.1855e+002 -9.1726e+002  0.0000e+000 64870 71841,71893,71867
 3.3000e+000 72517 -5.1778e+002 -8.0629e+002 -1.0963e+002 64466 72321,72399,72347
 3.3000e+000 72494 -5.0177e+002 -7.2871e+002 -9.0179e+001 64466 72269,72399,72321
 3.3000e+000 72471 -5.2615e+002 -9.1076e+002  4.6084e+001 64466 72347,72399,72373
 3.3000e+000 72448 -4.8481e+002 -7.9645e+002 -2.4349e+002 64466 72243,72399,72269
 3.3000e+000 72425 -6.0646e+002 -9.3926e+002 -5.0929e+001 64466 72269,72321,72295
 3.3000e+000 72944 -2.6004e+002 -6.9258e+002 -2.6791e+001 64062 73111,73039,72699
 3.3000e+000 72921 -1.9732e+002 -7.6298e+002 -7.7355e+001 64062 73183,72967,72647
 3.3000e+000 72898 -2.4314e+002 -7.8531e+002 -5.2008e+001 64062 72967,72803,72751
 3.3000e+000 72875 -2.4717e+002 -6.8719e+002 -3.3531e+001 64062 73111,72699,72673
 3.3000e+000 72852 -1.4507e+002 -8.1846e+002 -4.1314e+001 64062 73183,72647,72621
 3.3000e+000 72829 -1.8047e+002 -6.4206e+002 -1.7758e+002 64062 72751,72803,72777
 3.3000e+000 72993 -2.2252e+002 -7.0433e+002 -4.1725e+001 64062 73039,72647,72967
 3.3000e+000 73016 -3.4916e+002 -8.0768e+002 -4.7023e+001 64062 72725,72967,72751
 3.3000e+000 73065 -1.3804e+002 -8.1465e+002  2.1076e+002 64062 72725,72699,73039
 3.3000e+000 73088 -2.4943e+002 -7.8616e+002 -5.8769e+001 64062 72725,73039,72967
 3.3000e+000 73137 -2.3073e+002 -7.0588e+002 -3.0298e+001 64062 72647,73039,73111
 3.3000e+000 73160 -2.3009e+002 -7.0462e+002 -3.3063e+001 64062 72647,73111,72673
 3.3000e+000 73209 -2.5401e+002 -8.1391e+002 -5.0210e+001 64062 72803,72967,73183
 3.3000e+000 73232 -2.2286e+002 -9.0617e+002 -7.6549e+000 64062 72803,73183,72621
 3.3000e+000 73333 -9.8872e+002 -1.5098e+003  8.8349e+001 63814 73356,73281,73255
 3.3000e+000 73382 -7.9324e+002 -1.1337e+003  6.1825e+001 63814 73486,73356,73307
 3.3000e+000 73512 -9.4754e+002 -1.1988e+003 -4.2437e+001 63814 73281,73356,73486
 3.3000e+000 73839 -4.1092e+002 -9.6248e+002 -4.4718e+001 63616 73862,73692,73666
 3.3000e+000 73816 -3.7165e+002 -8.5453e+002 -8.0251e-001 63616 73934,73862,73666
 3.3000e+000 73793 -3.2295e+002 -8.8451e+002  4.8669e+001 63616 73934,73666,73640
 3.3000e+000 73770 -2.8451e+002 -9.1706e+002  8.2446e+001 63616 73614,73744,73640
 3.3000e+000 73888 -4.2875e+002 -8.6378e+002 -4.9834e+001 63616 73718,73692,73862
 3.3000e+000 73911 -4.3662e+002 -8.1761e+002  2.4606e+001 63616 73718,73862,73744
 3.3000e+000 73960 -4.6341e+002 -8.9896e+002  1.3228e+001 63616 73744,73862,73934
 3.3000e+000 73983 -4.2307e+002 -9.2902e+002  5.7240e+001 63616 73744,73934,73640
 3.3000e+000 74363 -2.7657e+002 -8.0815e+002 -6.2275e+000 63390 74386,74115,74089
 3.3000e+000 74340 -3.1265e+002 -7.6486e+002 -1.3156e+001 63390 74458,74386,74089
 3.3000e+000 74317 -2.7223e+002 -7.8961e+002  7.8402e+001 63390 74458,74089,74245
 3.3000e+000 74294 -3.4249e+002 -8.8234e+002 -5.3464e+000 63390 74530,74167,74141
 3.3000e+000 74271 -3.2153e+002 -7.8646e+002 -1.3670e+002 63390 74167,74219,74193
 3.3000e+000 74412 -2.5629e+002 -7.9735e+002 -2.2171e+000 63390 74141,74115,74386
 3.3000e+000 74435 -2.9004e+002 -8.3348e+002  2.3259e+001 63390 74530,74141,74386
 3.3000e+000 74484 -2.4132e+002 -6.3984e+002  3.2053e+001 63390 74219,74386,74458
 3.3000e+000 74507 -1.6791e+002 -6.3147e+002  1.3140e+002 63390 74219,74458,74245
 3.3000e+000 74556 -4.3041e+002 -8.3883e+002 -6.6085e+001 63390 74219,74167,74530
 3.3000e+000 74579 -3.7528e+002 -7.7595e+002 -3.3537e+001 63390 74219,74530,74386
 3.3000e+000 74680 -4.1556e+002 -7.3042e+002  7.1725e+001 63100 75089,74833,74703
 3.3000e+000 74729 -5.3218e+002 -9.0899e+002  3.5779e+001 63100 74961,74703,74654
 3.3000e+000 74859 -2.6609e+002 -6.3493e+002  1.1353e+002 63100 74602,74703,74833
 3.3000e+000 74987 -4.5723e+002 -7.2681e+002  4.3405e+001 63100 75089,74703,74961
 3.3000e+000 75115 -3.2686e+002 -7.3332e+002  8.5362e+001 63100 74628,74833,75089
 3.3000e+000 75138 -3.6764e+002 -7.2912e+002  5.7184e+001 63100 74628,75089,74961
 3.3000e+000 75723 -4.5117e+002 -6.7662e+002  6.1343e+001 62532 75746,75504,75426
 3.3000e+000 75700 -4.9786e+002 -5.0103e+002  8.3892e+001 62532 75746,75426,75556
 3.3000e+000 75677 -4.6354e+002 -4.7665e+002 -2.6719e+002 62532 75426,75504,75452
 3.3000e+000 75654 -5.0830e+002 -3.3770e+002 -1.3563e+002 62532 75400,75556,75426
 3.3000e+000 75631 -6.2209e+002 -7.5962e+002 -2.6902e+002 62532 75400,75582,75556
 3.3000e+000 75608 -2.1282e+002 -4.2293e+002 -2.9940e+002 62532 75452,75504,75478
 3.3000e+000 75772 -4.5917e+002 -8.4470e+002  2.0953e+001 62532 75530,75504,75746
 3.3000e+000 75795 -5.0818e+002 -6.5472e+002  2.4485e+001 62532 75530,75746,75556
 3.3000e+000 76301 -3.8366e+002 -7.8793e+002 -2.8087e+001 62192 76324,76082,76030
 3.3000e+000 76278 -3.4464e+002 -7.3736e+002 -7.7588e+000 62192 76324,76030,76004
 3.3000e+000 76255 -3.1826e+002 -7.8298e+002  4.8179e+001 62192 76030,76082,76056
 3.3000e+000 76232 -4.8474e+002 -8.6848e+002 -1.0718e+002 62192 76082,76134,76108
 3.3000e+000 76209 -3.3190e+002 -6.3969e+002 -7.9204e+001 62192 76004,76160,76134
 3.3000e+000 76186 -2.1972e+002 -6.9339e+002 -3.7077e+001 62192 75978,76160,76004
 3.3000e+000 76350 -4.5335e+002 -7.1866e+002 -3.0255e+001 62192 76134,76082,76324
 3.3000e+000 76373 -4.0605e+002 -6.4933e+002 -8.8772e+000 62192 76134,76324,76004
 3.3000e+000 76879 -4.7200e+002 -6.1813e+002 -3.4955e+001 61788 76902,76660,76582
 3.3000e+000 76856 -4.5524e+002 -6.7873e+002 -7.0096e+001 61788 76902,76582,76556
 3.3000e+000 76833 -6.9872e+002 -6.5245e+002 -1.1960e+002 61788 76582,76660,76634
 3.3000e+000 76810 -5.7837e+002 -8.6829e+002 -7.0335e+001 61788 76582,76634,76608
 3.3000e+000 76787 -4.3919e+002 -7.7671e+002  1.2485e+001 61788 76556,76738,76686
 3.3000e+000 76764 -1.8344e+002 -5.7937e+002 -7.6252e+001 61788 76686,76738,76712
 3.3000e+000 76928 -4.4400e+002 -6.7599e+002 -2.6491e+001 61788 76686,76660,76902
 3.3000e+000 76951 -4.4173e+002 -7.5818e+002 -5.4362e+001 61788 76686,76902,76556
 3.3000e+000 77408 -4.8992e+002 -7.0230e+002  3.3939e+000 61498 77212,77264,77238
 3.3000e+000 77385 -4.1912e+002 -5.7690e+002  5.2461e+001 61498 77160,77264,77212
 3.3000e+000 77362 -4.5503e+002 -5.9388e+002  4.5972e+001 61498 77160,77290,77264
 3.3000e+000 77339 -2.6122e+002 -7.0435e+002  7.3410e+001 61498 77160,77212,77186
 3.3000e+000 77316 -3.4647e+002 -4.8557e+002  2.2039e+002 61498 77134,77290,77160
 3.3000e+000 77678 -2.4354e+002 -6.1471e+002 -4.3788e+001 61129 77479,77557,77505
 3.3000e+000 77655 -3.1542e+002 -7.0399e+002 -1.1564e+001 61129 77479,77583,77557
 3.3000e+000 77632 -2.3313e+002 -7.3164e+002  3.3927e+001 61129 77453,77583,77479
 3.3000e+000 77609 -1.3634e+002 -5.8288e+002 -4.7771e+001 61129 77505,77557,77531
 3.3000e+000 77828 -2.5505e+002 -7.7369e+002  3.3720e+001 60931 77851,77727,77701
 3.3000e+000 77805 -2.9296e+002 -8.4124e+002  6.6063e+001 60931 77851,77701,77779
 3.3000e+000 77877 -4.4217e+002 -9.8473e+002  1.6128e+002 60931 77923,77851,77753
 3.3000e+000 77900 -1.9705e+002 -8.6698e+002  8.8580e+001 60931 77753,77851,77779
 3.3000e+000 77949 -2.3852e+002 -5.9738e+002  7.0718e+001 60931 77727,77851,77923
 3.3000e+000 78133 -2.1587e+002 -5.3435e+002 -4.5788e+001 60377 78055,78107,78081
 3.3000e+000 78535 -8.0185e+002 -1.0703e+003 -4.7645e+001 60015 78287,78391,78313
 3.3000e+000 78512 -5.1376e+002 -1.0718e+003 -8.6904e+001 60015 78287,78417,78391
 3.3000e+000 78489 -5.7623e+002 -1.1692e+003 -1.7364e+002 60015 78261,78417,78287
 3.3000e+000 78466 -4.0415e+002 -9.9250e+002  1.0011e+002 60015 78339,78391,78365
 3.3000e+000 78443 -4.2672e+002 -8.8721e+002  2.5392e+001 60015 78313,78391,78339
 3.3000e+000 78913 -3.4685e+002 -6.0298e+002  3.8006e+000 59725 78936,78743,78691
 3.3000e+000 78890 -4.0643e+002 -6.5953e+002 -2.0238e+001 59725 79008,78936,78691
 3.3000e+000 78867 -3.9603e+002 -6.1771e+002 -4.5407e+001 59725 79008,78691,78665
 3.3000e+000 78844 -2.1124e+002 -6.0138e+002  1.0161e+002 59725 78691,78743,78717
 3.3000e+000 78821 -1.4073e+002 -5.3442e+002 -2.7007e+002 59725 78639,78795,78769
 3.3000e+000 78962 -2.5928e+002 -6.5738e+002 -5.2483e+001 59725 78769,78743,78936
 3.3000e+000 78985 -4.0864e+002 -8.2926e+002 -1.1896e+002 59725 78769,78936,78639
 3.3000e+000 79034 -3.4656e+002 -6.2908e+002 -4.4913e+001 59725 78639,78936,79008
 3.3000e+000 79057 -3.7072e+002 -6.2038e+002 -6.5334e+001 59725 78639,79008,78665
 3.3000e+000 79386 -3.6507e+002 -9.1216e+002  6.6214e+001 59221 79187,79239,79213
 3.3000e+000 79363 -3.0088e+002 -8.1771e+002  2.7766e+001 59221 79187,79265,79239
 3.3000e+000 79340 -4.2221e+002 -8.6280e+002  3.1468e+001 59221 79187,79291,79265
 3.3000e+000 79317 -2.8471e+002 -5.4887e+002 -2.0641e+001 59221 79161,79291,79187
 3.3000e+000 79813 -2.7953e+002 -6.4467e+002 -2.7797e+001 58831 79836,79542,79516
 3.3000e+000 79790 -2.2990e+002 -6.3173e+002 -2.3296e+001 58831 79980,79836,79516
 3.3000e+000 79767 -3.1347e+002 -7.2509e+002 -1.0942e+002 58831 79908,79646,79568
 3.3000e+000 79744 -2.2164e+002 -5.7961e+002  1.3742e+001 58831 79980,79516,79490
 3.3000e+000 79721 -5.7031e+002 -8.3032e+002 -1.3970e+002 58831 79568,79646,79594
 3.3000e+000 79698 -1.7336e+003 -1.0940e+003 -7.7994e+002 58831 79594,79646,79620
 3.3000e+000 79862 -1.9242e+002 -5.0210e+002  3.7245e+001 58831 79568,79542,79836
 3.3000e+000 79885 -1.6372e+002 -6.2395e+002  9.3984e+000 58831 79908,79568,79836
 3.3000e+000 79934 -4.2158e+002 -7.2043e+002 -2.0283e+002 58831 79672,79646,79908
 3.3000e+000 79957 -3.9148e+002 -6.8383e+002 -8.4850e+001 58831 79672,79908,79836
 3.3000e+000 80006 -2.0690e+002 -5.5099e+002 -2.1128e+001 58831 79672,79836,79980
 3.3000e+000 80029 -2.3176e+002 -5.3744e+002  8.7947e+000 58831 79672,79980,79490
 3.3000e+000 80358 -2.9984e+002 -8.2230e+002  4.4604e+000 58377 80381,80185,80159
 3.3000e+000 80335 -3.0546e+002 -8.1813e+002  6.2571e+000 58377 80381,80159,80133
 3.3000e+000 80312 -1.8946e+002 -7.5758e+002 -1.6818e+001 58377 80133,80263,80237
 3.3000e+000 80289 -3.2883e+002 -9.2340e+002  6.9968e+001 58377 80185,80237,80211
 3.3000e+000 80407 -2.9354e+002 -8.1858e+002  2.5085e+000 58377 80237,80185,80381
 3.3000e+000 80430 -3.0210e+002 -8.1697e+002  4.9641e+000 58377 80237,80381,80133
 3.3000e+000 80759 -2.0956e+002 -7.7419e+002  1.7092e+002 57873 80782,80586,80560
 3.3000e+000 80736 -3.4610e+002 -9.1313e+002  1.1311e+002 57873 80782,80560,80534
 3.3000e+000 80713 -3.3440e+002 -9.6296e+002  8.0078e+001 57873 80586,80638,80612
 3.3000e+000 80690 -1.1218e+002 -8.7771e+002  7.8798e+001 57873 80534,80664,80638
 3.3000e+000 80808 -2.7368e+002 -8.9929e+002  1.0514e+002 57873 80638,80586,80782
 3.3000e+000 80831 -2.9192e+002 -9.3875e+002  7.7790e+001 57873 80638,80782,80534
 3.3000e+000 81337 -2.6419e+002 -6.5241e+002 -6.8609e+001 57262 81360,81144,81092
 3.3000e+000 81314 -3.0846e+002 -7.6121e+002 -7.6563e+001 57262 81360,81092,81066
 3.3000e+000 81291 -3.1859e+002 -7.8082e+002 -3.6414e+000 57262 81014,81196,81066
 3.3000e+000 81268 -2.1570e+002 -5.0852e+002 -4.8570e+001 57262 81092,81144,81118
 3.3000e+000 81245 -2.7252e+002 -5.3606e+002 -2.1965e+000 57262 81144,81196,81170
 3.3000e+000 81222 -3.4758e+002 -8.5855e+002  6.5184e+001 57262 81014,81066,81040
 3.3000e+000 81386 -2.8568e+002 -5.5610e+002  6.6047e+000 57262 81196,81144,81360
 3.3000e+000 81409 -3.3564e+002 -6.7137e+002 -4.6250e+000 57262 81196,81360,81066
 3.3000e+000 81608 -1.6519e+002 -7.1277e+002  3.5335e+001 57007 81458,81536,81510
 3.3000e+000 81585 -1.8109e+002 -7.0818e+002  2.2622e+001 57007 81432,81536,81458
 3.3000e+000 81562 -4.7603e+002 -6.1544e+002  2.1710e+002 57007 81458,81510,81484
 3.3000e+000 82086 -6.3102e+002 -9.7889e+002 -5.1484e+000 56339 81792,81922,81818
 3.3000e+000 82063 -6.5324e+002 -1.1445e+003 -1.0506e+002 56339 81714,81922,81792
 3.3000e+000 82040 -5.7020e+002 -8.4400e+002 -1.0803e+002 56339 82109,81844,81818
 3.3000e+000 82017 -5.8972e+002 -9.1406e+002 -1.2232e+002 56339 82109,81818,81922
 3.3000e+000 81994 -4.4546e+002 -9.9481e+002 -1.2192e+002 56339 81844,81896,81870
 3.3000e+000 81971 -3.6661e+002 -4.4611e+002 -2.0630e+002 56339 81714,81792,81766
 3.3000e+000 81948 -8.7659e+002 -6.1427e+002 -3.8828e+002 56339 81714,81766,81740
 3.3000e+000 82135 -4.7848e+002 -9.0618e+002 -6.4483e+001 56339 81896,81844,82109
 3.3000e+000 82158 -5.4167e+002 -1.0336e+003 -9.7008e+001 56339 81896,82109,81922
 3.3000e+000 82536 -4.1707e+002 -8.9675e+002 -4.1283e+001 55699 82288,82392,82314
 3.3000e+000 82513 -4.2948e+002 -9.0378e+002 -4.6896e+001 55699 82288,82418,82392
 3.3000e+000 82490 -5.0069e+002 -1.1127e+003 -7.5999e+001 55699 82314,82392,82340
 3.3000e+000 82467 -1.6965e+002 -1.3903e+003 -1.5715e+002 55699 82340,82392,82366
 3.3000e+000 82444 -3.7973e+002 -9.5160e+002 -4.9202e+001 55699 82262,82418,82288
 3.3000e+000 83091 -6.8375e+002 -7.8730e+002  1.3386e+002 55409 82745,82901,82875
 3.3000e+000 83068 -5.4396e+002 -7.4097e+002  1.8509e+002 55409 82719,82901,82745
 3.3000e+000 83045 -4.4348e+002 -7.7265e+002  1.3556e+002 55409 82771,82849,82823
 3.3000e+000 83022 -7.9238e+002 -8.7593e+002  2.2802e+002 55409 82745,82849,82771
 3.3000e+000 82999 -4.7744e+002 -6.9891e+002  1.3376e+002 55409 82745,82875,82849
 3.3000e+000 82976 -7.3960e+002 -6.8277e+002  1.7061e+002 55409 82771,82823,82797
 3.3000e+000 82953 -2.9238e+002 -5.7571e+002  1.0944e+002 55409 82719,82927,82901
 3.3000e+000 83388 -3.9182e+002 -1.0389e+003 -4.0317e+001 54905 83411,83218,83166
 3.3000e+000 83365 -2.5310e+002 -1.0053e+003 -3.3385e+001 54905 83411,83166,83114
 3.3000e+000 83342 -4.8923e+002 -1.0286e+003 -6.7084e+001 54905 83483,83270,83244
 3.3000e+000 83319 -4.6089e+002 -1.0017e+003 -7.5404e+001 54905 83166,83218,83192
 3.3000e+000 83296 -2.5192e+002 -1.0601e+003  2.5106e+001 54905 83114,83166,83140
 3.3000e+000 83437 -4.3059e+002 -1.0124e+003  9.7299e-001 54905 83244,83218,83411
 3.3000e+000 83460 -4.0780e+002 -1.0285e+003 -3.1241e+001 54905 83483,83244,83411
 3.3000e+000 83509 -3.8564e+002 -9.4869e+002 -3.1293e+001 54905 83114,83270,83483
 3.3000e+000 83532 -3.5782e+002 -9.8022e+002 -3.3692e+000 54905 83114,83483,83411
 3.3000e+000 83961 -2.2189e+002 -7.2775e+002  5.1814e+001 54593 83638,83768,83690
 3.3000e+000 83938 -4.6823e+001 -7.4237e+002  1.0699e+002 54593 83638,83794,83768
 3.3000e+000 83915 -2.4190e+002 -7.5761e+002  3.4815e+001 54593 83690,83768,83742
 3.3000e+000 83892 -1.7092e+002 -6.0186e+002 -1.1270e+002 54593 83638,83820,83794
 3.3000e+000 83869 -2.0511e+002 -5.8528e+002  3.1429e+000 54593 83638,83690,83664
 3.3000e+000 83846 -1.7268e+002 -5.2147e+002 -1.6258e+002 54593 83690,83742,83716
 3.3000e+000 84209 -3.9185e+002 -1.2245e+003  1.2702e+002 54132 84232,84062,83984
 3.3000e+000 84186 -3.8721e+002 -1.0288e+003  7.3989e+001 54132 84232,83984,84114
 3.3000e+000 84163 -4.3545e+002 -1.3255e+003  1.1094e+001 54132 83984,84062,84036
 3.3000e+000 84140 -4.5667e+002 -1.2414e+003 -1.3188e+001 54132 83984,84036,84010
 3.3000e+000 84258 -2.8228e+002 -1.4453e+003  9.3322e+001 54132 84088,84062,84232
 3.3000e+000 84281 -2.5477e+002 -1.2324e+003  3.9089e+000 54132 84088,84232,84114
 3.3000e+000 84382 -1.8832e+002 -5.6137e+002 -2.4188e+000 53521 84304,84356,84330
 3.3000e+000 84632 -3.7554e+002 -9.6216e+002  9.6093e+000 53067 84655,84485,84459
 3.3000e+000 84609 -3.9644e+002 -9.5935e+002  3.6628e+000 53067 84655,84459,84407
 3.3000e+000 84586 -3.3342e+002 -9.0738e+002 -3.4325e+000 53067 84485,84537,84511
 3.3000e+000 84563 -4.2787e+002 -1.0614e+003 -3.2554e+001 53067 84407,84459,84433
 3.3000e+000 84681 -3.6414e+002 -9.6350e+002  8.9425e+000 53067 84537,84485,84655
 3.3000e+000 84704 -3.7273e+002 -9.5226e+002  2.5066e-001 53067 84537,84655,84407
 3.3000e+000 85214 -2.3881e+002 -8.6979e+002 -1.1297e+002 52513 85021,85073,85047
 3.3000e+000 85191 -2.2472e+002 -6.4443e+002 -1.5793e+002 52513 84943,85073,85021
 3.3000e+000 85168 -1.4846e+002 -5.8249e+002 -1.9433e+001 52513 84943,85021,84995
 3.3000e+000 85145 -4.0642e+002 -1.1301e+003 -1.2420e+002 52513 84917,85073,84943
 3.3000e+000 85122 -1.5719e+002 -4.8487e+002 -4.8077e+001 52513 84943,84995,84969
 3.3000e+000 85099 -6.8503e+002 -1.0735e+003 -8.7474e+001 52513 84891,85073,84917
 3.3000e+000 85582 -3.7326e+002 -9.5060e+002  9.1305e+001 52037 85605,85311,85285
 3.3000e+000 85559 -3.9211e+002 -1.0066e+003  9.1558e+001 52037 85749,85605,85285
 3.3000e+000 85536 -1.4501e+002 -9.1888e+002  1.1274e+001 52037 85893,85677,85389
 3.3000e+000 85513 -2.8469e+002 -9.2273e+002  5.4471e+001 52037 85749,85285,85259
 3.3000e+000 85490  1.0438e+000 -8.6245e+002 -6.1232e+001 52037 85893,85389,85363
 3.3000e+000 85467 -2.2508e+002 -9.8593e+002 -4.9173e+001 52037 85259,85441,85415
 3.3000e+000 85631 -5.5661e+002 -1.0621e+003  3.6231e+001 52037 85337,85311,85605
 3.3000e+000 85654 -4.0727e+002 -1.0291e+003  1.6551e+002 52037 85677,85337,85605
 3.3000e+000 85703 -1.0616e+002 -1.0104e+003  5.3803e+001 52037 85415,85389,85677
 3.3000e+000 85726 -1.4831e+002 -9.7476e+002  1.2611e+002 52037 85821,85677,85605
 3.3000e+000 85775 -2.4244e+002 -1.0144e+003  1.2467e+002 52037 85821,85605,85749
 3.3000e+000 85798 -3.0621e+002 -1.0263e+003  4.6947e+001 52037 85415,85749,85259
 3.3000e+000 85847 -1.7069e+002 -9.9491e+002  5.1774e+001 52037 85415,85677,85821
 3.3000e+000 85870 -2.0653e+002 -1.0091e+003  5.2788e+001 52037 85415,85821,85749
 3.3000e+000 85919 -1.3490e+002 -1.0130e+003  1.6548e+002 52037 85337,85677,85893
 3.3000e+000 85942 -7.2321e+001 -9.9928e+002  9.7159e+001 52037 85337,85893,85363
 3.3000e+000 86224 -1.1484e+002 -3.4699e+002  7.5297e+001 51368 86375,86100,86074
 3.3000e+000 86201 -2.9157e+002 -4.3957e+002  3.9995e+001 51368 86375,86074,86247
 3.3000e+000 86178 -1.0260e+002 -7.8955e+002 -1.7242e+002 51368 86048,86152,86126
 3.3000e+000 86273 -2.5322e+002 -5.6631e+002 -1.5662e+002 51368 86048,86126,86247
 3.3000e+000 86401 -1.3593e+001 -4.7480e+002 -1.7624e+001 51368 86126,86100,86375
 3.3000e+000 86424 -1.0224e+002 -5.3134e+002 -4.1728e+001 51368 86126,86375,86247
 3.3000e+000 86802 -4.4076e+002 -8.7007e+002  8.7814e+000 51028 86528,86632,86580
 3.3000e+000 86779 -4.7517e+002 -1.0301e+003  5.2871e+001 51028 86528,86684,86632
 3.3000e+000 86756 -5.5229e+002 -1.1279e+003 -2.3196e+001 51028 86528,86580,86554
 3.3000e+000 86733 -3.2414e+002 -9.6085e+002  2.1124e+002 51028 86632,86684,86658
 3.3000e+000 86710 -4.7098e+002 -1.0107e+003 -1.1095e+002 51028 86580,86632,86606
 3.3000e+000 87131 -3.7610e+002 -8.0568e+002  1.4877e+002 50624 86958,87036,87010
 3.3000e+000 87108 -4.4329e+002 -7.8318e+002  1.2884e+002 50624 86932,87036,86958
 3.3000e+000 87085 -3.3020e+002 -7.7833e+002  8.5700e+001 50624 86958,87010,86984
 3.3000e+000 87062 -3.2248e+002 -7.2233e+002  1.5032e+002 50624 86906,87036,86932
 3.3000e+000 87330 -6.1858e+002 -1.0121e+003 -1.5986e+001 50234 87353,87180,87154
 3.3000e+000 87307 -5.4370e+002 -1.0100e+003 -1.0906e+001 50234 87353,87154,87258
 3.3000e+000 87284 -4.1558e+002 -9.6383e+002 -1.7699e+001 50234 87206,87258,87232
 3.3000e+000 87379 -5.5708e+002 -1.0503e+003  2.7383e+001 50234 87206,87180,87353
 3.3000e+000 87402 -4.4890e+002 -1.0297e+003  1.7719e+001 50234 87206,87353,87258
 3.3000e+000 87650 -4.5897e+002 -9.8794e+002 -6.4852e+001 49730 87673,87503,87451
 3.3000e+000 87627 -3.0634e+002 -9.2123e+002 -5.5232e+001 49730 87673,87451,87425
 3.3000e+000 87604 -3.0145e+002 -7.5775e+002  7.3411e+001 49730 87503,87555,87529
 3.3000e+000 87581 -5.4506e+002 -8.1100e+002 -8.6622e+001 49730 87451,87503,87477
 3.3000e+000 87699 -4.7698e+002 -9.3996e+002 -2.4580e+001 49730 87555,87503,87673
 3.3000e+000 87722 -4.4476e+002 -9.3269e+002 -2.2949e+001 49730 87555,87673,87425
 3.3000e+000 88232 -3.9970e+002 -9.1596e+002  7.4382e+001 49176 88255,87935,87909
 3.3000e+000 88209 -5.1767e+002 -1.0176e+003  2.0493e+002 49176 88255,87909,88065
 3.3000e+000 88186 -4.8478e+002 -8.6547e+002  1.4434e+002 49176 87935,88039,87961
 3.3000e+000 88163 -4.4360e+002 -9.2556e+002  1.6514e+002 49176 87909,88091,88065
 3.3000e+000 88140 -6.4338e+002 -9.3686e+002  1.2179e+002 49176 87961,88039,88013
 3.3000e+000 88117 -5.6798e+002 -1.1738e+003 -4.1666e+001 49176 87961,88013,87987
 3.3000e+000 88281 -5.3526e+002 -9.6397e+002  1.8678e+002 49176 88039,87935,88255
 3.3000e+000 88304 -6.5700e+002 -1.0624e+003  3.1704e+002 49176 88039,88255,88065
 3.3000e+000 88503 -1.4224e+002 -6.2519e+002 -1.0435e+001 48772 88526,88379,88353
 3.3000e+000 88480 -1.7458e+002 -5.1940e+002  9.4802e+000 48772 88526,88353,88327
 3.3000e+000 88457 -1.8033e+002 -7.2089e+002 -8.1870e+000 48772 88379,88431,88405
 3.3000e+000 88552 -1.1554e+002 -5.4159e+002 -2.4426e+001 48772 88431,88379,88526
 3.3000e+000 88575 -1.6960e+002 -4.7219e+002 -1.4720e+001 48772 88431,88526,88327
 3.3000e+000 89083 -1.8793e+002 -4.3026e+002 -1.2084e+002 48368 88786,88916,88864
 3.3000e+000 89060 -1.8458e+002 -5.0609e+002 -6.4567e+001 48368 88786,88942,88916
 3.3000e+000 89037 -2.4064e+002 -3.0548e+002 -6.9694e+000 48368 88786,88864,88812
 3.3000e+000 89014 -2.5350e+002 -5.4804e+002 -1.6068e+002 48368 88864,88916,88890
 3.3000e+000 88991 -6.5811e+001 -5.6036e+002  1.9813e+002 48368 88812,88864,88838
 3.3000e+000 88968 -2.6859e+001 -3.9244e+002  1.3441e+001 48368 88760,88942,88786
 3.3000e+000 89331 -2.9462e+002 -9.3977e+002  3.2273e+001 47928 89158,89236,89210
 3.3000e+000 89308 -2.1847e+002 -6.5700e+002  8.6154e+001 47928 89132,89236,89158
 3.3000e+000 89285 -4.0990e+002 -6.1689e+002  1.5571e+001 47928 89158,89210,89184
 3.3000e+000 89262 -4.0340e+002 -7.4788e+002  3.6092e+001 47928 89106,89236,89132
 3.3000e+000 89662 -4.8020e+002 -9.7841e+002 -1.7400e+001 47588 89463,89541,89515
 3.3000e+000 89639 -3.4549e+002 -7.9579e+002 -8.1377e+001 47588 89463,89567,89541
 3.3000e+000 89616 -3.9956e+002 -9.1122e+002  5.2817e+001 47588 89463,89515,89489
 3.3000e+000 89593 -4.7369e+002 -8.1968e+002 -9.4383e+001 47588 89437,89567,89463
 3.3000e+000 89763 -1.2529e+001 -6.8213e+001  3.3863e+001 47390 89685,89737,89711
 3.3000e+000 89913 -8.1357e+001 -4.8870e+002 -4.7470e+001 47078 89786,89838,89812
 3.3000e+000 89890 -1.8860e+002 -7.6271e+002  5.1223e+001 47078 89786,89864,89838
 3.3000e+000 90163 -4.2829e+002 -8.5566e+002  4.2880e+001 46474 89964,90042,89990
 3.3000e+000 90140 -3.7103e+002 -8.2988e+002  3.3772e+001 46474 89938,90042,89964
 3.3000e+000 90117 -4.7380e+002 -8.1160e+002  4.4894e+001 46474 89990,90042,90016
 3.3000e+000 90094 -4.7329e+002 -8.5507e+002  5.8208e+001 46474 89938,90068,90042
 3.3000e+000 90364 -4.1118e+002 -8.4348e+002  1.1451e+002 46184 90240,90292,90266
 3.3000e+000 90341 -5.2563e+002 -8.2782e+002  1.2985e+002 46184 90188,90292,90240
 3.3000e+000 90318 -3.7758e+002 -8.5187e+002  1.8881e+002 46184 90188,90240,90214
 3.3000e+000 90565 -4.1458e+002 -6.8883e+002 -2.5013e+001 45780 90588,90415,90389
 3.3000e+000 90542 -3.5865e+002 -6.8774e+002 -1.7915e+001 45780 90588,90389,90493
 3.3000e+000 90519 -4.0318e+002 -7.6241e+002 -1.3401e+001 45780 90415,90467,90441
 3.3000e+000 90614 -3.7438e+002 -7.0483e+002  1.1453e+001 45780 90467,90415,90588
 3.3000e+000 90637 -3.0289e+002 -6.8259e+002  2.6455e+001 45780 90467,90588,90493
 3.3000e+000 91196 -5.6961e+002 -9.8370e+002 -8.0235e+001 45226 91219,90876,90850
 3.3000e+000 91173 -3.3082e+002 -9.2405e+002  3.8750e+001 45226 91219,90850,91032
 3.3000e+000 91150 -2.6094e+002 -1.0658e+003 -8.8650e+001 45226 90824,91032,90850
 3.3000e+000 91127 -4.3371e+002 -7.5229e+002  2.2579e+001 45226 90876,90980,90902
 3.3000e+000 91104 -2.6034e+002 -7.5580e+002  9.7855e+001 45226 90876,91006,90980
 3.3000e+000 91081 -3.7973e+002 -8.0991e+002 -6.3029e+001 45226 90902,90980,90954
 3.3000e+000 91058 -2.2951e+002 -6.8856e+002 -1.3066e+002 45226 90902,90954,90928
 3.3000e+000 91245 -3.4724e+002 -8.9525e+002 -3.9169e+000 45226 91006,90876,91219
 3.3000e+000 91268 -1.3499e+002 -8.7999e+002  9.7589e+001 45226 91006,91219,91032
 3.3000e+000 91516 -1.6350e+002 -1.1464e+003  9.6605e+001 44836 91539,91421,91395
 3.3000e+000 91493 -1.7274e+002 -1.1887e+003 -2.4981e+000 44836 91317,91421,91343
 3.3000e+000 91470 -3.2183e+002 -1.1108e+003  6.7204e+001 44836 91539,91395,91369
 3.3000e+000 91447 -2.9361e+002 -8.5729e+002  1.9744e+002 44836 91291,91421,91317
 3.3000e+000 91565 -2.3652e+002 -1.1569e+003  1.3745e+001 44836 91343,91421,91539
 3.3000e+000 91588 -3.6493e+002 -1.1665e+003 -4.3318e+001 44836 91343,91539,91369
 3.3000e+000 91787 -2.8602e+002 -7.6875e+002  4.7284e+001 44432 91810,91637,91611
 3.3000e+000 91764 -3.6100e+002 -8.9419e+002  8.8831e+001 44432 91810,91611,91715
 3.3000e+000 91741 -1.5987e+002 -6.2200e+002 -4.2056e+001 44432 91637,91689,91663
 3.3000e+000 91836 -3.6586e+002 -7.0397e+002  4.2651e+001 44432 91689,91637,91810
 3.3000e+000 91859 -3.7452e+002 -7.6199e+002  6.2281e+001 44432 91689,91810,91715
 3.3000e+000 92207 -4.3310e+002 -9.8078e+002  9.1773e+001 43864 92230,91936,91910
 3.3000e+000 92184 -5.6871e+002 -1.0206e+003  1.2913e+002 43864 92230,91910,92040
 3.3000e+000 92161 -6.5684e+002 -1.0471e+003  2.0478e+002 43864 91884,92040,91910
 3.3000e+000 92138 -4.8645e+002 -8.5180e+002  9.7241e+000 43864 91936,92014,91988
 3.3000e+000 92115 -3.9731e+002 -1.1268e+003  2.2604e+002 43864 91936,91988,91962
 3.3000e+000 92092 -5.2493e+002 -8.5310e+002  1.4005e+002 43864 91884,92066,92040
 3.3000e+000 92256 -5.7725e+002 -9.0186e+002  7.8738e+001 43864 92014,91936,92230
 3.3000e+000 92279 -6.9627e+002 -9.4414e+002  1.3564e+002 43864 92014,92230,92040
 3.3000e+000 92529 -4.6717e+002 -8.6165e+002  6.3775e+001 43410 92552,92330,92304
 3.3000e+000 92506 -4.5740e+002 -8.4573e+002  1.0459e+000 43410 92552,92304,92408
 3.3000e+000 92483 -4.8833e+002 -8.8482e+002  1.4354e+001 43410 92304,92434,92408
 3.3000e+000 92460 -2.5153e+002 -7.2375e+002 -1.3637e+001 43410 92330,92382,92356
 3.3000e+000 92578 -4.2579e+002 -8.4252e+002  3.8647e+001 43410 92382,92330,92552
 3.3000e+000 92601 -3.7154e+002 -7.8792e+002 -3.1386e+001 43410 92382,92552,92408
 3.3000e+000 92802 -2.1766e+002 -1.0393e+003  1.0803e+002 43162 92825,92704,92652
 3.3000e+000 92779 -1.4980e+002 -9.7650e+002  2.0354e+002 43162 92825,92652,92626
 3.3000e+000 92756 -1.5645e+002 -1.0138e+003  1.2130e+002 43162 92652,92704,92678
 3.3000e+000 92851 -3.7480e+002 -1.0491e+003 -1.1773e+001 43162 92730,92704,92825
 3.3000e+000 92874 -3.4939e+002 -6.8086e+002  1.4116e+002 43162 92730,92825,92626
 3.3000e+000 93463 -2.6795e+002 -6.4523e+002 -1.2484e+002 42758 93140,93270,93166
 3.3000e+000 93440 -3.4236e+002 -7.2791e+002 -7.9645e+001 42758 93140,93296,93270
 3.3000e+000 93417 -2.5309e+002 -6.8495e+002 -9.1720e+001 42758 93166,93270,93218
 3.3000e+000 93394 -1.7142e+002 -6.8347e+002 -1.0777e+002 42758 93218,93270,93244
 3.3000e+000 93371 -9.6595e+001 -8.4346e+002 -6.7438e+001 42758 93140,93322,93296
 3.3000e+000 93348 -3.2238e+002 -8.0175e+002  2.0243e+001 42758 93166,93218,93192
 3.3000e+000 93920 -2.7785e+002 -7.4213e+002 -1.0925e+001 42304 93943,93672,93646
 3.3000e+000 93897 -2.7010e+002 -7.0378e+002 -3.9974e+000 42304 93943,93646,93802
 3.3000e+000 93874 -2.5166e+002 -7.3478e+002  4.6581e+001 42304 93724,93802,93776
 3.3000e+000 93851 -3.7376e+002 -8.7224e+002  5.1663e+001 42304 93672,93724,93698
 3.3000e+000 93828 -4.3025e+002 -8.6746e+002 -2.3152e+001 42304 93724,93776,93750
 3.3000e+000 93969 -2.7323e+002 -7.5665e+002 -2.1853e+001 42304 93724,93672,93943
 3.3000e+000 93992 -2.8003e+002 -7.3913e+002 -1.4979e+001 42304 93724,93943,93802
 3.3000e+000 94321 -3.1868e+002 -8.8015e+002  1.9619e+001 41478 94096,94148,94122
 3.3000e+000 94298 -3.6329e+002 -9.1223e+002  4.8152e+001 41478 94096,94226,94148
 3.3000e+000 94275 -4.7535e+002 -1.1945e+003 -2.4115e+001 41478 94148,94226,94174
 3.3000e+000 94252 -2.0661e+002 -9.0687e+002 -2.1692e+002 41478 94174,94226,94200
 3.3000e+000 94618 -3.2156e+002 -1.0771e+003 -6.4867e+000 40910 94344,94422,94396
 3.3000e+000 94595 -4.6704e+002 -1.0407e+003 -4.1107e+001 40910 94344,94448,94422
 3.3000e+000 94572 -4.0875e+002 -8.9801e+002 -2.1039e+001 40910 94344,94474,94448
 3.3000e+000 94549 -2.7895e+002 -1.1664e+003 -7.6745e+001 40910 94344,94396,94370
 3.3000e+000 94526 -6.2315e+002 -1.1935e+003  7.7313e+001 40910 94344,94500,94474
 3.3000e+000 94866 -3.6718e+002 -6.9780e+002 -8.4901e+001 40306 94667,94719,94693
 3.3000e+000 94843 -4.5356e+002 -7.6560e+002 -5.5496e+001 40306 94641,94719,94667
 3.3000e+000 94820 -5.2348e+002 -7.8158e+002  4.5373e+000 40306 94641,94745,94719
 3.3000e+000 94797 -3.9781e+002 -7.2230e+002 -2.1758e+001 40306 94641,94771,94745
 3.3000e+000 95089 -6.0935e+001 -6.7528e+002  8.0545e+001 39702 94913,94991,94939
 3.3000e+000 95066 -6.7971e+001 -5.7410e+002  1.2875e+001 39702 94913,95017,94991
 3.3000e+000 95043 -2.5009e+000 -6.6021e+002  4.9046e+000 39702 94939,94991,94965
 3.3000e+000 95339 -3.4705e+002 -7.4462e+002 -9.9637e+001 39248 95140,95218,95166
 3.3000e+000 95316 -4.5107e+002 -8.1207e+002 -6.1467e+001 39248 95140,95244,95218
 3.3000e+000 95293 -2.6202e+002 -8.6242e+002 -1.0766e+002 39248 95114,95244,95140
 3.3000e+000 95270 -2.9397e+002 -8.3431e+002 -1.8539e+002 39248 95166,95218,95192
 3.3000e+000 95770 -4.1713e+002 -7.3574e+002  2.5865e+001 38694 95551,95629,95577
 3.3000e+000 95747 -2.9300e+002 -8.8300e+002  3.3148e+001 38694 95447,95629,95551
 3.3000e+000 95724 -2.2000e+002 -7.4829e+002 -4.0940e+001 38694 95447,95551,95473
 3.3000e+000 95701 -1.7058e+002 -7.1862e+002 -5.7033e+001 38694 95473,95551,95499
 3.3000e+000 95678 -1.3426e+002 -6.6550e+002 -1.3697e+002 38694 95499,95551,95525
 3.3000e+000 95655 -4.0504e+002 -6.9597e+002  1.3490e+001 38694 95577,95629,95603
 3.3000e+000 96325 -4.4007e+002 -9.4165e+002  4.0186e+001 38240 95953,96031,96005
 3.3000e+000 96302 -4.1072e+002 -5.3460e+002  1.6354e+002 38240 95953,96161,96031
 3.3000e+000 96279 -2.8593e+002 -5.0606e+002 -3.4689e+001 38240 96031,96161,96135
 3.3000e+000 96256 -3.3885e+002 -6.9056e+002  1.3397e+002 38240 96348,96109,96057
 3.3000e+000 96233 -2.9542e+002 -6.2199e+002  9.1895e+001 38240 96348,96057,96031
 3.3000e+000 96210 -2.4179e+002 -6.9070e+002  1.9890e+002 38240 96057,96109,96083
 3.3000e+000 96187 -5.5921e+002 -4.3209e+002 -5.8367e+001 38240 95953,96005,95979
 3.3000e+000 96374 -2.5860e+002 -8.0990e+002  8.2366e+001 38240 96135,96109,96348
 3.3000e+000 96397 -1.8537e+002 -6.8795e+002  3.0636e+001 38240 96135,96348,96031
 3.3000e+000 96618 -3.8195e+002 -1.0368e+003  1.2863e+001 37821 96494,96546,96520
 3.3000e+000 96595 -2.1443e+002 -9.3185e+002  5.7899e+001 37821 96468,96546,96494
 3.3000e+000 96572 -1.1472e+002 -8.8898e+002  5.0000e+001 37821 96442,96546,96468
 3.3000e+000 97126 -2.7437e+002 -6.0436e+002 -6.6899e+001 37367 97149,96855,96829
 3.3000e+000 97103 -2.8997e+002 -6.1518e+002 -4.4916e+001 37367 97149,96829,96985
 3.3000e+000 97080 -2.4366e+002 -6.2715e+002 -5.0823e+001 37367 96803,96985,96829
 3.3000e+000 97057 -1.7786e+002 -5.8643e+002 -1.0273e+002 37367 96855,96907,96881
 3.3000e+000 97034 -3.4448e+002 -5.5279e+002 -2.3649e+001 37367 96907,96985,96959
 3.3000e+000 97011 -4.0260e+002 -5.1175e+002 -8.0469e+001 37367 96907,96959,96933
 3.3000e+000 97175 -2.8778e+002 -5.7477e+002 -7.5890e+001 37367 96907,96855,97149
 3.3000e+000 97198 -2.9952e+002 -5.8898e+002 -5.6098e+001 37367 96907,97149,96985
 3.3000e+000 97704 -3.6352e+002 -7.9877e+002  1.0284e+002 36863 97727,97511,97485
 3.3000e+000 97681 -3.4440e+002 -7.1455e+002  1.2952e+002 36863 97727,97485,97433
 3.3000e+000 97658 -4.4972e+002 -8.4685e+002  2.0663e+001 36863 97381,97563,97433
 3.3000e+000 97635 -2.3007e+002 -7.2537e+002 -3.2894e+001 36863 97511,97563,97537
 3.3000e+000 97612 -1.6752e+002 -5.0744e+002  2.4423e+001 36863 97433,97485,97459
 3.3000e+000 97589 -5.2628e+002 -8.7022e+002  7.9246e+001 36863 97381,97433,97407
 3.3000e+000 97753 -3.5942e+002 -8.6959e+002  6.0452e+001 36863 97563,97511,97727
 3.3000e+000 97776 -3.5047e+002 -7.9192e+002  8.3494e+001 36863 97563,97727,97433
 3.3000e+000 98331 -4.6171e+002 -1.0516e+003 -6.9165e+000 36287 98354,98089,98063
 3.3000e+000 98308 -4.1542e+002 -1.0671e+003  6.9423e+001 36287 98354,98063,98011
 3.3000e+000 98285 -5.7265e+002 -1.0022e+003  1.3945e+002 36287 98426,97985,98115
 3.3000e+000 98262 -3.9032e+002 -1.1068e+003  5.5720e+001 36287 98011,98063,98037
 3.3000e+000 98239 -5.3127e+002 -8.5868e+002  3.7657e+001 36287 97985,98141,98115
 3.3000e+000 98216 -5.9928e+002 -6.9931e+002  1.4967e+002 36287 97959,98141,97985
 3.3000e+000 98193 -4.8009e+002 -1.3196e+003  3.8835e+002 36287 97959,98167,98141
 3.3000e+000 98380 -4.4708e+002 -1.0388e+003 -1.3358e+001 36287 98115,98089,98354
 3.3000e+000 98403 -4.2741e+002 -9.8968e+002  2.8841e+000 36287 98426,98115,98354
 3.3000e+000 98452 -7.4117e+002 -1.1497e+003  2.4419e+002 36287 98011,97985,98426
 3.3000e+000 98475 -6.1657e+002 -1.1791e+003  1.1528e+002 36287 98011,98426,98354
 3.3000e+000 99030 -4.4556e+002 -1.1744e+003 -7.2707e+001 35726 99053,98736,98710
 3.3000e+000 99007 -3.6953e+002 -9.9329e+002  1.2497e+001 35726 99053,98710,98684
 3.3000e+000 98984 -4.9144e+002 -9.6434e+002 -1.0372e+002 35726 99125,98814,98736
 3.3000e+000 98961 -3.6900e+002 -8.1631e+002 -4.1460e+001 35726 98736,98814,98788
 3.3000e+000 98938 -4.5282e+002 -8.8719e+002  6.8383e+001 35726 98684,98866,98840
 3.3000e+000 98915 -3.0250e+002 -7.9136e+002 -3.1383e+001 35726 98736,98788,98762
 3.3000e+000 98892 -3.0934e+002 -9.2635e+002  3.4727e+001 35726 98658,98866,98684
 3.3000e+000 99079 -3.7747e+002 -9.7167e+002 -3.7148e+001 35726 99125,98736,99053
 3.3000e+000 99102 -4.6408e+002 -8.7378e+002  1.0528e+001 35726 98840,99053,98684
 3.3000e+000 99151 -5.9659e+002 -1.0136e+003 -1.2840e+002 35726 98840,98814,99125
 3.3000e+000 99174 -5.3833e+002 -1.0339e+003 -4.6968e+001 35726 98840,99125,99053
 3.3000e+000 99454 -1.6946e+002 -6.3087e+002 -4.1866e+001 35222 99278,99330,99304
 3.3000e+000 99431 -2.1703e+002 -5.9962e+002  2.5168e+001 35222 99278,99382,99330
 3.3000e+000 99408 -3.5875e+002 -7.2809e+002 -3.0815e+001 35222 99330,99382,99356
 3.3000e+000 99653 -1.6352e+002 -9.7243e+002 -1.6934e+001 34867 99477,99529,99503
 3.3000e+000 99630 -2.8224e+002 -7.1354e+002 -7.1075e+001 34867 99477,99581,99529
 3.3000e+000 99607 -2.9200e+002 -1.1427e+003 -3.1507e+002 34867 99529,99581,99555
 3.3000e+000 100104 -2.2268e+002 -8.3457e+002 -1.6422e+001 34363 99781,99885,99807
 3.3000e+000 100081 -3.2189e+002 -8.9046e+002  2.3296e+001 34363 99781,99963,99885
 3.3000e+000 100058 -1.3034e+002 -7.8928e+002 -2.7984e+001 34363 99885,99963,99911
 3.3000e+000 100035 -1.5345e+002 -7.2421e+002  1.9573e+001 34363 99807,99885,99859
 3.3000e+000 100012 -7.2195e+001 -7.5011e+002 -1.0826e+002 34363 99911,99963,99937
 3.3000e+000 99989 -4.6653e+001 -6.7217e+002  4.3761e+001 34363 99807,99859,99833
 3.3000e+000 100303 -4.0780e+002 -6.9843e+002 -1.8886e+002 33909 100127,100205,100179
 3.3000e+000 100280 -5.5004e+002 -7.7523e+002 -1.5963e+002 33909 100127,100231,100205
 3.3000e+000 100257 -4.8536e+002 -8.4994e+002 -1.4480e+002 33909 100127,100179,100153
 3.3000e+000 100890 -2.2156e+002 -7.5044e+002 -1.0040e+002 33412 100645,100749,100697
 3.3000e+000 100867 -2.3413e+002 -9.0813e+002 -7.3159e+001 33412 100567,100749,100645
 3.3000e+000 100844 -2.2625e+002 -8.9940e+002 -7.7958e+001 33412 100567,100645,100619
 3.3000e+000 100821 -2.1500e+002 -8.8618e+002 -1.8247e+002 33412 100645,100697,100671
 3.3000e+000 100798 -3.0455e+002 -1.2345e+003 -2.6368e+001 33412 100567,100619,100593
 3.3000e+000 100775 -4.1147e+002 -7.3757e+002 -4.7577e+001 33412 100697,100749,100723
 3.3000e+000 101268 -2.1340e+002 -9.5762e+002  8.2114e+000 32908 101435,101291,101098
 3.3000e+000 101245 -3.5022e+002 -9.8806e+002  5.4023e+001 32908 101291,101072,101020
 3.3000e+000 101222 -3.3114e+002 -1.0634e+003 -1.6090e+002 32908 101363,101150,101124
 3.3000e+000 101199 -4.0571e+002 -1.0418e+003  1.6734e+002 32908 101020,101072,101046
 3.3000e+000 101176 -1.8038e+002 -7.4421e+002 -4.2047e+001 32908 100994,101150,101020
 3.3000e+000 101317 -2.6470e+002 -1.0542e+003  5.5826e+001 32908 101124,101098,101291
 3.3000e+000 101340 -2.8149e+002 -1.1606e+003 -4.0750e+000 32908 101363,101124,101291
 3.3000e+000 101389 -2.4969e+002 -9.0704e+002 -1.3135e+002 32908 101020,101150,101363
 3.3000e+000 101412 -1.7697e+002 -9.2259e+002  1.9381e+001 32908 101020,101363,101291
 3.3000e+000 101461 -1.9448e+002 -8.7575e+002  1.0466e+002 32908 101072,101291,101435
 3.3000e+000 101918 -2.2823e+002 -1.0503e+003 -9.9372e+001 32618 101941,101670,101644
 3.3000e+000 101895 -3.7177e+001 -1.0086e+003  3.1201e+001 32618 101941,101644,101774
 3.3000e+000 101872 -4.0963e+002 -8.7734e+002 -2.6288e+001 32618 102013,101696,101670
 3.3000e+000 101849 -7.8621e+001 -6.6148e+002 -1.0827e+002 32618 101696,101748,101722
 3.3000e+000 101826 -1.2403e+001 -9.5778e+002  2.2655e+001 32618 101644,101800,101774
 3.3000e+000 101967 -4.0412e+002 -1.0202e+003 -1.0029e+002 32618 102013,101670,101941
 3.3000e+000 101990 -3.2270e+002 -1.1385e+003  7.0393e+001 32618 101748,101941,101774
 3.3000e+000 102039 -3.6960e+002 -8.2372e+002  2.2850e+000 32618 101748,101696,102013
 3.3000e+000 102062 -2.1581e+002 -8.7800e+002 -3.1511e+001 32618 101748,102013,101941
 3.3000e+000 102440 -4.8433e+002 -1.0636e+003  7.8328e+001 32306 102463,102270,102244
 3.3000e+000 102417 -4.9966e+002 -1.0735e+003  3.5322e+000 32306 102463,102244,102192
 3.3000e+000 102394 -4.7105e+002 -9.3037e+002 -1.1840e+001 32306 102192,102244,102218
 3.3000e+000 102371 -2.9905e+002 -9.9202e+002  7.0860e+001 32306 102270,102322,102296
 3.3000e+000 102348 -2.4596e+002 -1.2252e+003 -8.4177e+001 32306 102166,102322,102192
 3.3000e+000 102489 -4.0123e+002 -1.0418e+003  1.0240e+002 32306 102322,102270,102463
 3.3000e+000 102512 -4.1616e+002 -1.0643e+003  2.3203e+001 32306 102322,102463,102192
 3.3000e+000 102662 -2.7581e+002 -1.0442e+003 -1.9447e+001 31852 102943,102587,102561
 3.3000e+000 102639 -1.6688e+002 -8.7021e+002  3.4256e+001 31852 102815,102685,102561
 3.3000e+000 102711 -3.2220e+002 -1.0832e+003 -3.6667e+001 31852 102943,102561,102685
 3.3000e+000 102841 -1.4433e+002 -7.5203e+002  9.5139e+001 31852 102535,102685,102815
 3.3000e+000 102969 -2.7720e+002 -1.0826e+003 -6.6150e+001 31852 102613,102587,102943
 3.3000e+000 102992 -3.2407e+002 -1.1192e+003 -8.2867e+001 31852 102613,102943,102685
 3.3000e+000 103370 -5.4769e+002 -1.2195e+003  4.6878e+001 31134 103096,103200,103122
 3.3000e+000 103347 -6.9085e+002 -1.5835e+003  1.3697e+002 31134 103096,103226,103200
 3.3000e+000 103324 -6.8495e+002 -1.2902e+003  7.2447e+001 31134 103122,103200,103174
 3.3000e+000 103301 -3.6598e+002 -1.2968e+003  1.0616e+001 31134 103096,103252,103226
 3.3000e+000 103278 -4.6713e+002 -1.4813e+003 -1.6453e+002 31134 103122,103174,103148
 3.3000e+000 103520 -2.0105e+002 -1.5849e+003  7.8672e-001 30822 103393,103445,103419
 3.3000e+000 103497 -7.1657e+001 -7.9193e+002  4.4241e+001 30822 103393,103471,103445
 3.3000e+000 103719 -1.7924e+002 -7.2921e+002  2.0349e+001 30182 103742,103621,103569
 3.3000e+000 103696 -1.9160e+002 -7.4659e+002  1.4507e+001 30182 103742,103569,103543
 3.3000e+000 103673 -1.9324e+002 -7.3099e+002  3.5963e+001 30182 103569,103621,103595
 3.3000e+000 103768 -1.5704e+002 -7.4781e+002  3.0803e+001 30182 103647,103621,103742
 3.3000e+000 103791 -1.7104e+002 -7.7119e+002  2.4981e+001 30182 103647,103742,103543
 3.3000e+000 104252 -4.4043e+002 -8.4627e+002  2.9992e+001 29728 104030,104108,104056
 3.3000e+000 104229 -3.1058e+002 -5.6806e+002  6.4090e+001 29728 104004,104108,104030
 3.3000e+000 104206 -2.2358e+002 -6.1824e+002  5.3071e+001 29728 104004,104134,104108
 3.3000e+000 104183 -3.2171e+002 -7.1328e+002 -6.0903e+001 29728 103978,104134,104004
 3.3000e+000 104160 -2.1163e+002 -7.6820e+002 -6.5134e+001 29728 104056,104108,104082
 3.3000e+000 104630 -3.2793e+002 -1.0349e+003 -1.1643e+002 29217 104653,104382,104356
 3.3000e+000 104607 -2.5470e+002 -9.0135e+002 -2.8114e+001 29217 104653,104356,104512
 3.3000e+000 104584 -4.3548e+002 -1.0409e+003 -1.2911e+002 29217 104434,104512,104486
 3.3000e+000 104561 -2.5892e+002 -1.0678e+003 -1.8491e+002 29217 104382,104434,104408
 3.3000e+000 104538 -2.0105e+002 -7.3274e+002  4.5445e+001 29217 104434,104486,104460
 3.3000e+000 104679 -3.6317e+002 -1.0498e+003 -1.7397e+002 29217 104434,104382,104653
 3.3000e+000 104702 -3.5328e+002 -9.9864e+002 -9.4963e+001 29217 104434,104653,104512
 3.3000e+000 105178 -2.9003e+002 -9.3772e+002  2.8229e+001 28649 105201,104962,104936
 3.3000e+000 105155 -3.0204e+002 -9.1756e+002  3.7161e+001 28649 105201,104936,104884
 3.3000e+000 105132 -3.2642e+002 -8.3418e+002 -8.2001e+001 28649 105273,104858,105014
 3.3000e+000 105109 -4.9656e+002 -9.7381e+002  2.0488e+001 28649 104962,105014,104988
 3.3000e+000 105086 -1.5662e+002 -7.6799e+002 -1.0772e+002 28649 104884,104936,104910
 3.3000e+000 105063 -3.2559e+002 -7.5136e+002 -3.4095e+001 28649 104806,105014,104858
 3.3000e+000 105040 -4.0402e+002 -7.2039e+002 -7.6175e+001 28649 104806,104858,104832
 3.3000e+000 105227 -2.7275e+002 -9.4495e+002  1.4400e+001 28649 105014,104962,105201
 3.3000e+000 105250 -2.3118e+002 -8.7489e+002 -1.4415e+001 28649 105273,105014,105201
 3.3000e+000 105299 -4.2852e+002 -8.8393e+002 -6.6568e+001 28649 104884,104858,105273
 3.3000e+000 105322 -3.9462e+002 -9.5882e+002  1.5095e+001 28649 104884,105273,105201
 3.3000e+000 105673 -5.8530e+001 -9.8024e+002  1.1421e+001 28351 105474,105578,105552
 3.3000e+000 105650  3.2192e+001 -6.2007e+002 -1.6269e+001 28351 105448,105578,105474
 3.3000e+000 105627 -6.8092e+000 -9.0770e+002  1.4817e+000 28351 105500,105552,105526
 3.3000e+000 105604 -2.2570e+001 -9.6213e+002  4.3636e+000 28351 105474,105552,105500
 3.3000e+000 106130 -3.8823e+002 -6.1587e+002 -2.2041e+002 28004 106153,105882,105856
 3.3000e+000 106107 -3.4824e+002 -8.5413e+002 -1.4198e+002 28004 106153,105856,105986
 3.3000e+000 106084 -7.1067e+002 -9.5968e+002  4.0292e+001 28004 105934,105986,105960
 3.3000e+000 106061 -5.5291e+002 -9.7252e+002 -5.2572e+001 28004 105856,106012,105986
 3.3000e+000 106038 -6.6313e+002 -9.8548e+002 -9.3993e+001 28004 105882,105934,105908
 3.3000e+000 106179 -5.8634e+002 -8.1142e+002 -1.0945e+002 28004 105934,105882,106153
 3.3000e+000 106202 -3.9021e+002 -9.3349e+002 -6.8235e+001 28004 105934,106153,105986
 3.3000e+000 106885 -5.6022e+002 -8.1834e+002 -2.9073e+001 27564 106908,106620,106516
 3.3000e+000 106862 -5.4977e+002 -7.9149e+002 -1.5638e+001 27564 106908,106516,106490
 3.3000e+000 106839 -5.1542e+002 -7.6773e+002 -9.9875e+001 27564 106516,106620,106542
 3.3000e+000 106816 -4.9666e+002 -6.0247e+002 -4.8332e+001 27564 106620,106672,106646
 3.3000e+000 106793 -3.9986e+002 -8.7237e+002 -1.7040e+002 27564 106542,106620,106594
 3.3000e+000 106770 -5.5509e+002 -7.1110e+002  5.6169e+001 27564 106490,106698,106672
 3.3000e+000 106747 -4.4758e+002 -8.2332e+002  1.6357e+002 27564 106464,106698,106490
 3.3000e+000 106724 -8.3512e+001 -6.9904e+002 -2.3976e+002 27564 106542,106594,106568
 3.3000e+000 106934 -5.7971e+002 -7.9460e+002 -3.5627e+001 27564 106672,106620,106908
 3.3000e+000 106957 -5.7180e+002 -7.6679e+002 -2.9667e+001 27564 106672,106908,106490
 3.3000e+000 107463 -3.5090e+002 -7.4801e+002 -1.4021e+001 27053 107218,107322,107296
 3.3000e+000 107440 -4.1627e+002 -8.9200e+002  3.0439e+001 27053 107166,107322,107218
 3.3000e+000 107417 -3.7274e+002 -8.9397e+002 -2.8046e+001 27053 107218,107296,107244
 3.3000e+000 107394 -4.0107e+002 -7.0341e+002  8.2385e+001 27053 107140,107322,107166
 3.3000e+000 107371 -3.9172e+002 -9.2243e+002  3.9609e+001 27053 107166,107218,107192
 3.3000e+000 107348 -3.6425e+002 -1.1500e+003 -1.3671e+002 27053 107244,107296,107270
 3.3000e+000 108097 -4.2394e+002 -1.0725e+003 -6.2466e+001 26549 108192,108120,107803
 3.3000e+000 108074 -3.8553e+002 -1.2278e+003  7.7049e+001 26549 108120,107725,107933
 3.3000e+000 108051 -1.3141e+002 -1.4932e+003  1.0143e+002 26549 107751,107803,107777
 3.3000e+000 108028 -4.1988e+002 -1.1507e+003 -8.2768e+001 26549 108192,107803,107751
 3.3000e+000 108005 -2.4921e+002 -7.3471e+002 -8.1827e+000 26549 108264,107855,107803
 3.3000e+000 107982 -1.1848e+002 -8.3419e+002 -4.3436e+001 26549 107881,107933,107907
 3.3000e+000 107959 -3.3142e+002 -7.7156e+002 -8.6223e-002 26549 107803,107855,107829
 3.3000e+000 108146 -3.3214e+002 -8.5319e+002 -5.5844e+001 26549 108264,107803,108120
 3.3000e+000 108169 -3.0593e+002 -1.0238e+003  3.1893e+001 26549 107881,108120,107933
 3.3000e+000 108218 -4.1330e+002 -9.9294e+002 -4.3740e+000 26549 107725,108120,108192
 3.3000e+000 108241 -4.0201e+002 -1.0515e+003 -2.8659e+001 26549 107725,108192,107751
 3.3000e+000 108290 -1.5175e+002 -8.8998e+002 -3.9832e+001 26549 107881,107855,108264
 3.3000e+000 108313 -2.2191e+002 -1.0203e+003 -7.4532e+001 26549 107881,108264,108120
 3.3000e+000 108512 -2.3619e+002 -9.0496e+002 -6.4408e+001 26137 108388,108440,108414
 3.3000e+000 108489 -1.4739e+002 -7.6913e+002 -1.1634e+000 26137 108362,108440,108388
 3.3000e+000 108466 -1.9357e+002 -8.6114e+002 -3.4509e+001 26137 108336,108440,108362
 3.3000e+000 108662 -3.0507e+002 -8.7745e+002 -8.1505e+001 25733 108817,108685,108535
 3.3000e+000 108639 -1.8906e+002 -9.6065e+002 -2.0640e+001 25733 109017,108817,108535
 3.3000e+000 108711 -3.3764e+002 -8.2113e+002 -3.4916e+001 25733 108561,108535,108685
 3.3000e+000 108843 -1.9848e+002 -8.7676e+002 -2.6178e+001 25733 108587,108685,108817
 3.3000e+000 108866 -1.7264e+002 -8.4888e+002  5.1755e+000 25733 108889,108817,108613
 3.3000e+000 108915 -1.6398e+002 -8.2244e+002 -4.1074e+001 25733 108587,108817,108889
 3.3000e+000 109043 -1.5848e+002 -7.2740e+002  2.1575e+001 25733 108613,108817,109017
 3.3000e+000 109500 -5.8476e+002 -1.0619e+003  1.1164e+002 25229 109523,109356,109330
 3.3000e+000 109477 -3.2897e+002 -8.3076e+002 -4.3372e+001 25229 109595,109523,109330
 3.3000e+000 109454 -3.2075e+002 -7.5478e+002 -1.1365e+002 25229 109595,109330,109278
 3.3000e+000 109431 -3.3840e+002 -8.0034e+002 -7.3132e+001 25229 109667,109226,109382
 3.3000e+000 109408 -3.4660e+002 -8.0795e+002 -1.4493e+002 25229 109278,109330,109304
 3.3000e+000 109549 -1.4824e+002 -8.5610e+002  4.5074e+001 25229 109382,109356,109523
 3.3000e+000 109572 -2.9708e+002 -8.6757e+002 -8.4265e+001 25229 109667,109382,109523
 3.3000e+000 109621 -3.6550e+002 -9.4045e+002 -6.5652e+001 25229 109252,109523,109595
 3.3000e+000 109644 -2.5038e+002 -8.1571e+002 -5.7729e+001 25229 109739,109595,109278
 3.3000e+000 109693 -4.6332e+002 -9.1184e+002 -2.5973e+001 25229 109252,109226,109667
 3.3000e+000 109716 -3.6389e+002 -9.4305e+002 -5.4807e+001 25229 109252,109667,109523
 3.3000e+000 109765 -4.4575e+002 -8.7511e+002 -3.2395e+001 25229 109252,109595,109739
 3.3000e+000 110478 -2.5097e+002 -6.9848e+002  9.6440e+001 24917 110158,110236,110184
 3.3000e+000 110455 -3.4862e+002 -7.6958e+002 -2.9741e+000 24917 110158,110288,110236
 3.3000e+000 110432 -1.9738e+002 -9.7201e+002  2.8022e+001 24917 110236,110288,110262
 3.3000e+000 110409 -1.8252e+002 -7.9586e+002  1.1221e+002 24917 110184,110236,110210
 3.3000e+000 110386 -4.6331e+002 -9.0585e+002 -6.4465e+001 24917 110132,110288,110158
 3.3000e+000 110363 -4.1489e+002 -8.6182e+002 -4.6033e+000 24917 110132,110314,110288
 3.3000e+000 110340 -4.6724e+002 -1.0366e+003  1.3546e+002 24917 110106,110314,110132
 3.3000e+000 110829 -1.1943e+002 -5.1851e+002 -1.9557e+001 24307 110604,110682,110630
 3.3000e+000 110806 -3.6209e+002 -1.0710e+003  6.3539e+001 24307 110604,110708,110682
 3.3000e+000 110783 -1.0274e+002 -9.4892e+002  1.8132e+001 24307 110604,110734,110708
 3.3000e+000 110760 -3.5456e+001 -4.8254e+002 -2.2605e+001 24307 110630,110682,110656
 3.3000e+000 111335 -2.4267e+002 -7.2376e+002 -1.1351e+002 23767 111012,111168,111038
 3.3000e+000 111312 -2.5123e+002 -7.7255e+002 -1.1552e+002 23767 111012,111194,111168
 3.3000e+000 111289 -4.7109e+002 -9.1099e+002  7.5966e+001 23767 111358,111064,111038
 3.3000e+000 111266 -3.3509e+002 -8.4994e+002 -4.1532e+001 23767 111358,111038,111168
 3.3000e+000 111243 -2.1396e+002 -7.8061e+002 -3.3335e+001 23767 111430,111142,111090
 3.3000e+000 111220 -1.7969e+000 -6.8788e+002  1.7852e+001 23767 111090,111142,111116
 3.3000e+000 111384 -3.7859e+002 -8.4950e+002 -2.7498e+001 23767 111090,111064,111358
 3.3000e+000 111407 -3.8088e+002 -8.0189e+002 -5.4593e+001 23767 111430,111090,111358
 3.3000e+000 111456 -5.8309e+001 -8.4363e+002 -7.2499e+001 23767 111168,111142,111430
 3.3000e+000 111479 -1.5341e+002 -8.1081e+002 -8.1511e+001 23767 111168,111430,111358
 3.3000e+000 111985 -2.2502e+002 -6.5573e+002  8.7344e+001 23477 111688,111844,111818
 3.3000e+000 111962 -2.0168e+002 -6.8340e+002 -1.0337e+002 23477 111662,111844,111688
 3.3000e+000 111939 -1.5677e+002 -1.1589e+003  1.5536e+002 23477 111766,111818,111792
 3.3000e+000 111916 -4.6275e+002 -1.0467e+003  8.6074e+001 23477 111740,111818,111766
 3.3000e+000 111893 -2.6018e+002 -5.7014e+002  9.8957e+001 23477 111688,111818,111740
 3.3000e+000 111870 -4.3999e+002 -7.7778e+002  2.0042e+002 23477 111688,111740,111714
 3.3000e+000 112314 -3.3560e+002 -6.7414e+002 -3.3051e+000 23023 112141,112219,112193
 3.3000e+000 112291 -2.7998e+002 -6.5036e+002 -3.2326e+001 23023 112115,112219,112141
 3.3000e+000 112268 -2.7023e+002 -7.9548e+002  9.1791e+001 23023 112141,112193,112167
 3.3000e+000 112245 -2.8495e+002 -7.1747e+002 -3.2525e+001 23023 112089,112219,112115
 3.3000e+000 112692 -3.3721e+002 -8.8718e+002 -3.9900e+001 22768 112444,112574,112548
 3.3000e+000 112669 -2.4923e+002 -8.9477e+002 -5.9129e+000 22768 112418,112574,112444
 3.3000e+000 112646 -4.0196e+002 -9.2154e+002 -4.7024e-001 22768 112444,112522,112470
 3.3000e+000 112623 -3.0556e+002 -8.7189e+002 -3.4158e+001 22768 112444,112548,112522
 3.3000e+000 112600 -6.0226e+001 -7.6967e+002 -5.9852e+001 22768 112470,112522,112496
 3.3000e+000 113011 -1.9529e+002 -1.0126e+003 -7.9589e+001 22314 112763,112867,112789
 3.3000e+000 112988 -7.6704e+001 -1.0605e+003 -9.5157e+001 22314 112763,112893,112867
 3.3000e+000 112965 -2.0268e+002 -1.0256e+003  0.0000e+000 22314 112815,112867,112841
 3.3000e+000 112942 -2.6199e+002 -1.0541e+003 -4.4599e+001 22314 112789,112867,112815
 3.3000e+000 112919 -6.2744e+001 -8.0941e+002  2.2530e+002 22314 112737,112893,112763
 3.3000e+000 113519 -4.6887e+001 -7.7542e+002  1.8041e+002 21924 113614,113542,113248
 3.3000e+000 113496 -1.5345e+002 -7.4063e+002  6.4680e+001 21924 113542,113196,113378
 3.3000e+000 113473 -1.3315e+002 -8.0724e+002  1.9528e+002 21924 113614,113248,113222
 3.3000e+000 113450 -1.5700e+002 -1.0979e+003  7.5852e+001 21924 113686,113274,113248
 3.3000e+000 113427 -2.7438e+002 -1.1497e+003 -6.8875e+001 21924 113274,113352,113326
 3.3000e+000 113404 -5.1412e+002 -1.5872e+003 -1.6181e+002 21924 113274,113326,113300
 3.3000e+000 113568 -4.4569e+001 -9.2536e+002  1.3019e+002 21924 113686,113248,113542
 3.3000e+000 113591 -1.3579e+002 -6.8283e+002  8.3228e+001 21924 113352,113542,113378
 3.3000e+000 113640 -1.3250e+002 -7.6347e+002  1.4577e+002 21924 113196,113542,113614
 3.3000e+000 113663 -1.6018e+002 -7.5708e+002  1.4668e+002 21924 113196,113614,113222
 3.3000e+000 113712 -2.7592e+002 -9.0495e+002 -2.3186e+000 21924 113352,113274,113686
 3.3000e+000 113735 -2.1746e+002 -8.1052e+002  3.3428e+001 21924 113352,113686,113542
 3.3000e+000 113885 -5.9179e+002 -8.5954e+002 -3.3285e+000 21520 113980,113908,113784
 3.3000e+000 113862 -5.1670e+002 -8.4934e+002 -1.5172e+002 21520 114238,113908,113758
 3.3000e+000 113934 -3.9856e+002 -6.9489e+002  8.5551e+001 21520 114110,113908,113810
 3.3000e+000 113957 -3.2618e+002 -8.4994e+002 -9.8992e+001 21520 113810,113908,113836
 3.3000e+000 114006 -4.5609e+002 -7.4549e+002 -5.2330e+001 21520 113758,113908,113980
 3.3000e+000 114136 -5.7775e+002 -8.4478e+002  9.2258e+000 21520 113784,113908,114110
 3.3000e+000 114264 -6.5517e+002 -9.9263e+002 -2.0901e+002 21520 113836,113908,114238
 3.3000e+000 114662 -4.4668e+002 -1.1752e+003  1.1532e+001 21030 114414,114518,114492
 3.3000e+000 114639 -1.6485e+002 -9.3490e+002 -1.0484e+002 21030 114414,114544,114518
 3.3000e+000 114616 -5.2849e+002 -1.2090e+003 -7.7153e+000 21030 114440,114492,114466
 3.3000e+000 114593 -4.4741e+002 -1.1775e+003  9.8079e+000 21030 114414,114492,114440
 3.3000e+000 114570 -2.9197e+002 -9.5322e+002 -6.5769e+000 21030 114388,114544,114414
 3.3000e+000 114959 -7.5781e+002 -1.2686e+003  9.6894e+001 20512 114982,114711,114685
 3.3000e+000 114936 -6.9375e+002 -1.2296e+003 -2.4657e+001 20512 115054,114982,114685
 3.3000e+000 114913 -5.6970e+002 -1.1060e+003 -7.7296e+001 20512 115054,114685,114841
 3.3000e+000 114890 -4.1858e+002 -1.1482e+003  3.4096e+001 20512 114711,114763,114737
 3.3000e+000 114867 -2.1148e+002 -1.0731e+003  1.4550e+001 20512 114763,114815,114789
 3.3000e+000 115008 -6.4637e+002 -1.2447e+003  5.8986e+001 20512 114763,114711,114982
 3.3000e+000 115031 -5.7300e+002 -1.2064e+003 -2.9793e+001 20512 114763,114982,114815
 3.3000e+000 115080 -6.3125e+002 -1.2674e+003  4.7998e+000 20512 114815,114982,115054
 3.3000e+000 115103 -6.3046e+002 -1.2538e+003  3.2321e+000 20512 114815,115054,114841
 3.3000e+000 115507 -5.3217e+002 -1.0972e+003 -4.0197e+001 20143 115285,115389,115363
 3.3000e+000 115484 -6.1215e+002 -1.2437e+003 -8.9246e+000 20143 115259,115389,115285
 3.3000e+000 115461 -5.4504e+002 -1.0537e+003 -6.0924e+000 20143 115233,115389,115259
 3.3000e+000 115438 -5.0077e+002 -1.2949e+003  3.9419e+001 20143 115285,115337,115311
 3.3000e+000 115415 -7.2517e+002 -1.5344e+003 -7.2412e+001 20143 115285,115363,115337
 3.3000e+000 115875 -3.6306e+002 -8.5184e+002  5.5658e+000 19632 115656,115734,115682
 3.3000e+000 115852 -1.5551e+002 -7.6971e+002  1.0958e+002 19632 115552,115734,115656
 3.3000e+000 115829 -1.7662e+002 -7.8345e+002 -6.5695e+001 19632 115552,115656,115578
 3.3000e+000 115806 -3.5666e+002 -8.7413e+002  8.0212e+000 19632 115578,115656,115630
 3.3000e+000 115783 -3.8360e+002 -8.1080e+002  3.8156e+001 19632 115682,115734,115708
 3.3000e+000 115760 -4.3838e+002 -8.9811e+002 -8.2057e+001 19632 115578,115630,115604
 3.3000e+000 116025 -2.0512e+002 -9.6378e+002 -2.1090e+002 19178 115898,115950,115924
 3.3000e+000 116002 -3.0738e+002 -9.8693e+002 -1.0782e+002 19178 115898,115976,115950
 3.3000e+000 116633 -2.7817e+002 -8.2235e+002 -1.7300e+001 18738 116800,116656,116342
 3.3000e+000 116610 -2.8530e+002 -8.6291e+002  2.4095e+001 18738 116656,116238,116446
 3.3000e+000 116587 -3.4763e+002 -8.3189e+002 -5.9042e+001 18738 116728,116368,116342
 3.3000e+000 116564 -2.7117e+002 -7.9645e+002 -3.2519e+001 18738 116800,116342,116264
 3.3000e+000 116541 -3.1033e+002 -1.1518e+003  9.3507e+001 18738 116212,116446,116238
 3.3000e+000 116518 -6.7486e+001 -5.6903e+002  1.2075e+001 18738 116394,116446,116420
 3.3000e+000 116495  1.6840e+002 -6.5166e+002 -1.2191e+002 18738 116264,116342,116316
 3.3000e+000 116472 -1.4542e+002 -9.1811e+002  1.0657e+002 18738 116264,116316,116290
 3.3000e+000 116682 -3.3239e+002 -8.1372e+002  1.3467e+001 18738 116728,116342,116656
 3.3000e+000 116705 -2.9088e+002 -6.7926e+002  5.2511e+001 18738 116394,116656,116446
 3.3000e+000 116754 -4.6368e+002 -8.7730e+002 -9.4523e+001 18738 116394,116368,116728
 3.3000e+000 116777 -4.5777e+002 -8.5785e+002 -1.9909e+001 18738 116394,116728,116656
 3.3000e+000 116826 -2.6820e+002 -8.7335e+002  4.2611e+000 18738 116238,116656,116800
 3.3000e+000 116849 -2.4825e+002 -8.3999e+002 -1.5164e+001 18738 116238,116800,116264
 3.3000e+000 116999 -3.2565e+002 -1.1154e+003  6.4548e+001 18184 116872,116924,116898
 3.3000e+000 116976 -3.2316e+002 -5.6862e+002 -7.9175e+000 18184 116872,116950,116924
 3.3000e+000 117330 -6.9570e+001 -1.3294e+003  9.2499e+001 17694 117157,117235,117183
 3.3000e+000 117307 -4.2408e+002 -1.5052e+003  1.5907e+001 17694 117131,117235,117157
 3.3000e+000 117284 -2.9385e+002 -1.6876e+003 -8.4029e+001 17694 117105,117235,117131
 3.3000e+000 117261  2.6438e+002 -8.1659e+002 -6.0106e+001 17694 117183,117235,117209
 3.3000e+000 117480 -4.2726e+002 -1.0318e+003 -1.1481e+002 17290 117353,117405,117379
 3.3000e+000 117457 -2.1341e+002 -1.1315e+003 -1.2626e+002 17290 117353,117431,117405
 3.3000e+000 117679 -7.0242e+001 -8.1979e+002 -3.9672e+001 16718 117555,117607,117581
 3.3000e+000 117656 -4.0465e+002 -1.0344e+003  5.2774e+001 16718 117529,117607,117555
 3.3000e+000 117633  2.3984e+001 -9.9573e+002  4.0756e+001 16718 117503,117607,117529
 3.3000e+000 117782 -2.2279e+002 -8.2011e+002  2.2526e+001 16520 117704,117756,117730
 3.3000e+000 117983 -3.0914e+002 -1.2776e+003 -2.3099e-001 16208 117859,117911,117885
 3.3000e+000 117960 -1.8810e+002 -1.2041e+003 -3.2809e+001 16208 117833,117911,117859
 3.3000e+000 117937 -8.5806e+001 -1.0384e+003  4.1723e+001 16208 117807,117911,117833
 3.3000e+000 118135 -6.0029e+002 -9.8961e+002 -1.2236e+002 15674 118034,118086,118060
 3.3000e+000 118112 -2.8354e+002 -7.6035e+002  2.0161e+001 15674 118008,118086,118034
 3.3000e+000 118238 -5.2457e+001 -9.6854e+002  6.2616e+001 15355 118160,118212,118186
 3.3000e+000 118341 -4.9344e+002 -1.0230e+003  2.2292e+002 421 118263,118315,118289
 3.4000e+000 68152 -2.9100e+002 -7.0336e+002 -1.7043e+001 67838 68074,68126,68100
 3.4000e+000 68550 -2.5943e+002 -8.2529e+002  1.8102e+001 67526 68276,68380,68302
 3.4000e+000 68527 -8.5929e+001 -7.9416e+002  1.0797e+001 67526 68276,68406,68380
 3.4000e+000 68504 -2.2601e+002 -7.1178e+002  2.2877e+000 67526 68328,68380,68354
 3.4000e+000 68481 -2.1864e+002 -7.3017e+002  1.6724e+001 67526 68302,68380,68328
 3.4000e+000 68458 -1.5436e+002 -9.6478e+002 -3.4102e+001 67526 68276,68432,68406
 3.4000e+000 68651 -5.6570e+002 -8.6829e+002  1.1607e+002 67328 68573,68625,68599
 3.4000e+000 68970 -2.2676e+002 -7.8371e+002  1.0795e+001 67016 68722,68800,68774
 3.4000e+000 68947 -2.5230e+002 -8.2887e+002 -1.5484e+000 67016 68722,68826,68800
 3.4000e+000 68924 -2.9558e+002 -8.0629e+002  5.2888e+000 67016 68696,68826,68722
 3.4000e+000 68901 -1.8628e+002 -8.4491e+002 -4.0526e+001 67016 68722,68774,68748
 3.4000e+000 68878 -3.9180e+002 -7.7412e+002 -1.1989e+002 67016 68696,68852,68826
 3.4000e+000 69291 -3.8548e+002 -8.2797e+002 -1.1280e+001 66654 69069,69147,69095
 3.4000e+000 69268 -2.8749e+002 -8.8500e+002  2.7073e+001 66654 69069,69173,69147
 3.4000e+000 69245 -3.5488e+002 -7.4423e+002  1.2600e+002 66654 69043,69173,69069
 3.4000e+000 69222 -4.8373e+002 -9.5290e+002  5.8222e+001 66654 69095,69147,69121
 3.4000e+000 69199 -5.1446e+002 -9.5412e+002  1.9276e+001 66654 69017,69173,69043
 3.4000e+000 69695 -2.8409e+002 -1.1060e+003  2.0536e+001 66456 69447,69577,69551
 3.4000e+000 69672 -1.0421e+002 -9.8275e+002 -3.3750e+001 66456 69421,69577,69447
 3.4000e+000 69649 -9.0240e+001 -7.2434e+002 -1.1561e+002 66456 69473,69551,69525
 3.4000e+000 69626 -2.3570e+002 -1.0106e+003 -5.1715e+000 66456 69447,69551,69473
 3.4000e+000 69603 -4.4898e+000 -6.4251e+002 -2.4246e+002 66456 69473,69525,69499
 3.4000e+000 70024 -3.8306e+002 -8.2257e+002 -2.5815e+000 66258 70047,69851,69825
 3.4000e+000 70001 -3.9542e+002 -8.0743e+002  3.4391e+001 66258 70047,69825,69903
 3.4000e+000 69978 -4.6879e+002 -9.8114e+002  7.9535e+001 66258 69799,69903,69825
 3.4000e+000 69955 -1.9251e+002 -1.2314e+003  2.6005e+002 66258 69799,69929,69903
 3.4000e+000 70073 -4.2311e+002 -8.3347e+002 -1.3640e+001 66258 69877,69851,70047
 3.4000e+000 70096 -4.4246e+002 -8.1767e+002  2.4524e+001 66258 69877,70047,69903
 3.4000e+000 70602 -4.1324e+000 -6.3649e+002 -1.4124e+002 66060 70305,70435,70331
 3.4000e+000 70579 -4.7714e+002 -1.0271e+003  4.2250e+001 66060 70279,70435,70305
 3.4000e+000 70556 -4.7739e+002 -7.9705e+002 -1.6160e+002 66060 70331,70435,70409
 3.4000e+000 70533 -3.6679e+002 -8.2003e+002  1.1401e+002 66060 70279,70461,70435
 3.4000e+000 70510 -1.7997e+002 -5.7659e+002 -3.0245e+002 66060 70331,70409,70357
 3.4000e+000 70487 -5.9708e+001 -6.1891e+002 -6.8730e+001 66060 70357,70409,70383
 3.4000e+000 70703 -9.8386e+002 -1.4444e+003 -4.6529e+001 65862 70625,70677,70651
 3.4000e+000 71083 -2.3560e+002 -7.2439e+002  2.0731e+001 65664 70887,70965,70939
 3.4000e+000 71060 -2.2602e+002 -7.2430e+002  1.8181e+001 65664 70861,70965,70887
 3.4000e+000 71037 -2.4833e+002 -7.4423e+002  4.1084e+000 65664 70809,70965,70861
 3.4000e+000 71014 -2.3169e+002 -7.2116e+002 -7.6193e+000 65664 70809,70861,70835
 3.4000e+000 70991 -2.6390e+002 -7.6981e+002  4.2534e+001 65664 70887,70939,70913
 3.4000e+000 71611 -4.8338e+002 -1.2193e+003 -5.4021e+001 65260 71288,71444,71314
 3.4000e+000 71588 -2.9849e+002 -1.1167e+003 -1.2985e+001 65260 71288,71470,71444
 3.4000e+000 71565 -2.0504e+002 -7.6820e+002  6.8075e+001 65260 71314,71418,71392
 3.4000e+000 71542 -4.3993e+002 -1.0880e+003 -3.6961e+001 65260 71314,71444,71418
 3.4000e+000 71519 -4.5370e+002 -8.4492e+002  9.5044e+001 65260 71314,71392,71340
 3.4000e+000 71496 -3.5339e+002 -6.6120e+002  2.6231e+002 65260 71340,71392,71366
 3.4000e+000 72060 -4.1089e+002 -7.9323e+002 -3.5981e+001 64870 71737,71893,71789
 3.4000e+000 72037 -2.2269e+002 -7.1069e+002 -2.1596e+001 64870 71737,71919,71893
 3.4000e+000 72014 -4.1944e+002 -7.2692e+002  3.6716e+001 64870 71789,71841,71815
 3.4000e+000 71991 -3.5047e+002 -7.5563e+002  1.0769e+000 64870 71789,71893,71841
 3.4000e+000 71968 -4.0286e+002 -9.5216e+002 -1.2389e+002 64870 71737,71789,71763
 3.4000e+000 71945 -2.7849e+002 -8.0680e+002  0.0000e+000 64870 71841,71893,71867
 3.4000e+000 72517 -4.5417e+002 -7.0697e+002 -9.5121e+001 64466 72321,72399,72347
 3.4000e+000 72494 -4.4043e+002 -6.2600e+002 -7.5373e+001 64466 72269,72399,72321
 3.4000e+000 72471 -4.5900e+002 -7.9341e+002  4.4775e+001 64466 72347,72399,72373
 3.4000e+000 72448 -4.2994e+002 -6.8837e+002 -2.1139e+002 64466 72243,72399,72269
 3.4000e+000 72425 -5.3439e+002 -8.2648e+002 -4.9487e+001 64466 72269,72321,72295
 3.4000e+000 72944 -2.2775e+002 -6.0661e+002 -1.0404e+001 64062 73111,73039,72699
 3.4000e+000 72921 -1.7251e+002 -6.6304e+002 -6.2870e+001 64062 73183,72967,72647
 3.4000e+000 72898 -2.1335e+002 -6.8616e+002 -3.7652e+001 64062 72967,72803,72751
 3.4000e+000 72875 -2.1957e+002 -6.0312e+002 -1.2332e+001 64062 73111,72699,72673
 3.4000e+000 72852 -1.2658e+002 -7.1326e+002 -3.1062e+001 64062 73183,72647,72621
 3.4000e+000 72829 -1.6950e+002 -5.6953e+002 -1.4249e+002 64062 72751,72803,72777
 3.4000e+000 72993 -1.9375e+002 -6.0576e+002 -2.8287e+001 64062 73039,72647,72967
 3.4000e+000 73016 -3.0804e+002 -7.0601e+002 -3.3028e+001 64062 72725,72967,72751
 3.4000e+000 73065 -9.3657e+001 -7.0779e+002  2.0115e+002 64062 72725,72699,73039
 3.4000e+000 73088 -2.2486e+002 -6.9326e+002 -4.0872e+001 64062 72725,73039,72967
 3.4000e+000 73137 -2.1052e+002 -6.0993e+002 -1.0777e+001 64062 72647,73039,73111
 3.4000e+000 73160 -2.0924e+002 -6.0924e+002 -1.1215e+001 64062 72647,73111,72673
 3.4000e+000 73209 -2.1989e+002 -7.0852e+002 -3.7990e+001 64062 72803,72967,73183
 3.4000e+000 73232 -1.9391e+002 -7.9311e+002 -9.4802e-001 64062 72803,73183,72621
 3.4000e+000 73333 -8.4763e+002 -1.3045e+003  8.6133e+001 63814 73356,73281,73255
 3.4000e+000 73382 -6.7095e+002 -9.6104e+002  5.3296e+001 63814 73486,73356,73307
 3.4000e+000 73512 -8.0269e+002 -1.0168e+003 -3.5186e+001 63814 73281,73356,73486
 3.4000e+000 73839 -3.6832e+002 -8.1021e+002 -3.2065e+001 63616 73862,73692,73666
 3.4000e+000 73816 -3.2240e+002 -7.2803e+002  1.7461e+000 63616 73934,73862,73666
 3.4000e+000 73793 -2.7776e+002 -7.5850e+002  4.8024e+001 63616 73934,73666,73640
 3.4000e+000 73770 -2.4299e+002 -8.0109e+002  7.7918e+001 63616 73614,73744,73640
 3.4000e+000 73888 -4.0650e+002 -7.3984e+002 -2.8362e+001 63616 73718,73692,73862
 3.4000e+000 73911 -3.8256e+002 -6.9172e+002  2.9989e+001 63616 73718,73862,73744
 3.4000e+000 73960 -4.0709e+002 -7.7067e+002  1.6220e+001 63616 73744,73862,73934
 3.4000e+000 73983 -3.6955e+002 -7.9978e+002  5.7671e+001 63616 73744,73934,73640
 3.4000e+000 74363 -2.3732e+002 -7.1247e+002  4.3285e+000 63390 74386,74115,74089
 3.4000e+000 74340 -2.7620e+002 -6.6886e+002 -2.2358e+000 63390 74458,74386,74089
 3.4000e+000 74317 -2.4356e+002 -6.9065e+002  7.4716e+001 63390 74458,74089,74245
 3.4000e+000 74294 -2.9814e+002 -7.8059e+002 -2.7684e-001 63390 74530,74167,74141
 3.4000e+000 74271 -2.6756e+002 -6.9629e+002 -1.2728e+002 63390 74167,74219,74193
 3.4000e+000 74412 -2.2413e+002 -7.0985e+002  3.0901e+000 63390 74141,74115,74386
 3.4000e+000 74435 -2.5123e+002 -7.3575e+002  2.5047e+001 63390 74530,74141,74386
 3.4000e+000 74484 -2.1652e+002 -5.6154e+002  3.3012e+001 63390 74219,74386,74458
 3.4000e+000 74507 -1.5742e+002 -5.5592e+002  1.1680e+002 63390 74219,74458,74245
 3.4000e+000 74556 -3.7625e+002 -7.4058e+002 -5.5189e+001 63390 74219,74167,74530
 3.4000e+000 74579 -3.2686e+002 -6.8304e+002 -2.6407e+001 63390 74219,74530,74386
 3.4000e+000 74680 -3.4634e+002 -6.3661e+002  6.3598e+001 63100 75089,74833,74703
 3.4000e+000 74729 -4.6421e+002 -8.0351e+002  2.9536e+001 63100 74961,74703,74654
 3.4000e+000 74859 -2.2250e+002 -5.6555e+002  9.4874e+001 63100 74602,74703,74833
 3.4000e+000 74987 -3.9007e+002 -6.2584e+002  3.2517e+001 63100 75089,74703,74961
 3.4000e+000 75115 -2.5400e+002 -6.2847e+002  7.0892e+001 63100 74628,74833,75089
 3.4000e+000 75138 -2.9686e+002 -6.1717e+002  3.9971e+001 63100 74628,75089,74961
 3.4000e+000 75723 -4.0021e+002 -5.8043e+002  4.6314e+001 62532 75746,75504,75426
 3.4000e+000 75700 -4.2591e+002 -4.4767e+002  6.0377e+001 62532 75746,75426,75556
 3.4000e+000 75677 -4.2363e+002 -4.2530e+002 -2.2019e+002 62532 75426,75504,75452
 3.4000e+000 75654 -4.2135e+002 -3.0479e+002 -1.2213e+002 62532 75400,75556,75426
 3.4000e+000 75631 -5.1035e+002 -6.2260e+002 -2.1817e+002 62532 75400,75582,75556
 3.4000e+000 75608 -1.8812e+002 -3.6033e+002 -2.5836e+002 62532 75452,75504,75478
 3.4000e+000 75772 -3.9527e+002 -7.1410e+002  1.4832e+001 62532 75530,75504,75746
 3.4000e+000 75795 -4.1917e+002 -5.6736e+002  1.3873e+001 62532 75530,75746,75556
 3.4000e+000 76301 -3.3564e+002 -6.8851e+002 -1.9005e+001 62192 76324,76082,76030
 3.4000e+000 76278 -3.0462e+002 -6.4332e+002 -9.5539e-001 62192 76324,76030,76004
 3.4000e+000 76255 -2.7528e+002 -6.8018e+002  3.4985e+001 62192 76030,76082,76056
 3.4000e+000 76232 -4.1452e+002 -7.3922e+002 -9.0938e+001 62192 76082,76134,76108
 3.4000e+000 76209 -2.8883e+002 -5.5397e+002 -6.2489e+001 62192 76004,76160,76134
 3.4000e+000 76186 -1.9137e+002 -5.9778e+002 -2.6137e+001 62192 75978,76160,76004
 3.4000e+000 76350 -3.9490e+002 -6.2717e+002 -2.0810e+001 62192 76134,76082,76324
 3.4000e+000 76373 -3.5529e+002 -5.6417e+002 -2.4077e+000 62192 76134,76324,76004
 3.4000e+000 76879 -4.1339e+002 -5.3951e+002 -4.7808e+001 61788 76902,76660,76582
 3.4000e+000 76856 -3.6521e+002 -5.7645e+002 -7.1832e+001 61788 76902,76582,76556
 3.4000e+000 76833 -5.4610e+002 -5.7962e+002 -6.7745e+001 61788 76582,76660,76634
 3.4000e+000 76810 -4.7105e+002 -6.8192e+002 -4.5066e+001 61788 76582,76634,76608
 3.4000e+000 76787 -3.8390e+002 -6.4089e+002 -4.6786e+000 61788 76556,76738,76686
 3.4000e+000 76764 -1.8441e+002 -4.9104e+002 -7.2969e+001 61788 76686,76738,76712
 3.4000e+000 76928 -4.2119e+002 -5.7178e+002 -3.9011e+001 61788 76686,76660,76902
 3.4000e+000 76951 -3.8930e+002 -6.2820e+002 -5.5818e+001 61788 76686,76902,76556
 3.4000e+000 77408 -4.2260e+002 -6.0436e+002 -1.6992e+000 61498 77212,77264,77238
 3.4000e+000 77385 -3.6984e+002 -5.0843e+002  3.1948e+001 61498 77160,77264,77212
 3.4000e+000 77362 -4.1105e+002 -5.2208e+002  2.7761e+001 61498 77160,77290,77264
 3.4000e+000 77339 -2.3124e+002 -6.1209e+002  4.7449e+001 61498 77160,77212,77186
 3.4000e+000 77316 -3.2650e+002 -4.5657e+002  1.8615e+002 61498 77134,77290,77160
 3.4000e+000 77678 -2.0603e+002 -5.2783e+002 -3.3729e+001 61129 77479,77557,77505
 3.4000e+000 77655 -2.7331e+002 -5.9534e+002 -2.7568e+000 61129 77479,77583,77557
 3.4000e+000 77632 -2.1230e+002 -6.1156e+002  3.0684e+001 61129 77453,77583,77479
 3.4000e+000 77609 -1.1044e+002 -4.9910e+002 -3.6505e+001 61129 77505,77557,77531
 3.4000e+000 77828 -2.1701e+002 -6.4625e+002  2.5577e+001 60931 77851,77727,77701
 3.4000e+000 77805 -2.4890e+002 -7.0591e+002  5.4202e+001 60931 77851,77701,77779
 3.4000e+000 77877 -3.7455e+002 -8.2170e+002  1.2995e+002 60931 77923,77851,77753
 3.4000e+000 77900 -1.8249e+002 -7.2882e+002  6.9161e+001 60931 77753,77851,77779
 3.4000e+000 77949 -2.0339e+002 -4.9006e+002  5.8305e+001 60931 77727,77851,77923
 3.4000e+000 78133 -1.8102e+002 -4.6477e+002 -3.9353e+001 60377 78055,78107,78081
 3.4000e+000 78535 -7.0816e+002 -9.4736e+002 -4.3677e+001 60015 78287,78391,78313
 3.4000e+000 78512 -4.4890e+002 -9.5373e+002 -7.7780e+001 60015 78287,78417,78391
 3.4000e+000 78489 -5.0024e+002 -1.0380e+003 -1.5405e+002 60015 78261,78417,78287
 3.4000e+000 78466 -3.4825e+002 -8.6949e+002  8.9102e+001 60015 78339,78391,78365
 3.4000e+000 78443 -3.6949e+002 -7.8157e+002  2.3537e+001 60015 78313,78391,78339
 3.4000e+000 78913 -3.0312e+002 -5.3887e+002  5.8499e+000 59725 78936,78743,78691
 3.4000e+000 78890 -3.5634e+002 -5.9725e+002 -1.6393e+001 59725 79008,78936,78691
 3.4000e+000 78867 -3.4882e+002 -5.6068e+002 -4.2924e+001 59725 79008,78691,78665
 3.4000e+000 78844 -1.8620e+002 -5.3589e+002  8.4988e+001 59725 78691,78743,78717
 3.4000e+000 78821 -1.2304e+002 -4.6331e+002 -2.3745e+002 59725 78639,78795,78769
 3.4000e+000 78962 -2.3482e+002 -5.9159e+002 -3.9770e+001 59725 78769,78743,78936
 3.4000e+000 78985 -3.5065e+002 -7.3807e+002 -9.5154e+001 59725 78769,78936,78639
 3.4000e+000 79034 -2.9538e+002 -5.6708e+002 -3.6691e+001 59725 78639,78936,79008
 3.4000e+000 79057 -3.2178e+002 -5.5965e+002 -5.8341e+001 59725 78639,79008,78665
 3.4000e+000 79386 -3.1592e+002 -7.9603e+002  5.9916e+001 59221 79187,79239,79213
 3.4000e+000 79363 -2.5848e+002 -7.1805e+002  2.8020e+001 59221 79187,79265,79239
 3.4000e+000 79340 -3.6187e+002 -7.5804e+002  2.8736e+001 59221 79187,79291,79265
 3.4000e+000 79317 -2.4442e+002 -4.8430e+002  2.6580e+000 59221 79161,79291,79187
 3.4000e+000 79813 -2.2783e+002 -5.4048e+002 -2.0632e+001 58831 79836,79542,79516
 3.4000e+000 79790 -1.9341e+002 -5.3034e+002 -1.8710e+001 58831 79980,79836,79516
 3.4000e+000 79767 -2.7872e+002 -6.1905e+002 -1.0611e+002 58831 79908,79646,79568
 3.4000e+000 79744 -1.8748e+002 -4.9625e+002  5.2805e+000 58831 79980,79516,79490
 3.4000e+000 79721 -4.4302e+002 -6.8799e+002 -1.2498e+002 58831 79568,79646,79594
 3.4000e+000 79698 -1.9288e+003 -1.2749e+003 -9.4355e+002 58831 79594,79646,79620
 3.4000e+000 79862 -1.6231e+002 -4.0578e+002  4.0722e+001 58831 79568,79542,79836
 3.4000e+000 79885 -1.3205e+002 -5.2360e+002  1.3144e+001 58831 79908,79568,79836
 3.4000e+000 79934 -3.8363e+002 -6.1764e+002 -1.9345e+002 58831 79672,79646,79908
 3.4000e+000 79957 -3.5735e+002 -5.8624e+002 -7.4633e+001 58831 79672,79908,79836
 3.4000e+000 80006 -1.7928e+002 -4.7827e+002 -1.6791e+001 58831 79672,79836,79980
 3.4000e+000 80029 -1.9567e+002 -4.6949e+002  2.4872e+000 58831 79672,79980,79490
 3.4000e+000 80358 -2.5005e+002 -7.2349e+002  3.8398e+000 58377 80381,80185,80159
 3.4000e+000 80335 -2.4879e+002 -7.2492e+002  3.2208e+000 58377 80381,80159,80133
 3.4000e+000 80312 -1.5269e+002 -6.7958e+002 -1.0965e+001 58377 80133,80263,80237
 3.4000e+000 80289 -2.8153e+002 -8.1415e+002  6.0223e+001 58377 80185,80237,80211
 3.4000e+000 80407 -2.5136e+002 -7.2490e+002  4.3731e+000 58377 80237,80185,80381
 3.4000e+000 80430 -2.4940e+002 -7.2565e+002  3.5108e+000 58377 80237,80381,80133
 3.4000e+000 80759 -1.7025e+002 -6.7926e+002  1.5664e+002 57873 80782,80586,80560
 3.4000e+000 80736 -2.9206e+002 -8.0472e+002  1.0453e+002 57873 80782,80560,80534
 3.4000e+000 80713 -2.8847e+002 -8.4986e+002  7.3600e+001 57873 80586,80638,80612
 3.4000e+000 80690 -9.2699e+001 -7.7783e+002  7.4938e+001 57873 80534,80664,80638
 3.4000e+000 80808 -2.2821e+002 -7.9255e+002  9.7896e+001 57873 80638,80586,80782
 3.4000e+000 80831 -2.4386e+002 -8.2810e+002  7.3034e+001 57873 80638,80782,80534
 3.4000e+000 81337 -2.1006e+002 -5.3741e+002 -5.2480e+001 57262 81360,81144,81092
 3.4000e+000 81314 -2.4475e+002 -6.1648e+002 -4.6899e+001 57262 81360,81092,81066
 3.4000e+000 81291 -2.7465e+002 -6.4878e+002  2.8003e+000 57262 81014,81196,81066
 3.4000e+000 81268 -1.9023e+002 -4.0146e+002 -4.5956e+001 57262 81092,81144,81118
 3.4000e+000 81245 -2.4059e+002 -4.5743e+002 -2.5208e+000 57262 81144,81196,81170
 3.4000e+000 81222 -2.9291e+002 -6.9799e+002  5.9474e+001 57262 81014,81066,81040
 3.4000e+000 81386 -2.4148e+002 -4.6992e+002  3.0032e+000 57262 81196,81144,81360
 3.4000e+000 81409 -2.7660e+002 -5.5243e+002  6.7361e+000 57262 81196,81360,81066
 3.4000e+000 81608 -1.5629e+002 -5.9132e+002  2.9392e+001 57007 81458,81536,81510
 3.4000e+000 81585 -1.7998e+002 -6.3578e+002  2.0901e+001 57007 81432,81536,81458
 3.4000e+000 81562 -4.1574e+002 -5.5940e+002  1.4287e+002 57007 81458,81510,81484
 3.4000e+000 82086 -5.4864e+002 -8.5853e+002 -1.3670e+001 56339 81792,81922,81818
 3.4000e+000 82063 -5.1110e+002 -9.6451e+002 -8.4164e+001 56339 81714,81922,81792
 3.4000e+000 82040 -4.8991e+002 -7.3471e+002 -9.0602e+001 56339 82109,81844,81818
 3.4000e+000 82017 -5.1010e+002 -7.9063e+002 -1.0345e+002 56339 82109,81818,81922
 3.4000e+000 81994 -3.7952e+002 -8.5397e+002 -1.0596e+002 56339 81844,81896,81870
 3.4000e+000 81971 -3.5179e+002 -5.4477e+002 -2.7295e+002 56339 81714,81792,81766
 3.4000e+000 81948 -1.0418e+003 -7.8518e+002 -5.3855e+002 56339 81714,81766,81740
 3.4000e+000 82135 -4.0966e+002 -7.8584e+002 -5.5528e+001 56339 81896,81844,82109
 3.4000e+000 82158 -4.6675e+002 -8.8931e+002 -8.3912e+001 56339 81896,82109,81922
 3.4000e+000 82536 -3.6020e+002 -7.8481e+002 -3.6877e+001 55699 82288,82392,82314
 3.4000e+000 82513 -3.6716e+002 -7.8783e+002 -3.7119e+001 55699 82288,82418,82392
 3.4000e+000 82490 -4.3252e+002 -9.7073e+002 -6.7385e+001 55699 82314,82392,82340
 3.4000e+000 82467 -1.4591e+002 -1.2110e+003 -1.4190e+002 55699 82340,82392,82366
 3.4000e+000 82444 -3.3533e+002 -8.2803e+002 -4.1076e+001 55699 82262,82418,82288
 3.4000e+000 83091 -5.5745e+002 -6.5574e+002  1.1564e+002 55409 82745,82901,82875
 3.4000e+000 83068 -4.4052e+002 -6.0233e+002  1.5943e+002 55409 82719,82901,82745
 3.4000e+000 83045 -3.8130e+002 -6.6899e+002  1.0507e+002 55409 82771,82849,82823
 3.4000e+000 83022 -6.5623e+002 -7.4388e+002  1.9410e+002 55409 82745,82849,82771
 3.4000e+000 82999 -3.8315e+002 -5.8104e+002  1.0990e+002 55409 82745,82875,82849
 3.4000e+000 82976 -6.4446e+002 -5.9097e+002  1.3645e+002 55409 82771,82823,82797
 3.4000e+000 82953 -2.5061e+002 -4.5021e+002  9.1265e+001 55409 82719,82927,82901
 3.4000e+000 83388 -3.4004e+002 -9.1019e+002 -3.3653e+001 54905 83411,83218,83166
 3.4000e+000 83365 -2.1830e+002 -8.8457e+002 -2.9964e+001 54905 83411,83166,83114
 3.4000e+000 83342 -4.2776e+002 -9.0707e+002 -5.9223e+001 54905 83483,83270,83244
 3.4000e+000 83319 -4.0143e+002 -8.7461e+002 -6.6208e+001 54905 83166,83218,83192
 3.4000e+000 83296 -2.1855e+002 -9.3961e+002  2.4672e+001 54905 83114,83166,83140
 3.4000e+000 83437 -3.7457e+002 -8.9044e+002  2.3232e+000 54905 83244,83218,83411
 3.4000e+000 83460 -3.5431e+002 -9.0605e+002 -2.8175e+001 54905 83483,83244,83411
 3.4000e+000 83509 -3.3533e+002 -8.3721e+002 -2.7638e+001 54905 83114,83270,83483
 3.4000e+000 83532 -3.1004e+002 -8.6452e+002 -3.2959e+000 54905 83114,83483,83411
 3.4000e+000 83961 -2.1553e+002 -6.2016e+002  2.3755e+001 54593 83638,83768,83690
 3.4000e+000 83938 -7.5532e+001 -5.7240e+002  1.3319e+001 54593 83638,83794,83768
 3.4000e+000 83915 -1.8557e+002 -6.2474e+002  1.6258e+001 54593 83690,83768,83742
 3.4000e+000 83892 -1.6977e+002 -5.2817e+002 -7.8246e+001 54593 83638,83820,83794
 3.4000e+000 83869 -2.0542e+002 -5.6151e+002  9.0219e+000 54593 83638,83690,83664
 3.4000e+000 83846 -1.5330e+002 -4.3673e+002 -1.5077e+002 54593 83690,83742,83716
 3.4000e+000 84209 -3.4263e+002 -1.0735e+003  1.0566e+002 54132 84232,84062,83984
 3.4000e+000 84186 -3.3263e+002 -9.0729e+002  6.0582e+001 54132 84232,83984,84114
 3.4000e+000 84163 -3.8246e+002 -1.1613e+003  5.6011e+000 54132 83984,84062,84036
 3.4000e+000 84140 -4.1405e+002 -1.0904e+003 -2.2394e+001 54132 83984,84036,84010
 3.4000e+000 84258 -2.4423e+002 -1.2618e+003  7.6394e+001 54132 84088,84062,84232
 3.4000e+000 84281 -2.1321e+002 -1.0802e+003  5.2372e-001 54132 84088,84232,84114
 3.4000e+000 84382 -1.8554e+002 -5.2628e+002 -5.9710e+000 53521 84304,84356,84330
 3.4000e+000 84632 -3.2222e+002 -8.3352e+002  5.7763e+000 53067 84655,84485,84459
 3.4000e+000 84609 -3.4124e+002 -8.3309e+002  2.7570e-001 53067 84655,84459,84407
 3.4000e+000 84586 -2.9172e+002 -7.9361e+002  5.6070e-001 53067 84485,84537,84511
 3.4000e+000 84563 -3.6910e+002 -9.2133e+002 -3.1451e+001 53067 84407,84459,84433
 3.4000e+000 84681 -3.1110e+002 -8.3631e+002  5.5060e+000 53067 84537,84485,84655
 3.4000e+000 84704 -3.1949e+002 -8.2867e+002 -2.1114e+000 53067 84537,84655,84407
 3.4000e+000 85214 -1.9263e+002 -7.5219e+002 -9.4252e+001 52513 85021,85073,85047
 3.4000e+000 85191 -1.8729e+002 -5.4498e+002 -1.3509e+002 52513 84943,85073,85021
 3.4000e+000 85168 -1.0967e+002 -4.8746e+002 -2.5968e+001 52513 84943,85021,84995
 3.4000e+000 85145 -3.3838e+002 -9.4235e+002 -1.0986e+002 52513 84917,85073,84943
 3.4000e+000 85122 -1.2984e+002 -3.8885e+002 -5.4011e+001 52513 84943,84995,84969
 3.4000e+000 85099 -4.8375e+002 -9.2666e+002 -9.5408e+001 52513 84891,85073,84917
 3.4000e+000 85582 -3.1418e+002 -8.2877e+002  7.9897e+001 52037 85605,85311,85285
 3.4000e+000 85559 -3.3136e+002 -8.8097e+002  7.9711e+001 52037 85749,85605,85285
 3.4000e+000 85536 -1.2255e+002 -7.9708e+002  1.1059e+001 52037 85893,85677,85389
 3.4000e+000 85513 -2.4083e+002 -8.1179e+002  4.9184e+001 52037 85749,85285,85259
 3.4000e+000 85490  1.3122e+000 -7.4939e+002 -4.7804e+001 52037 85893,85389,85363
 3.4000e+000 85467 -1.9136e+002 -8.6540e+002 -4.6728e+001 52037 85259,85441,85415
 3.4000e+000 85631 -4.7189e+002 -9.2579e+002  3.1041e+001 52037 85337,85311,85605
 3.4000e+000 85654 -3.4285e+002 -8.8877e+002  1.4062e+002 52037 85677,85337,85605
 3.4000e+000 85703 -8.1397e+001 -8.7532e+002  4.7737e+001 52037 85415,85389,85677
 3.4000e+000 85726 -1.2287e+002 -8.4922e+002  1.0956e+002 52037 85821,85677,85605
 3.4000e+000 85775 -2.0580e+002 -8.8418e+002  1.0809e+002 52037 85821,85605,85749
 3.4000e+000 85798 -2.6331e+002 -8.9722e+002  4.0768e+001 52037 85415,85749,85259
 3.4000e+000 85847 -1.4263e+002 -8.6726e+002  4.3783e+001 52037 85415,85677,85821
 3.4000e+000 85870 -1.7404e+002 -8.7971e+002  4.4555e+001 52037 85415,85821,85749
 3.4000e+000 85919 -1.1348e+002 -8.7316e+002  1.4226e+002 52037 85337,85677,85893
 3.4000e+000 85942 -6.1199e+001 -8.6223e+002  8.6951e+001 52037 85337,85893,85363
 3.4000e+000 86224 -1.0123e+002 -3.0398e+002  4.7328e+001 51368 86375,86100,86074
 3.4000e+000 86201 -2.5375e+002 -3.8293e+002  1.8162e+001 51368 86375,86074,86247
 3.4000e+000 86178 -9.1464e+001 -6.4427e+002 -1.4102e+002 51368 86048,86152,86126
 3.4000e+000 86273 -1.9630e+002 -4.8456e+002 -1.3045e+002 51368 86048,86126,86247
 3.4000e+000 86401 -1.3753e+001 -4.1226e+002 -3.2756e+001 51368 86126,86100,86375
 3.4000e+000 86424 -9.0168e+001 -4.5914e+002 -5.2536e+001 51368 86126,86375,86247
 3.4000e+000 86802 -3.7698e+002 -7.5559e+002  5.9898e+000 51028 86528,86632,86580
 3.4000e+000 86779 -4.0967e+002 -8.9510e+002  4.4157e+001 51028 86528,86684,86632
 3.4000e+000 86756 -4.7402e+002 -9.7954e+002 -1.3171e+001 51028 86528,86580,86554
 3.4000e+000 86733 -2.8199e+002 -8.4058e+002  1.7707e+002 51028 86632,86684,86658
 3.4000e+000 86710 -4.0690e+002 -8.7261e+002 -9.3686e+001 51028 86580,86632,86606
 3.4000e+000 87131 -3.1866e+002 -6.9816e+002  1.2833e+002 50624 86958,87036,87010
 3.4000e+000 87108 -3.8708e+002 -6.6848e+002  1.0913e+002 50624 86932,87036,86958
 3.4000e+000 87085 -2.9183e+002 -6.7966e+002  7.5643e+001 50624 86958,87010,86984
 3.4000e+000 87062 -2.8364e+002 -6.1344e+002  1.3215e+002 50624 86906,87036,86932
 3.4000e+000 87330 -5.3189e+002 -8.6663e+002 -1.9226e+001 50234 87353,87180,87154
 3.4000e+000 87307 -4.6554e+002 -8.6476e+002 -1.5209e+001 50234 87353,87154,87258
 3.4000e+000 87284 -3.4211e+002 -7.9970e+002 -1.6783e+001 50234 87206,87258,87232
 3.4000e+000 87379 -4.7696e+002 -9.0159e+002  1.8710e+001 50234 87206,87180,87353
 3.4000e+000 87402 -3.8093e+002 -8.8288e+002  9.5321e+000 50234 87206,87353,87258
 3.4000e+000 87650 -3.9126e+002 -8.4485e+002 -5.5315e+001 49730 87673,87503,87451
 3.4000e+000 87627 -2.6562e+002 -7.9103e+002 -5.2889e+001 49730 87673,87451,87425
 3.4000e+000 87604 -2.5740e+002 -6.5762e+002  5.9533e+001 49730 87503,87555,87529
 3.4000e+000 87581 -4.6463e+002 -6.9054e+002 -7.3268e+001 49730 87451,87503,87477
 3.4000e+000 87699 -4.0619e+002 -8.1031e+002 -2.3101e+001 49730 87555,87503,87673
 3.4000e+000 87722 -3.7917e+002 -8.0859e+002 -2.4251e+001 49730 87555,87673,87425
 3.4000e+000 88232 -3.4324e+002 -7.9916e+002  6.2384e+001 49176 88255,87935,87909
 3.4000e+000 88209 -4.4485e+002 -8.9051e+002  1.7276e+002 49176 88255,87909,88065
 3.4000e+000 88186 -4.0696e+002 -7.4950e+002  1.2181e+002 49176 87935,88039,87961
 3.4000e+000 88163 -3.8164e+002 -8.0642e+002  1.3643e+002 49176 87909,88091,88065
 3.4000e+000 88140 -5.3968e+002 -8.0876e+002  1.0515e+002 49176 87961,88039,88013
 3.4000e+000 88117 -4.7439e+002 -9.9234e+002 -3.1807e+001 49176 87961,88013,87987
 3.4000e+000 88281 -4.5811e+002 -8.4034e+002  1.6075e+002 49176 88039,87935,88255
 3.4000e+000 88304 -5.6182e+002 -9.2768e+002  2.7071e+002 49176 88039,88255,88065
 3.4000e+000 88503 -1.2579e+002 -5.4733e+002 -8.1560e+000 48772 88526,88379,88353
 3.4000e+000 88480 -1.5477e+002 -4.5805e+002  8.7765e+000 48772 88526,88353,88327
 3.4000e+000 88457 -1.6030e+002 -6.3477e+002 -7.5446e+000 48772 88379,88431,88405
 3.4000e+000 88552 -1.0239e+002 -4.7631e+002 -2.0201e+001 48772 88431,88379,88526
 3.4000e+000 88575 -1.4922e+002 -4.1737e+002 -1.1788e+001 48772 88431,88526,88327
 3.4000e+000 89083 -1.5124e+002 -3.6275e+002 -1.0528e+002 48368 88786,88916,88864
 3.4000e+000 89060 -1.4964e+002 -4.2798e+002 -5.6684e+001 48368 88786,88942,88916
 3.4000e+000 89037 -1.9686e+002 -2.5464e+002 -8.7715e+000 48368 88786,88864,88812
 3.4000e+000 89014 -2.0948e+002 -4.5842e+002 -1.3796e+002 48368 88864,88916,88890
 3.4000e+000 88991 -4.2157e+001 -4.4896e+002  1.5236e+002 48368 88812,88864,88838
 3.4000e+000 88968 -2.0279e+001 -3.2968e+002  1.4208e+001 48368 88760,88942,88786
 3.4000e+000 89331 -2.3023e+002 -7.7293e+002  1.9443e+001 47928 89158,89236,89210
 3.4000e+000 89308 -1.7792e+002 -5.6925e+002  6.1096e+001 47928 89132,89236,89158
 3.4000e+000 89285 -3.3038e+002 -5.0594e+002  3.8294e+000 47928 89158,89210,89184
 3.4000e+000 89262 -3.2763e+002 -5.9841e+002  3.1178e+001 47928 89106,89236,89132
 3.4000e+000 89662 -4.1241e+002 -8.4374e+002 -1.8900e+001 47588 89463,89541,89515
 3.4000e+000 89639 -3.0130e+002 -6.8611e+002 -7.0645e+001 47588 89463,89567,89541
 3.4000e+000 89616 -3.4246e+002 -7.9223e+002  4.4015e+001 47588 89463,89515,89489
 3.4000e+000 89593 -4.0166e+002 -7.0352e+002 -8.1355e+001 47588 89437,89567,89463
 3.4000e+000 89763 -9.4458e-001 -3.7666e+001  3.1608e+001 47390 89685,89737,89711
 3.4000e+000 89913 -5.9189e+001 -4.0974e+002 -4.1351e+001 47078 89786,89838,89812
 3.4000e+000 89890 -1.5922e+002 -6.1609e+002  3.3834e+001 47078 89786,89864,89838
 3.4000e+000 90163 -3.6712e+002 -7.3820e+002  3.2720e+001 46474 89964,90042,89990
 3.4000e+000 90140 -3.1039e+002 -7.1371e+002  3.0682e+001 46474 89938,90042,89964
 3.4000e+000 90117 -4.0395e+002 -6.9456e+002  3.6596e+001 46474 89990,90042,90016
 3.4000e+000 90094 -4.0271e+002 -7.3436e+002  5.2575e+001 46474 89938,90068,90042
 3.4000e+000 90364 -3.4342e+002 -7.2282e+002  9.4852e+001 46184 90240,90292,90266
 3.4000e+000 90341 -4.2392e+002 -6.9571e+002  1.1442e+002 46184 90188,90292,90240
 3.4000e+000 90318 -3.2813e+002 -7.4155e+002  1.5157e+002 46184 90188,90240,90214
 3.4000e+000 90565 -3.4868e+002 -5.9291e+002 -2.2628e+001 45780 90588,90415,90389
 3.4000e+000 90542 -3.0225e+002 -5.9652e+002 -1.4185e+001 45780 90588,90389,90493
 3.4000e+000 90519 -3.4666e+002 -6.4166e+002 -9.3609e+000 45780 90415,90467,90441
 3.4000e+000 90614 -3.1484e+002 -6.0383e+002  6.8996e+000 45780 90467,90415,90588
 3.4000e+000 90637 -2.5362e+002 -5.8639e+002  2.2547e+001 45780 90467,90588,90493
 3.4000e+000 91196 -4.7905e+002 -8.4994e+002 -6.7973e+001 45226 91219,90876,90850
 3.4000e+000 91173 -2.7998e+002 -8.0276e+002  3.3297e+001 45226 91219,90850,91032
 3.4000e+000 91150 -2.2500e+002 -9.2699e+002 -7.9183e+001 45226 90824,91032,90850
 3.4000e+000 91127 -3.5124e+002 -6.4008e+002  1.5870e+001 45226 90876,90980,90902
 3.4000e+000 91104 -2.2238e+002 -6.5413e+002  8.3933e+001 45226 90876,91006,90980
 3.4000e+000 91081 -3.0536e+002 -6.7752e+002 -4.4142e+001 45226 90902,90980,90954
 3.4000e+000 91058 -1.7728e+002 -5.7051e+002 -1.0538e+002 45226 90902,90954,90928
 3.4000e+000 91245 -2.9459e+002 -7.7368e+002 -4.8240e+000 45226 91006,90876,91219
 3.4000e+000 91268 -1.1722e+002 -7.6340e+002  8.1810e+001 45226 91006,91219,91032
 3.4000e+000 91516 -1.3249e+002 -9.4002e+002  7.2249e+001 44836 91539,91421,91395
 3.4000e+000 91493 -1.3600e+002 -9.4541e+002  6.6540e-001 44836 91317,91421,91343
 3.4000e+000 91470 -2.6425e+002 -9.2159e+002  5.3708e+001 44836 91539,91395,91369
 3.4000e+000 91447 -2.2964e+002 -6.9799e+002  1.5248e+002 44836 91291,91421,91317
 3.4000e+000 91565 -1.9324e+002 -9.4481e+002  2.2015e+000 44836 91343,91421,91539
 3.4000e+000 91588 -2.9457e+002 -9.5477e+002 -3.8906e+001 44836 91343,91539,91369
 3.4000e+000 91787 -2.4132e+002 -6.4975e+002  3.9200e+001 44432 91810,91637,91611
 3.4000e+000 91764 -3.0133e+002 -7.4731e+002  7.1667e+001 44432 91810,91611,91715
 3.4000e+000 91741 -1.2996e+002 -5.2849e+002 -3.3921e+001 44432 91637,91689,91663
 3.4000e+000 91836 -3.0474e+002 -5.9887e+002  3.5842e+001 44432 91689,91637,91810
 3.4000e+000 91859 -3.1285e+002 -6.4374e+002  5.0929e+001 44432 91689,91810,91715
 3.4000e+000 92207 -3.7970e+002 -8.2177e+002  7.0378e+001 43864 92230,91936,91910
 3.4000e+000 92184 -4.7794e+002 -8.6603e+002  1.0022e+002 43864 92230,91910,92040
 3.4000e+000 92161 -5.4910e+002 -8.8611e+002  1.7123e+002 43864 91884,92040,91910
 3.4000e+000 92138 -3.9052e+002 -6.9408e+002  1.3651e+001 43864 91936,92014,91988
 3.4000e+000 92115 -3.2074e+002 -9.2570e+002  1.9131e+002 43864 91936,91988,91962
 3.4000e+000 92092 -4.2004e+002 -7.1234e+002  1.1089e+002 43864 91884,92066,92040
 3.4000e+000 92256 -4.8752e+002 -7.4427e+002  6.5015e+001 43864 92014,91936,92230
 3.4000e+000 92279 -5.7844e+002 -7.9730e+002  1.0798e+002 43864 92014,92230,92040
 3.4000e+000 92529 -3.9322e+002 -7.3975e+002  5.3655e+001 43410 92552,92330,92304
 3.4000e+000 92506 -3.8493e+002 -7.2452e+002  1.0433e+000 43410 92552,92304,92408
 3.4000e+000 92483 -4.1334e+002 -7.5017e+002  1.2744e+001 43410 92304,92434,92408
 3.4000e+000 92460 -2.1883e+002 -6.1981e+002 -1.4723e+001 43410 92330,92382,92356
 3.4000e+000 92578 -3.5943e+002 -7.2372e+002  3.0706e+001 43410 92382,92330,92552
 3.4000e+000 92601 -3.1306e+002 -6.7412e+002 -2.8171e+001 43410 92382,92552,92408
 3.4000e+000 92802 -1.8014e+002 -8.5967e+002  8.5784e+001 43162 92825,92704,92652
 3.4000e+000 92779 -1.2383e+002 -8.0853e+002  1.6618e+002 43162 92825,92652,92626
 3.4000e+000 92756 -1.0637e+002 -8.4919e+002  9.5055e+001 43162 92652,92704,92678
 3.4000e+000 92851 -3.0663e+002 -8.6781e+002 -1.0708e+001 43162 92730,92704,92825
 3.4000e+000 92874 -2.9267e+002 -5.7444e+002  1.1643e+002 43162 92730,92825,92626
 3.4000e+000 93463 -2.3271e+002 -5.5959e+002 -1.0832e+002 42758 93140,93270,93166
 3.4000e+000 93440 -2.9764e+002 -6.3630e+002 -7.0191e+001 42758 93140,93296,93270
 3.4000e+000 93417 -2.1852e+002 -5.9379e+002 -7.9699e+001 42758 93166,93270,93218
 3.4000e+000 93394 -1.4826e+002 -5.9358e+002 -9.4500e+001 42758 93218,93270,93244
 3.4000e+000 93371 -8.3525e+001 -7.2553e+002 -6.3837e+001 42758 93140,93322,93296
 3.4000e+000 93348 -2.8184e+002 -7.0245e+002  2.0146e+001 42758 93166,93218,93192
 3.4000e+000 93920 -2.3701e+002 -6.3829e+002 -1.1992e+001 42304 93943,93672,93646
 3.4000e+000 93897 -2.3159e+002 -6.0334e+002 -3.4595e+000 42304 93943,93646,93802
 3.4000e+000 93874 -2.1869e+002 -6.3086e+002  3.9019e+001 42304 93724,93802,93776
 3.4000e+000 93851 -3.1351e+002 -7.4568e+002  3.9192e+001 42304 93672,93724,93698
 3.4000e+000 93828 -3.7421e+002 -7.4192e+002 -2.1031e+001 42304 93724,93776,93750
 3.4000e+000 93969 -2.3553e+002 -6.5101e+002 -2.1288e+001 42304 93724,93672,93943
 3.4000e+000 93992 -2.4348e+002 -6.3420e+002 -1.3582e+001 42304 93724,93943,93802
 3.4000e+000 94321 -2.6541e+002 -7.4611e+002  1.2473e+001 41478 94096,94148,94122
 3.4000e+000 94298 -3.0265e+002 -7.7602e+002  3.5717e+001 41478 94096,94226,94148
 3.4000e+000 94275 -3.9555e+002 -1.0119e+003 -2.4684e+001 41478 94148,94226,94174
 3.4000e+000 94252 -1.6718e+002 -7.9393e+002 -2.0027e+002 41478 94174,94226,94200
 3.4000e+000 94618 -2.6602e+002 -9.0777e+002 -5.4113e+000 40910 94344,94422,94396
 3.4000e+000 94595 -3.8920e+002 -8.8566e+002 -3.5454e+001 40910 94344,94448,94422
 3.4000e+000 94572 -3.3731e+002 -7.5856e+002 -1.5388e+001 40910 94344,94474,94448
 3.4000e+000 94549 -2.2851e+002 -9.7394e+002 -5.8501e+001 40910 94344,94396,94370
 3.4000e+000 94526 -5.2258e+002 -9.9883e+002  6.7079e+001 40910 94344,94500,94474
 3.4000e+000 94866 -3.0319e+002 -5.9321e+002 -7.4191e+001 40306 94667,94719,94693
 3.4000e+000 94843 -3.8587e+002 -6.5890e+002 -4.5757e+001 40306 94641,94719,94667
 3.4000e+000 94820 -4.3973e+002 -6.6565e+002  2.9859e+000 40306 94641,94745,94719
 3.4000e+000 94797 -3.3705e+002 -6.1960e+002 -1.7730e+001 40306 94641,94771,94745
 3.4000e+000 95089 -4.9720e+001 -5.8769e+002  6.8706e+001 39702 94913,94991,94939
 3.4000e+000 95066 -6.1471e+001 -5.0792e+002  1.4612e+001 39702 94913,95017,94991
 3.4000e+000 95043 -4.2515e+000 -5.7612e+002  7.2621e+000 39702 94939,94991,94965
 3.4000e+000 95339 -2.8838e+002 -6.3434e+002 -8.3325e+001 39248 95140,95218,95166
 3.4000e+000 95316 -3.7569e+002 -6.9066e+002 -5.2124e+001 39248 95140,95244,95218
 3.4000e+000 95293 -2.2145e+002 -7.3586e+002 -9.3343e+001 39248 95114,95244,95140
 3.4000e+000 95270 -2.4840e+002 -7.0045e+002 -1.4760e+002 39248 95166,95218,95192
 3.4000e+000 95770 -3.2897e+002 -5.9529e+002  2.7234e+001 38694 95551,95629,95577
 3.4000e+000 95747 -2.3989e+002 -7.3762e+002  2.6586e+001 38694 95447,95629,95551
 3.4000e+000 95724 -1.8061e+002 -6.2799e+002 -3.3221e+001 38694 95447,95551,95473
 3.4000e+000 95701 -1.3819e+002 -5.8884e+002 -4.9628e+001 38694 95473,95551,95499
 3.4000e+000 95678 -1.1312e+002 -5.5307e+002 -1.0312e+002 38694 95499,95551,95525
 3.4000e+000 95655 -3.3250e+002 -6.0432e+002  2.8444e+001 38694 95577,95629,95603
 3.4000e+000 96325 -3.7907e+002 -8.2465e+002  3.4850e+001 38240 95953,96031,96005
 3.4000e+000 96302 -3.5021e+002 -4.5835e+002  1.4131e+002 38240 95953,96161,96031
 3.4000e+000 96279 -2.4556e+002 -4.4062e+002 -2.6832e+001 38240 96031,96161,96135
 3.4000e+000 96256 -2.8889e+002 -5.9675e+002  1.0985e+002 38240 96348,96109,96057
 3.4000e+000 96233 -2.5312e+002 -5.3943e+002  7.6682e+001 38240 96348,96057,96031
 3.4000e+000 96210 -2.1121e+002 -6.0246e+002  1.6324e+002 38240 96057,96109,96083
 3.4000e+000 96187 -4.6317e+002 -3.8624e+002 -3.8953e+001 38240 95953,96005,95979
 3.4000e+000 96374 -2.2530e+002 -6.9541e+002  6.7916e+001 38240 96135,96109,96348
 3.4000e+000 96397 -1.6501e+002 -5.9452e+002  2.6726e+001 38240 96135,96348,96031
 3.4000e+000 96618 -3.1208e+002 -8.7718e+002  1.9847e+000 37821 96494,96546,96520
 3.4000e+000 96595 -1.5988e+002 -7.6922e+002  4.9144e+001 37821 96468,96546,96494
 3.4000e+000 96572 -7.5004e+001 -7.3274e+002  4.2464e+001 37821 96442,96546,96468
 3.4000e+000 97126 -2.2862e+002 -5.1733e+002 -5.3325e+001 37367 97149,96855,96829
 3.4000e+000 97103 -2.4565e+002 -5.2697e+002 -4.1382e+001 37367 97149,96829,96985
 3.4000e+000 97080 -2.0195e+002 -5.4370e+002 -4.9705e+001 37367 96803,96985,96829
 3.4000e+000 97057 -1.4966e+002 -5.0289e+002 -8.1594e+001 37367 96855,96907,96881
 3.4000e+000 97034 -3.0103e+002 -4.8068e+002 -2.0320e+001 37367 96907,96985,96959
 3.4000e+000 97011 -3.5094e+002 -4.5865e+002 -6.5102e+001 37367 96907,96959,96933
 3.4000e+000 97175 -2.4432e+002 -4.9930e+002 -6.2640e+001 37367 96907,96855,97149
 3.4000e+000 97198 -2.5678e+002 -5.0957e+002 -5.1959e+001 37367 96907,97149,96985
 3.4000e+000 97704 -2.9444e+002 -6.7224e+002  8.3560e+001 36863 97727,97511,97485
 3.4000e+000 97681 -2.7892e+002 -6.0111e+002  1.0788e+002 36863 97727,97485,97433
 3.4000e+000 97658 -3.7663e+002 -7.2195e+002  1.4658e+001 36863 97381,97563,97433
 3.4000e+000 97635 -1.8386e+002 -6.1223e+002 -2.6689e+001 36863 97511,97563,97537
 3.4000e+000 97612 -1.4335e+002 -4.1851e+002  1.3575e+001 36863 97433,97485,97459
 3.4000e+000 97589 -4.4289e+002 -7.3453e+002  6.7810e+001 36863 97381,97433,97407
 3.4000e+000 97753 -2.9315e+002 -7.3045e+002  4.8574e+001 36863 97563,97511,97727
 3.4000e+000 97776 -2.8687e+002 -6.6525e+002  6.9731e+001 36863 97563,97727,97433
 3.4000e+000 98331 -3.9717e+002 -9.0380e+002 -3.7153e+000 36287 98354,98089,98063
 3.4000e+000 98308 -3.5795e+002 -9.1532e+002  6.0382e+001 36287 98354,98063,98011
 3.4000e+000 98285 -4.8948e+002 -8.5099e+002  1.2295e+002 36287 98426,97985,98115
 3.4000e+000 98262 -3.3858e+002 -9.4315e+002  4.9958e+001 36287 98011,98063,98037
 3.4000e+000 98239 -4.6791e+002 -7.3952e+002  4.2057e+001 36287 97985,98141,98115
 3.4000e+000 98216 -4.8053e+002 -6.2786e+002  1.1675e+002 36287 97959,98141,97985
 3.4000e+000 98193 -3.7829e+002 -1.0662e+003  2.7541e+002 36287 97959,98167,98141
 3.4000e+000 98380 -3.9310e+002 -8.9109e+002 -1.1785e+001 36287 98115,98089,98354
 3.4000e+000 98403 -3.6828e+002 -8.4127e+002  5.3100e+000 36287 98426,98115,98354
 3.4000e+000 98452 -6.2991e+002 -9.8119e+002  2.0875e+002 36287 98011,97985,98426
 3.4000e+000 98475 -5.2751e+002 -1.0085e+003  9.7852e+001 36287 98011,98426,98354
 3.4000e+000 99030 -3.6490e+002 -1.0053e+003 -6.8963e+001 35726 99053,98736,98710
 3.4000e+000 99007 -2.8686e+002 -8.4447e+002  6.7048e+000 35726 99053,98710,98684
 3.4000e+000 98984 -4.0455e+002 -8.2050e+002 -9.0224e+001 35726 99125,98814,98736
 3.4000e+000 98961 -3.0706e+002 -6.9416e+002 -3.7098e+001 35726 98736,98814,98788
 3.4000e+000 98938 -3.6220e+002 -7.4951e+002  5.8159e+001 35726 98684,98866,98840
 3.4000e+000 98915 -2.4350e+002 -6.6917e+002 -3.1725e+001 35726 98736,98788,98762
 3.4000e+000 98892 -2.4709e+002 -7.5677e+002  4.4594e+001 35726 98658,98866,98684
 3.4000e+000 99079 -3.0624e+002 -8.2592e+002 -3.3244e+001 35726 99125,98736,99053
 3.4000e+000 99102 -3.7706e+002 -7.3933e+002  6.9544e+000 35726 98840,99053,98684
 3.4000e+000 99151 -4.9470e+002 -8.6286e+002 -1.1302e+002 35726 98840,98814,99125
 3.4000e+000 99174 -4.4366e+002 -8.7835e+002 -4.3312e+001 35726 98840,99125,99053
 3.4000e+000 99454 -1.2842e+002 -5.2425e+002 -3.9783e+001 35222 99278,99330,99304
 3.4000e+000 99431 -1.7466e+002 -5.0896e+002  2.0373e+001 35222 99278,99382,99330
 3.4000e+000 99408 -2.9659e+002 -6.1571e+002 -2.7236e+001 35222 99330,99382,99356
 3.4000e+000 99653 -1.1550e+002 -8.2603e+002 -2.0246e+001 34867 99477,99529,99503
 3.4000e+000 99630 -2.3621e+002 -5.9961e+002 -6.5819e+001 34867 99477,99581,99529
 3.4000e+000 99607 -2.5047e+002 -9.6355e+002 -2.6493e+002 34867 99529,99581,99555
 3.4000e+000 100104 -1.8689e+002 -7.1935e+002 -1.5303e+001 34363 99781,99885,99807
 3.4000e+000 100081 -2.7498e+002 -7.6916e+002  2.0456e+001 34363 99781,99963,99885
 3.4000e+000 100058 -1.0666e+002 -6.8252e+002 -2.3966e+001 34363 99885,99963,99911
 3.4000e+000 100035 -1.3261e+002 -6.2006e+002  1.5493e+001 34363 99807,99885,99859
 3.4000e+000 100012 -6.0403e+001 -6.5055e+002 -9.2405e+001 34363 99911,99963,99937
 3.4000e+000 99989 -3.2686e+001 -5.6997e+002  4.2631e+001 34363 99807,99859,99833
 3.4000e+000 100303 -3.3219e+002 -5.8668e+002 -1.5688e+002 33909 100127,100205,100179
 3.4000e+000 100280 -4.7723e+002 -6.5778e+002 -1.3252e+002 33909 100127,100231,100205
 3.4000e+000 100257 -3.9880e+002 -7.1119e+002 -1.1046e+002 33909 100127,100179,100153
 3.4000e+000 100890 -1.7711e+002 -6.3333e+002 -8.6534e+001 33412 100645,100749,100697
 3.4000e+000 100867 -1.8917e+002 -7.7649e+002 -6.3126e+001 33412 100567,100749,100645
 3.4000e+000 100844 -1.7855e+002 -7.6790e+002 -7.0626e+001 33412 100567,100645,100619
 3.4000e+000 100821 -1.8381e+002 -7.5520e+002 -1.5970e+002 33412 100645,100697,100671
 3.4000e+000 100798 -2.4736e+002 -1.0543e+003 -2.9649e+001 33412 100567,100619,100593
 3.4000e+000 100775 -3.4611e+002 -6.2309e+002 -3.8567e+001 33412 100697,100749,100723
 3.4000e+000 101268 -1.7013e+002 -8.2192e+002  2.1613e-001 32908 101435,101291,101098
 3.4000e+000 101245 -2.9705e+002 -8.4085e+002  4.6879e+001 32908 101291,101072,101020
 3.4000e+000 101222 -2.8115e+002 -9.0012e+002 -1.3532e+002 32908 101363,101150,101124
 3.4000e+000 101199 -3.5068e+002 -9.0172e+002  1.4485e+002 32908 101020,101072,101046
 3.4000e+000 101176 -1.5191e+002 -6.4033e+002 -3.5639e+001 32908 100994,101150,101020
 3.4000e+000 101317 -2.1674e+002 -8.9790e+002  3.6966e+001 32908 101124,101098,101291
 3.4000e+000 101340 -2.3447e+002 -9.7746e+002 -7.8169e+000 32908 101363,101124,101291
 3.4000e+000 101389 -2.1001e+002 -7.7043e+002 -1.0692e+002 32908 101020,101150,101363
 3.4000e+000 101412 -1.4823e+002 -7.8279e+002  1.6288e+001 32908 101020,101363,101291
 3.4000e+000 101461 -1.5323e+002 -7.4945e+002  9.0001e+001 32908 101072,101291,101435
 3.4000e+000 101918 -1.9923e+002 -8.8484e+002 -8.3608e+001 32618 101941,101670,101644
 3.4000e+000 101895 -4.4845e+001 -8.6018e+002  2.1913e+001 32618 101941,101644,101774
 3.4000e+000 101872 -3.4409e+002 -7.5063e+002 -1.9448e+001 32618 102013,101696,101670
 3.4000e+000 101849 -6.9187e+001 -5.6788e+002 -9.7064e+001 32618 101696,101748,101722
 3.4000e+000 101826 -2.3349e+001 -8.2051e+002  1.3602e+001 32618 101644,101800,101774
 3.4000e+000 101967 -3.3989e+002 -8.6791e+002 -8.0898e+001 32618 102013,101670,101941
 3.4000e+000 101990 -2.7337e+002 -9.7098e+002  5.8845e+001 32618 101748,101941,101774
 3.4000e+000 102039 -3.1080e+002 -7.0669e+002  4.0225e+000 32618 101748,101696,102013
 3.4000e+000 102062 -1.8405e+002 -7.5137e+002 -2.4512e+001 32618 101748,102013,101941
 3.4000e+000 102440 -3.9721e+002 -8.9244e+002  6.4424e+001 32306 102463,102270,102244
 3.4000e+000 102417 -4.0888e+002 -8.9713e+002  9.4480e-001 32306 102463,102244,102192
 3.4000e+000 102394 -3.9003e+002 -7.7580e+002 -9.7675e+000 32306 102192,102244,102218
 3.4000e+000 102371 -2.3962e+002 -8.3291e+002  5.4093e+001 32306 102270,102322,102296
 3.4000e+000 102348 -2.0314e+002 -1.0174e+003 -7.3711e+001 32306 102166,102322,102192
 3.4000e+000 102489 -3.2861e+002 -8.7291e+002  8.1073e+001 32306 102322,102270,102463
 3.4000e+000 102512 -3.3930e+002 -8.8640e+002  1.3891e+001 32306 102322,102463,102192
 3.4000e+000 102662 -2.3349e+002 -8.7981e+002 -1.1765e+001 31852 102943,102587,102561
 3.4000e+000 102639 -1.3925e+002 -7.5020e+002  3.1281e+001 31852 102815,102685,102561
 3.4000e+000 102711 -2.6994e+002 -9.1999e+002 -2.9733e+001 31852 102943,102561,102685
 3.4000e+000 102841 -1.1398e+002 -6.3547e+002  9.0170e+001 31852 102535,102685,102815
 3.4000e+000 102969 -2.3782e+002 -9.1944e+002 -5.0609e+001 31852 102613,102587,102943
 3.4000e+000 102992 -2.7397e+002 -9.5588e+002 -6.8406e+001 31852 102613,102943,102685
 3.4000e+000 103370 -4.6024e+002 -1.0433e+003  3.9896e+001 31134 103096,103200,103122
 3.4000e+000 103347 -5.7203e+002 -1.3305e+003  1.1727e+002 31134 103096,103226,103200
 3.4000e+000 103324 -5.5946e+002 -1.0836e+003  5.0279e+001 31134 103122,103200,103174
 3.4000e+000 103301 -3.0757e+002 -1.1087e+003  1.5779e+001 31134 103096,103252,103226
 3.4000e+000 103278 -3.8314e+002 -1.2113e+003 -1.3966e+002 31134 103122,103174,103148
 3.4000e+000 103520 -1.5997e+002 -1.3195e+003  1.0114e+000 30822 103393,103445,103419
 3.4000e+000 103497 -6.2257e+001 -6.9673e+002  3.9403e+001 30822 103393,103471,103445
 3.4000e+000 103719 -1.3658e+002 -6.1866e+002  2.0458e+001 30182 103742,103621,103569
 3.4000e+000 103696 -1.3123e+002 -6.2702e+002  2.0133e+001 30182 103742,103569,103543
 3.4000e+000 103673 -1.5233e+002 -6.2270e+002  3.0415e+001 30182 103569,103621,103595
 3.4000e+000 103768 -1.3350e+002 -6.2709e+002  2.4831e+001 30182 103647,103621,103742
 3.4000e+000 103791 -1.3392e+002 -6.4121e+002  2.6197e+001 30182 103647,103742,103543
 3.4000e+000 104252 -3.5998e+002 -7.0580e+002  2.5139e+001 29728 104030,104108,104056
 3.4000e+000 104229 -2.5422e+002 -4.7080e+002  4.8341e+001 29728 104004,104108,104030
 3.4000e+000 104206 -1.6945e+002 -5.0905e+002  4.1105e+001 29728 104004,104134,104108
 3.4000e+000 104183 -2.5715e+002 -5.9176e+002 -6.1730e+001 29728 103978,104134,104004
 3.4000e+000 104160 -1.5912e+002 -6.3711e+002 -5.8965e+001 29728 104056,104108,104082
 3.4000e+000 104630 -2.7862e+002 -8.8028e+002 -9.5908e+001 29217 104653,104382,104356
 3.4000e+000 104607 -2.1901e+002 -7.7069e+002 -2.3037e+001 29217 104653,104356,104512
 3.4000e+000 104584 -3.6929e+002 -8.8134e+002 -1.0642e+002 29217 104434,104512,104486
 3.4000e+000 104561 -2.2177e+002 -9.2472e+002 -1.4689e+002 29217 104382,104434,104408
 3.4000e+000 104538 -1.6653e+002 -6.2433e+002  3.7098e+001 29217 104434,104486,104460
 3.4000e+000 104679 -3.0730e+002 -8.9279e+002 -1.4261e+002 29217 104434,104382,104653
 3.4000e+000 104702 -2.9995e+002 -8.5071e+002 -7.7448e+001 29217 104434,104653,104512
 3.4000e+000 105178 -2.4114e+002 -8.0126e+002  3.1860e+001 28649 105201,104962,104936
 3.4000e+000 105155 -2.4884e+002 -7.8104e+002  3.8300e+001 28649 105201,104936,104884
 3.4000e+000 105132 -2.6827e+002 -7.0258e+002 -7.1456e+001 28649 105273,104858,105014
 3.4000e+000 105109 -4.2346e+002 -8.3935e+002  2.1553e+001 28649 104962,105014,104988
 3.4000e+000 105086 -1.1960e+002 -6.4540e+002 -9.4968e+001 28649 104884,104936,104910
 3.4000e+000 105063 -2.6449e+002 -6.3918e+002 -3.4740e+001 28649 104806,105014,104858
 3.4000e+000 105040 -3.3464e+002 -6.1067e+002 -7.1783e+001 28649 104806,104858,104832
 3.4000e+000 105227 -2.2340e+002 -8.1121e+002  1.4936e+001 28649 105014,104962,105201
 3.4000e+000 105250 -1.8341e+002 -7.4192e+002 -1.1181e+001 28649 105273,105014,105201
 3.4000e+000 105299 -3.5673e+002 -7.4875e+002 -5.4561e+001 28649 104884,104858,105273
 3.4000e+000 105322 -3.2767e+002 -8.1987e+002  1.8387e+001 28649 104884,105273,105201
 3.4000e+000 105673 -5.0199e+001 -8.3558e+002  9.6654e+000 28351 105474,105578,105552
 3.4000e+000 105650  2.5425e+001 -5.2991e+002 -1.5018e+001 28351 105448,105578,105474
 3.4000e+000 105627 -5.0089e+000 -7.7514e+002  1.7554e+000 28351 105500,105552,105526
 3.4000e+000 105604 -1.8214e+001 -8.1968e+002  3.7791e+000 28351 105474,105552,105500
 3.4000e+000 106130 -3.2732e+002 -5.3262e+002 -1.7612e+002 28004 106153,105882,105856
 3.4000e+000 106107 -2.9434e+002 -7.2592e+002 -1.1189e+002 28004 106153,105856,105986
 3.4000e+000 106084 -5.8561e+002 -8.0626e+002  3.8550e+001 28004 105934,105986,105960
 3.4000e+000 106061 -4.6314e+002 -8.4708e+002 -3.8594e+001 28004 105856,106012,105986
 3.4000e+000 106038 -5.5690e+002 -8.4571e+002 -7.5973e+001 28004 105882,105934,105908
 3.4000e+000 106179 -4.8907e+002 -6.9081e+002 -8.7036e+001 28004 105934,105882,106153
 3.4000e+000 106202 -3.2869e+002 -7.8897e+002 -5.3405e+001 28004 105934,106153,105986
 3.4000e+000 106885 -4.6519e+002 -6.8902e+002 -2.3846e+001 27564 106908,106620,106516
 3.4000e+000 106862 -4.5244e+002 -6.6513e+002 -1.2057e+001 27564 106908,106516,106490
 3.4000e+000 106839 -4.1845e+002 -6.4305e+002 -8.2620e+001 27564 106516,106620,106542
 3.4000e+000 106816 -4.2472e+002 -5.3246e+002 -3.9319e+001 27564 106620,106672,106646
 3.4000e+000 106793 -3.3077e+002 -7.1784e+002 -1.3291e+002 27564 106542,106620,106594
 3.4000e+000 106770 -4.6054e+002 -6.0186e+002  4.0981e+001 27564 106490,106698,106672
 3.4000e+000 106747 -3.7006e+002 -6.9472e+002  1.3036e+002 27564 106464,106698,106490
 3.4000e+000 106724 -6.4895e+001 -5.7219e+002 -1.9164e+002 27564 106542,106594,106568
 3.4000e+000 106934 -4.8367e+002 -6.6776e+002 -2.9603e+001 27564 106672,106620,106908
 3.4000e+000 106957 -4.7501e+002 -6.4433e+002 -2.4034e+001 27564 106672,106908,106490
 3.4000e+000 107463 -2.8117e+002 -6.3780e+002 -1.3611e+001 27053 107218,107322,107296
 3.4000e+000 107440 -3.3085e+002 -7.4654e+002  2.4570e+001 27053 107166,107322,107218
 3.4000e+000 107417 -2.9363e+002 -7.5897e+002 -2.3150e+001 27053 107218,107296,107244
 3.4000e+000 107394 -3.3577e+002 -5.9249e+002  6.4769e+001 27053 107140,107322,107166
 3.4000e+000 107371 -3.2116e+002 -7.8569e+002  3.7720e+001 27053 107166,107218,107192
 3.4000e+000 107348 -2.8724e+002 -9.8683e+002 -1.1935e+002 27053 107244,107296,107270
 3.4000e+000 108097 -3.5898e+002 -9.1288e+002 -5.2004e+001 26549 108192,108120,107803
 3.4000e+000 108074 -3.2784e+002 -1.0432e+003  6.6468e+001 26549 108120,107725,107933
 3.4000e+000 108051 -1.2467e+002 -1.2532e+003  7.6164e+001 26549 107751,107803,107777
 3.4000e+000 108028 -3.5541e+002 -9.7973e+002 -6.9267e+001 26549 108192,107803,107751
 3.4000e+000 108005 -2.1322e+002 -6.2275e+002 -7.5117e+000 26549 108264,107855,107803
 3.4000e+000 107982 -1.0267e+002 -7.1294e+002 -3.6041e+001 26549 107881,107933,107907
 3.4000e+000 107959 -2.8485e+002 -6.5644e+002  1.6334e+000 26549 107803,107855,107829
 3.4000e+000 108146 -2.8076e+002 -7.2415e+002 -4.8012e+001 26549 108264,107803,108120
 3.4000e+000 108169 -2.6084e+002 -8.7038e+002  2.7087e+001 26549 107881,108120,107933
 3.4000e+000 108218 -3.4970e+002 -8.4463e+002 -2.4501e+000 26549 107725,108120,108192
 3.4000e+000 108241 -3.4013e+002 -8.9504e+002 -2.3146e+001 26549 107725,108192,107751
 3.4000e+000 108290 -1.3207e+002 -7.5494e+002 -3.3614e+001 26549 107881,107855,108264
 3.4000e+000 108313 -1.8990e+002 -8.6710e+002 -6.2720e+001 26549 107881,108264,108120
 3.4000e+000 108512 -1.7493e+002 -7.6384e+002 -5.1262e+001 26137 108388,108440,108414
 3.4000e+000 108489 -1.0796e+002 -6.6444e+002 -2.9980e+000 26137 108362,108440,108388
 3.4000e+000 108466 -1.4367e+002 -7.4227e+002 -3.0925e+001 26137 108336,108440,108362
 3.4000e+000 108662 -2.5277e+002 -7.4244e+002 -7.1801e+001 25733 108817,108685,108535
 3.4000e+000 108639 -1.4822e+002 -8.0396e+002 -2.5575e+001 25733 109017,108817,108535
 3.4000e+000 108711 -2.7988e+002 -6.9022e+002 -3.1170e+001 25733 108561,108535,108685
 3.4000e+000 108843 -1.5673e+002 -7.4626e+002 -2.1951e+001 25733 108587,108685,108817
 3.4000e+000 108866 -1.3879e+002 -7.1685e+002 -1.3484e+000 25733 108889,108817,108613
 3.4000e+000 108915 -1.3415e+002 -6.9986e+002 -3.1404e+001 25733 108587,108817,108889
 3.4000e+000 109043 -1.2335e+002 -5.9452e+002  1.5881e+001 25733 108613,108817,109017
 3.4000e+000 109500 -4.9022e+002 -9.0799e+002  9.2646e+001 25229 109523,109356,109330
 3.4000e+000 109477 -2.6539e+002 -6.9544e+002 -4.2275e+001 25229 109595,109523,109330
 3.4000e+000 109454 -2.7025e+002 -6.4170e+002 -9.4718e+001 25229 109595,109330,109278
 3.4000e+000 109431 -2.8040e+002 -6.6495e+002 -6.7309e+001 25229 109667,109226,109382
 3.4000e+000 109408 -2.9295e+002 -6.8513e+002 -1.2016e+002 25229 109278,109330,109304
 3.4000e+000 109549 -1.0759e+002 -7.2769e+002  3.4954e+001 25229 109382,109356,109523
 3.4000e+000 109572 -2.3856e+002 -7.3359e+002 -7.9096e+001 25229 109667,109382,109523
 3.4000e+000 109621 -3.1138e+002 -8.1023e+002 -6.8206e+001 25229 109252,109523,109595
 3.4000e+000 109644 -2.0184e+002 -6.7391e+002 -4.4651e+001 25229 109739,109595,109278
 3.4000e+000 109693 -4.0134e+002 -7.7867e+002 -1.9746e+001 25229 109252,109226,109667
 3.4000e+000 109716 -3.0363e+002 -8.1252e+002 -5.0472e+001 25229 109252,109667,109523
 3.4000e+000 109765 -3.7820e+002 -7.3943e+002 -4.0128e+001 25229 109252,109595,109739
 3.4000e+000 110478 -1.9991e+002 -5.9389e+002  9.2718e+001 24917 110158,110236,110184
 3.4000e+000 110455 -2.7510e+002 -6.5619e+002 -8.6965e+000 24917 110158,110288,110236
 3.4000e+000 110432 -1.3293e+002 -8.2449e+002  1.4310e+001 24917 110236,110288,110262
 3.4000e+000 110409 -1.0772e+002 -6.6060e+002  1.1885e+002 24917 110184,110236,110210
 3.4000e+000 110386 -3.7313e+002 -7.6760e+002 -6.2424e+001 24917 110132,110288,110158
 3.4000e+000 110363 -3.5270e+002 -7.3554e+002 -3.3792e+000 24917 110132,110314,110288
 3.4000e+000 110340 -4.1952e+002 -9.0495e+002  8.2095e+001 24917 110106,110314,110132
 3.4000e+000 110829 -7.1177e+001 -4.1245e+002 -1.2374e+001 24307 110604,110682,110630
 3.4000e+000 110806 -2.8906e+002 -9.3204e+002  5.9262e+001 24307 110604,110708,110682
 3.4000e+000 110783 -7.4398e+001 -8.2836e+002  1.3098e+001 24307 110604,110734,110708
 3.4000e+000 110760 -2.2836e+001 -3.9174e+002 -1.4156e+001 24307 110630,110682,110656
 3.4000e+000 111335 -1.9601e+002 -5.9668e+002 -9.7994e+001 23767 111012,111168,111038
 3.4000e+000 111312 -2.0030e+002 -6.4425e+002 -1.0281e+002 23767 111012,111194,111168
 3.4000e+000 111289 -3.9515e+002 -7.6452e+002  6.9367e+001 23767 111358,111064,111038
 3.4000e+000 111266 -2.7511e+002 -7.0838e+002 -3.4110e+001 23767 111358,111038,111168
 3.4000e+000 111243 -1.7380e+002 -6.4731e+002 -2.8861e+001 23767 111430,111142,111090
 3.4000e+000 111220  1.8306e+000 -5.7077e+002  1.1266e+001 23767 111090,111142,111116
 3.4000e+000 111384 -3.0907e+002 -7.0868e+002 -2.0496e+001 23767 111090,111064,111358
 3.4000e+000 111407 -3.1295e+002 -6.6634e+002 -4.7154e+001 23767 111430,111090,111358
 3.4000e+000 111456 -4.2971e+001 -7.0235e+002 -6.1371e+001 23767 111168,111142,111430
 3.4000e+000 111479 -1.2241e+002 -6.7618e+002 -6.9122e+001 23767 111168,111430,111358
 3.4000e+000 111985 -1.9783e+002 -5.5835e+002  7.5671e+001 23477 111688,111844,111818
 3.4000e+000 111962 -1.7626e+002 -5.7880e+002 -8.7458e+001 23477 111662,111844,111688
 3.4000e+000 111939 -1.3049e+002 -9.7182e+002  1.2052e+002 23477 111766,111818,111792
 3.4000e+000 111916 -3.8881e+002 -8.8884e+002  6.8619e+001 23477 111740,111818,111766
 3.4000e+000 111893 -2.2030e+002 -4.9082e+002  8.5706e+001 23477 111688,111818,111740
 3.4000e+000 111870 -3.6811e+002 -6.4920e+002  1.6209e+002 23477 111688,111740,111714
 3.4000e+000 112314 -2.8224e+002 -5.6493e+002 -1.3572e+000 23023 112141,112219,112193
 3.4000e+000 112291 -2.3038e+002 -5.5064e+002 -2.9169e+001 23023 112115,112219,112141
 3.4000e+000 112268 -2.2112e+002 -6.6769e+002  8.4196e+001 23023 112141,112193,112167
 3.4000e+000 112245 -2.3168e+002 -6.0599e+002 -2.8046e+001 23023 112089,112219,112115
 3.4000e+000 112692 -2.8102e+002 -7.5986e+002 -3.4314e+001 22768 112444,112574,112548
 3.4000e+000 112669 -2.0279e+002 -7.4067e+002 -3.2281e+000 22768 112418,112574,112444
 3.4000e+000 112646 -3.4022e+002 -7.8634e+002  5.3641e+000 22768 112444,112522,112470
 3.4000e+000 112623 -2.5625e+002 -7.4565e+002 -2.3737e+001 22768 112444,112548,112522
 3.4000e+000 112600 -3.5654e+001 -6.5101e+002 -4.7044e+001 22768 112470,112522,112496
 3.4000e+000 113011 -1.6143e+002 -8.6033e+002 -6.5832e+001 22314 112763,112867,112789
 3.4000e+000 112988 -6.5427e+001 -8.9120e+002 -8.0071e+001 22314 112763,112893,112867
 3.4000e+000 112965 -1.6794e+002 -8.6457e+002  0.0000e+000 22314 112815,112867,112841
 3.4000e+000 112942 -2.2353e+002 -8.9615e+002 -4.0471e+001 22314 112789,112867,112815
 3.4000e+000 112919 -4.9911e+001 -6.8613e+002  1.8518e+002 22314 112737,112893,112763
 3.4000e+000 113519 -3.9957e+001 -6.5728e+002  1.5279e+002 21924 113614,113542,113248
 3.4000e+000 113496 -1.3024e+002 -6.3499e+002  5.7523e+001 21924 113542,113196,113378
 3.4000e+000 113473 -1.1334e+002 -6.7844e+002  1.6304e+002 21924 113614,113248,113222
 3.4000e+000 113450 -1.3299e+002 -9.2522e+002  6.1115e+001 21924 113686,113274,113248
 3.4000e+000 113427 -2.3687e+002 -9.8348e+002 -5.7328e+001 21924 113274,113352,113326
 3.4000e+000 113404 -4.3294e+002 -1.3311e+003 -1.3523e+002 21924 113274,113326,113300
 3.4000e+000 113568 -3.7205e+001 -7.8444e+002  1.0935e+002 21924 113686,113248,113542
 3.4000e+000 113591 -1.1500e+002 -5.8668e+002  7.1468e+001 21924 113352,113542,113378
 3.4000e+000 113640 -1.1258e+002 -6.5323e+002  1.2330e+002 21924 113196,113542,113614
 3.4000e+000 113663 -1.3787e+002 -6.4327e+002  1.2291e+002 21924 113196,113614,113222
 3.4000e+000 113712 -2.3393e+002 -7.6783e+002 -2.7325e+000 21924 113352,113274,113686
 3.4000e+000 113735 -1.8468e+002 -6.9220e+002  3.0262e+001 21924 113352,113686,113542
 3.4000e+000 113885 -5.0124e+002 -7.2869e+002 -3.4997e+000 21520 113980,113908,113784
 3.4000e+000 113862 -4.2791e+002 -7.0807e+002 -1.2761e+002 21520 114238,113908,113758
 3.4000e+000 113934 -3.3243e+002 -5.8862e+002  7.1115e+001 21520 114110,113908,113810
 3.4000e+000 113957 -2.7700e+002 -7.2690e+002 -8.0258e+001 21520 113810,113908,113836
 3.4000e+000 114006 -3.7993e+002 -6.2570e+002 -4.7720e+001 21520 113758,113908,113980
 3.4000e+000 114136 -4.8341e+002 -7.1430e+002  6.6431e+000 21520 113784,113908,114110
 3.4000e+000 114264 -5.4416e+002 -8.4261e+002 -1.7966e+002 21520 113836,113908,114238
 3.4000e+000 114662 -3.6669e+002 -9.8112e+002  1.5694e+001 21030 114414,114518,114492
 3.4000e+000 114639 -1.2050e+002 -7.7360e+002 -8.5863e+001 21030 114414,114544,114518
 3.4000e+000 114616 -4.3298e+002 -1.0217e+003 -1.5217e+000 21030 114440,114492,114466
 3.4000e+000 114593 -3.7436e+002 -9.9946e+002  1.4698e+001 21030 114414,114492,114440
 3.4000e+000 114570 -2.2993e+002 -7.8921e+002  3.7152e-001 21030 114388,114544,114414
 3.4000e+000 114959 -6.3342e+002 -1.0723e+003  7.9944e+001 20512 114982,114711,114685
 3.4000e+000 114936 -5.7856e+002 -1.0337e+003 -2.0386e+001 20512 115054,114982,114685
 3.4000e+000 114913 -4.7324e+002 -9.1652e+002 -6.5576e+001 20512 115054,114685,114841
 3.4000e+000 114890 -3.5277e+002 -9.7729e+002  2.9657e+001 20512 114711,114763,114737
 3.4000e+000 114867 -1.9187e+002 -9.1245e+002  1.2864e+001 20512 114763,114815,114789
 3.4000e+000 115008 -5.4098e+002 -1.0531e+003  4.7087e+001 20512 114763,114711,114982
 3.4000e+000 115031 -4.8233e+002 -1.0232e+003 -2.4637e+001 20512 114763,114982,114815
 3.4000e+000 115080 -5.2778e+002 -1.0722e+003  3.3443e+000 20512 114815,114982,115054
 3.4000e+000 115103 -5.2992e+002 -1.0556e+003  2.4392e+000 20512 114815,115054,114841
 3.4000e+000 115507 -4.4155e+002 -9.2300e+002 -3.1678e+001 20143 115285,115389,115363
 3.4000e+000 115484 -5.1494e+002 -1.0582e+003 -3.0844e+000 20143 115259,115389,115285
 3.4000e+000 115461 -4.5447e+002 -8.8158e+002 -2.4588e+000 20143 115233,115389,115259
 3.4000e+000 115438 -4.2087e+002 -1.0951e+003  3.3575e+001 20143 115285,115337,115311
 3.4000e+000 115415 -6.0242e+002 -1.2890e+003 -5.7048e+001 20143 115285,115363,115337
 3.4000e+000 115875 -2.9557e+002 -7.2879e+002  1.3508e+001 19632 115656,115734,115682
 3.4000e+000 115852 -1.0017e+002 -6.4235e+002  1.1118e+002 19632 115552,115734,115656
 3.4000e+000 115829 -1.2664e+002 -6.7178e+002 -5.6834e+001 19632 115552,115656,115578
 3.4000e+000 115806 -3.0291e+002 -7.4924e+002  1.4847e+001 19632 115578,115656,115630
 3.4000e+000 115783 -2.9867e+002 -6.6874e+002  3.5144e+001 19632 115682,115734,115708
 3.4000e+000 115760 -3.7467e+002 -7.7206e+002 -6.3464e+001 19632 115578,115630,115604
 3.4000e+000 116025 -1.5683e+002 -8.0387e+002 -1.8208e+002 19178 115898,115950,115924
 3.4000e+000 116002 -2.5650e+002 -8.3679e+002 -8.5138e+001 19178 115898,115976,115950
 3.4000e+000 116633 -2.1377e+002 -6.9728e+002 -1.2561e+001 18738 116800,116656,116342
 3.4000e+000 116610 -2.1372e+002 -7.3392e+002  2.3188e+001 18738 116656,116238,116446
 3.4000e+000 116587 -2.7997e+002 -7.0572e+002 -5.1142e+001 18738 116728,116368,116342
 3.4000e+000 116564 -2.0918e+002 -6.7271e+002 -2.7246e+001 18738 116800,116342,116264
 3.4000e+000 116541 -2.5121e+002 -1.0150e+003  7.8143e+001 18738 116212,116446,116238
 3.4000e+000 116518 -4.9688e+001 -4.6886e+002  1.2331e+000 18738 116394,116446,116420
 3.4000e+000 116495  1.7780e+002 -5.4425e+002 -1.0253e+002 18738 116264,116342,116316
 3.4000e+000 116472 -1.1220e+002 -7.8391e+002  9.5776e+001 18738 116264,116316,116290
 3.4000e+000 116682 -2.6545e+002 -6.8824e+002  1.6839e+001 18738 116728,116342,116656
 3.4000e+000 116705 -2.2457e+002 -5.6516e+002  5.2984e+001 18738 116394,116656,116446
 3.4000e+000 116754 -3.8807e+002 -7.4784e+002 -8.5324e+001 18738 116394,116368,116728
 3.4000e+000 116777 -3.8227e+002 -7.2907e+002 -1.5418e+001 18738 116394,116728,116656
 3.4000e+000 116826 -2.0615e+002 -7.4537e+002  6.2475e+000 18738 116238,116656,116800
 3.4000e+000 116849 -1.9013e+002 -7.1421e+002 -1.2313e+001 18738 116238,116800,116264
 3.4000e+000 116999 -2.7508e+002 -9.3571e+002  5.1070e+001 18184 116872,116924,116898
 3.4000e+000 116976 -2.7468e+002 -4.7940e+002 -9.3336e+000 18184 116872,116950,116924
 3.4000e+000 117330 -5.7215e+001 -1.1185e+003  7.6750e+001 17694 117157,117235,117183
 3.4000e+000 117307 -3.5604e+002 -1.2677e+003  1.1930e+001 17694 117131,117235,117157
 3.4000e+000 117284 -2.4841e+002 -1.4184e+003 -7.1056e+001 17694 117105,117235,117131
 3.4000e+000 117261  2.1221e+002 -6.8919e+002 -4.7684e+001 17694 117183,117235,117209
 3.4000e+000 117480 -3.5298e+002 -8.8779e+002 -9.4047e+001 17290 117353,117405,117379
 3.4000e+000 117457 -1.7835e+002 -9.6078e+002 -1.0531e+002 17290 117353,117431,117405
 3.4000e+000 117679 -5.6265e+001 -7.1613e+002 -3.7712e+001 16718 117555,117607,117581
 3.4000e+000 117656 -3.5283e+002 -9.0417e+002  4.2980e+001 16718 117529,117607,117555
 3.4000e+000 117633  1.9739e+001 -8.6586e+002  3.5231e+001 16718 117503,117607,117529
 3.4000e+000 117782 -1.6645e+002 -6.8747e+002  2.0119e+001 16520 117704,117756,117730
 3.4000e+000 117983 -2.6801e+002 -1.0953e+003  4.2419e+000 16208 117859,117911,117885
 3.4000e+000 117960 -1.4380e+002 -1.0240e+003 -2.5092e+001 16208 117833,117911,117859
 3.4000e+000 117937 -4.4071e+001 -8.8482e+002  3.7371e+001 16208 117807,117911,117833
 3.4000e+000 118135 -4.9927e+002 -8.3663e+002 -1.0377e+002 15674 118034,118086,118060
 3.4000e+000 118112 -2.1913e+002 -6.3621e+002  1.8027e+001 15674 118008,118086,118034
 3.4000e+000 118238 -5.9311e+001 -8.2428e+002  5.2163e+001 15355 118160,118212,118186
 3.4000e+000 118341 -4.0962e+002 -8.7596e+002  2.0583e+002 421 118263,118315,118289
 3.5000e+000 68152 -2.4042e+002 -4.9213e+002  5.9821e+000 67838 68074,68126,68100
 3.5000e+000 68550 -2.1952e+002 -6.5243e+002  1.3249e+001 67526 68276,68380,68302
 3.5000e+000 68527 -1.0605e+002 -6.3467e+002  6.8255e+000 67526 68276,68406,68380
 3.5000e+000 68504 -2.0372e+002 -5.6645e+002  3.1754e+000 67526 68328,68380,68354
 3.5000e+000 68481 -1.8624e+002 -5.7484e+002  1.2158e+001 67526 68302,68380,68328
 3.5000e+000 68458 -1.4108e+002 -7.1552e+002 -2.6514e+001 67526 68276,68432,68406
 3.5000e+000 68651 -4.9706e+002 -7.5027e+002  9.9892e+001 67328 68573,68625,68599
 3.5000e+000 68970 -1.9924e+002 -6.6561e+002  1.1573e+001 67016 68722,68800,68774
 3.5000e+000 68947 -2.2564e+002 -7.1617e+002  1.0975e+000 67016 68722,68826,68800
 3.5000e+000 68924 -2.5770e+002 -6.8857e+002  4.4499e+000 67016 68696,68826,68722
 3.5000e+000 68901 -1.6191e+002 -7.1716e+002 -3.2176e+001 67016 68722,68774,68748
 3.5000e+000 68878 -3.4172e+002 -6.6211e+002 -1.0362e+002 67016 68696,68852,68826
 3.5000e+000 69291 -3.3125e+002 -6.8580e+002 -6.2359e+000 66654 69069,69147,69095
 3.5000e+000 69268 -2.6034e+002 -7.2755e+002  2.1220e+001 66654 69069,69173,69147
 3.5000e+000 69245 -3.0008e+002 -5.9292e+002  9.3228e+001 66654 69043,69173,69069
 3.5000e+000 69222 -4.0235e+002 -7.7717e+002  4.4003e+001 66654 69095,69147,69121
 3.5000e+000 69199 -4.1880e+002 -7.6705e+002  2.9870e+001 66654 69017,69173,69043
 3.5000e+000 69695 -2.3184e+002 -9.2916e+002  1.9868e+001 66456 69447,69577,69551
 3.5000e+000 69672 -8.3972e+001 -8.2540e+002 -2.6289e+001 66456 69421,69577,69447
 3.5000e+000 69649 -7.4134e+001 -6.1132e+002 -9.0966e+001 66456 69473,69551,69525
 3.5000e+000 69626 -1.8905e+002 -8.4370e+002 -1.2873e+000 66456 69447,69551,69473
 3.5000e+000 69603 -1.2623e+000 -5.4691e+002 -2.0297e+002 66456 69473,69525,69499
 3.5000e+000 70024 -3.3305e+002 -6.8533e+002 -1.4075e+000 66258 70047,69851,69825
 3.5000e+000 70001 -3.4220e+002 -6.7159e+002  2.8316e+001 66258 70047,69825,69903
 3.5000e+000 69978 -3.9527e+002 -8.1085e+002  6.2980e+001 66258 69799,69903,69825
 3.5000e+000 69955 -1.7435e+002 -1.0287e+003  2.0974e+002 66258 69799,69929,69903
 3.5000e+000 70073 -3.6487e+002 -6.9291e+002 -1.2297e+001 66258 69877,69851,70047
 3.5000e+000 70096 -3.7940e+002 -6.7801e+002  1.8318e+001 66258 69877,70047,69903
 3.5000e+000 70602 -6.9424e+000 -5.4490e+002 -1.1968e+002 66060 70305,70435,70331
 3.5000e+000 70579 -4.1567e+002 -8.6948e+002  3.7613e+001 66060 70279,70435,70305
 3.5000e+000 70556 -4.0478e+002 -6.8173e+002 -1.3430e+002 66060 70331,70435,70409
 3.5000e+000 70533 -3.2615e+002 -7.0107e+002  9.5449e+001 66060 70279,70461,70435
 3.5000e+000 70510 -1.6261e+002 -4.7491e+002 -2.4769e+002 66060 70331,70409,70357
 3.5000e+000 70487 -6.5820e+001 -5.1314e+002 -5.6935e+001 66060 70357,70409,70383
 3.5000e+000 70703 -8.3018e+002 -1.2158e+003 -3.1052e+001 65862 70625,70677,70651
 3.5000e+000 71083 -2.0541e+002 -5.7323e+002  1.2801e+001 65664 70887,70965,70939
 3.5000e+000 71060 -1.9809e+002 -5.7376e+002  1.0939e+001 65664 70861,70965,70887
 3.5000e+000 71037 -2.1197e+002 -5.9264e+002  3.9343e+000 65664 70809,70965,70861
 3.5000e+000 71014 -1.9239e+002 -5.8329e+002 -1.8783e+001 65664 70809,70861,70835
 3.5000e+000 70991 -2.3335e+002 -6.1881e+002  3.3409e+001 65664 70887,70939,70913
 3.5000e+000 71611 -3.9615e+002 -9.9161e+002 -4.4660e+001 65260 71288,71444,71314
 3.5000e+000 71588 -2.7250e+002 -9.2342e+002 -1.7350e+001 65260 71288,71470,71444
 3.5000e+000 71565 -1.7377e+002 -6.2692e+002  5.1405e+001 65260 71314,71418,71392
 3.5000e+000 71542 -3.6221e+002 -8.9246e+002 -3.3887e+001 65260 71314,71444,71418
 3.5000e+000 71519 -3.7456e+002 -6.8685e+002  7.6181e+001 65260 71314,71392,71340
 3.5000e+000 71496 -2.9482e+002 -5.4362e+002  2.2110e+002 65260 71340,71392,71366
 3.5000e+000 72060 -3.5622e+002 -6.8319e+002 -3.1781e+001 64870 71737,71893,71789
 3.5000e+000 72037 -2.0678e+002 -6.1698e+002 -1.6818e+001 64870 71737,71919,71893
 3.5000e+000 72014 -3.6349e+002 -6.2629e+002  2.8597e+001 64870 71789,71841,71815
 3.5000e+000 71991 -3.0380e+002 -6.4824e+002 -1.6238e-002 64870 71789,71893,71841
 3.5000e+000 71968 -3.5439e+002 -8.2477e+002 -1.0353e+002 64870 71737,71789,71763
 3.5000e+000 71945 -2.4359e+002 -6.9492e+002  0.0000e+000 64870 71841,71893,71867
 3.5000e+000 72517 -3.8879e+002 -6.0018e+002 -7.8012e+001 64466 72321,72399,72347
 3.5000e+000 72494 -3.7164e+002 -5.2588e+002 -5.9007e+001 64466 72269,72399,72321
 3.5000e+000 72471 -3.9493e+002 -6.7654e+002  4.0187e+001 64466 72347,72399,72373
 3.5000e+000 72448 -3.6905e+002 -5.8454e+002 -1.8081e+002 64466 72243,72399,72269
 3.5000e+000 72425 -4.5508e+002 -7.0847e+002 -3.9670e+001 64466 72269,72321,72295
 3.5000e+000 72944 -1.9710e+002 -5.2821e+002 -4.7911e+000 64062 73111,73039,72699
 3.5000e+000 72921 -1.5416e+002 -5.6886e+002 -4.8484e+001 64062 73183,72967,72647
 3.5000e+000 72898 -1.8962e+002 -5.8701e+002 -2.8204e+001 64062 72967,72803,72751
 3.5000e+000 72875 -1.9311e+002 -5.2650e+002 -5.7892e+000 64062 73111,72699,72673
 3.5000e+000 72852 -1.1399e+002 -6.1206e+002 -2.0708e+001 64062 73183,72647,72621
 3.5000e+000 72829 -1.4901e+002 -4.8539e+002 -1.1884e+002 64062 72751,72803,72777
 3.5000e+000 72993 -1.7029e+002 -5.2446e+002 -2.1620e+001 64062 73039,72647,72967
 3.5000e+000 73016 -2.5997e+002 -6.0485e+002 -2.7099e+001 64062 72725,72967,72751
 3.5000e+000 73065 -8.1383e+001 -6.1328e+002  1.7077e+002 64062 72725,72699,73039
 3.5000e+000 73088 -1.9895e+002 -6.0210e+002 -3.0383e+001 64062 72725,73039,72967
 3.5000e+000 73137 -1.8903e+002 -5.2968e+002 -4.9138e+000 64062 72647,73039,73111
 3.5000e+000 73160 -1.8828e+002 -5.2926e+002 -5.2346e+000 64062 72647,73111,72673
 3.5000e+000 73209 -1.9683e+002 -6.0790e+002 -2.7551e+001 64062 72803,72967,73183
 3.5000e+000 73232 -1.7314e+002 -6.7952e+002  5.0932e+000 64062 72803,73183,72621
 3.5000e+000 73333 -7.0476e+002 -1.0906e+003  8.0312e+001 63814 73356,73281,73255
 3.5000e+000 73382 -5.5375e+002 -7.8628e+002  4.4714e+001 63814 73486,73356,73307
 3.5000e+000 73512 -6.6444e+002 -8.3320e+002 -2.8301e+001 63814 73281,73356,73486
 3.5000e+000 73839 -3.1198e+002 -6.5830e+002 -2.7865e+001 63616 73862,73692,73666
 3.5000e+000 73816 -2.6720e+002 -5.9496e+002 -1.4909e+000 63616 73934,73862,73666
 3.5000e+000 73793 -2.3085e+002 -6.1944e+002  3.6073e+001 63616 73934,73666,73640
 3.5000e+000 73770 -2.0619e+002 -6.6111e+002  5.8435e+001 63616 73614,73744,73640
 3.5000e+000 73888 -3.6066e+002 -6.0672e+002 -1.9034e+001 63616 73718,73692,73862
 3.5000e+000 73911 -3.1581e+002 -5.5858e+002  2.7310e+001 63616 73718,73862,73744
 3.5000e+000 73960 -3.3575e+002 -6.2983e+002  1.0555e+001 63616 73744,73862,73934
 3.5000e+000 73983 -3.0507e+002 -6.5291e+002  4.4217e+001 63616 73744,73934,73640
 3.5000e+000 74363 -2.0352e+002 -6.1380e+002  5.7967e+000 63390 74386,74115,74089
 3.5000e+000 74340 -2.3684e+002 -5.7319e+002 -6.5453e-001 63390 74458,74386,74089
 3.5000e+000 74317 -2.0869e+002 -5.9187e+002  6.5017e+001 63390 74458,74089,74245
 3.5000e+000 74294 -2.5665e+002 -6.7275e+002  2.0132e-001 63390 74530,74167,74141
 3.5000e+000 74271 -2.3060e+002 -6.0664e+002 -1.1265e+002 63390 74167,74219,74193
 3.5000e+000 74412 -1.9118e+002 -6.1217e+002  3.8963e+000 63390 74141,74115,74386
 3.5000e+000 74435 -2.1455e+002 -6.3390e+002  2.3144e+001 63390 74530,74141,74386
 3.5000e+000 74484 -1.8554e+002 -4.8191e+002  3.0480e+001 63390 74219,74386,74458
 3.5000e+000 74507 -1.3401e+002 -4.7681e+002  1.0204e+002 63390 74219,74458,74245
 3.5000e+000 74556 -3.2639e+002 -6.3831e+002 -4.7670e+001 63390 74219,74167,74530
 3.5000e+000 74579 -2.8246e+002 -5.8852e+002 -2.1642e+001 63390 74219,74530,74386
 3.5000e+000 74680 -2.8364e+002 -5.2855e+002  5.4240e+001 63100 75089,74833,74703
 3.5000e+000 74729 -3.9977e+002 -6.8849e+002  2.6579e+001 63100 74961,74703,74654
 3.5000e+000 74859 -1.8021e+002 -4.7847e+002  7.6520e+001 63100 74602,74703,74833
 3.5000e+000 74987 -3.2537e+002 -5.1385e+002  2.3683e+001 63100 75089,74703,74961
 3.5000e+000 75115 -1.9611e+002 -5.1628e+002  5.8362e+001 63100 74628,74833,75089
 3.5000e+000 75138 -2.3711e+002 -5.0115e+002  2.7955e+001 63100 74628,75089,74961
 3.5000e+000 75723 -3.3860e+002 -4.8538e+002  3.4421e+001 62532 75746,75504,75426
 3.5000e+000 75700 -3.5547e+002 -3.7949e+002  4.4839e+001 62532 75746,75426,75556
 3.5000e+000 75677 -3.6476e+002 -3.5905e+002 -1.8371e+002 62532 75426,75504,75452
 3.5000e+000 75654 -3.3526e+002 -2.4810e+002 -1.1270e+002 62532 75400,75556,75426
 3.5000e+000 75631 -4.0508e+002 -4.8259e+002 -1.7627e+002 62532 75400,75582,75556
 3.5000e+000 75608 -1.6517e+002 -2.9947e+002 -2.1928e+002 62532 75452,75504,75478
 3.5000e+000 75772 -3.3115e+002 -5.9284e+002  8.8635e+000 62532 75530,75504,75746
 3.5000e+000 75795 -3.4579e+002 -4.7517e+002  7.1878e+000 62532 75530,75746,75556
 3.5000e+000 76301 -2.8022e+002 -5.7998e+002 -1.0166e+001 62192 76324,76082,76030
 3.5000e+000 76278 -2.4845e+002 -5.4111e+002  5.7330e+000 62192 76324,76030,76004
 3.5000e+000 76255 -2.3091e+002 -5.7377e+002  3.3552e+001 62192 76030,76082,76056
 3.5000e+000 76232 -3.4932e+002 -6.1695e+002 -7.3895e+001 62192 76082,76134,76108
 3.5000e+000 76209 -2.4442e+002 -4.6671e+002 -5.0909e+001 62192 76004,76160,76134
 3.5000e+000 76186 -1.6116e+002 -4.9791e+002 -2.0034e+001 62192 75978,76160,76004
 3.5000e+000 76350 -3.3474e+002 -5.2587e+002 -1.0877e+001 62192 76134,76082,76324
 3.5000e+000 76373 -2.9689e+002 -4.7265e+002  6.0891e+000 62192 76134,76324,76004
 3.5000e+000 76879 -3.5583e+002 -4.3943e+002 -4.9669e+001 61788 76902,76660,76582
 3.5000e+000 76856 -2.8432e+002 -4.6803e+002 -7.0748e+001 61788 76902,76582,76556
 3.5000e+000 76833 -4.1152e+002 -4.6592e+002 -4.2518e+001 61788 76582,76660,76634
 3.5000e+000 76810 -3.7969e+002 -5.0866e+002 -3.3146e+001 61788 76582,76634,76608
 3.5000e+000 76787 -3.2661e+002 -5.2013e+002 -1.1011e+001 61788 76556,76738,76686
 3.5000e+000 76764 -1.6382e+002 -4.0781e+002 -6.4466e+001 61788 76686,76738,76712
 3.5000e+000 76928 -3.8397e+002 -4.6032e+002 -4.0092e+001 61788 76686,76660,76902
 3.5000e+000 76951 -3.3171e+002 -5.0980e+002 -5.3077e+001 61788 76686,76902,76556
 3.5000e+000 77408 -3.6275e+002 -5.1211e+002 -5.6537e+000 61498 77212,77264,77238
 3.5000e+000 77385 -3.1849e+002 -4.3153e+002  2.2196e+001 61498 77160,77264,77212
 3.5000e+000 77362 -3.6003e+002 -4.5040e+002  1.5140e+001 61498 77160,77290,77264
 3.5000e+000 77339 -1.9533e+002 -5.1589e+002  3.3168e+001 61498 77160,77212,77186
 3.5000e+000 77316 -2.9194e+002 -4.1159e+002  1.5771e+002 61498 77134,77290,77160
 3.5000e+000 77678 -1.9041e+002 -4.1003e+002 -2.2133e+001 61129 77479,77557,77505
 3.5000e+000 77655 -2.3530e+002 -4.5316e+002 -1.2612e+000 61129 77479,77583,77557
 3.5000e+000 77632 -1.7756e+002 -4.5546e+002  2.9555e+001 61129 77453,77583,77479
 3.5000e+000 77609 -6.3834e+001 -3.6659e+002 -2.0608e+001 61129 77505,77557,77531
 3.5000e+000 77828 -1.8879e+002 -5.2055e+002  2.1047e+001 60931 77851,77727,77701
 3.5000e+000 77805 -2.0085e+002 -5.6440e+002  4.2629e+001 60931 77851,77701,77779
 3.5000e+000 77877 -2.9641e+002 -6.6262e+002  1.0132e+002 60931 77923,77851,77753
 3.5000e+000 77900 -1.4700e+002 -5.9021e+002  5.3807e+001 60931 77753,77851,77779
 3.5000e+000 77949 -1.6268e+002 -3.9620e+002  5.0586e+001 60931 77727,77851,77923
 3.5000e+000 78133 -1.7224e+002 -4.0687e+002 -3.3110e+001 60377 78055,78107,78081
 3.5000e+000 78535 -6.0950e+002 -8.1266e+002 -3.9814e+001 60015 78287,78391,78313
 3.5000e+000 78512 -3.8300e+002 -8.2403e+002 -6.8161e+001 60015 78287,78417,78391
 3.5000e+000 78489 -4.2940e+002 -8.9727e+002 -1.3390e+002 60015 78261,78417,78287
 3.5000e+000 78466 -2.9944e+002 -7.3684e+002  7.4301e+001 60015 78339,78391,78365
 3.5000e+000 78443 -3.1856e+002 -6.6935e+002  2.0233e+001 60015 78313,78391,78339
 3.5000e+000 78913 -2.5903e+002 -4.6506e+002  5.1795e+000 59725 78936,78743,78691
 3.5000e+000 78890 -3.0941e+002 -5.1673e+002 -1.5494e+001 59725 79008,78936,78691
 3.5000e+000 78867 -3.0532e+002 -4.8978e+002 -3.9378e+001 59725 79008,78691,78665
 3.5000e+000 78844 -1.6239e+002 -4.6183e+002  6.7820e+001 59725 78691,78743,78717
 3.5000e+000 78821 -1.1318e+002 -3.9631e+002 -2.0042e+002 59725 78639,78795,78769
 3.5000e+000 78962 -2.0084e+002 -5.1176e+002 -3.4315e+001 59725 78769,78743,78936
 3.5000e+000 78985 -2.9960e+002 -6.2893e+002 -7.9495e+001 59725 78769,78936,78639
 3.5000e+000 79034 -2.5541e+002 -4.9079e+002 -2.9449e+001 59725 78639,78936,79008
 3.5000e+000 79057 -2.7982e+002 -4.8568e+002 -4.8998e+001 59725 78639,79008,78665
 3.5000e+000 79386 -2.7270e+002 -6.8502e+002  5.1022e+001 59221 79187,79239,79213
 3.5000e+000 79363 -2.2170e+002 -6.1714e+002  2.3244e+001 59221 79187,79265,79239
 3.5000e+000 79340 -3.0763e+002 -6.4886e+002  2.6353e+001 59221 79187,79291,79265
 3.5000e+000 79317 -2.0703e+002 -4.1404e+002  9.4069e-001 59221 79161,79291,79187
 3.5000e+000 79813 -1.8135e+002 -4.5140e+002 -2.8115e+001 58831 79836,79542,79516
 3.5000e+000 79790 -1.6133e+002 -4.5139e+002 -2.0549e+001 58831 79980,79836,79516
 3.5000e+000 79767 -2.5096e+002 -5.2356e+002 -1.0240e+002 58831 79908,79646,79568
 3.5000e+000 79744 -1.5171e+002 -4.2091e+002  4.1913e-002 58831 79980,79516,79490
 3.5000e+000 79721 -3.3374e+002 -5.5436e+002 -1.0718e+002 58831 79568,79646,79594
 3.5000e+000 79698 -2.0554e+003 -1.3979e+003 -1.0480e+003 58831 79594,79646,79620
 3.5000e+000 79862 -1.3650e+002 -3.1863e+002  3.2592e+001 58831 79568,79542,79836
 3.5000e+000 79885 -1.1369e+002 -4.3477e+002  9.6248e+000 58831 79908,79568,79836
 3.5000e+000 79934 -3.4817e+002 -5.2290e+002 -1.8242e+002 58831 79672,79646,79908
 3.5000e+000 79957 -3.2437e+002 -4.9433e+002 -7.0816e+001 58831 79672,79908,79836
 3.5000e+000 80006 -1.5050e+002 -4.0474e+002 -1.7235e+001 58831 79672,79836,79980
 3.5000e+000 80029 -1.6269e+002 -3.9720e+002 -1.6106e+000 58831 79672,79980,79490
 3.5000e+000 80358 -2.1707e+002 -6.1940e+002  2.6626e+000 58377 80381,80185,80159
 3.5000e+000 80335 -2.1795e+002 -6.2064e+002  2.1211e+000 58377 80381,80159,80133
 3.5000e+000 80312 -1.2973e+002 -5.8374e+002 -8.3787e+000 58377 80133,80263,80237
 3.5000e+000 80289 -2.3653e+002 -6.8490e+002  4.9521e+001 58377 80185,80237,80211
 3.5000e+000 80407 -2.1580e+002 -6.2066e+002  2.6971e+000 58377 80237,80185,80381
 3.5000e+000 80430 -2.1718e+002 -6.2210e+002  1.9063e+000 58377 80237,80381,80133
 3.5000e+000 80759 -1.4142e+002 -5.7488e+002  1.3522e+002 57873 80782,80586,80560
 3.5000e+000 80736 -2.4788e+002 -6.8643e+002  8.9013e+001 57873 80782,80560,80534
 3.5000e+000 80713 -2.4446e+002 -7.2157e+002  6.3334e+001 57873 80586,80638,80612
 3.5000e+000 80690 -7.1128e+001 -6.6335e+002  6.3854e+001 57873 80534,80664,80638
 3.5000e+000 80808 -1.9295e+002 -6.7596e+002  8.3764e+001 57873 80638,80586,80782
 3.5000e+000 80831 -2.0581e+002 -7.0747e+002  6.1479e+001 57873 80638,80782,80534
 3.5000e+000 81337 -1.5637e+002 -4.2801e+002 -4.2009e+001 57262 81360,81144,81092
 3.5000e+000 81314 -1.8720e+002 -4.9140e+002 -2.4269e+001 57262 81360,81092,81066
 3.5000e+000 81291 -2.4440e+002 -5.3559e+002  7.1742e+000 57262 81014,81196,81066
 3.5000e+000 81268 -1.6553e+002 -3.4067e+002 -4.7964e+001 57262 81092,81144,81118
 3.5000e+000 81245 -1.9874e+002 -3.7366e+002  2.4088e-001 57262 81144,81196,81170
 3.5000e+000 81222 -2.4740e+002 -5.4596e+002  4.9796e+001 57262 81014,81066,81040
 3.5000e+000 81386 -1.9751e+002 -3.7828e+002  2.2988e+000 57262 81196,81144,81360
 3.5000e+000 81409 -2.2406e+002 -4.4262e+002  1.9253e+001 57262 81196,81360,81066
 3.5000e+000 81608 -1.4131e+002 -4.6291e+002  2.0458e+001 57007 81458,81536,81510
 3.5000e+000 81585 -1.6876e+002 -5.0828e+002  9.2833e+000 57007 81432,81536,81458
 3.5000e+000 81562 -3.5617e+002 -4.1047e+002  1.4030e+002 57007 81458,81510,81484
 3.5000e+000 82086 -4.6171e+002 -7.2794e+002 -2.1401e+001 56339 81792,81922,81818
 3.5000e+000 82063 -3.9150e+002 -7.9854e+002 -7.3638e+001 56339 81714,81922,81792
 3.5000e+000 82040 -4.0837e+002 -6.2560e+002 -7.1894e+001 56339 82109,81844,81818
 3.5000e+000 82017 -4.2884e+002 -6.6592e+002 -8.2802e+001 56339 82109,81818,81922
 3.5000e+000 81994 -3.2062e+002 -7.1108e+002 -8.3374e+001 56339 81844,81896,81870
 3.5000e+000 81971 -3.1923e+002 -5.7841e+002 -2.9939e+002 56339 81714,81792,81766
 3.5000e+000 81948 -1.0984e+003 -8.6435e+002 -6.0898e+002 56339 81714,81766,81740
 3.5000e+000 82135 -3.4256e+002 -6.6319e+002 -4.6125e+001 56339 81896,81844,82109
 3.5000e+000 82158 -3.9178e+002 -7.3969e+002 -6.9234e+001 56339 81896,82109,81922
 3.5000e+000 82536 -3.0520e+002 -6.6184e+002 -2.6695e+001 55699 82288,82392,82314
 3.5000e+000 82513 -3.1260e+002 -6.6517e+002 -2.7360e+001 55699 82288,82418,82392
 3.5000e+000 82490 -3.6544e+002 -8.2193e+002 -5.2351e+001 55699 82314,82392,82340
 3.5000e+000 82467 -1.3217e+002 -1.0175e+003 -1.1611e+002 55699 82340,82392,82366
 3.5000e+000 82444 -2.8073e+002 -6.9311e+002 -2.8673e+001 55699 82262,82418,82288
 3.5000e+000 83091 -4.5162e+002 -5.4818e+002  9.8125e+001 55409 82745,82901,82875
 3.5000e+000 83068 -3.5568e+002 -4.8743e+002  1.3531e+002 55409 82719,82901,82745
 3.5000e+000 83045 -3.2513e+002 -5.6084e+002  8.5690e+001 55409 82771,82849,82823
 3.5000e+000 83022 -5.4161e+002 -6.1467e+002  1.6789e+002 55409 82745,82849,82771
 3.5000e+000 82999 -3.0979e+002 -4.8744e+002  9.8840e+001 55409 82745,82875,82849
 3.5000e+000 82976 -5.6696e+002 -4.7645e+002  1.1145e+002 55409 82771,82823,82797
 3.5000e+000 82953 -2.0396e+002 -3.4344e+002  7.1821e+001 55409 82719,82927,82901
 3.5000e+000 83388 -2.8809e+002 -7.7193e+002 -2.7568e+001 54905 83411,83218,83166
 3.5000e+000 83365 -1.8624e+002 -7.5257e+002 -2.5792e+001 54905 83411,83166,83114
 3.5000e+000 83342 -3.6727e+002 -7.7482e+002 -5.2571e+001 54905 83483,83270,83244
 3.5000e+000 83319 -3.3661e+002 -7.3887e+002 -5.6374e+001 54905 83166,83218,83192
 3.5000e+000 83296 -1.8887e+002 -7.9841e+002  1.4366e+001 54905 83114,83166,83140
 3.5000e+000 83437 -3.1538e+002 -7.5776e+002  6.4206e-001 54905 83244,83218,83411
 3.5000e+000 83460 -3.0218e+002 -7.7306e+002 -2.6081e+001 54905 83483,83244,83411
 3.5000e+000 83509 -2.8341e+002 -7.1397e+002 -2.4525e+001 54905 83114,83270,83483
 3.5000e+000 83532 -2.6245e+002 -7.3802e+002 -3.3361e+000 54905 83114,83483,83411
 3.5000e+000 83961 -1.7108e+002 -5.1042e+002  1.2033e+001 54593 83638,83768,83690
 3.5000e+000 83938 -5.7254e+001 -4.6602e+002 -2.8489e+000 54593 83638,83794,83768
 3.5000e+000 83915 -1.5247e+002 -5.0272e+002  1.4477e+001 54593 83690,83768,83742
 3.5000e+000 83892 -1.6452e+002 -4.4699e+002 -6.9875e+001 54593 83638,83820,83794
 3.5000e+000 83869 -1.5596e+002 -4.7095e+002  1.4249e+001 54593 83638,83690,83664
 3.5000e+000 83846 -1.1201e+002 -3.4706e+002 -1.2205e+002 54593 83690,83742,83716
 3.5000e+000 84209 -2.8275e+002 -9.0748e+002  8.6394e+001 54132 84232,84062,83984
 3.5000e+000 84186 -2.7684e+002 -7.6664e+002  4.9160e+001 54132 84232,83984,84114
 3.5000e+000 84163 -3.1490e+002 -9.7512e+002  7.3312e+000 54132 83984,84062,84036
 3.5000e+000 84140 -3.5052e+002 -9.2697e+002 -1.9249e+001 54132 83984,84036,84010
 3.5000e+000 84258 -2.0291e+002 -1.0643e+003  6.0823e+001 54132 84088,84062,84232
 3.5000e+000 84281 -1.8129e+002 -9.1250e+002 -2.3093e+000 54132 84088,84232,84114
 3.5000e+000 84382 -1.1300e+002 -4.0506e+002 -9.0324e+000 53521 84304,84356,84330
 3.5000e+000 84632 -2.6966e+002 -6.9989e+002  6.1787e+000 53067 84655,84485,84459
 3.5000e+000 84609 -2.8414e+002 -7.0455e+002  1.4929e+000 53067 84655,84459,84407
 3.5000e+000 84586 -2.4021e+002 -6.6120e+002  3.4530e+000 53067 84485,84537,84511
 3.5000e+000 84563 -3.0690e+002 -7.8124e+002 -3.3056e+001 53067 84407,84459,84433
 3.5000e+000 84681 -2.5989e+002 -7.0718e+002  7.3382e+000 53067 84537,84485,84655
 3.5000e+000 84704 -2.6737e+002 -7.0728e+002  1.9726e+000 53067 84537,84655,84407
 3.5000e+000 85214 -1.6593e+002 -6.3496e+002 -6.6862e+001 52513 85021,85073,85047
 3.5000e+000 85191 -1.6315e+002 -4.5744e+002 -1.0236e+002 52513 84943,85073,85021
 3.5000e+000 85168 -9.3782e+001 -4.0928e+002 -2.3170e+001 52513 84943,85021,84995
 3.5000e+000 85145 -2.7971e+002 -7.6777e+002 -7.7198e+001 52513 84917,85073,84943
 3.5000e+000 85122 -1.0603e+002 -3.2593e+002 -4.7743e+001 52513 84943,84995,84969
 3.5000e+000 85099 -3.1348e+002 -7.5481e+002 -6.6061e+001 52513 84891,85073,84917
 3.5000e+000 85582 -2.5716e+002 -7.0367e+002  6.6667e+001 52037 85605,85311,85285
 3.5000e+000 85559 -2.7327e+002 -7.5079e+002  6.7089e+001 52037 85749,85605,85285
 3.5000e+000 85536 -1.0241e+002 -6.7441e+002  8.7260e+000 52037 85893,85677,85389
 3.5000e+000 85513 -1.9844e+002 -6.9644e+002  4.3263e+001 52037 85749,85285,85259
 3.5000e+000 85490  2.4013e+000 -6.3405e+002 -3.6677e+001 52037 85893,85389,85363
 3.5000e+000 85467 -1.5768e+002 -7.3750e+002 -4.0879e+001 52037 85259,85441,85415
 3.5000e+000 85631 -3.9066e+002 -7.8552e+002  2.5662e+001 52037 85337,85311,85605
 3.5000e+000 85654 -2.8245e+002 -7.4965e+002  1.1654e+002 52037 85677,85337,85605
 3.5000e+000 85703 -6.9700e+001 -7.4042e+002  3.9834e+001 52037 85415,85389,85677
 3.5000e+000 85726 -1.0071e+002 -7.2048e+002  9.2272e+001 52037 85821,85677,85605
 3.5000e+000 85775 -1.7074e+002 -7.5005e+002  9.0866e+001 52037 85821,85605,85749
 3.5000e+000 85798 -2.1949e+002 -7.6361e+002  3.5076e+001 52037 85415,85749,85259
 3.5000e+000 85847 -1.1757e+002 -7.3610e+002  3.6111e+001 52037 85415,85677,85821
 3.5000e+000 85870 -1.4367e+002 -7.4647e+002  3.6678e+001 52037 85415,85821,85749
 3.5000e+000 85919 -9.2889e+001 -7.3226e+002  1.2060e+002 52037 85337,85677,85893
 3.5000e+000 85942 -4.9348e+001 -7.2312e+002  7.8021e+001 52037 85337,85893,85363
 3.5000e+000 86224 -8.7402e+001 -2.6158e+002  3.1276e+001 51368 86375,86100,86074
 3.5000e+000 86201 -2.1596e+002 -3.2759e+002  7.4417e+000 51368 86375,86074,86247
 3.5000e+000 86178 -7.9131e+001 -5.2275e+002 -1.1248e+002 51368 86048,86152,86126
 3.5000e+000 86273 -1.5839e+002 -4.1142e+002 -1.0328e+002 51368 86048,86126,86247
 3.5000e+000 86401 -1.3410e+001 -3.5166e+002 -3.6280e+001 51368 86126,86100,86375
 3.5000e+000 86424 -7.7743e+001 -3.9003e+002 -5.2326e+001 51368 86126,86375,86247
 3.5000e+000 86802 -3.0908e+002 -6.3405e+002  5.1545e+000 51028 86528,86632,86580
 3.5000e+000 86779 -3.4205e+002 -7.5359e+002  3.8194e+001 51028 86528,86684,86632
 3.5000e+000 86756 -3.9244e+002 -8.2537e+002 -1.4981e+001 51028 86528,86580,86554
 3.5000e+000 86733 -2.3959e+002 -7.1500e+002  1.4531e+002 51028 86632,86684,86658
 3.5000e+000 86710 -3.3594e+002 -7.2560e+002 -7.2616e+001 51028 86580,86632,86606
 3.5000e+000 87131 -2.6513e+002 -5.8155e+002  1.0891e+002 50624 86958,87036,87010
 3.5000e+000 87108 -3.3147e+002 -5.3269e+002  9.2310e+001 50624 86932,87036,86958
 3.5000e+000 87085 -2.5083e+002 -5.7012e+002  6.9366e+001 50624 86958,87010,86984
 3.5000e+000 87062 -2.4333e+002 -4.8954e+002  1.0616e+002 50624 86906,87036,86932
 3.5000e+000 87330 -4.4910e+002 -7.1314e+002 -2.0870e+001 50234 87353,87180,87154
 3.5000e+000 87307 -3.8897e+002 -7.0938e+002 -1.8606e+001 50234 87353,87154,87258
 3.5000e+000 87284 -2.7975e+002 -6.6648e+002 -1.6446e+001 50234 87206,87258,87232
 3.5000e+000 87379 -3.9830e+002 -7.5109e+002  1.4345e+001 50234 87206,87180,87353
 3.5000e+000 87402 -3.0905e+002 -7.2982e+002  3.9692e+000 50234 87206,87353,87258
 3.5000e+000 87650 -3.2462e+002 -7.1007e+002 -4.7572e+001 49730 87673,87503,87451
 3.5000e+000 87627 -2.1604e+002 -6.6377e+002 -4.6842e+001 49730 87673,87451,87425
 3.5000e+000 87604 -2.1507e+002 -5.5683e+002  4.7804e+001 49730 87503,87555,87529
 3.5000e+000 87581 -3.8814e+002 -5.8072e+002 -6.1466e+001 49730 87451,87503,87477
 3.5000e+000 87699 -3.3700e+002 -6.8034e+002 -1.9759e+001 49730 87555,87503,87673
 3.5000e+000 87722 -3.1391e+002 -6.8011e+002 -2.1536e+001 49730 87555,87673,87425
 3.5000e+000 88232 -2.8800e+002 -6.7897e+002  5.1363e+001 49176 88255,87935,87909
 3.5000e+000 88209 -3.7358e+002 -7.5798e+002  1.4306e+002 49176 88255,87909,88065
 3.5000e+000 88186 -3.3378e+002 -6.3027e+002  9.9055e+001 49176 87935,88039,87961
 3.5000e+000 88163 -3.2204e+002 -6.7765e+002  1.0838e+002 49176 87909,88091,88065
 3.5000e+000 88140 -4.4302e+002 -6.7865e+002  8.7380e+001 49176 87961,88039,88013
 3.5000e+000 88117 -3.8134e+002 -8.0619e+002 -2.7396e+001 49176 87961,88013,87987
 3.5000e+000 88281 -3.8310e+002 -7.1341e+002  1.3456e+002 49176 88039,87935,88255
 3.5000e+000 88304 -4.6956e+002 -7.8817e+002  2.2577e+002 49176 88039,88255,88065
 3.5000e+000 88503 -1.0434e+002 -4.5850e+002 -6.8479e+000 48772 88526,88379,88353
 3.5000e+000 88480 -1.3302e+002 -3.8747e+002  5.9662e+000 48772 88526,88353,88327
 3.5000e+000 88457 -1.3181e+002 -5.3825e+002 -3.4733e+000 48772 88379,88431,88405
 3.5000e+000 88552 -8.3773e+001 -4.0282e+002 -1.7074e+001 48772 88431,88379,88526
 3.5000e+000 88575 -1.2487e+002 -3.5446e+002 -1.0405e+001 48772 88431,88526,88327
 3.5000e+000 89083 -1.2656e+002 -3.0697e+002 -8.3983e+001 48368 88786,88916,88864
 3.5000e+000 89060 -1.2929e+002 -3.6383e+002 -4.1958e+001 48368 88786,88942,88916
 3.5000e+000 89037 -1.6981e+002 -2.3286e+002 -6.0764e+000 48368 88786,88864,88812
 3.5000e+000 89014 -1.8395e+002 -3.9521e+002 -1.1438e+002 48368 88864,88916,88890
 3.5000e+000 88991 -3.3298e+001 -3.7155e+002  1.1484e+002 48368 88812,88864,88838
 3.5000e+000 88968 -1.0402e+001 -2.8134e+002  1.1411e+001 48368 88760,88942,88786
 3.5000e+000 89331 -1.7779e+002 -6.1562e+002  1.7989e+001 47928 89158,89236,89210
 3.5000e+000 89308 -1.4266e+002 -4.8061e+002  4.3967e+001 47928 89132,89236,89158
 3.5000e+000 89285 -2.6629e+002 -4.0353e+002  2.1653e+000 47928 89158,89210,89184
 3.5000e+000 89262 -2.5544e+002 -4.6574e+002  2.9851e+001 47928 89106,89236,89132
 3.5000e+000 89662 -3.4603e+002 -7.0761e+002 -1.9568e+001 47588 89463,89541,89515
 3.5000e+000 89639 -2.5667e+002 -5.7612e+002 -6.0448e+001 47588 89463,89567,89541
 3.5000e+000 89616 -2.8982e+002 -6.7299e+002  3.3273e+001 47588 89463,89515,89489
 3.5000e+000 89593 -3.3523e+002 -5.9027e+002 -6.8015e+001 47588 89437,89567,89463
 3.5000e+000 89763  1.6309e+001 -1.7596e+001  2.5745e+001 47390 89685,89737,89711
 3.5000e+000 89913 -3.3294e+001 -3.0978e+002 -2.9852e+001 47078 89786,89838,89812
 3.5000e+000 89890 -1.0334e+002 -4.7096e+002  2.7719e+001 47078 89786,89864,89838
 3.5000e+000 90163 -3.0687e+002 -6.2188e+002  2.4493e+001 46474 89964,90042,89990
 3.5000e+000 90140 -2.5404e+002 -6.0013e+002  2.8653e+001 46474 89938,90042,89964
 3.5000e+000 90117 -3.3990e+002 -5.8171e+002  2.8511e+001 46474 89990,90042,90016
 3.5000e+000 90094 -3.3006e+002 -6.0531e+002  4.4410e+001 46474 89938,90068,90042
 3.5000e+000 90364 -2.8366e+002 -5.9586e+002  8.3874e+001 46184 90240,90292,90266
 3.5000e+000 90341 -3.4731e+002 -5.6862e+002  1.0243e+002 46184 90188,90292,90240
 3.5000e+000 90318 -2.7957e+002 -6.1551e+002  1.2840e+002 46184 90188,90240,90214
 3.5000e+000 90565 -2.9326e+002 -4.9796e+002 -1.8940e+001 45780 90588,90415,90389
 3.5000e+000 90542 -2.5490e+002 -4.9678e+002 -1.4790e+001 45780 90588,90389,90493
 3.5000e+000 90519 -2.8580e+002 -5.4115e+002 -7.2071e+000 45780 90415,90467,90441
 3.5000e+000 90614 -2.6507e+002 -5.1022e+002  6.0983e+000 45780 90467,90415,90588
 3.5000e+000 90637 -2.1599e+002 -4.9495e+002  1.5653e+001 45780 90467,90588,90493
 3.5000e+000 91196 -3.9507e+002 -7.1564e+002 -5.6567e+001 45226 91219,90876,90850
 3.5000e+000 91173 -2.3271e+002 -6.7900e+002  2.7441e+001 45226 91219,90850,91032
 3.5000e+000 91150 -1.9176e+002 -7.8198e+002 -6.6264e+001 45226 90824,91032,90850
 3.5000e+000 91127 -2.8635e+002 -5.3351e+002  1.0231e+001 45226 90876,90980,90902
 3.5000e+000 91104 -1.8629e+002 -5.5140e+002  7.0198e+001 45226 90876,91006,90980
 3.5000e+000 91081 -2.5182e+002 -5.5900e+002 -3.2050e+001 45226 90902,90980,90954
 3.5000e+000 91058 -1.4602e+002 -4.6775e+002 -8.5600e+001 45226 90902,90954,90928
 3.5000e+000 91245 -2.4480e+002 -6.5134e+002 -5.1899e+000 45226 91006,90876,91219
 3.5000e+000 91268 -9.9751e+001 -6.4467e+002  6.6840e+001 45226 91006,91219,91032
 3.5000e+000 91516 -9.1677e+001 -7.6021e+002  6.3378e+001 44836 91539,91421,91395
 3.5000e+000 91493 -1.0131e+002 -7.6322e+002 -1.2734e+000 44836 91317,91421,91343
 3.5000e+000 91470 -2.1001e+002 -7.4860e+002  4.9224e+001 44836 91539,91395,91369
 3.5000e+000 91447 -1.7000e+002 -5.5186e+002  1.2812e+002 44836 91291,91421,91317
 3.5000e+000 91565 -1.4650e+002 -7.6325e+002 -3.5091e-001 44836 91343,91421,91539
 3.5000e+000 91588 -2.3484e+002 -7.7309e+002 -3.4535e+001 44836 91343,91539,91369
 3.5000e+000 91787 -2.0044e+002 -5.3075e+002  3.6594e+001 44432 91810,91637,91611
 3.5000e+000 91764 -2.4137e+002 -5.9834e+002  5.8950e+001 44432 91810,91611,91715
 3.5000e+000 91741 -1.0358e+002 -4.3878e+002 -3.0588e+001 44432 91637,91689,91663
 3.5000e+000 91836 -2.4407e+002 -4.9508e+002  3.4503e+001 44432 91689,91637,91810
 3.5000e+000 91859 -2.4911e+002 -5.2620e+002  4.4843e+001 44432 91689,91810,91715
 3.5000e+000 92207 -3.1882e+002 -6.8258e+002  6.4195e+001 43864 92230,91936,91910
 3.5000e+000 92184 -4.0065e+002 -7.0713e+002  8.6773e+001 43864 92230,91910,92040
 3.5000e+000 92161 -4.5996e+002 -7.2355e+002  1.4665e+002 43864 91884,92040,91910
 3.5000e+000 92138 -3.1460e+002 -5.8921e+002  4.8157e+000 43864 91936,92014,91988
 3.5000e+000 92115 -2.4851e+002 -7.4981e+002  1.2899e+002 43864 91936,91988,91962
 3.5000e+000 92092 -3.6212e+002 -5.8774e+002  9.9989e+001 43864 91884,92066,92040
 3.5000e+000 92256 -4.0524e+002 -6.3684e+002  5.6508e+001 43864 92014,91936,92230
 3.5000e+000 92279 -4.7591e+002 -6.6216e+002  9.0644e+001 43864 92014,92230,92040
 3.5000e+000 92529 -3.2364e+002 -6.2565e+002  4.3532e+001 43410 92552,92330,92304
 3.5000e+000 92506 -3.1599e+002 -6.1020e+002  1.6679e+000 43410 92552,92304,92408
 3.5000e+000 92483 -3.3799e+002 -6.1975e+002  1.0264e+001 43410 92304,92434,92408
 3.5000e+000 92460 -1.8467e+002 -5.2084e+002 -1.8313e+001 43410 92330,92382,92356
 3.5000e+000 92578 -2.9820e+002 -6.1312e+002  2.1648e+001 43410 92382,92330,92552
 3.5000e+000 92601 -2.5876e+002 -5.6664e+002 -2.5408e+001 43410 92382,92552,92408
 3.5000e+000 92802 -1.3932e+002 -6.9049e+002  6.7251e+001 43162 92825,92704,92652
 3.5000e+000 92779 -9.4538e+001 -6.4995e+002  1.3238e+002 43162 92825,92652,92626
 3.5000e+000 92756 -7.0168e+001 -6.5713e+002  8.3794e+001 43162 92652,92704,92678
 3.5000e+000 92851 -2.3702e+002 -6.9706e+002 -8.2006e+000 43162 92730,92704,92825
 3.5000e+000 92874 -2.3111e+002 -4.7020e+002  9.3064e+001 43162 92730,92825,92626
 3.5000e+000 93463 -1.9545e+002 -4.7284e+002 -8.9902e+001 42758 93140,93270,93166
 3.5000e+000 93440 -2.5119e+002 -5.4145e+002 -5.7933e+001 42758 93140,93296,93270
 3.5000e+000 93417 -1.8425e+002 -5.0070e+002 -6.6816e+001 42758 93166,93270,93218
 3.5000e+000 93394 -1.2318e+002 -4.9942e+002 -7.8985e+001 42758 93218,93270,93244
 3.5000e+000 93371 -7.3223e+001 -6.0744e+002 -5.5802e+001 42758 93140,93322,93296
 3.5000e+000 93348 -2.4060e+002 -5.9973e+002  1.8294e+001 42758 93166,93218,93192
 3.5000e+000 93920 -2.0085e+002 -5.3366e+002 -1.1850e+001 42304 93943,93672,93646
 3.5000e+000 93897 -1.9315e+002 -4.9853e+002 -5.7903e+000 42304 93943,93646,93802
 3.5000e+000 93874 -1.7797e+002 -5.2360e+002  3.0291e+001 42304 93724,93802,93776
 3.5000e+000 93851 -2.5693e+002 -6.2205e+002  2.6695e+001 42304 93672,93724,93698
 3.5000e+000 93828 -3.1351e+002 -6.1765e+002 -2.1607e+001 42304 93724,93776,93750
 3.5000e+000 93969 -1.9603e+002 -5.4610e+002 -2.1675e+001 42304 93724,93672,93943
 3.5000e+000 93992 -2.0137e+002 -5.2971e+002 -1.5636e+001 42304 93724,93943,93802
 3.5000e+000 94321 -2.2347e+002 -6.0854e+002  1.2320e+001 41478 94096,94148,94122
 3.5000e+000 94298 -2.5095e+002 -6.3119e+002  2.9373e+001 41478 94096,94226,94148
 3.5000e+000 94275 -3.1408e+002 -8.2466e+002 -1.7002e+001 41478 94148,94226,94174
 3.5000e+000 94252 -1.2644e+002 -6.5897e+002 -1.6734e+002 41478 94174,94226,94200
 3.5000e+000 94618 -2.2210e+002 -7.5204e+002 -9.2257e+000 40910 94344,94422,94396
 3.5000e+000 94595 -3.1543e+002 -7.3528e+002 -3.1821e+001 40910 94344,94448,94422
 3.5000e+000 94572 -2.7214e+002 -6.2854e+002 -1.1014e+001 40910 94344,94474,94448
 3.5000e+000 94549 -1.9078e+002 -7.9568e+002 -4.5086e+001 40910 94344,94396,94370
 3.5000e+000 94526 -4.2468e+002 -8.2467e+002  5.6507e+001 40910 94344,94500,94474
 3.5000e+000 94866 -2.4644e+002 -4.9038e+002 -6.5235e+001 40306 94667,94719,94693
 3.5000e+000 94843 -3.1927e+002 -5.4557e+002 -4.1157e+001 40306 94641,94719,94667
 3.5000e+000 94820 -3.6971e+002 -5.6237e+002  1.8077e+000 40306 94641,94745,94719
 3.5000e+000 94797 -2.7866e+002 -5.0785e+002 -2.2556e+001 40306 94641,94771,94745
 3.5000e+000 95089 -3.6461e+001 -4.9493e+002  5.3274e+001 39702 94913,94991,94939
 3.5000e+000 95066 -4.9187e+001 -4.3349e+002  1.1115e+001 39702 94913,95017,94991
 3.5000e+000 95043 -6.8513e+000 -4.8842e+002  4.8034e+000 39702 94939,94991,94965
 3.5000e+000 95339 -2.3520e+002 -5.2460e+002 -6.8178e+001 39248 95140,95218,95166
 3.5000e+000 95316 -3.0698e+002 -5.7030e+002 -4.3537e+001 39248 95140,95244,95218
 3.5000e+000 95293 -1.8464e+002 -6.1428e+002 -8.1601e+001 39248 95114,95244,95140
 3.5000e+000 95270 -2.0384e+002 -5.7616e+002 -1.1878e+002 39248 95166,95218,95192
 3.5000e+000 95770 -2.5134e+002 -4.8151e+002  1.8069e+001 38694 95551,95629,95577
 3.5000e+000 95747 -1.8479e+002 -5.9064e+002  1.6818e+001 38694 95447,95629,95551
 3.5000e+000 95724 -1.4036e+002 -5.1104e+002 -3.3525e+001 38694 95447,95551,95473
 3.5000e+000 95701 -1.0371e+002 -4.8605e+002 -4.6069e+001 38694 95473,95551,95499
 3.5000e+000 95678 -8.0597e+001 -4.5439e+002 -9.2702e+001 38694 95499,95551,95525
 3.5000e+000 95655 -2.5076e+002 -4.9772e+002  3.8564e+001 38694 95577,95629,95603
 3.5000e+000 96325 -3.1638e+002 -6.8993e+002  2.7864e+001 38240 95953,96031,96005
 3.5000e+000 96302 -2.9268e+002 -3.8610e+002  1.1487e+002 38240 95953,96161,96031
 3.5000e+000 96279 -2.0574e+002 -3.6835e+002 -2.0689e+001 38240 96031,96161,96135
 3.5000e+000 96256 -2.3882e+002 -5.0167e+002  8.8678e+001 38240 96348,96109,96057
 3.5000e+000 96233 -2.1010e+002 -4.5473e+002  6.3411e+001 38240 96348,96057,96031
 3.5000e+000 96210 -1.7746e+002 -5.0624e+002  1.3125e+002 38240 96057,96109,96083
 3.5000e+000 96187 -3.7270e+002 -3.5523e+002 -2.3020e+001 38240 95953,96005,95979
 3.5000e+000 96374 -1.8924e+002 -5.8143e+002  5.5244e+001 38240 96135,96109,96348
 3.5000e+000 96397 -1.4086e+002 -4.9967e+002  2.3451e+001 38240 96135,96348,96031
 3.5000e+000 96618 -2.4598e+002 -7.1035e+002 -2.2469e+000 37821 96494,96546,96520
 3.5000e+000 96595 -1.1364e+002 -6.1290e+002  4.0522e+001 37821 96468,96546,96494
 3.5000e+000 96572 -4.7910e+001 -5.8466e+002  3.5380e+001 37821 96442,96546,96468
 3.5000e+000 97126 -1.8397e+002 -4.3397e+002 -4.4680e+001 37367 97149,96855,96829
 3.5000e+000 97103 -2.0304e+002 -4.4370e+002 -3.6859e+001 37367 97149,96829,96985
 3.5000e+000 97080 -1.6556e+002 -4.5985e+002 -4.5014e+001 37367 96803,96985,96829
 3.5000e+000 97057 -1.2923e+002 -4.1195e+002 -6.1675e+001 37367 96855,96907,96881
 3.5000e+000 97034 -2.5598e+002 -4.0392e+002 -1.8700e+001 37367 96907,96985,96959
 3.5000e+000 97011 -3.0012e+002 -3.8915e+002 -5.6734e+001 37367 96907,96959,96933
 3.5000e+000 97175 -2.0175e+002 -4.2006e+002 -5.4704e+001 37367 96907,96855,97149
 3.5000e+000 97198 -2.1557e+002 -4.2909e+002 -4.7786e+001 37367 96907,97149,96985
 3.5000e+000 97704 -2.3783e+002 -5.5041e+002  6.8737e+001 36863 97727,97511,97485
 3.5000e+000 97681 -2.2410e+002 -4.8811e+002  9.0204e+001 36863 97727,97485,97433
 3.5000e+000 97658 -3.1450e+002 -5.9573e+002  5.8170e+000 36863 97381,97563,97433
 3.5000e+000 97635 -1.4536e+002 -5.0830e+002 -1.9408e+001 36863 97511,97563,97537
 3.5000e+000 97612 -1.1277e+002 -3.2556e+002  5.5934e+000 36863 97433,97485,97459
 3.5000e+000 97589 -3.6989e+002 -6.2285e+002  4.6139e+001 36863 97381,97433,97407
 3.5000e+000 97753 -2.3701e+002 -6.0122e+002  3.7997e+001 36863 97563,97511,97727
 3.5000e+000 97776 -2.3148e+002 -5.4421e+002  5.6680e+001 36863 97563,97727,97433
 3.5000e+000 98331 -3.2977e+002 -7.5818e+002 -7.7592e-002 36287 98354,98089,98063
 3.5000e+000 98308 -2.9754e+002 -7.6256e+002  5.0068e+001 36287 98354,98063,98011
 3.5000e+000 98285 -4.0417e+002 -6.9888e+002  1.0441e+002 36287 98426,97985,98115
 3.5000e+000 98262 -2.8892e+002 -7.9467e+002  4.4798e+001 36287 98011,98063,98037
 3.5000e+000 98239 -3.9466e+002 -6.1166e+002  3.9807e+001 36287 97985,98141,98115
 3.5000e+000 98216 -3.8285e+002 -5.3143e+002  9.0897e+001 36287 97959,98141,97985
 3.5000e+000 98193 -3.0513e+002 -8.4844e+002  2.0116e+002 36287 97959,98167,98141
 3.5000e+000 98380 -3.2793e+002 -7.4099e+002 -1.1595e+001 36287 98115,98089,98354
 3.5000e+000 98403 -3.0572e+002 -6.9205e+002  4.9278e+000 36287 98426,98115,98354
 3.5000e+000 98452 -5.1831e+002 -8.1193e+002  1.7249e+002 36287 98011,97985,98426
 3.5000e+000 98475 -4.3648e+002 -8.3715e+002  7.8830e+001 36287 98011,98426,98354
 3.5000e+000 99030 -2.9658e+002 -8.3745e+002 -6.6117e+001 35726 99053,98736,98710
 3.5000e+000 99007 -2.0972e+002 -6.8553e+002  5.0311e+000 35726 99053,98710,98684
 3.5000e+000 98984 -3.3106e+002 -6.6944e+002 -7.5216e+001 35726 99125,98814,98736
 3.5000e+000 98961 -2.6177e+002 -5.6793e+002 -3.2624e+001 35726 98736,98814,98788
 3.5000e+000 98938 -2.8118e+002 -5.9093e+002  4.9806e+001 35726 98684,98866,98840
 3.5000e+000 98915 -2.2590e+002 -5.5612e+002 -2.2339e+001 35726 98736,98788,98762
 3.5000e+000 98892 -1.8823e+002 -5.9206e+002  4.1398e+001 35726 98658,98866,98684
 3.5000e+000 99079 -2.4519e+002 -6.7146e+002 -2.5940e+001 35726 99125,98736,99053
 3.5000e+000 99102 -3.0239e+002 -5.8586e+002  7.1208e+000 35726 98840,99053,98684
 3.5000e+000 99151 -4.0993e+002 -7.0715e+002 -9.9729e+001 35726 98840,98814,99125
 3.5000e+000 99174 -3.6314e+002 -7.1440e+002 -3.9406e+001 35726 98840,99125,99053
 3.5000e+000 99454 -1.0430e+002 -4.3161e+002 -3.5602e+001 35222 99278,99330,99304
 3.5000e+000 99431 -1.4359e+002 -4.2114e+002  1.5188e+001 35222 99278,99382,99330
 3.5000e+000 99408 -2.3961e+002 -4.9699e+002 -2.1236e+001 35222 99330,99382,99356
 3.5000e+000 99653 -5.6106e+001 -6.6405e+002 -2.5454e+001 34867 99477,99529,99503
 3.5000e+000 99630 -1.8625e+002 -4.8987e+002 -5.6198e+001 34867 99477,99581,99529
 3.5000e+000 99607 -1.9447e+002 -7.8610e+002 -2.2306e+002 34867 99529,99581,99555
 3.5000e+000 100104 -1.5157e+002 -6.0291e+002 -1.3633e+001 34363 99781,99885,99807
 3.5000e+000 100081 -2.3087e+002 -6.4768e+002  1.8392e+001 34363 99781,99963,99885
 3.5000e+000 100058 -8.6265e+001 -5.7462e+002 -1.9392e+001 34363 99885,99963,99911
 3.5000e+000 100035 -1.0807e+002 -5.1388e+002  1.2948e+001 34363 99807,99885,99859
 3.5000e+000 100012 -4.9136e+001 -5.4875e+002 -7.5541e+001 34363 99911,99963,99937
 3.5000e+000 99989 -2.0372e+001 -4.6873e+002  4.0657e+001 34363 99807,99859,99833
 3.5000e+000 100303 -2.6695e+002 -4.8418e+002 -1.2936e+002 33909 100127,100205,100179
 3.5000e+000 100280 -3.8457e+002 -5.3856e+002 -1.1202e+002 33909 100127,100231,100205
 3.5000e+000 100257 -3.2196e+002 -5.8388e+002 -8.5744e+001 33909 100127,100179,100153
 3.5000e+000 100890 -1.3915e+002 -5.2131e+002 -7.6169e+001 33412 100645,100749,100697
 3.5000e+000 100867 -1.4641e+002 -6.3986e+002 -5.5168e+001 33412 100567,100749,100645
 3.5000e+000 100844 -1.3801e+002 -6.3049e+002 -6.0359e+001 33412 100567,100645,100619
 3.5000e+000 100821 -1.5195e+002 -6.1224e+002 -1.3030e+002 33412 100645,100697,100671
 3.5000e+000 100798 -1.9094e+002 -8.5984e+002 -2.5755e+001 33412 100567,100619,100593
 3.5000e+000 100775 -2.8805e+002 -5.1820e+002 -3.2635e+001 33412 100697,100749,100723
 3.5000e+000 101268 -1.3298e+002 -6.9194e+002 -1.4634e+000 32908 101435,101291,101098
 3.5000e+000 101245 -2.3863e+002 -6.9094e+002  4.0440e+001 32908 101291,101072,101020
 3.5000e+000 101222 -2.2986e+002 -7.3447e+002 -1.1215e+002 32908 101363,101150,101124
 3.5000e+000 101199 -2.8130e+002 -7.3830e+002  1.1960e+002 32908 101020,101072,101046
 3.5000e+000 101176 -1.2355e+002 -5.2490e+002 -3.0718e+001 32908 100994,101150,101020
 3.5000e+000 101317 -1.7428e+002 -7.4220e+002  2.2126e+001 32908 101124,101098,101291
 3.5000e+000 101340 -1.8916e+002 -7.9658e+002 -8.4441e+000 32908 101363,101124,101291
 3.5000e+000 101389 -1.6982e+002 -6.2782e+002 -8.7090e+001 32908 101020,101150,101363
 3.5000e+000 101412 -1.1836e+002 -6.3766e+002  1.3482e+001 32908 101020,101363,101291
 3.5000e+000 101461 -1.1310e+002 -6.1774e+002  7.6147e+001 32908 101072,101291,101435
 3.5000e+000 101918 -1.6878e+002 -7.2680e+002 -6.8523e+001 32618 101941,101670,101644
 3.5000e+000 101895 -4.7826e+001 -7.1528e+002  1.4397e+001 32618 101941,101644,101774
 3.5000e+000 101872 -2.8224e+002 -6.2599e+002 -1.3415e+001 32618 102013,101696,101670
 3.5000e+000 101849 -5.8632e+001 -4.7528e+002 -8.3123e+001 32618 101696,101748,101722
 3.5000e+000 101826 -3.0096e+001 -6.8309e+002  7.4171e+000 32618 101644,101800,101774
 3.5000e+000 101967 -2.7895e+002 -7.2024e+002 -6.3478e+001 32618 102013,101670,101941
 3.5000e+000 101990 -2.2531e+002 -8.0722e+002  4.7784e+001 32618 101748,101941,101774
 3.5000e+000 102039 -2.5510e+002 -5.9095e+002  5.3013e+000 32618 101748,101696,102013
 3.5000e+000 102062 -1.5242e+002 -6.2678e+002 -1.8347e+001 32618 101748,102013,101941
 3.5000e+000 102440 -3.1937e+002 -7.4234e+002  5.3866e+001 32306 102463,102270,102244
 3.5000e+000 102417 -3.2896e+002 -7.4591e+002  7.3472e-001 32306 102463,102244,102192
 3.5000e+000 102394 -3.1118e+002 -6.3158e+002 -9.3364e+000 32306 102192,102244,102218
 3.5000e+000 102371 -1.9919e+002 -6.8891e+002  4.6572e+001 32306 102270,102322,102296
 3.5000e+000 102348 -1.5910e+002 -8.4647e+002 -6.1898e+001 32306 102166,102322,102192
 3.5000e+000 102489 -2.6258e+002 -7.2597e+002  6.7328e+001 32306 102322,102270,102463
 3.5000e+000 102512 -2.7138e+002 -7.3674e+002  1.1090e+001 32306 102322,102463,102192
 3.5000e+000 102662 -1.9115e+002 -7.2558e+002 -6.5958e+000 31852 102943,102587,102561
 3.5000e+000 102639 -1.0890e+002 -6.2860e+002  2.6234e+001 31852 102815,102685,102561
 3.5000e+000 102711 -2.1765e+002 -7.6640e+002 -2.5054e+001 31852 102943,102561,102685
 3.5000e+000 102841 -8.9484e+001 -5.2447e+002  7.9867e+001 31852 102535,102685,102815
 3.5000e+000 102969 -1.9809e+002 -7.6593e+002 -3.8015e+001 31852 102613,102587,102943
 3.5000e+000 102992 -2.2354e+002 -8.0185e+002 -5.6637e+001 31852 102613,102943,102685
 3.5000e+000 103370 -3.8213e+002 -8.7167e+002  3.3818e+001 31134 103096,103200,103122
 3.5000e+000 103347 -4.6569e+002 -1.0882e+003  9.6796e+001 31134 103096,103226,103200
 3.5000e+000 103324 -4.4175e+002 -8.8360e+002  3.0818e+001 31134 103122,103200,103174
 3.5000e+000 103301 -2.5510e+002 -9.2358e+002  1.7468e+001 31134 103096,103252,103226
 3.5000e+000 103278 -2.9981e+002 -9.6392e+002 -1.1895e+002 31134 103122,103174,103148
 3.5000e+000 103520 -1.2173e+002 -1.0741e+003  5.3381e-001 30822 103393,103445,103419
 3.5000e+000 103497 -5.1909e+001 -5.9397e+002  3.4980e+001 30822 103393,103471,103445
 3.5000e+000 103719 -9.1947e+001 -4.9332e+002  2.2478e+001 30182 103742,103621,103569
 3.5000e+000 103696 -7.2853e+001 -4.9707e+002  2.5996e+001 30182 103742,103569,103543
 3.5000e+000 103673 -1.1351e+002 -5.0081e+002  2.8703e+001 30182 103569,103621,103595
 3.5000e+000 103768 -1.0226e+002 -4.9458e+002  2.2613e+001 30182 103647,103621,103742
 3.5000e+000 103791 -9.2912e+001 -5.0488e+002  2.9444e+001 30182 103647,103742,103543
 3.5000e+000 104252 -2.8930e+002 -5.7184e+002  1.2159e+001 29728 104030,104108,104056
 3.5000e+000 104229 -1.9913e+002 -3.8236e+002  3.7892e+001 29728 104004,104108,104030
 3.5000e+000 104206 -1.2713e+002 -4.2307e+002  2.9031e+001 29728 104004,104134,104108
 3.5000e+000 104183 -1.9746e+002 -4.8257e+002 -5.8819e+001 29728 103978,104134,104004
 3.5000e+000 104160 -1.6781e+002 -5.2151e+002 -3.8922e+001 29728 104056,104108,104082
 3.5000e+000 104630 -2.3154e+002 -7.3209e+002 -7.8409e+001 29217 104653,104382,104356
 3.5000e+000 104607 -1.8371e+002 -6.4340e+002 -1.9052e+001 29217 104653,104356,104512
 3.5000e+000 104584 -3.0620e+002 -7.3282e+002 -8.6502e+001 29217 104434,104512,104486
 3.5000e+000 104561 -1.8970e+002 -7.8456e+002 -1.1365e+002 29217 104382,104434,104408
 3.5000e+000 104538 -1.3860e+002 -5.2310e+002  2.9581e+001 29217 104434,104486,104460
 3.5000e+000 104679 -2.5431e+002 -7.4230e+002 -1.1537e+002 29217 104434,104382,104653
 3.5000e+000 104702 -2.4879e+002 -7.0772e+002 -6.2293e+001 29217 104434,104653,104512
 3.5000e+000 105178 -1.8644e+002 -6.4629e+002  3.0420e+001 28649 105201,104962,104936
 3.5000e+000 105155 -1.9741e+002 -6.4501e+002  3.6902e+001 28649 105201,104936,104884
 3.5000e+000 105132 -2.1163e+002 -5.5714e+002 -5.3109e+001 28649 105273,104858,105014
 3.5000e+000 105109 -3.4496e+002 -6.7428e+002  1.9262e+001 28649 104962,105014,104988
 3.5000e+000 105086 -7.5048e+001 -5.2587e+002 -7.5706e+001 28649 104884,104936,104910
 3.5000e+000 105063 -2.0643e+002 -5.1196e+002 -2.6979e+001 28649 104806,105014,104858
 3.5000e+000 105040 -2.6867e+002 -4.9259e+002 -5.9023e+001 28649 104806,104858,104832
 3.5000e+000 105227 -1.8006e+002 -6.5700e+002  1.6816e+001 28649 105014,104962,105201
 3.5000e+000 105250 -1.4456e+002 -5.9386e+002 -4.8721e+000 28649 105273,105014,105201
 3.5000e+000 105299 -2.7808e+002 -5.9820e+002 -3.3168e+001 28649 104884,104858,105273
 3.5000e+000 105322 -2.5748e+002 -6.6268e+002  2.5360e+001 28649 104884,105273,105201
 3.5000e+000 105673 -4.4075e+001 -6.9584e+002  7.7531e+000 28351 105474,105578,105552
 3.5000e+000 105650  1.9283e+001 -4.3974e+002 -1.2795e+001 28351 105448,105578,105474
 3.5000e+000 105627 -6.6037e+000 -6.4804e+002  1.6005e+000 28351 105500,105552,105526
 3.5000e+000 105604 -1.6891e+001 -6.8250e+002  3.0810e+000 28351 105474,105552,105500
 3.5000e+000 106130 -2.6995e+002 -4.4244e+002 -1.3960e+002 28004 106153,105882,105856
 3.5000e+000 106107 -2.4322e+002 -6.0226e+002 -8.6563e+001 28004 106153,105856,105986
 3.5000e+000 106084 -4.7041e+002 -6.6696e+002  3.2758e+001 28004 105934,105986,105960
 3.5000e+000 106061 -3.7526e+002 -7.1723e+002 -2.9444e+001 28004 105856,106012,105986
 3.5000e+000 106038 -4.5899e+002 -7.0088e+002 -5.8634e+001 28004 105882,105934,105908
 3.5000e+000 106179 -4.0312e+002 -5.7269e+002 -6.6336e+001 28004 105934,105882,106153
 3.5000e+000 106202 -2.7118e+002 -6.5355e+002 -3.8658e+001 28004 105934,106153,105986
 3.5000e+000 106885 -3.8094e+002 -5.7186e+002 -1.7508e+001 27564 106908,106620,106516
 3.5000e+000 106862 -3.7222e+002 -5.5392e+002 -8.5902e+000 27564 106908,106516,106490
 3.5000e+000 106839 -3.3548e+002 -5.3224e+002 -6.3672e+001 27564 106516,106620,106542
 3.5000e+000 106816 -3.5583e+002 -4.6228e+002 -2.5675e+001 27564 106620,106672,106646
 3.5000e+000 106793 -2.6945e+002 -5.8816e+002 -1.0085e+002 27564 106542,106620,106594
 3.5000e+000 106770 -3.7772e+002 -5.0237e+002  3.6886e+001 27564 106490,106698,106672
 3.5000e+000 106747 -3.0042e+002 -5.5917e+002  1.0873e+002 27564 106464,106698,106490
 3.5000e+000 106724 -5.0253e+001 -4.6534e+002 -1.5246e+002 27564 106542,106594,106568
 3.5000e+000 106934 -3.9452e+002 -5.5538e+002 -2.2029e+001 27564 106672,106620,106908
 3.5000e+000 106957 -3.8850e+002 -5.3756e+002 -1.7934e+001 27564 106672,106908,106490
 3.5000e+000 107463 -2.1208e+002 -4.9844e+002 -1.0641e+001 27053 107218,107322,107296
 3.5000e+000 107440 -2.5987e+002 -6.0344e+002  2.5384e+001 27053 107166,107322,107218
 3.5000e+000 107417 -2.2401e+002 -6.0271e+002 -1.9383e+001 27053 107218,107296,107244
 3.5000e+000 107394 -2.5878e+002 -4.6201e+002  6.3322e+001 27053 107140,107322,107166
 3.5000e+000 107371 -2.5304e+002 -6.3716e+002  3.6738e+001 27053 107166,107218,107192
 3.5000e+000 107348 -2.1376e+002 -7.8311e+002 -1.0207e+002 27053 107244,107296,107270
 3.5000e+000 108097 -2.9693e+002 -7.6044e+002 -4.2197e+001 26549 108192,108120,107803
 3.5000e+000 108074 -2.7378e+002 -8.6703e+002  5.5918e+001 26549 108120,107725,107933
 3.5000e+000 108051 -1.0590e+002 -1.0268e+003  5.5456e+001 26549 107751,107803,107777
 3.5000e+000 108028 -2.9435e+002 -8.1605e+002 -5.6096e+001 26549 108192,107803,107751
 3.5000e+000 108005 -1.7827e+002 -5.1873e+002 -7.5393e+000 26549 108264,107855,107803
 3.5000e+000 107982 -8.7290e+001 -5.9465e+002 -3.0401e+001 26549 107881,107933,107907
 3.5000e+000 107959 -2.3907e+002 -5.4909e+002  2.5807e+000 26549 107803,107855,107829
 3.5000e+000 108146 -2.3248e+002 -6.0271e+002 -4.0885e+001 26549 108264,107803,108120
 3.5000e+000 108169 -2.1887e+002 -7.2436e+002  2.1904e+001 26549 107881,108120,107933
 3.5000e+000 108218 -2.9041e+002 -7.0362e+002 -9.2289e-001 26549 107725,108120,108192
 3.5000e+000 108241 -2.8284e+002 -7.4562e+002 -1.7747e+001 26549 107725,108192,107751
 3.5000e+000 108290 -1.1230e+002 -6.2791e+002 -2.8563e+001 26549 107881,107855,108264
 3.5000e+000 108313 -1.5898e+002 -7.2090e+002 -5.2323e+001 26549 107881,108264,108120
 3.5000e+000 108512 -1.4776e+002 -6.4992e+002 -5.1431e+001 26137 108388,108440,108414
 3.5000e+000 108489 -8.3843e+001 -5.5174e+002 -8.7449e+000 26137 108362,108440,108388
 3.5000e+000 108466 -9.4444e+001 -6.0297e+002 -2.5963e+001 26137 108336,108440,108362
 3.5000e+000 108662 -2.0491e+002 -6.0648e+002 -5.9589e+001 25733 108817,108685,108535
 3.5000e+000 108639 -1.0971e+002 -6.5794e+002 -2.0806e+001 25733 109017,108817,108535
 3.5000e+000 108711 -2.2330e+002 -5.5481e+002 -2.6893e+001 25733 108561,108535,108685
 3.5000e+000 108843 -1.2242e+002 -6.0027e+002 -1.7531e+001 25733 108587,108685,108817
 3.5000e+000 108866 -1.0932e+002 -5.8654e+002  4.1833e+000 25733 108889,108817,108613
 3.5000e+000 108915 -1.0374e+002 -5.6929e+002 -2.5556e+001 25733 108587,108817,108889
 3.5000e+000 109043 -9.6974e+001 -5.0009e+002  1.6910e+001 25733 108613,108817,109017
 3.5000e+000 109500 -4.0185e+002 -7.4460e+002  8.2801e+001 25229 109523,109356,109330
 3.5000e+000 109477 -2.2446e+002 -5.7735e+002 -2.4333e+001 25229 109595,109523,109330
 3.5000e+000 109454 -2.1547e+002 -5.1664e+002 -7.8485e+001 25229 109595,109330,109278
 3.5000e+000 109431 -2.3845e+002 -5.5162e+002 -4.1801e+001 25229 109667,109226,109382
 3.5000e+000 109408 -2.3594e+002 -5.5455e+002 -1.0078e+002 25229 109278,109330,109304
 3.5000e+000 109549 -1.2092e+002 -6.0680e+002  2.6313e+001 25229 109382,109356,109523
 3.5000e+000 109572 -2.0794e+002 -6.0135e+002 -5.0925e+001 25229 109667,109382,109523
 3.5000e+000 109621 -2.4600e+002 -6.6634e+002 -4.0383e+001 25229 109252,109523,109595
 3.5000e+000 109644 -1.6484e+002 -5.7297e+002 -3.7190e+001 25229 109739,109595,109278
 3.5000e+000 109693 -3.0720e+002 -6.3726e+002 -7.9576e+000 25229 109252,109226,109667
 3.5000e+000 109716 -2.4739e+002 -6.6894e+002 -3.4107e+001 25229 109252,109667,109523
 3.5000e+000 109765 -2.9991e+002 -6.1296e+002 -1.7346e+001 25229 109252,109595,109739
 3.5000e+000 110478 -1.5549e+002 -4.7191e+002  7.7068e+001 24917 110158,110236,110184
 3.5000e+000 110455 -2.0576e+002 -5.1736e+002 -3.3212e+000 24917 110158,110288,110236
 3.5000e+000 110432 -7.9247e+001 -6.7985e+002  2.0546e+001 24917 110236,110288,110262
 3.5000e+000 110409 -5.0889e+001 -5.2137e+002  1.0851e+002 24917 110184,110236,110210
 3.5000e+000 110386 -2.9607e+002 -6.3180e+002 -5.0074e+001 24917 110132,110288,110158
 3.5000e+000 110363 -2.8383e+002 -6.0349e+002  8.1956e+000 24917 110132,110314,110288
 3.5000e+000 110340 -3.1405e+002 -6.7940e+002  8.7766e+001 24917 110106,110314,110132
 3.5000e+000 110829 -3.1209e+001 -3.0232e+002 -2.9547e+000 24307 110604,110682,110630
 3.5000e+000 110806 -2.1132e+002 -7.7050e+002  5.1375e+001 24307 110604,110708,110682
 3.5000e+000 110783 -5.0893e+001 -6.9320e+002  1.5823e+001 24307 110604,110734,110708
 3.5000e+000 110760 -2.0504e+001 -2.9773e+002 -3.3631e+000 24307 110630,110682,110656
 3.5000e+000 111335 -1.6745e+002 -5.0292e+002 -8.3179e+001 23767 111012,111168,111038
 3.5000e+000 111312 -1.5223e+002 -5.2576e+002 -9.7514e+001 23767 111012,111194,111168
 3.5000e+000 111289 -3.2308e+002 -6.2402e+002  5.0454e+001 23767 111358,111064,111038
 3.5000e+000 111266 -2.2417e+002 -5.8311e+002 -3.7603e+001 23767 111358,111038,111168
 3.5000e+000 111243 -1.4091e+002 -5.2507e+002 -3.0087e+001 23767 111430,111142,111090
 3.5000e+000 111220  1.7765e+000 -4.6268e+002  9.3778e+000 23767 111090,111142,111116
 3.5000e+000 111384 -2.4886e+002 -5.7697e+002 -2.0654e+001 23767 111090,111064,111358
 3.5000e+000 111407 -2.5447e+002 -5.4245e+002 -4.5620e+001 23767 111430,111090,111358
 3.5000e+000 111456 -3.3189e+001 -5.7330e+002 -5.6585e+001 23767 111168,111142,111430
 3.5000e+000 111479 -9.7923e+001 -5.5352e+002 -6.3105e+001 23767 111168,111430,111358
 3.5000e+000 111985 -1.6850e+002 -4.6444e+002  6.1850e+001 23477 111688,111844,111818
 3.5000e+000 111962 -1.5086e+002 -4.8237e+002 -7.3001e+001 23477 111662,111844,111688
 3.5000e+000 111939 -9.9555e+001 -7.9344e+002  9.0319e+001 23477 111766,111818,111792
 3.5000e+000 111916 -3.1945e+002 -7.3674e+002  5.3513e+001 23477 111740,111818,111766
 3.5000e+000 111893 -1.8121e+002 -4.0926e+002  7.1003e+001 23477 111688,111818,111740
 3.5000e+000 111870 -3.0236e+002 -5.3211e+002  1.2972e+002 23477 111688,111740,111714
 3.5000e+000 112314 -2.3304e+002 -4.7290e+002  4.8456e+000 23023 112141,112219,112193
 3.5000e+000 112291 -1.8719e+002 -4.5570e+002 -1.9408e+001 23023 112115,112219,112141
 3.5000e+000 112268 -1.7895e+002 -5.5679e+002  7.8640e+001 23023 112141,112193,112167
 3.5000e+000 112245 -1.8534e+002 -4.9956e+002 -1.7183e+001 23023 112089,112219,112115
 3.5000e+000 112692 -2.2967e+002 -6.2781e+002 -2.6962e+001 22768 112444,112574,112548
 3.5000e+000 112669 -1.6798e+002 -6.1852e+002 -2.7330e+000 22768 112418,112574,112444
 3.5000e+000 112646 -2.7911e+002 -6.4248e+002  3.0294e+000 22768 112444,112522,112470
 3.5000e+000 112623 -2.1451e+002 -6.1843e+002 -1.8602e+001 22768 112444,112548,112522
 3.5000e+000 112600 -2.6234e+001 -5.3067e+002 -3.4600e+001 22768 112470,112522,112496
 3.5000e+000 113011 -1.3174e+002 -7.1774e+002 -5.3485e+001 22314 112763,112867,112789
 3.5000e+000 112988 -5.4214e+001 -7.3467e+002 -6.6599e+001 22314 112763,112893,112867
 3.5000e+000 112965 -1.3707e+002 -7.1614e+002  0.0000e+000 22314 112815,112867,112841
 3.5000e+000 112942 -1.8758e+002 -7.4786e+002 -3.5924e+001 22314 112789,112867,112815
 3.5000e+000 112919 -3.9577e+001 -5.6956e+002  1.4995e+002 22314 112737,112893,112763
 3.5000e+000 113519 -3.1901e+001 -5.4459e+002  1.2758e+002 21924 113614,113542,113248
 3.5000e+000 113496 -1.0773e+002 -5.3262e+002  5.0347e+001 21924 113542,113196,113378
 3.5000e+000 113473 -9.2985e+001 -5.5684e+002  1.3392e+002 21924 113614,113248,113222
 3.5000e+000 113450 -1.0944e+002 -7.6564e+002  4.8503e+001 21924 113686,113274,113248
 3.5000e+000 113427 -1.9911e+002 -8.2320e+002 -4.7438e+001 21924 113274,113352,113326
 3.5000e+000 113404 -3.5647e+002 -1.0950e+003 -1.1129e+002 21924 113274,113326,113300
 3.5000e+000 113568 -2.8988e+001 -6.5174e+002  9.0381e+001 21924 113686,113248,113542
 3.5000e+000 113591 -9.4239e+001 -4.9210e+002  5.9906e+001 21924 113352,113542,113378
 3.5000e+000 113640 -9.2179e+001 -5.4660e+002  1.0298e+002 21924 113196,113542,113614
 3.5000e+000 113663 -1.1471e+002 -5.3410e+002  1.0155e+002 21924 113196,113614,113222
 3.5000e+000 113712 -1.9383e+002 -6.3824e+002 -3.2552e+000 21924 113352,113274,113686
 3.5000e+000 113735 -1.5293e+002 -5.7818e+002  2.6238e+001 21924 113352,113686,113542
 3.5000e+000 113885 -4.2076e+002 -6.0915e+002  1.3131e+000 21520 113980,113908,113784
 3.5000e+000 113862 -3.4832e+002 -5.8280e+002 -1.0079e+002 21520 114238,113908,113758
 3.5000e+000 113934 -2.7372e+002 -4.9386e+002  6.0435e+001 21520 114110,113908,113810
 3.5000e+000 113957 -2.2888e+002 -6.0726e+002 -6.2503e+001 21520 113810,113908,113836
 3.5000e+000 114006 -3.0903e+002 -5.1304e+002 -3.9916e+001 21520 113758,113908,113980
 3.5000e+000 114136 -4.0210e+002 -5.9901e+002  5.4960e+000 21520 113784,113908,114110
 3.5000e+000 114264 -4.4323e+002 -7.0001e+002 -1.4531e+002 21520 113836,113908,114238
 3.5000e+000 114662 -3.0236e+002 -8.1608e+002  1.1989e+001 21030 114414,114518,114492
 3.5000e+000 114639 -9.3794e+001 -6.4426e+002 -7.3938e+001 21030 114414,114544,114518
 3.5000e+000 114616 -3.5544e+002 -8.4301e+002 -4.9130e+000 21030 114440,114492,114466
 3.5000e+000 114593 -3.0580e+002 -8.2449e+002  1.1024e+001 21030 114414,114492,114440
 3.5000e+000 114570 -1.8107e+002 -6.5651e+002 -2.7826e+000 21030 114388,114544,114414
 3.5000e+000 114959 -5.1749e+002 -8.8620e+002  6.5591e+001 20512 114982,114711,114685
 3.5000e+000 114936 -4.7111e+002 -8.4901e+002 -1.5589e+001 20512 115054,114982,114685
 3.5000e+000 114913 -3.8424e+002 -7.3943e+002 -5.3268e+001 20512 115054,114685,114841
 3.5000e+000 114890 -2.8867e+002 -8.1266e+002  2.6968e+001 20512 114711,114763,114737
 3.5000e+000 114867 -1.6652e+002 -7.5907e+002  1.2347e+001 20512 114763,114815,114789
 3.5000e+000 115008 -4.4211e+002 -8.7082e+002  3.8183e+001 20512 114763,114711,114982
 3.5000e+000 115031 -3.9664e+002 -8.4972e+002 -1.8943e+001 20512 114763,114982,114815
 3.5000e+000 115080 -4.3202e+002 -8.8761e+002  2.5605e+000 20512 114815,114982,115054
 3.5000e+000 115103 -4.3662e+002 -8.6844e+002  2.2364e+000 20512 114815,115054,114841
 3.5000e+000 115507 -3.6113e+002 -7.5881e+002 -2.6020e+001 20143 115285,115389,115363
 3.5000e+000 115484 -4.2280e+002 -8.7259e+002 -2.0085e+000 20143 115259,115389,115285
 3.5000e+000 115461 -3.7411e+002 -7.2481e+002 -3.3590e+000 20143 115233,115389,115259
 3.5000e+000 115438 -3.5047e+002 -9.1125e+002  2.9654e+001 20143 115285,115337,115311
 3.5000e+000 115415 -4.9950e+002 -1.0746e+003 -4.6967e+001 20143 115285,115363,115337
 3.5000e+000 115875 -2.2745e+002 -5.9475e+002  1.2086e+001 19632 115656,115734,115682
 3.5000e+000 115852 -5.9108e+001 -5.1430e+002  9.5998e+001 19632 115552,115734,115656
 3.5000e+000 115829 -8.6765e+001 -5.5119e+002 -4.9563e+001 19632 115552,115656,115578
 3.5000e+000 115806 -2.4013e+002 -6.1201e+002  1.2673e+001 19632 115578,115656,115630
 3.5000e+000 115783 -2.2892e+002 -5.4151e+002  3.0030e+001 19632 115682,115734,115708
 3.5000e+000 115760 -3.0490e+002 -6.4083e+002 -5.4052e+001 19632 115578,115630,115604
 3.5000e+000 116025 -1.1644e+002 -6.5750e+002 -1.5668e+002 19178 115898,115950,115924
 3.5000e+000 116002 -2.0589e+002 -6.8903e+002 -6.9686e+001 19178 115898,115976,115950
 3.5000e+000 116633 -1.5231e+002 -5.7378e+002 -1.2033e+001 18738 116800,116656,116342
 3.5000e+000 116610 -1.4915e+002 -5.9926e+002  1.8511e+001 18738 116656,116238,116446
 3.5000e+000 116587 -2.1072e+002 -5.7522e+002 -4.6589e+001 18738 116728,116368,116342
 3.5000e+000 116564 -1.5041e+002 -5.5311e+002 -2.4603e+001 18738 116800,116342,116264
 3.5000e+000 116541 -1.9164e+002 -8.5109e+002  5.9320e+001 18738 116212,116446,116238
 3.5000e+000 116518 -3.9488e+001 -3.6732e+002 -8.7022e+000 18738 116394,116446,116420
 3.5000e+000 116495  1.8506e+002 -4.4253e+002 -9.1620e+001 18738 116264,116342,116316
 3.5000e+000 116472 -5.3441e+001 -6.5237e+002  8.9835e+001 18738 116264,116316,116290
 3.5000e+000 116682 -1.9752e+002 -5.5957e+002  1.4278e+001 18738 116728,116342,116656
 3.5000e+000 116705 -1.6137e+002 -4.4433e+002  4.7292e+001 18738 116394,116656,116446
 3.5000e+000 116754 -3.0693e+002 -6.1269e+002 -7.6209e+001 18738 116394,116368,116728
 3.5000e+000 116777 -3.0174e+002 -5.9616e+002 -1.3674e+001 18738 116394,116728,116656
 3.5000e+000 116826 -1.4799e+002 -6.1295e+002  1.6467e+000 18738 116238,116656,116800
 3.5000e+000 116849 -1.3762e+002 -5.8744e+002 -1.3988e+001 18738 116238,116800,116264
 3.5000e+000 116999 -2.2797e+002 -7.7236e+002  4.0363e+001 18184 116872,116924,116898
 3.5000e+000 116976 -2.2758e+002 -3.9753e+002 -9.6246e+000 18184 116872,116950,116924
 3.5000e+000 117330 -4.6184e+001 -9.2402e+002  6.2782e+001 17694 117157,117235,117183
 3.5000e+000 117307 -2.9079e+002 -1.0472e+003  9.3711e+000 17694 117131,117235,117157
 3.5000e+000 117284 -2.0329e+002 -1.1673e+003 -5.7161e+001 17694 117105,117235,117131
 3.5000e+000 117261  1.6953e+002 -5.7103e+002 -3.7570e+001 17694 117183,117235,117209
 3.5000e+000 117480 -2.8919e+002 -7.2995e+002 -7.3616e+001 17290 117353,117405,117379
 3.5000e+000 117457 -1.4097e+002 -7.7961e+002 -8.5950e+001 17290 117353,117431,117405
 3.5000e+000 117679 -5.0867e+001 -5.8350e+002 -2.8770e+001 16718 117555,117607,117581
 3.5000e+000 117656 -2.8898e+002 -7.3411e+002  3.5915e+001 16718 117529,117607,117555
 3.5000e+000 117633  1.6013e+001 -7.0300e+002  2.9627e+001 16718 117503,117607,117529
 3.5000e+000 117782 -1.2133e+002 -5.7234e+002  1.7249e+001 16520 117704,117756,117730
 3.5000e+000 117983 -2.2293e+002 -9.1830e+002  3.2006e+000 16208 117859,117911,117885
 3.5000e+000 117960 -1.1681e+002 -8.5476e+002 -2.4443e+001 16208 117833,117911,117859
 3.5000e+000 117937 -2.2203e+001 -7.2159e+002  3.5337e+001 16208 117807,117911,117833
 3.5000e+000 118135 -4.0422e+002 -6.9832e+002 -9.1951e+001 15674 118034,118086,118060
 3.5000e+000 118112 -1.6449e+002 -5.2362e+002  1.5389e+001 15674 118008,118086,118034
 3.5000e+000 118238 -5.6327e+001 -6.8596e+002  4.3313e+001 15355 118160,118212,118186
 3.5000e+000 118341 -3.2508e+002 -7.2752e+002  1.7698e+002 421 118263,118315,118289
 3.6000e+000 68152 -2.0162e+002 -3.7828e+002  7.7764e+000 67838 68074,68126,68100
 3.6000e+000 68550 -1.8528e+002 -4.9355e+002  1.0614e+001 67526 68276,68380,68302
 3.6000e+000 68527 -9.0729e+001 -4.8877e+002 -1.6801e+000 67526 68276,68406,68380
 3.6000e+000 68504 -1.7266e+002 -4.3385e+002  1.9323e+000 67526 68328,68380,68354
 3.6000e+000 68481 -1.6363e+002 -4.4310e+002  9.9331e+000 67526 68302,68380,68328
 3.6000e+000 68458 -1.3656e+002 -5.7956e+002 -1.6265e+001 67526 68276,68432,68406
 3.6000e+000 68651 -4.1064e+002 -6.1698e+002  7.9971e+001 67328 68573,68625,68599
 3.6000e+000 68970 -1.7161e+002 -5.4768e+002  1.0414e+001 67016 68722,68800,68774
 3.6000e+000 68947 -1.9339e+002 -5.9242e+002  3.5465e+000 67016 68722,68826,68800
 3.6000e+000 68924 -2.1064e+002 -5.6711e+002  3.7226e+000 67016 68696,68826,68722
 3.6000e+000 68901 -1.4703e+002 -5.8945e+002 -2.3986e+001 67016 68722,68774,68748
 3.6000e+000 68878 -2.8043e+002 -5.4588e+002 -8.5240e+001 67016 68696,68852,68826
 3.6000e+000 69291 -2.6471e+002 -5.2982e+002 -4.9943e+000 66654 69069,69147,69095
 3.6000e+000 69268 -2.1719e+002 -5.6527e+002  1.2998e+001 66654 69069,69173,69147
 3.6000e+000 69245 -2.4551e+002 -4.5319e+002  6.8397e+001 66654 69043,69173,69069
 3.6000e+000 69222 -3.2092e+002 -6.0905e+002  3.1376e+001 66654 69095,69147,69121
 3.6000e+000 69199 -3.6784e+002 -6.7231e+002  2.8181e+001 66654 69017,69173,69043
 3.6000e+000 69695 -2.0934e+002 -7.6784e+002  1.7471e+001 66456 69447,69577,69551
 3.6000e+000 69672 -8.8187e+001 -6.8501e+002 -1.9066e+001 66456 69421,69577,69447
 3.6000e+000 69649 -6.8161e+001 -4.9957e+002 -7.3832e+001 66456 69473,69551,69525
 3.6000e+000 69626 -1.7013e+002 -6.8832e+002 -3.1235e-001 66456 69447,69551,69473
 3.6000e+000 69603 -4.8576e+000 -4.4291e+002 -1.6964e+002 66456 69473,69525,69499
 3.6000e+000 70024 -2.9254e+002 -5.4758e+002 -2.4240e-001 66258 70047,69851,69825
 3.6000e+000 70001 -3.0162e+002 -5.3849e+002  2.5598e+001 66258 70047,69825,69903
 3.6000e+000 69978 -3.4212e+002 -6.4902e+002  5.2659e+001 66258 69799,69903,69825
 3.6000e+000 69955 -1.6985e+002 -8.3216e+002  1.6913e+002 66258 69799,69929,69903
 3.6000e+000 70073 -3.1960e+002 -5.5559e+002 -6.2799e+000 66258 69877,69851,70047
 3.6000e+000 70096 -3.3387e+002 -5.4673e+002  2.0406e+001 66258 69877,70047,69903
 3.6000e+000 70602 -2.8475e+000 -4.3991e+002 -9.9892e+001 66060 70305,70435,70331
 3.6000e+000 70579 -3.4563e+002 -6.9569e+002  3.0412e+001 66060 70279,70435,70305
 3.6000e+000 70556 -3.2662e+002 -5.5392e+002 -1.0822e+002 66060 70331,70435,70409
 3.6000e+000 70533 -2.8141e+002 -5.7262e+002  6.9218e+001 66060 70279,70461,70435
 3.6000e+000 70510 -1.4389e+002 -3.7539e+002 -1.9265e+002 66060 70331,70409,70357
 3.6000e+000 70487 -7.3112e+001 -4.1231e+002 -3.6840e+001 66060 70357,70409,70383
 3.6000e+000 70703 -6.8325e+002 -9.7562e+002 -1.8689e+001 65862 70625,70677,70651
 3.6000e+000 71083 -1.7350e+002 -4.4608e+002  1.2056e+001 65664 70887,70965,70939
 3.6000e+000 71060 -1.6070e+002 -4.3527e+002  7.1559e+000 65664 70861,70965,70887
 3.6000e+000 71037 -1.7051e+002 -4.4454e+002  1.1509e+000 65664 70809,70965,70861
 3.6000e+000 71014 -1.6604e+002 -4.5753e+002 -1.2521e+001 65664 70809,70861,70835
 3.6000e+000 70991 -2.0099e+002 -4.9783e+002  2.5328e+001 65664 70887,70939,70913
 3.6000e+000 71611 -3.2195e+002 -7.8874e+002 -3.4707e+001 65260 71288,71444,71314
 3.6000e+000 71588 -2.2484e+002 -7.3396e+002 -1.2393e+001 65260 71288,71470,71444
 3.6000e+000 71565 -1.4070e+002 -4.9069e+002  4.3466e+001 65260 71314,71418,71392
 3.6000e+000 71542 -2.9475e+002 -7.0968e+002 -2.6466e+001 65260 71314,71444,71418
 3.6000e+000 71519 -3.0104e+002 -5.4363e+002  5.5934e+001 65260 71314,71392,71340
 3.6000e+000 71496 -2.3510e+002 -4.2481e+002  1.7505e+002 65260 71340,71392,71366
 3.6000e+000 72060 -3.0048e+002 -5.6569e+002 -2.5925e+001 64870 71737,71893,71789
 3.6000e+000 72037 -1.7876e+002 -5.1213e+002 -1.5240e+001 64870 71737,71919,71893
 3.6000e+000 72014 -2.9955e+002 -5.1668e+002  2.2610e+001 64870 71789,71841,71815
 3.6000e+000 71991 -2.5874e+002 -5.3683e+002 -7.7778e-001 64870 71789,71893,71841
 3.6000e+000 71968 -2.9841e+002 -6.8394e+002 -8.6723e+001 64870 71737,71789,71763
 3.6000e+000 71945 -2.1259e+002 -5.7580e+002  0.0000e+000 64870 71841,71893,71867
 3.6000e+000 72517 -3.1329e+002 -4.8473e+002 -6.5335e+001 64466 72321,72399,72347
 3.6000e+000 72494 -2.9790e+002 -4.2129e+002 -4.8924e+001 64466 72269,72399,72321
 3.6000e+000 72471 -3.2026e+002 -5.4858e+002  2.7705e+001 64466 72347,72399,72373
 3.6000e+000 72448 -2.9793e+002 -4.7069e+002 -1.4959e+002 64466 72243,72399,72269
 3.6000e+000 72425 -3.7011e+002 -5.8295e+002 -3.5152e+001 64466 72269,72321,72295
 3.6000e+000 72944 -1.6894e+002 -4.3059e+002 -2.2513e+000 64062 73111,73039,72699
 3.6000e+000 72921 -1.3526e+002 -4.7123e+002 -3.6955e+001 64062 73183,72967,72647
 3.6000e+000 72898 -1.5970e+002 -4.8460e+002 -2.0336e+001 64062 72967,72803,72751
 3.6000e+000 72875 -1.6296e+002 -4.2802e+002 -4.8068e+000 64062 73111,72699,72673
 3.6000e+000 72852 -1.0462e+002 -5.0509e+002 -1.5706e+001 64062 73183,72647,72621
 3.6000e+000 72829 -1.3166e+002 -4.0386e+002 -9.3757e+001 64062 72751,72803,72777
 3.6000e+000 72993 -1.4564e+002 -4.3326e+002 -1.4178e+001 64062 73039,72647,72967
 3.6000e+000 73016 -2.2145e+002 -4.9970e+002 -1.8879e+001 64062 72725,72967,72751
 3.6000e+000 73065 -8.2706e+001 -5.1145e+002  1.4964e+002 64062 72725,72699,73039
 3.6000e+000 73088 -1.6642e+002 -4.9243e+002 -2.3771e+001 64062 72725,73039,72967
 3.6000e+000 73137 -1.5446e+002 -4.3532e+002 -3.3609e+000 64062 72647,73039,73111
 3.6000e+000 73160 -1.5433e+002 -4.3494e+002 -4.2667e+000 64062 72647,73111,72673
 3.6000e+000 73209 -1.6559e+002 -5.0192e+002 -1.9886e+001 64062 72803,72967,73183
 3.6000e+000 73232 -1.4884e+002 -5.5946e+002  4.5641e+000 64062 72803,73183,72621
 3.6000e+000 73333 -5.6928e+002 -8.7769e+002  7.2247e+001 63814 73356,73281,73255
 3.6000e+000 73382 -4.3216e+002 -6.1968e+002  3.2109e+001 63814 73486,73356,73307
 3.6000e+000 73512 -5.3104e+002 -6.6182e+002 -1.9003e+001 63814 73281,73356,73486
 3.6000e+000 73839 -2.5617e+002 -5.0359e+002 -3.2111e+001 63616 73862,73692,73666
 3.6000e+000 73816 -2.0716e+002 -4.5356e+002 -1.0864e+001 63616 73934,73862,73666
 3.6000e+000 73793 -1.7224e+002 -4.7792e+002  2.5500e+001 63616 73934,73666,73640
 3.6000e+000 73770 -1.8448e+002 -5.1489e+002  4.2253e+001 63616 73614,73744,73640
 3.6000e+000 73888 -3.1490e+002 -4.6641e+002 -1.8870e+001 63616 73718,73692,73862
 3.6000e+000 73911 -2.5479e+002 -4.1841e+002  1.8317e+001 63616 73718,73862,73744
 3.6000e+000 73960 -2.7344e+002 -4.8738e+002  8.7851e-001 63616 73744,73862,73934
 3.6000e+000 73983 -2.4397e+002 -5.1029e+002  3.3480e+001 63616 73744,73934,73640
 3.6000e+000 74363 -1.6776e+002 -5.0588e+002  7.9475e+000 63390 74386,74115,74089
 3.6000e+000 74340 -1.9712e+002 -4.7295e+002  3.0487e+000 63390 74458,74386,74089
 3.6000e+000 74317 -1.7525e+002 -4.8878e+002  5.6652e+001 63390 74458,74089,74245
 3.6000e+000 74294 -2.1129e+002 -5.5595e+002  2.7094e+000 63390 74530,74167,74141
 3.6000e+000 74271 -1.8595e+002 -5.0112e+002 -9.2455e+001 63390 74167,74219,74193
 3.6000e+000 74412 -1.5885e+002 -5.0566e+002  5.7253e+000 63390 74141,74115,74386
 3.6000e+000 74435 -1.7731e+002 -5.2288e+002  2.0919e+001 63390 74530,74141,74386
 3.6000e+000 74484 -1.5553e+002 -3.9709e+002  2.6642e+001 63390 74219,74386,74458
 3.6000e+000 74507 -1.1549e+002 -3.9384e+002  8.5212e+001 63390 74219,74458,74245
 3.6000e+000 74556 -2.6735e+002 -5.2683e+002 -3.7020e+001 63390 74219,74167,74530
 3.6000e+000 74579 -2.3171e+002 -4.8462e+002 -1.6399e+001 63390 74219,74530,74386
 3.6000e+000 74680 -2.2092e+002 -4.2150e+002  3.6611e+001 63100 75089,74833,74703
 3.6000e+000 74729 -3.3055e+002 -5.5594e+002  2.1365e+001 63100 74961,74703,74654
 3.6000e+000 74859 -1.3739e+002 -3.7987e+002  5.5127e+001 63100 74602,74703,74833
 3.6000e+000 74987 -2.6398e+002 -4.0838e+002  5.2882e+000 63100 75089,74703,74961
 3.6000e+000 75115 -1.3048e+002 -4.1033e+002  4.1945e+001 63100 74628,74833,75089
 3.6000e+000 75138 -1.7274e+002 -3.9674e+002  1.0780e+001 63100 74628,75089,74961
 3.6000e+000 75723 -2.7939e+002 -3.7628e+002  2.7294e+001 62532 75746,75504,75426
 3.6000e+000 75700 -2.9061e+002 -3.0523e+002  3.4887e+001 62532 75746,75426,75556
 3.6000e+000 75677 -3.0726e+002 -2.7790e+002 -1.4777e+002 62532 75426,75504,75452
 3.6000e+000 75654 -2.6679e+002 -1.8956e+002 -9.8441e+001 62532 75400,75556,75426
 3.6000e+000 75631 -3.2891e+002 -3.8127e+002 -1.3997e+002 62532 75400,75582,75556
 3.6000e+000 75608 -1.3571e+002 -2.3166e+002 -1.7815e+002 62532 75452,75504,75478
 3.6000e+000 75772 -2.7378e+002 -4.4848e+002  9.6566e+000 62532 75530,75504,75746
 3.6000e+000 75795 -2.8378e+002 -3.6975e+002  9.0769e+000 62532 75530,75746,75556
 3.6000e+000 76301 -2.2480e+002 -4.6840e+002 -1.8961e+000 62192 76324,76082,76030
 3.6000e+000 76278 -1.9630e+002 -4.3493e+002  1.1908e+001 62192 76324,76030,76004
 3.6000e+000 76255 -1.7675e+002 -4.5974e+002  3.1320e+001 62192 76030,76082,76056
 3.6000e+000 76232 -2.8518e+002 -4.9844e+002 -5.5344e+001 62192 76082,76134,76108
 3.6000e+000 76209 -2.0243e+002 -3.7632e+002 -4.2744e+001 62192 76004,76160,76134
 3.6000e+000 76186 -1.3029e+002 -3.9686e+002 -1.5989e+001 62192 75978,76160,76004
 3.6000e+000 76350 -2.7250e+002 -4.2212e+002 -1.9677e+000 62192 76134,76082,76324
 3.6000e+000 76373 -2.3905e+002 -3.7649e+002  1.2912e+001 62192 76134,76324,76004
 3.6000e+000 76879 -2.9357e+002 -3.4807e+002 -5.3512e+001 61788 76902,76660,76582
 3.6000e+000 76856 -2.0461e+002 -3.6665e+002 -7.0305e+001 61788 76902,76582,76556
 3.6000e+000 76833 -3.0120e+002 -3.7062e+002 -2.0942e+001 61788 76582,76660,76634
 3.6000e+000 76810 -2.8380e+002 -3.6292e+002 -2.5521e+001 61788 76582,76634,76608
 3.6000e+000 76787 -2.6172e+002 -4.0362e+002 -2.0122e+001 61788 76556,76738,76686
 3.6000e+000 76764 -1.5024e+002 -3.3410e+002 -5.5074e+001 61788 76686,76738,76712
 3.6000e+000 76928 -3.3938e+002 -3.5868e+002 -4.3378e+001 61788 76686,76660,76902
 3.6000e+000 76951 -2.7112e+002 -3.9804e+002 -5.1794e+001 61788 76686,76902,76556
 3.6000e+000 77408 -2.9428e+002 -4.1228e+002 -6.7505e+000 61498 77212,77264,77238
 3.6000e+000 77385 -2.5945e+002 -3.4839e+002  1.4475e+001 61498 77160,77264,77212
 3.6000e+000 77362 -2.9787e+002 -3.6901e+002  6.1847e+000 61498 77160,77290,77264
 3.6000e+000 77339 -1.6702e+002 -4.2308e+002  2.5661e+001 61498 77160,77212,77186
 3.6000e+000 77316 -2.4506e+002 -3.5010e+002  1.2923e+002 61498 77134,77290,77160
 3.6000e+000 77678 -1.4203e+002 -2.7994e+002 -2.2064e+001 61129 77479,77557,77505
 3.6000e+000 77655 -1.9209e+002 -3.4666e+002  2.6805e-001 61129 77479,77583,77557
 3.6000e+000 77632 -1.6346e+002 -3.8359e+002  1.8016e+001 61129 77453,77583,77479
 3.6000e+000 77609 -4.9187e+001 -2.4191e+002 -1.2939e+001 61129 77505,77557,77531
 3.6000e+000 77828 -1.5704e+002 -4.0169e+002  2.0267e+001 60931 77851,77727,77701
 3.6000e+000 77805 -1.7043e+002 -4.2454e+002  3.1163e+001 60931 77851,77701,77779
 3.6000e+000 77877 -2.3925e+002 -5.1033e+002  8.0762e+001 60931 77923,77851,77753
 3.6000e+000 77900 -1.3241e+002 -4.5669e+002  3.7178e+001 60931 77753,77851,77779
 3.6000e+000 77949 -1.4014e+002 -3.1627e+002  4.0516e+001 60931 77727,77851,77923
 3.6000e+000 78133 -1.4389e+002 -3.3606e+002 -2.6409e+001 60377 78055,78107,78081
 3.6000e+000 78535 -5.0578e+002 -6.6990e+002 -3.3907e+001 60015 78287,78391,78313
 3.6000e+000 78512 -3.1861e+002 -6.8696e+002 -5.5418e+001 60015 78287,78417,78391
 3.6000e+000 78489 -3.5936e+002 -7.4649e+002 -1.0774e+002 60015 78261,78417,78287
 3.6000e+000 78466 -2.4660e+002 -6.0385e+002  6.3702e+001 60015 78339,78391,78365
 3.6000e+000 78443 -2.6289e+002 -5.4929e+002  1.8775e+001 60015 78313,78391,78339
 3.6000e+000 78913 -2.2029e+002 -3.9126e+002  7.0872e+000 59725 78936,78743,78691
 3.6000e+000 78890 -2.5745e+002 -4.3067e+002 -8.2951e+000 59725 79008,78936,78691
 3.6000e+000 78867 -2.5265e+002 -4.0536e+002 -2.7322e+001 59725 79008,78691,78665
 3.6000e+000 78844 -1.3003e+002 -3.8577e+002  6.0755e+001 59725 78691,78743,78717
 3.6000e+000 78821 -9.1608e+001 -3.2726e+002 -1.6256e+002 59725 78639,78795,78769
 3.6000e+000 78962 -1.7457e+002 -4.2613e+002 -2.3938e+001 59725 78769,78743,78936
 3.6000e+000 78985 -2.5161e+002 -5.2355e+002 -6.0956e+001 59725 78769,78936,78639
 3.6000e+000 79034 -2.1406e+002 -4.0921e+002 -2.2229e+001 59725 78639,78936,79008
 3.6000e+000 79057 -2.3331e+002 -4.0413e+002 -3.7793e+001 59725 78639,79008,78665
 3.6000e+000 79386 -2.3076e+002 -5.6772e+002  4.4579e+001 59221 79187,79239,79213
 3.6000e+000 79363 -1.8123e+002 -5.0759e+002  1.9788e+001 59221 79187,79265,79239
 3.6000e+000 79340 -2.5826e+002 -5.3403e+002  2.5839e+001 59221 79187,79291,79265
 3.6000e+000 79317 -1.7777e+002 -3.4305e+002  1.4146e+001 59221 79161,79291,79187
 3.6000e+000 79813 -1.3497e+002 -3.4506e+002 -2.2261e+001 58831 79836,79542,79516
 3.6000e+000 79790 -1.2514e+002 -3.4006e+002 -2.4127e+001 58831 79980,79836,79516
 3.6000e+000 79767 -2.0968e+002 -4.2631e+002 -8.9804e+001 58831 79908,79646,79568
 3.6000e+000 79744 -1.1974e+002 -3.2527e+002 -1.4250e+001 58831 79980,79516,79490
 3.6000e+000 79721 -2.6058e+002 -4.3389e+002 -8.4121e+001 58831 79568,79646,79594
 3.6000e+000 79698 -2.0010e+003 -1.3917e+003 -1.0157e+003 58831 79594,79646,79620
 3.6000e+000 79862 -1.0512e+002 -2.3321e+002  2.8637e+001 58831 79568,79542,79836
 3.6000e+000 79885 -8.6313e+001 -3.4055e+002  9.0441e+000 58831 79908,79568,79836
 3.6000e+000 79934 -2.9502e+002 -4.2328e+002 -1.6522e+002 58831 79672,79646,79908
 3.6000e+000 79957 -2.7176e+002 -3.9149e+002 -6.7565e+001 58831 79672,79908,79836
 3.6000e+000 80006 -1.2105e+002 -3.1863e+002 -2.1816e+001 58831 79672,79836,79980
 3.6000e+000 80029 -1.2700e+002 -3.1509e+002 -1.4377e+001 58831 79672,79980,79490
 3.6000e+000 80358 -1.7901e+002 -5.1586e+002  4.0488e+000 58377 80381,80185,80159
 3.6000e+000 80335 -1.8190e+002 -5.1372e+002  5.0139e+000 58377 80381,80159,80133
 3.6000e+000 80312 -1.1007e+002 -4.8239e+002 -4.3164e+000 58377 80133,80263,80237
 3.6000e+000 80289 -1.9904e+002 -5.8044e+002  3.7452e+001 58377 80185,80237,80211
 3.6000e+000 80407 -1.7551e+002 -5.1424e+002  3.0449e+000 58377 80237,80185,80381
 3.6000e+000 80430 -1.8002e+002 -5.1350e+002  4.3053e+000 58377 80237,80381,80133
 3.6000e+000 80759 -1.1367e+002 -4.7051e+002  1.1132e+002 57873 80782,80586,80560
 3.6000e+000 80736 -1.9894e+002 -5.6573e+002  7.2243e+001 57873 80782,80560,80534
 3.6000e+000 80713 -2.0303e+002 -5.9439e+002  5.2220e+001 57873 80586,80638,80612
 3.6000e+000 80690 -5.4536e+001 -5.4877e+002  5.3184e+001 57873 80534,80664,80638
 3.6000e+000 80808 -1.5731e+002 -5.5715e+002  7.0032e+001 57873 80638,80586,80782
 3.6000e+000 80831 -1.6555e+002 -5.8422e+002  5.0256e+001 57873 80638,80782,80534
 3.6000e+000 81337 -1.2826e+002 -3.4873e+002 -2.5019e+001 57262 81360,81144,81092
 3.6000e+000 81314 -1.4801e+002 -3.8601e+002 -7.6710e+000 57262 81360,81092,81066
 3.6000e+000 81291 -1.9968e+002 -4.4109e+002  6.3554e+000 57262 81014,81196,81066
 3.6000e+000 81268 -1.3421e+002 -2.4530e+002 -3.0024e+001 57262 81092,81144,81118
 3.6000e+000 81245 -1.7680e+002 -3.2110e+002  1.7478e+000 57262 81144,81196,81170
 3.6000e+000 81222 -1.9183e+002 -4.2453e+002  4.2336e+001 57262 81014,81066,81040
 3.6000e+000 81386 -1.6205e+002 -3.2099e+002  1.7443e+000 57262 81196,81144,81360
 3.6000e+000 81409 -1.7670e+002 -3.5769e+002  1.8943e+001 57262 81196,81360,81066
 3.6000e+000 81608 -1.1218e+002 -3.4862e+002  1.1186e+001 57007 81458,81536,81510
 3.6000e+000 81585 -1.2382e+002 -3.6389e+002  5.8799e+000 57007 81432,81536,81458
 3.6000e+000 81562 -2.7000e+002 -3.0568e+002  1.0890e+002 57007 81458,81510,81484
 3.6000e+000 82086 -3.8493e+002 -6.0733e+002 -2.6099e+001 56339 81792,81922,81818
 3.6000e+000 82063 -2.9212e+002 -6.3426e+002 -5.3842e+001 56339 81714,81922,81792
 3.6000e+000 82040 -3.4078e+002 -5.2732e+002 -5.5479e+001 56339 82109,81844,81818
 3.6000e+000 82017 -3.5815e+002 -5.5349e+002 -6.3665e+001 56339 82109,81818,81922
 3.6000e+000 81994 -2.6800e+002 -5.8828e+002 -7.4629e+001 56339 81844,81896,81870
 3.6000e+000 81971 -2.9692e+002 -5.9285e+002 -3.1381e+002 56339 81714,81792,81766
 3.6000e+000 81948 -1.1023e+003 -8.8630e+002 -6.3985e+002 56339 81714,81766,81740
 3.6000e+000 82135 -2.9242e+002 -5.5282e+002 -3.8119e+001 56339 81896,81844,82109
 3.6000e+000 82158 -3.3019e+002 -6.0414e+002 -5.5009e+001 56339 81896,82109,81922
 3.6000e+000 82536 -2.4694e+002 -5.3768e+002 -2.1003e+001 55699 82288,82392,82314
 3.6000e+000 82513 -2.5854e+002 -5.4172e+002 -1.7913e+001 55699 82288,82418,82392
 3.6000e+000 82490 -3.0030e+002 -6.6580e+002 -4.4016e+001 55699 82314,82392,82340
 3.6000e+000 82467 -1.2300e+002 -8.1621e+002 -9.4393e+001 55699 82340,82392,82366
 3.6000e+000 82444 -2.3039e+002 -5.6203e+002 -1.8157e+001 55699 82262,82418,82288
 3.6000e+000 83091 -3.4628e+002 -4.2106e+002  8.4361e+001 55409 82745,82901,82875
 3.6000e+000 83068 -2.8794e+002 -3.7168e+002  1.0797e+002 55409 82719,82901,82745
 3.6000e+000 83045 -2.5864e+002 -4.4973e+002  6.2462e+001 55409 82771,82849,82823
 3.6000e+000 83022 -4.1956e+002 -4.8308e+002  1.3966e+002 55409 82745,82849,82771
 3.6000e+000 82999 -2.2551e+002 -3.6927e+002  8.0038e+001 55409 82745,82875,82849
 3.6000e+000 82976 -4.6718e+002 -3.7641e+002  8.4179e+001 55409 82771,82823,82797
 3.6000e+000 82953 -1.8085e+002 -2.9674e+002  7.2479e+001 55409 82719,82927,82901
 3.6000e+000 83388 -2.3913e+002 -6.2859e+002 -1.9573e+001 54905 83411,83218,83166
 3.6000e+000 83365 -1.5452e+002 -6.1738e+002 -2.0990e+001 54905 83411,83166,83114
 3.6000e+000 83342 -3.1056e+002 -6.4021e+002 -4.3491e+001 54905 83483,83270,83244
 3.6000e+000 83319 -2.7575e+002 -6.0125e+002 -4.2802e+001 54905 83166,83218,83192
 3.6000e+000 83296 -1.5140e+002 -6.4992e+002  1.9487e+001 54905 83114,83166,83140
 3.6000e+000 83437 -2.6044e+002 -6.2105e+002  1.5821e+000 54905 83244,83218,83411
 3.6000e+000 83460 -2.5265e+002 -6.3641e+002 -2.2608e+001 54905 83483,83244,83411
 3.6000e+000 83509 -2.3454e+002 -5.9030e+002 -1.9323e+001 54905 83114,83270,83483
 3.6000e+000 83532 -2.1783e+002 -6.1039e+002 -1.7668e+000 54905 83114,83483,83411
 3.6000e+000 83961 -1.3283e+002 -4.0434e+002 -1.8674e-001 54593 83638,83768,83690
 3.6000e+000 83938 -3.7840e+001 -3.5618e+002 -2.3941e+001 54593 83638,83794,83768
 3.6000e+000 83915 -1.1104e+002 -3.8517e+002  9.3637e+000 54593 83690,83768,83742
 3.6000e+000 83892 -1.3656e+002 -3.6120e+002 -5.7731e+001 54593 83638,83820,83794
 3.6000e+000 83869 -1.1581e+002 -3.8491e+002  1.5264e+001 54593 83638,83690,83664
 3.6000e+000 83846 -8.0172e+001 -2.6820e+002 -9.4627e+001 54593 83690,83742,83716
 3.6000e+000 84209 -2.3134e+002 -7.3921e+002  6.7529e+001 54132 84232,84062,83984
 3.6000e+000 84186 -2.2025e+002 -6.2670e+002  3.7317e+001 54132 84232,83984,84114
 3.6000e+000 84163 -2.5964e+002 -7.9688e+002  5.6187e+000 54132 83984,84062,84036
 3.6000e+000 84140 -2.9807e+002 -7.5632e+002 -2.0867e+001 54132 83984,84036,84010
 3.6000e+000 84258 -1.6283e+002 -8.6550e+002  4.6811e+001 54132 84088,84062,84232
 3.6000e+000 84281 -1.3727e+002 -7.4319e+002 -3.9477e+000 54132 84088,84232,84114
 3.6000e+000 84382 -6.6874e+001 -3.1393e+002 -7.5807e+000 53521 84304,84356,84330
 3.6000e+000 84632 -2.1812e+002 -5.7059e+002  3.2441e+000 53067 84655,84485,84459
 3.6000e+000 84609 -2.2834e+002 -5.7598e+002 -2.7433e-001 53067 84655,84459,84407
 3.6000e+000 84586 -1.9052e+002 -5.3051e+002  1.9028e+000 53067 84485,84537,84511
 3.6000e+000 84563 -2.4900e+002 -6.4383e+002 -3.0812e+001 53067 84407,84459,84433
 3.6000e+000 84681 -2.0999e+002 -5.7841e+002  4.6741e+000 53067 84537,84485,84655
 3.6000e+000 84704 -2.1565e+002 -5.8087e+002  1.1138e+000 53067 84537,84655,84407
 3.6000e+000 85214 -1.3019e+002 -4.9846e+002 -4.7321e+001 52513 85021,85073,85047
 3.6000e+000 85191 -1.2723e+002 -3.4814e+002 -7.8173e+001 52513 84943,85073,85021
 3.6000e+000 85168 -7.1207e+001 -3.0941e+002 -1.7810e+001 52513 84943,85021,84995
 3.6000e+000 85145 -2.0634e+002 -5.7144e+002 -4.7104e+001 52513 84917,85073,84943
 3.6000e+000 85122 -8.0445e+001 -2.4197e+002 -3.8116e+001 52513 84943,84995,84969
 3.6000e+000 85099 -2.0352e+002 -6.0360e+002 -5.6719e+001 52513 84891,85073,84917
 3.6000e+000 85582 -2.1032e+002 -5.7696e+002  5.7178e+001 52037 85605,85311,85285
 3.6000e+000 85559 -2.2016e+002 -6.1409e+002  5.4657e+001 52037 85749,85605,85285
 3.6000e+000 85536 -8.3705e+001 -5.4949e+002  5.8206e+000 52037 85893,85677,85389
 3.6000e+000 85513 -1.5919e+002 -5.7084e+002  3.5752e+001 52037 85749,85285,85259
 3.6000e+000 85490  2.2994e+000 -5.1616e+002 -2.6297e+001 52037 85893,85389,85363
 3.6000e+000 85467 -1.2948e+002 -6.0596e+002 -2.9144e+001 52037 85259,85441,85415
 3.6000e+000 85631 -3.0991e+002 -6.4177e+002  2.1926e+001 52037 85337,85311,85605
 3.6000e+000 85654 -2.2510e+002 -6.0901e+002  9.2062e+001 52037 85677,85337,85605
 3.6000e+000 85703 -6.0869e+001 -6.0369e+002  3.1446e+001 52037 85415,85389,85677
 3.6000e+000 85726 -8.0502e+001 -5.8977e+002  7.4281e+001 52037 85821,85677,85605
 3.6000e+000 85775 -1.3737e+002 -6.1349e+002  7.3916e+001 52037 85821,85605,85749
 3.6000e+000 85798 -1.7615e+002 -6.2441e+002  2.9165e+001 52037 85415,85749,85259
 3.6000e+000 85847 -9.3759e+001 -6.0159e+002  2.8596e+001 52037 85415,85677,85821
 3.6000e+000 85870 -1.1487e+002 -6.0964e+002  2.9811e+001 52037 85415,85821,85749
 3.6000e+000 85919 -7.3259e+001 -5.8908e+002  9.8559e+001 52037 85337,85677,85893
 3.6000e+000 85942 -3.8101e+001 -5.8124e+002  6.8485e+001 52037 85337,85893,85363
 3.6000e+000 86224 -7.3437e+001 -2.1910e+002  1.5855e+001 51368 86375,86100,86074
 3.6000e+000 86201 -1.7356e+002 -2.6833e+002  1.8382e-001 51368 86375,86074,86247
 3.6000e+000 86178 -6.5662e+001 -3.9501e+002 -8.2314e+001 51368 86048,86152,86126
 3.6000e+000 86273 -1.1322e+002 -3.2409e+002 -7.7081e+001 51368 86048,86126,86247
 3.6000e+000 86401 -1.6644e+001 -2.8631e+002 -3.5812e+001 51368 86126,86100,86375
 3.6000e+000 86424 -6.6579e+001 -3.1215e+002 -4.6137e+001 51368 86126,86375,86247
 3.6000e+000 86802 -2.5029e+002 -5.1608e+002  2.1781e+000 51028 86528,86632,86580
 3.6000e+000 86779 -2.7365e+002 -6.0820e+002  2.6988e+001 51028 86528,86684,86632
 3.6000e+000 86756 -3.1473e+002 -6.6382e+002 -1.1032e+001 51028 86528,86580,86554
 3.6000e+000 86733 -1.9030e+002 -5.8874e+002  1.1797e+002 51028 86632,86684,86658
 3.6000e+000 86710 -2.7242e+002 -5.9229e+002 -6.3217e+001 51028 86580,86632,86606
 3.6000e+000 87131 -2.1816e+002 -4.7363e+002  8.6939e+001 50624 86958,87036,87010
 3.6000e+000 87108 -2.8292e+002 -4.2235e+002  7.1426e+001 50624 86932,87036,86958
 3.6000e+000 87085 -2.1237e+002 -4.6576e+002  4.8905e+001 50624 86958,87010,86984
 3.6000e+000 87062 -2.0976e+002 -3.8373e+002  8.7378e+001 50624 86906,87036,86932
 3.6000e+000 87330 -3.6932e+002 -5.7301e+002 -2.3122e+001 50234 87353,87180,87154
 3.6000e+000 87307 -3.1491e+002 -5.7162e+002 -2.0243e+001 50234 87353,87154,87258
 3.6000e+000 87284 -2.2451e+002 -5.4198e+002 -1.3882e+001 50234 87206,87258,87232
 3.6000e+000 87379 -3.2381e+002 -6.0260e+002  7.4388e+000 50234 87206,87180,87353
 3.6000e+000 87402 -2.4495e+002 -5.8702e+002 -6.1517e-001 50234 87206,87353,87258
 3.6000e+000 87650 -2.6369e+002 -5.7866e+002 -4.0001e+001 49730 87673,87503,87451
 3.6000e+000 87627 -1.7713e+002 -5.4183e+002 -4.0057e+001 49730 87673,87451,87425
 3.6000e+000 87604 -1.7409e+002 -4.5126e+002  3.6274e+001 49730 87503,87555,87529
 3.6000e+000 87581 -3.1369e+002 -4.6282e+002 -5.3216e+001 49730 87451,87503,87477
 3.6000e+000 87699 -2.7352e+002 -5.5571e+002 -1.7766e+001 49730 87555,87503,87673
 3.6000e+000 87722 -2.5515e+002 -5.5588e+002 -1.9442e+001 49730 87555,87673,87425
 3.6000e+000 88232 -2.2866e+002 -5.5170e+002  3.7666e+001 49176 88255,87935,87909
 3.6000e+000 88209 -3.0125e+002 -6.2070e+002  1.1421e+002 49176 88255,87909,88065
 3.6000e+000 88186 -2.6424e+002 -5.0831e+002  7.7961e+001 49176 87935,88039,87961
 3.6000e+000 88163 -2.6034e+002 -5.4895e+002  8.3227e+001 49176 87909,88091,88065
 3.6000e+000 88140 -3.4746e+002 -5.4527e+002  6.8141e+001 49176 87961,88039,88013
 3.6000e+000 88117 -2.9846e+002 -6.4406e+002 -2.3757e+001 49176 87961,88013,87987
 3.6000e+000 88281 -3.0806e+002 -5.8068e+002  1.0878e+002 49176 88039,87935,88255
 3.6000e+000 88304 -3.8077e+002 -6.4545e+002  1.8481e+002 49176 88039,88255,88065
 3.6000e+000 88503 -8.3242e+001 -3.7260e+002 -4.4457e+000 48772 88526,88379,88353
 3.6000e+000 88480 -1.0497e+002 -3.1639e+002  6.0585e+000 48772 88526,88353,88327
 3.6000e+000 88457 -1.0872e+002 -4.3989e+002 -5.5784e+000 48772 88379,88431,88405
 3.6000e+000 88552 -6.7071e+001 -3.2833e+002 -1.2461e+001 48772 88431,88379,88526
 3.6000e+000 88575 -9.8716e+001 -2.9007e+002 -6.8986e+000 48772 88431,88526,88327
 3.6000e+000 89083 -9.5296e+001 -2.1939e+002 -6.4393e+001 48368 88786,88916,88864
 3.6000e+000 89060 -8.7920e+001 -2.6748e+002 -2.6403e+001 48368 88786,88942,88916
 3.6000e+000 89037 -1.3746e+002 -1.8060e+002 -3.2128e+000 48368 88786,88864,88812
 3.6000e+000 89014 -1.4568e+002 -3.0231e+002 -9.2208e+001 48368 88864,88916,88890
 3.6000e+000 88991 -3.4468e+001 -2.4671e+002  6.1017e+001 48368 88812,88864,88838
 3.6000e+000 88968 -1.5459e+001 -2.1770e+002  5.0927e+000 48368 88760,88942,88786
 3.6000e+000 89331 -1.3434e+002 -4.8565e+002  1.5639e+001 47928 89158,89236,89210
 3.6000e+000 89308 -1.0605e+002 -3.8855e+002  2.9289e+001 47928 89132,89236,89158
 3.6000e+000 89285 -2.0444e+002 -3.2035e+002  2.7315e+000 47928 89158,89210,89184
 3.6000e+000 89262 -1.7466e+002 -3.3580e+002  3.0824e+001 47928 89106,89236,89132
 3.6000e+000 89662 -2.7687e+002 -5.7559e+002 -1.6803e+001 47588 89463,89541,89515
 3.6000e+000 89639 -2.0492e+002 -4.6509e+002 -4.8914e+001 47588 89463,89567,89541
 3.6000e+000 89616 -2.3590e+002 -5.5474e+002  2.3097e+001 47588 89463,89515,89489
 3.6000e+000 89593 -2.5872e+002 -4.7287e+002 -5.5432e+001 47588 89437,89567,89463
 3.6000e+000 89763  8.9004e-001 -4.1208e+001  6.9888e+000 47390 89685,89737,89711
 3.6000e+000 89913 -2.5680e+001 -2.3886e+002 -1.2149e+001 47078 89786,89838,89812
 3.6000e+000 89890 -7.3676e+001 -3.4487e+002  2.5194e+001 47078 89786,89864,89838
 3.6000e+000 90163 -2.5015e+002 -5.1059e+002  1.4436e+001 46474 89964,90042,89990
 3.6000e+000 90140 -2.0182e+002 -4.9161e+002  2.2991e+001 46474 89938,90042,89964
 3.6000e+000 90117 -2.6966e+002 -4.7140e+002  2.0687e+001 46474 89990,90042,90016
 3.6000e+000 90094 -2.6366e+002 -4.8599e+002  3.3934e+001 46474 89938,90068,90042
 3.6000e+000 90364 -2.2568e+002 -4.8322e+002  6.4335e+001 46184 90240,90292,90266
 3.6000e+000 90341 -2.7190e+002 -4.5519e+002  8.2297e+001 46184 90188,90292,90240
 3.6000e+000 90318 -2.3164e+002 -4.9610e+002  9.7365e+001 46184 90188,90240,90214
 3.6000e+000 90565 -2.3046e+002 -3.9477e+002 -2.1613e+001 45780 90588,90415,90389
 3.6000e+000 90542 -2.0096e+002 -3.9741e+002 -1.6348e+001 45780 90588,90389,90493
 3.6000e+000 90519 -2.2535e+002 -4.2234e+002 -1.1693e+001 45780 90415,90467,90441
 3.6000e+000 90614 -2.0875e+002 -4.0193e+002 -3.0624e+000 45780 90467,90415,90588
 3.6000e+000 90637 -1.6953e+002 -3.9096e+002  6.8608e+000 45780 90467,90588,90493
 3.6000e+000 91196 -3.1338e+002 -5.7747e+002 -4.4994e+001 45226 91219,90876,90850
 3.6000e+000 91173 -1.8381e+002 -5.4943e+002  2.2795e+001 45226 91219,90850,91032
 3.6000e+000 91150 -1.5249e+002 -6.3236e+002 -5.3352e+001 45226 90824,91032,90850
 3.6000e+000 91127 -2.2732e+002 -4.2855e+002  9.0492e+000 45226 90876,90980,90902
 3.6000e+000 91104 -1.4401e+002 -4.4236e+002  5.7182e+001 45226 90876,91006,90980
 3.6000e+000 91081 -2.0071e+002 -4.4591e+002 -2.1025e+001 45226 90902,90980,90954
 3.6000e+000 91058 -1.1899e+002 -3.7635e+002 -6.2175e+001 45226 90902,90954,90928
 3.6000e+000 91245 -1.9443e+002 -5.2418e+002 -4.2480e+000 45226 91006,90876,91219
 3.6000e+000 91268 -7.8422e+001 -5.1991e+002  5.3999e+001 45226 91006,91219,91032
 3.6000e+000 91516 -5.8004e+001 -5.7584e+002  5.2889e+001 44836 91539,91421,91395
 3.6000e+000 91493 -6.9914e+001 -5.7289e+002  8.4583e-001 44836 91317,91421,91343
 3.6000e+000 91470 -1.5631e+002 -5.6850e+002  4.2275e+001 44836 91539,91395,91369
 3.6000e+000 91447 -1.2117e+002 -4.0204e+002  1.0583e+002 44836 91291,91421,91317
 3.6000e+000 91565 -1.0384e+002 -5.7743e+002 -6.3432e-001 44836 91343,91421,91539
 3.6000e+000 91588 -1.7558e+002 -5.8578e+002 -2.7774e+001 44836 91343,91539,91369
 3.6000e+000 91787 -1.7146e+002 -4.2103e+002  2.7248e+001 44432 91810,91637,91611
 3.6000e+000 91764 -1.9579e+002 -4.6434e+002  4.1202e+001 44432 91810,91611,91715
 3.6000e+000 91741 -8.6676e+001 -3.5399e+002 -2.4607e+001 44432 91637,91689,91663
 3.6000e+000 91836 -1.9780e+002 -3.9876e+002  2.6227e+001 44432 91689,91637,91810
 3.6000e+000 91859 -2.0004e+002 -4.1940e+002  3.2917e+001 44432 91689,91810,91715
 3.6000e+000 92207 -2.6680e+002 -5.3003e+002  5.2470e+001 43864 92230,91936,91910
 3.6000e+000 92184 -3.1248e+002 -5.5485e+002  6.7016e+001 43864 92230,91910,92040
 3.6000e+000 92161 -3.5805e+002 -5.6638e+002  1.1981e+002 43864 91884,92040,91910
 3.6000e+000 92138 -2.2798e+002 -4.4382e+002  1.4130e+001 43864 91936,92014,91988
 3.6000e+000 92115 -1.9129e+002 -5.7430e+002  1.1058e+002 43864 91936,91988,91962
 3.6000e+000 92092 -2.7467e+002 -4.6012e+002  8.1719e+001 43864 91884,92066,92040
 3.6000e+000 92256 -3.1780e+002 -4.8860e+002  5.1087e+001 43864 92014,91936,92230
 3.6000e+000 92279 -3.6101e+002 -5.1923e+002  7.1397e+001 43864 92014,92230,92040
 3.6000e+000 92529 -2.5633e+002 -5.0226e+002  3.2505e+001 43410 92552,92330,92304
 3.6000e+000 92506 -2.5190e+002 -4.9312e+002  4.6643e-001 43410 92552,92304,92408
 3.6000e+000 92483 -2.7252e+002 -4.9485e+002  8.2737e+000 43410 92304,92434,92408
 3.6000e+000 92460 -1.5876e+002 -4.1911e+002 -1.2018e+001 43410 92330,92382,92356
 3.6000e+000 92578 -2.3581e+002 -4.9241e+002  1.9234e+001 43410 92382,92330,92552
 3.6000e+000 92601 -2.0837e+002 -4.6287e+002 -1.6654e+001 43410 92382,92552,92408
 3.6000e+000 92802 -1.0939e+002 -5.3295e+002  5.3468e+001 43162 92825,92704,92652
 3.6000e+000 92779 -7.4299e+001 -4.9915e+002  1.0324e+002 43162 92825,92652,92626
 3.6000e+000 92756 -4.9122e+001 -5.1816e+002  6.3192e+001 43162 92652,92704,92678
 3.6000e+000 92851 -1.8502e+002 -5.3752e+002 -6.9039e+000 43162 92730,92704,92825
 3.6000e+000 92874 -1.7675e+002 -3.5278e+002  6.9056e+001 43162 92730,92825,92626
 3.6000e+000 93463 -1.5962e+002 -3.8575e+002 -7.2506e+001 42758 93140,93270,93166
 3.6000e+000 93440 -2.0492e+002 -4.4328e+002 -4.7008e+001 42758 93140,93296,93270
 3.6000e+000 93417 -1.4604e+002 -4.0678e+002 -5.4195e+001 42758 93166,93270,93218
 3.6000e+000 93394 -1.0204e+002 -4.0666e+002 -6.3691e+001 42758 93218,93270,93244
 3.6000e+000 93371 -6.0411e+001 -4.9056e+002 -4.7679e+001 42758 93140,93322,93296
 3.6000e+000 93348 -1.9360e+002 -4.9081e+002  1.8170e+001 42758 93166,93218,93192
 3.6000e+000 93920 -1.5998e+002 -4.3404e+002 -1.1246e+001 42304 93943,93672,93646
 3.6000e+000 93897 -1.5575e+002 -4.0591e+002 -3.8805e+000 42304 93943,93646,93802
 3.6000e+000 93874 -1.4817e+002 -4.2925e+002  2.4672e+001 42304 93724,93802,93776
 3.6000e+000 93851 -2.0710e+002 -5.0217e+002  1.7311e+001 42304 93672,93724,93698
 3.6000e+000 93828 -2.5195e+002 -4.9640e+002 -1.4505e+001 42304 93724,93776,93750
 3.6000e+000 93969 -1.5920e+002 -4.4427e+002 -1.8830e+001 42304 93724,93672,93943
 3.6000e+000 93992 -1.6588e+002 -4.3081e+002 -1.2238e+001 42304 93724,93943,93802
 3.6000e+000 94321 -1.8189e+002 -4.8087e+002  1.0545e+001 41478 94096,94148,94122
 3.6000e+000 94298 -2.0554e+002 -5.0642e+002  2.3833e+001 41478 94096,94226,94148
 3.6000e+000 94275 -2.6041e+002 -6.5765e+002 -1.3665e+001 41478 94148,94226,94174
 3.6000e+000 94252 -1.0616e+002 -5.4176e+002 -1.4554e+002 41478 94174,94226,94200
 3.6000e+000 94618 -1.7769e+002 -5.8887e+002 -4.5334e+000 40910 94344,94422,94396
 3.6000e+000 94595 -2.4654e+002 -5.7506e+002 -2.0960e+001 40910 94344,94448,94422
 3.6000e+000 94572 -2.1606e+002 -4.9946e+002 -4.0286e+000 40910 94344,94474,94448
 3.6000e+000 94549 -1.5016e+002 -6.1391e+002 -2.6384e+001 40910 94344,94396,94370
 3.6000e+000 94526 -3.2927e+002 -6.4015e+002  4.5283e+001 40910 94344,94500,94474
 3.6000e+000 94866 -1.9541e+002 -3.9941e+002 -5.3618e+001 40306 94667,94719,94693
 3.6000e+000 94843 -2.5651e+002 -4.4555e+002 -3.3467e+001 40306 94641,94719,94667
 3.6000e+000 94820 -2.9425e+002 -4.5312e+002  5.9309e-001 40306 94641,94745,94719
 3.6000e+000 94797 -2.2294e+002 -4.1104e+002 -1.8371e+001 40306 94641,94771,94745
 3.6000e+000 95089 -2.9043e+001 -4.0654e+002  4.0891e+001 39702 94913,94991,94939
 3.6000e+000 95066 -3.4559e+001 -3.5842e+002  8.5553e+000 39702 94913,95017,94991
 3.6000e+000 95043  7.2412e-002 -3.9866e+002  4.4539e+000 39702 94939,94991,94965
 3.6000e+000 95339 -1.8270e+002 -4.1950e+002 -5.4290e+001 39248 95140,95218,95166
 3.6000e+000 95316 -2.4227e+002 -4.5897e+002 -3.2051e+001 39248 95140,95244,95218
 3.6000e+000 95293 -1.4836e+002 -4.8947e+002 -5.9736e+001 39248 95114,95244,95140
 3.6000e+000 95270 -1.5764e+002 -4.5583e+002 -9.1012e+001 39248 95166,95218,95192
 3.6000e+000 95770 -1.9645e+002 -3.8027e+002  2.0324e+001 38694 95551,95629,95577
 3.6000e+000 95747 -1.4294e+002 -4.6252e+002  2.0082e+001 38694 95447,95629,95551
 3.6000e+000 95724 -1.1037e+002 -4.0496e+002 -1.8532e+001 38694 95447,95551,95473
 3.6000e+000 95701 -7.5835e+001 -3.9038e+002 -2.8701e+001 38694 95473,95551,95499
 3.6000e+000 95678 -6.8103e+001 -3.6521e+002 -7.4742e+001 38694 95499,95551,95525
 3.6000e+000 95655 -1.9853e+002 -4.0698e+002  4.5040e+001 38694 95577,95629,95603
 3.6000e+000 96325 -2.5041e+002 -5.5431e+002  2.0249e+001 38240 95953,96031,96005
 3.6000e+000 96302 -2.4203e+002 -3.0741e+002  1.0185e+002 38240 95953,96161,96031
 3.6000e+000 96279 -1.6757e+002 -2.9646e+002 -1.6100e+001 38240 96031,96161,96135
 3.6000e+000 96256 -1.8954e+002 -4.0281e+002  6.8844e+001 38240 96348,96109,96057
 3.6000e+000 96233 -1.6697e+002 -3.6369e+002  5.1704e+001 38240 96348,96057,96031
 3.6000e+000 96210 -1.4508e+002 -4.0984e+002  1.0057e+002 38240 96057,96109,96083
 3.6000e+000 96187 -2.8731e+002 -3.1587e+002 -1.3443e+001 38240 95953,96005,95979
 3.6000e+000 96374 -1.5321e+002 -4.6755e+002  4.2020e+001 38240 96135,96109,96348
 3.6000e+000 96397 -1.1534e+002 -4.0100e+002  1.9672e+001 38240 96135,96348,96031
 3.6000e+000 96618 -1.7761e+002 -5.2781e+002  1.8803e+000 37821 96494,96546,96520
 3.6000e+000 96595 -6.7580e+001 -4.5890e+002  3.1481e+001 37821 96468,96546,96494
 3.6000e+000 96572 -1.2890e+001 -4.3542e+002  2.7233e+001 37821 96442,96546,96468
 3.6000e+000 97126 -1.4155e+002 -3.4653e+002 -3.4257e+001 37367 97149,96855,96829
 3.6000e+000 97103 -1.6050e+002 -3.5543e+002 -3.0248e+001 37367 97149,96829,96985
 3.6000e+000 97080 -1.3349e+002 -3.7010e+002 -3.7646e+001 37367 96803,96985,96829
 3.6000e+000 97057 -1.0009e+002 -3.2464e+002 -4.4963e+001 37367 96855,96907,96881
 3.6000e+000 97034 -2.1120e+002 -3.2749e+002 -1.3161e+001 37367 96907,96985,96959
 3.6000e+000 97011 -2.4407e+002 -3.2394e+002 -3.9438e+001 37367 96907,96959,96933
 3.6000e+000 97175 -1.5902e+002 -3.3759e+002 -4.3733e+001 37367 96907,96855,97149
 3.6000e+000 97198 -1.7280e+002 -3.4492e+002 -4.0235e+001 37367 96907,97149,96985
 3.6000e+000 97704 -1.9017e+002 -4.3958e+002  5.4506e+001 36863 97727,97511,97485
 3.6000e+000 97681 -1.7958e+002 -3.8885e+002  7.3255e+001 36863 97727,97485,97433
 3.6000e+000 97658 -2.5306e+002 -4.7742e+002  6.7875e+000 36863 97381,97563,97433
 3.6000e+000 97635 -1.2208e+002 -4.1318e+002 -1.1214e+001 36863 97511,97563,97537
 3.6000e+000 97612 -8.8437e+001 -2.5956e+002  6.1815e+000 36863 97433,97485,97459
 3.6000e+000 97589 -2.9919e+002 -4.9052e+002  4.2938e+001 36863 97381,97433,97407
 3.6000e+000 97753 -1.9133e+002 -4.8065e+002  2.9787e+001 36863 97563,97511,97727
 3.6000e+000 97776 -1.8787e+002 -4.3451e+002  4.6195e+001 36863 97563,97727,97433
 3.6000e+000 98331 -2.6564e+002 -6.1490e+002  2.4841e+000 36287 98354,98089,98063
 3.6000e+000 98308 -2.4034e+002 -6.1451e+002  3.9845e+001 36287 98354,98063,98011
 3.6000e+000 98285 -3.2224e+002 -5.5573e+002  8.5261e+001 36287 98426,97985,98115
 3.6000e+000 98262 -2.2984e+002 -6.3760e+002  3.4021e+001 36287 98011,98063,98037
 3.6000e+000 98239 -3.2077e+002 -4.8843e+002  3.4491e+001 36287 97985,98141,98115
 3.6000e+000 98216 -2.9022e+002 -4.2976e+002  6.8921e+001 36287 97959,98141,97985
 3.6000e+000 98193 -2.3892e+002 -6.4258e+002  1.4037e+002 36287 97959,98167,98141
 3.6000e+000 98380 -2.6753e+002 -5.9698e+002 -1.0135e+001 36287 98115,98089,98354
 3.6000e+000 98403 -2.4677e+002 -5.5143e+002  5.2584e+000 36287 98426,98115,98354
 3.6000e+000 98452 -4.0997e+002 -6.4928e+002  1.3608e+002 36287 98011,97985,98426
 3.6000e+000 98475 -3.4834e+002 -6.7125e+002  6.0827e+001 36287 98011,98426,98354
 3.6000e+000 99030 -2.3106e+002 -6.5975e+002 -5.0925e+001 35726 99053,98736,98710
 3.6000e+000 99007 -1.5006e+002 -5.3914e+002  5.1671e+000 35726 99053,98710,98684
 3.6000e+000 98984 -2.5740e+002 -5.2657e+002 -5.2819e+001 35726 99125,98814,98736
 3.6000e+000 98961 -2.0712e+002 -4.5354e+002 -2.2102e+001 35726 98736,98814,98788
 3.6000e+000 98938 -2.1783e+002 -4.6790e+002  4.2183e+001 35726 98684,98866,98840
 3.6000e+000 98915 -1.7887e+002 -4.4451e+002 -1.3375e+001 35726 98736,98788,98762
 3.6000e+000 98892 -1.4603e+002 -4.6318e+002  3.8885e+001 35726 98658,98866,98684
 3.6000e+000 99079 -1.9180e+002 -5.2765e+002 -1.5204e+001 35726 99125,98736,99053
 3.6000e+000 99102 -2.3114e+002 -4.6258e+002  9.0542e+000 35726 98840,99053,98684
 3.6000e+000 99151 -3.1735e+002 -5.5540e+002 -7.2499e+001 35726 98840,98814,99125
 3.6000e+000 99174 -2.8140e+002 -5.5989e+002 -2.6519e+001 35726 98840,99125,99053
 3.6000e+000 99454 -8.3700e+001 -3.4279e+002 -2.5038e+001 35222 99278,99330,99304
 3.6000e+000 99431 -1.1008e+002 -3.2423e+002  1.4345e+001 35222 99278,99382,99330
 3.6000e+000 99408 -1.8551e+002 -3.9664e+002 -1.5820e+001 35222 99330,99382,99356
 3.6000e+000 99653 -2.8729e+001 -5.1016e+002 -2.5530e+001 34867 99477,99529,99503
 3.6000e+000 99630 -1.3112e+002 -3.5093e+002 -5.6134e+001 34867 99477,99581,99529
 3.6000e+000 99607 -1.5938e+002 -6.0358e+002 -1.6654e+002 34867 99529,99581,99555
 3.6000e+000 100104 -1.1766e+002 -4.8790e+002 -1.2837e+001 34363 99781,99885,99807
 3.6000e+000 100081 -1.8535e+002 -5.2671e+002  1.6142e+001 34363 99781,99963,99885
 3.6000e+000 100058 -6.7134e+001 -4.6668e+002 -1.4854e+001 34363 99885,99963,99911
 3.6000e+000 100035 -8.4873e+001 -4.0887e+002  9.5910e+000 34363 99807,99885,99859
 3.6000e+000 100012 -3.5564e+001 -4.4496e+002 -6.0973e+001 34363 99911,99963,99937
 3.6000e+000 99989 -9.8740e+000 -3.6948e+002  3.5812e+001 34363 99807,99859,99833
 3.6000e+000 100303 -2.0582e+002 -3.8423e+002 -1.0514e+002 33909 100127,100205,100179
 3.6000e+000 100280 -3.1151e+002 -4.3014e+002 -9.1698e+001 33909 100127,100231,100205
 3.6000e+000 100257 -2.4889e+002 -4.5785e+002 -6.3860e+001 33909 100127,100179,100153
 3.6000e+000 100890 -1.0714e+002 -4.1220e+002 -6.0056e+001 33412 100645,100749,100697
 3.6000e+000 100867 -1.1084e+002 -4.9932e+002 -4.3699e+001 33412 100567,100749,100645
 3.6000e+000 100844 -1.0804e+002 -5.0375e+002 -4.7886e+001 33412 100567,100645,100619
 3.6000e+000 100821 -1.2383e+002 -4.8338e+002 -1.0198e+002 33412 100645,100697,100671
 3.6000e+000 100798 -1.3983e+002 -6.6459e+002 -1.7645e+001 33412 100567,100619,100593
 3.6000e+000 100775 -2.2769e+002 -4.0808e+002 -2.4550e+001 33412 100697,100749,100723
 3.6000e+000 101268 -9.9401e+001 -5.5336e+002 -3.4454e+000 32908 101435,101291,101098
 3.6000e+000 101245 -1.8830e+002 -5.5076e+002  3.3645e+001 32908 101291,101072,101020
 3.6000e+000 101222 -1.8138e+002 -5.8368e+002 -9.0049e+001 32908 101363,101150,101124
 3.6000e+000 101199 -2.2215e+002 -5.8910e+002  9.5306e+001 32908 101020,101072,101046
 3.6000e+000 101176 -9.7549e+001 -4.1902e+002 -2.5845e+001 32908 100994,101150,101020
 3.6000e+000 101317 -1.3599e+002 -5.9282e+002  1.4780e+001 32908 101124,101098,101291
 3.6000e+000 101340 -1.4766e+002 -6.3271e+002 -7.7133e+000 32908 101363,101124,101291
 3.6000e+000 101389 -1.3226e+002 -4.9771e+002 -6.9027e+001 32908 101020,101150,101363
 3.6000e+000 101412 -9.0720e+001 -5.0546e+002  1.1018e+001 32908 101020,101363,101291
 3.6000e+000 101461 -8.3947e+001 -4.9468e+002  6.1902e+001 32908 101072,101291,101435
 3.6000e+000 101918 -1.3659e+002 -5.7580e+002 -5.5178e+001 32618 101941,101670,101644
 3.6000e+000 101895 -4.3996e+001 -5.7256e+002  8.4546e+000 32618 101941,101644,101774
 3.6000e+000 101872 -2.2551e+002 -5.0213e+002 -9.0772e+000 32618 102013,101696,101670
 3.6000e+000 101849 -4.4166e+001 -3.8042e+002 -6.9877e+001 32618 101696,101748,101722
 3.6000e+000 101826 -2.9024e+001 -5.4803e+002  1.9714e+000 32618 101644,101800,101774
 3.6000e+000 101967 -2.2259e+002 -5.7553e+002 -4.9176e+001 32618 102013,101670,101941
 3.6000e+000 101990 -1.7788e+002 -6.4481e+002  3.5927e+001 32618 101748,101941,101774
 3.6000e+000 102039 -2.0301e+002 -4.7559e+002  4.9029e+000 32618 101748,101696,102013
 3.6000e+000 102062 -1.2092e+002 -5.0282e+002 -1.4576e+001 32618 101748,102013,101941
 3.6000e+000 102440 -2.4430e+002 -5.8144e+002  4.4829e+001 32306 102463,102270,102244
 3.6000e+000 102417 -2.4920e+002 -5.7805e+002  3.1411e+000 32306 102463,102244,102192
 3.6000e+000 102394 -2.3423e+002 -4.8275e+002 -5.2860e+000 32306 102192,102244,102218
 3.6000e+000 102371 -1.6768e+002 -5.5612e+002  3.9481e+001 32306 102270,102322,102296
 3.6000e+000 102348 -1.2188e+002 -6.6011e+002 -5.6656e+001 32306 102166,102322,102192
 3.6000e+000 102489 -2.0249e+002 -5.6663e+002  4.9187e+001 32306 102322,102270,102463
 3.6000e+000 102512 -2.0544e+002 -5.6545e+002  5.2012e+000 32306 102322,102463,102192
 3.6000e+000 102662 -1.5093e+002 -5.7047e+002 -1.3409e+000 31852 102943,102587,102561
 3.6000e+000 102639 -8.3335e+001 -5.0353e+002  2.0874e+001 31852 102815,102685,102561
 3.6000e+000 102711 -1.6943e+002 -6.1125e+002 -1.9938e+001 31852 102943,102561,102685
 3.6000e+000 102841 -6.9277e+001 -4.1759e+002  6.5274e+001 31852 102535,102685,102815
 3.6000e+000 102969 -1.6002e+002 -6.1094e+002 -2.6140e+001 31852 102613,102587,102943
 3.6000e+000 102992 -1.7686e+002 -6.4597e+002 -4.5163e+001 31852 102613,102943,102685
 3.6000e+000 103370 -3.0483e+002 -7.0152e+002  2.6476e+001 31134 103096,103200,103122
 3.6000e+000 103347 -3.6653e+002 -8.6354e+002  7.8968e+001 31134 103096,103226,103200
 3.6000e+000 103324 -3.4302e+002 -7.0013e+002  1.7817e+001 31134 103122,103200,103174
 3.6000e+000 103301 -1.9772e+002 -7.3783e+002  1.6146e+001 31134 103096,103252,103226
 3.6000e+000 103278 -2.3197e+002 -7.4275e+002 -9.5482e+001 31134 103122,103174,103148
 3.6000e+000 103520 -8.8157e+001 -8.3959e+002  1.0037e+000 30822 103393,103445,103419
 3.6000e+000 103497 -4.0051e+001 -4.8592e+002  2.9367e+001 30822 103393,103471,103445
 3.6000e+000 103719 -5.7499e+001 -3.7406e+002  1.9701e+001 30182 103742,103621,103569
 3.6000e+000 103696 -2.6707e+001 -3.7478e+002  2.6340e+001 30182 103742,103569,103543
 3.6000e+000 103673 -7.7934e+001 -3.8113e+002  2.5660e+001 30182 103569,103621,103595
 3.6000e+000 103768 -7.8360e+001 -3.7107e+002  1.7211e+001 30182 103647,103621,103742
 3.6000e+000 103791 -6.1078e+001 -3.7960e+002  2.8622e+001 30182 103647,103742,103543
 3.6000e+000 104252 -2.2229e+002 -4.4920e+002  1.2968e+001 29728 104030,104108,104056
 3.6000e+000 104229 -1.5511e+002 -3.0284e+002  2.9298e+001 29728 104004,104108,104030
 3.6000e+000 104206 -9.7815e+001 -3.2938e+002  2.4314e+001 29728 104004,104134,104108
 3.6000e+000 104183 -1.5558e+002 -3.8103e+002 -4.5906e+001 29728 103978,104134,104004
 3.6000e+000 104160 -1.2869e+002 -4.0912e+002 -2.6519e+001 29728 104056,104108,104082
 3.6000e+000 104630 -1.8530e+002 -5.8358e+002 -6.0947e+001 29217 104653,104382,104356
 3.6000e+000 104607 -1.4890e+002 -5.1564e+002 -1.5010e+001 29217 104653,104356,104512
 3.6000e+000 104584 -2.4491e+002 -5.8471e+002 -6.7395e+001 29217 104434,104512,104486
 3.6000e+000 104561 -1.5113e+002 -6.3396e+002 -8.5078e+001 29217 104382,104434,104408
 3.6000e+000 104538 -1.0860e+002 -4.2014e+002  2.2505e+001 29217 104434,104486,104460
 3.6000e+000 104679 -2.0273e+002 -5.9158e+002 -8.8927e+001 29217 104434,104382,104653
 3.6000e+000 104702 -1.9896e+002 -5.6503e+002 -4.7856e+001 29217 104434,104653,104512
 3.6000e+000 105178 -1.4554e+002 -5.0974e+002  2.7229e+001 28649 105201,104962,104936
 3.6000e+000 105155 -1.4994e+002 -5.0004e+002  3.0710e+001 28649 105201,104936,104884
 3.6000e+000 105132 -1.6033e+002 -4.3893e+002 -4.2333e+001 28649 105273,104858,105014
 3.6000e+000 105109 -2.7488e+002 -5.3168e+002  1.4414e+001 28649 104962,105014,104988
 3.6000e+000 105086 -5.7913e+001 -4.0655e+002 -6.0930e+001 28649 104884,104936,104910
 3.6000e+000 105063 -1.5272e+002 -3.9832e+002 -1.9029e+001 28649 104806,105014,104858
 3.6000e+000 105040 -2.0720e+002 -3.8656e+002 -4.6539e+001 28649 104806,104858,104832
 3.6000e+000 105227 -1.3520e+002 -5.1921e+002  1.3534e+001 28649 105014,104962,105201
 3.6000e+000 105250 -1.0643e+002 -4.6779e+002 -3.7679e+000 28649 105273,105014,105201
 3.6000e+000 105299 -2.1378e+002 -4.7099e+002 -2.7433e+001 28649 104884,104858,105273
 3.6000e+000 105322 -1.9683e+002 -5.2164e+002  1.9300e+001 28649 104884,105273,105201
 3.6000e+000 105673 -3.5688e+001 -5.5585e+002  6.2804e+000 28351 105474,105578,105552
 3.6000e+000 105650  1.3738e+001 -3.5335e+002 -1.0501e+001 28351 105448,105578,105474
 3.6000e+000 105627 -5.9559e+000 -5.2031e+002  1.8573e+000 28351 105500,105552,105526
 3.6000e+000 105604 -1.3468e+001 -5.4512e+002  2.7905e+000 28351 105474,105552,105500
 3.6000e+000 106130 -2.1440e+002 -3.6068e+002 -1.0453e+002 28004 106153,105882,105856
 3.6000e+000 106107 -1.9358e+002 -4.8191e+002 -6.3665e+001 28004 106153,105856,105986
 3.6000e+000 106084 -3.6738e+002 -5.2947e+002  2.7212e+001 28004 105934,105986,105960
 3.6000e+000 106061 -2.9163e+002 -5.8152e+002 -2.1299e+001 28004 105856,106012,105986
 3.6000e+000 106038 -3.6196e+002 -5.6427e+002 -4.6167e+001 28004 105882,105934,105908
 3.6000e+000 106179 -3.1659e+002 -4.5911e+002 -4.9616e+001 28004 105934,105882,106153
 3.6000e+000 106202 -2.1534e+002 -5.1999e+002 -2.8298e+001 28004 105934,106153,105986
 3.6000e+000 106885 -3.0046e+002 -4.5535e+002 -1.4025e+001 27564 106908,106620,106516
 3.6000e+000 106862 -2.8958e+002 -4.4131e+002 -7.2742e+000 27564 106908,106516,106490
 3.6000e+000 106839 -2.5941e+002 -4.2196e+002 -5.0497e+001 27564 106516,106620,106542
 3.6000e+000 106816 -2.8785e+002 -3.8080e+002 -1.8095e+001 27564 106620,106672,106646
 3.6000e+000 106793 -2.0286e+002 -4.6036e+002 -7.6726e+001 27564 106542,106620,106594
 3.6000e+000 106770 -3.0150e+002 -4.0588e+002  2.6719e+001 27564 106490,106698,106672
 3.6000e+000 106747 -2.3704e+002 -4.5307e+002  8.6402e+001 27564 106464,106698,106490
 3.6000e+000 106724 -4.1265e+001 -3.6316e+002 -1.2209e+002 27564 106542,106594,106568
 3.6000e+000 106934 -3.1258e+002 -4.4280e+002 -1.7329e+001 27564 106672,106620,106908
 3.6000e+000 106957 -3.0595e+002 -4.3036e+002 -1.3814e+001 27564 106672,106908,106490
 3.6000e+000 107463 -1.5666e+002 -3.9043e+002 -8.5249e+000 27053 107218,107322,107296
 3.6000e+000 107440 -1.8982e+002 -4.6289e+002  1.8778e+001 27053 107166,107322,107218
 3.6000e+000 107417 -1.6882e+002 -4.7164e+002 -1.6432e+001 27053 107218,107296,107244
 3.6000e+000 107394 -1.9172e+002 -3.5042e+002  4.8674e+001 27053 107140,107322,107166
 3.6000e+000 107371 -1.8698e+002 -5.0439e+002  3.3146e+001 27053 107166,107218,107192
 3.6000e+000 107348 -1.6924e+002 -6.1937e+002 -7.4650e+001 27053 107244,107296,107270
 3.6000e+000 108097 -2.3557e+002 -6.0723e+002 -3.2792e+001 26549 108192,108120,107803
 3.6000e+000 108074 -2.1834e+002 -6.9303e+002  4.5290e+001 26549 108120,107725,107933
 3.6000e+000 108051 -9.3050e+001 -8.0709e+002  3.7512e+001 26549 107751,107803,107777
 3.6000e+000 108028 -2.3301e+002 -6.5145e+002 -4.4119e+001 26549 108192,107803,107751
 3.6000e+000 108005 -1.4253e+002 -4.1295e+002 -6.4614e+000 26549 108264,107855,107803
 3.6000e+000 107982 -7.1160e+001 -4.7802e+002 -2.4207e+001 26549 107881,107933,107907
 3.6000e+000 107959 -1.9200e+002 -4.3935e+002  4.0989e+000 26549 107803,107855,107829
 3.6000e+000 108146 -1.8438e+002 -4.8047e+002 -3.3104e+001 26549 108264,107803,108120
 3.6000e+000 108169 -1.7466e+002 -5.7857e+002  1.6690e+001 26549 107881,108120,107933
 3.6000e+000 108218 -2.2937e+002 -5.6212e+002 -3.8528e-001 26549 107725,108120,108192
 3.6000e+000 108241 -2.2310e+002 -5.9589e+002 -1.4014e+001 26549 107725,108192,107751
 3.6000e+000 108290 -9.0695e+001 -5.0042e+002 -2.2830e+001 26549 107881,107855,108264
 3.6000e+000 108313 -1.2706e+002 -5.7543e+002 -4.1611e+001 26549 107881,108264,108120
 3.6000e+000 108512 -7.4913e+001 -4.0832e+002 -3.7481e+001 26137 108388,108440,108414
 3.6000e+000 108489 -5.8019e+001 -4.0752e+002 -1.0287e+001 26137 108362,108440,108388
 3.6000e+000 108466 -4.6781e+001 -4.5650e+002 -2.4749e+001 26137 108336,108440,108362
 3.6000e+000 108662 -1.5881e+002 -4.8120e+002 -4.9059e+001 25733 108817,108685,108535
 3.6000e+000 108639 -8.0057e+001 -5.1978e+002 -1.9760e+001 25733 109017,108817,108535
 3.6000e+000 108711 -1.7102e+002 -4.3612e+002 -2.3938e+001 25733 108561,108535,108685
 3.6000e+000 108843 -9.2088e+001 -4.7365e+002 -1.5319e+001 25733 108587,108685,108817
 3.6000e+000 108866 -8.5753e+001 -4.6408e+002  1.6432e+000 25733 108889,108817,108613
 3.6000e+000 108915 -8.3785e+001 -4.5296e+002 -1.8686e+001 25733 108587,108817,108889
 3.6000e+000 109043 -7.1491e+001 -3.8990e+002  1.3825e+001 25733 108613,108817,109017
 3.6000e+000 109500 -3.1376e+002 -5.9399e+002  6.7280e+001 25229 109523,109356,109330
 3.6000e+000 109477 -1.7021e+002 -4.5073e+002 -1.8098e+001 25229 109595,109523,109330
 3.6000e+000 109454 -1.6957e+002 -4.0774e+002 -5.7636e+001 25229 109595,109330,109278
 3.6000e+000 109431 -1.8576e+002 -4.2376e+002 -3.4314e+001 25229 109667,109226,109382
 3.6000e+000 109408 -1.8176e+002 -4.3220e+002 -7.2276e+001 25229 109278,109330,109304
 3.6000e+000 109549 -9.5445e+001 -4.8365e+002  1.5461e+001 25229 109382,109356,109523
 3.6000e+000 109572 -1.5886e+002 -4.6875e+002 -4.3024e+001 25229 109667,109382,109523
 3.6000e+000 109621 -1.9257e+002 -5.3214e+002 -3.3806e+001 25229 109252,109523,109595
 3.6000e+000 109644 -1.2718e+002 -4.4408e+002 -2.4890e+001 25229 109739,109595,109278
 3.6000e+000 109693 -2.4222e+002 -5.0272e+002 -3.8670e+000 25229 109252,109226,109667
 3.6000e+000 109716 -1.9253e+002 -5.3373e+002 -2.8968e+001 25229 109252,109667,109523
 3.6000e+000 109765 -2.3064e+002 -4.7950e+002 -1.7235e+001 25229 109252,109595,109739
 3.6000e+000 110478 -1.1949e+002 -3.6815e+002  5.0941e+001 24917 110158,110236,110184
 3.6000e+000 110455 -1.5068e+002 -4.0169e+002 -1.5336e+001 24917 110158,110288,110236
 3.6000e+000 110432 -7.2080e+001 -5.3409e+002  7.7357e+000 24917 110236,110288,110262
 3.6000e+000 110409 -7.5332e+001 -4.0974e+002  6.2947e+001 24917 110184,110236,110210
 3.6000e+000 110386 -2.2739e+002 -5.1564e+002 -5.1189e+001 24917 110132,110288,110158
 3.6000e+000 110363 -2.1342e+002 -4.9559e+002 -1.4111e+001 24917 110132,110314,110288
 3.6000e+000 110340 -2.7515e+002 -5.9231e+002 -1.8327e+001 24917 110106,110314,110132
 3.6000e+000 110829  1.5306e+001 -1.7358e+002  5.2076e+000 24307 110604,110682,110630
 3.6000e+000 110806 -1.2906e+002 -6.0744e+002  4.1442e+001 24307 110604,110708,110682
 3.6000e+000 110783 -1.8397e+001 -5.4424e+002 -1.2592e+001 24307 110604,110734,110708
 3.6000e+000 110760 -2.6270e+000 -1.8127e+002  5.8784e+000 24307 110630,110682,110656
 3.6000e+000 111335 -1.2360e+002 -3.8268e+002 -6.5387e+001 23767 111012,111168,111038
 3.6000e+000 111312 -1.1488e+002 -4.1116e+002 -7.6303e+001 23767 111012,111194,111168
 3.6000e+000 111289 -2.5112e+002 -4.8301e+002  4.4209e+001 23767 111358,111064,111038
 3.6000e+000 111266 -1.7034e+002 -4.4884e+002 -2.7984e+001 23767 111358,111038,111168
 3.6000e+000 111243 -1.0557e+002 -4.0264e+002 -2.2641e+001 23767 111430,111142,111090
 3.6000e+000 111220  7.0890e-001 -3.5618e+002  1.1351e+001 23767 111090,111142,111116
 3.6000e+000 111384 -1.8671e+002 -4.4328e+002 -1.2098e+001 23767 111090,111064,111358
 3.6000e+000 111407 -1.9354e+002 -4.1646e+002 -3.4837e+001 23767 111430,111090,111358
 3.6000e+000 111456 -2.1653e+001 -4.4072e+002 -4.3216e+001 23767 111168,111142,111430
 3.6000e+000 111479 -7.2045e+001 -4.2586e+002 -4.8325e+001 23767 111168,111430,111358
 3.6000e+000 111985 -1.3894e+002 -3.7007e+002  4.8860e+001 23477 111688,111844,111818
 3.6000e+000 111962 -1.2566e+002 -3.8619e+002 -5.7848e+001 23477 111662,111844,111688
 3.6000e+000 111939 -8.3532e+001 -6.2530e+002  6.6334e+001 23477 111766,111818,111792
 3.6000e+000 111916 -2.5301e+002 -5.8596e+002  4.0631e+001 23477 111740,111818,111766
 3.6000e+000 111893 -1.4446e+002 -3.2819e+002  5.6521e+001 23477 111688,111818,111740
 3.6000e+000 111870 -2.3658e+002 -4.1779e+002  9.9033e+001 23477 111688,111740,111714
 3.6000e+000 112314 -1.8628e+002 -3.7522e+002  5.2880e+000 23023 112141,112219,112193
 3.6000e+000 112291 -1.4579e+002 -3.6543e+002 -1.6646e+001 23023 112115,112219,112141
 3.6000e+000 112268 -1.4196e+002 -4.4605e+002  6.6372e+001 23023 112141,112193,112167
 3.6000e+000 112245 -1.3391e+002 -3.8878e+002 -1.0273e+001 23023 112089,112219,112115
 3.6000e+000 112692 -1.7456e+002 -4.9454e+002 -1.9190e+001 22768 112444,112574,112548
 3.6000e+000 112669 -1.2760e+002 -4.7668e+002 -3.7379e-001 22768 112418,112574,112444
 3.6000e+000 112646 -2.1765e+002 -5.0877e+002  6.0259e+000 22768 112444,112522,112470
 3.6000e+000 112623 -1.6445e+002 -4.8772e+002 -1.1983e+001 22768 112444,112548,112522
 3.6000e+000 112600 -8.0627e+000 -4.1678e+002 -1.8655e+001 22768 112470,112522,112496
 3.6000e+000 113011 -1.0247e+002 -5.6935e+002 -4.2235e+001 22314 112763,112867,112789
 3.6000e+000 112988 -4.3005e+001 -5.7857e+002 -5.3089e+001 22314 112763,112893,112867
 3.6000e+000 112965 -1.0617e+002 -5.6411e+002  0.0000e+000 22314 112815,112867,112841
 3.6000e+000 112942 -1.4959e+002 -5.9363e+002 -3.0251e+001 22314 112789,112867,112815
 3.6000e+000 112919 -2.9499e+001 -4.5151e+002  1.1557e+002 22314 112737,112893,112763
 3.6000e+000 113519 -2.6491e+001 -4.3287e+002  1.0130e+002 21924 113614,113542,113248
 3.6000e+000 113496 -8.7950e+001 -4.2881e+002  4.0999e+001 21924 113542,113196,113378
 3.6000e+000 113473 -7.5366e+001 -4.3836e+002  1.0461e+002 21924 113614,113248,113222
 3.6000e+000 113450 -8.7951e+001 -6.0746e+002  3.5294e+001 21924 113686,113274,113248
 3.6000e+000 113427 -1.6306e+002 -6.6183e+002 -3.8488e+001 21924 113274,113352,113326
 3.6000e+000 113404 -2.8172e+002 -8.6080e+002 -8.7735e+001 21924 113274,113326,113300
 3.6000e+000 113568 -2.3133e+001 -5.1948e+002  7.0194e+001 21924 113686,113248,113542
 3.6000e+000 113591 -7.7014e+001 -3.9794e+002  4.6357e+001 21924 113352,113542,113378
 3.6000e+000 113640 -7.4686e+001 -4.3904e+002  8.1536e+001 21924 113196,113542,113614
 3.6000e+000 113663 -9.3919e+001 -4.2570e+002  7.9526e+001 21924 113196,113614,113222
 3.6000e+000 113712 -1.5571e+002 -5.0900e+002 -4.6822e+000 21924 113352,113274,113686
 3.6000e+000 113735 -1.2318e+002 -4.6365e+002  2.0602e+001 21924 113352,113686,113542
 3.6000e+000 113885 -3.3392e+002 -4.8222e+002  9.5233e-001 21520 113980,113908,113784
 3.6000e+000 113862 -2.7034e+002 -4.5471e+002 -7.9197e+001 21520 114238,113908,113758
 3.6000e+000 113934 -2.1441e+002 -3.9154e+002  4.7011e+001 21520 114110,113908,113810
 3.6000e+000 113957 -1.8185e+002 -4.8351e+002 -4.7128e+001 21520 113810,113908,113836
 3.6000e+000 114006 -2.4007e+002 -3.9999e+002 -3.4269e+001 21520 113758,113908,113980
 3.6000e+000 114136 -3.1499e+002 -4.7294e+002  3.8729e+000 21520 113784,113908,114110
 3.6000e+000 114264 -3.4494e+002 -5.5402e+002 -1.1617e+002 21520 113836,113908,114238
 3.6000e+000 114662 -2.3176e+002 -6.4261e+002  1.0136e+001 21030 114414,114518,114492
 3.6000e+000 114639 -6.6011e+001 -5.1176e+002 -5.7937e+001 21030 114414,114544,114518
 3.6000e+000 114616 -2.8207e+002 -6.7502e+002 -5.8159e+000 21030 114440,114492,114466
 3.6000e+000 114593 -2.3863e+002 -6.5896e+002  9.4261e+000 21030 114414,114492,114440
 3.6000e+000 114570 -1.3450e+002 -5.2024e+002  2.5888e+000 21030 114388,114544,114414
 3.6000e+000 114959 -4.0648e+002 -7.0185e+002  4.9837e+001 20512 114982,114711,114685
 3.6000e+000 114936 -3.6913e+002 -6.6888e+002 -1.3261e+001 20512 115054,114982,114685
 3.6000e+000 114913 -2.9894e+002 -5.7251e+002 -4.3904e+001 20512 115054,114685,114841
 3.6000e+000 114890 -2.2732e+002 -6.4735e+002  2.1971e+001 20512 114711,114763,114737
 3.6000e+000 114867 -1.4326e+002 -6.0860e+002  9.2172e+000 20512 114763,114815,114789
 3.6000e+000 115008 -3.4710e+002 -6.8968e+002  2.8245e+001 20512 114763,114711,114982
 3.6000e+000 115031 -3.1438e+002 -6.7730e+002 -1.4727e+001 20512 114763,114982,114815
 3.6000e+000 115080 -3.3913e+002 -7.0416e+002  5.2626e-001 20512 114815,114982,115054
 3.6000e+000 115103 -3.4460e+002 -6.8540e+002  5.6930e-001 20512 114815,115054,114841
 3.6000e+000 115507 -2.8103e+002 -5.9918e+002 -2.0067e+001 20143 115285,115389,115363
 3.6000e+000 115484 -3.3420e+002 -6.9594e+002  8.4260e-001 20143 115259,115389,115285
 3.6000e+000 115461 -2.9584e+002 -5.7664e+002 -1.0927e+000 20143 115233,115389,115259
 3.6000e+000 115438 -2.7369e+002 -7.1863e+002  2.3586e+001 20143 115285,115337,115311
 3.6000e+000 115415 -3.8714e+002 -8.4295e+002 -3.4733e+001 20143 115285,115363,115337
 3.6000e+000 115875 -1.8769e+002 -4.6113e+002  4.8729e+000 19632 115656,115734,115682
 3.6000e+000 115852 -7.0389e+001 -4.0871e+002  6.3648e+001 19632 115552,115734,115656
 3.6000e+000 115829 -8.4087e+001 -4.2177e+002 -3.2448e+001 19632 115552,115656,115578
 3.6000e+000 115806 -1.8367e+002 -4.7774e+002  8.6388e+000 19632 115578,115656,115630
 3.6000e+000 115783 -1.8304e+002 -4.2987e+002  1.0124e+001 19632 115682,115734,115708
 3.6000e+000 115760 -2.3890e+002 -5.0782e+002 -4.5561e+001 19632 115578,115630,115604
 3.6000e+000 116025 -8.4620e+001 -5.1877e+002 -1.2812e+002 19178 115898,115950,115924
 3.6000e+000 116002 -1.5961e+002 -5.4807e+002 -5.5810e+001 19178 115898,115976,115950
 3.6000e+000 116633 -9.2137e+001 -4.3724e+002 -1.1259e+001 18738 116800,116656,116342
 3.6000e+000 116610 -7.8556e+001 -4.5171e+002  1.4158e+001 18738 116656,116238,116446
 3.6000e+000 116587 -1.4334e+002 -4.2847e+002 -4.1057e+001 18738 116728,116368,116342
 3.6000e+000 116564 -9.0807e+001 -4.2114e+002 -2.1073e+001 18738 116800,116342,116264
 3.6000e+000 116541 -1.2601e+002 -6.7407e+002  4.0636e+001 18738 116212,116446,116238
 3.6000e+000 116518 -2.5399e+001 -2.5907e+002 -1.5815e+001 18738 116394,116446,116420
 3.6000e+000 116495  1.9432e+002 -3.2790e+002 -7.9155e+001 18738 116264,116342,116316
 3.6000e+000 116472 -3.4595e+001 -5.1744e+002  7.3315e+001 18738 116264,116316,116290
 3.6000e+000 116682 -1.3217e+002 -4.1610e+002  1.2781e+001 18738 116728,116342,116656
 3.6000e+000 116705 -9.8148e+001 -3.1854e+002  4.4726e+001 18738 116394,116656,116446
 3.6000e+000 116754 -2.2730e+002 -4.6136e+002 -6.4973e+001 18738 116394,116368,116728
 3.6000e+000 116777 -2.2352e+002 -4.4870e+002 -9.6980e+000 18738 116394,116728,116656
 3.6000e+000 116826 -8.8811e+001 -4.6778e+002 -6.3716e-001 18738 116238,116656,116800
 3.6000e+000 116849 -8.0914e+001 -4.4794e+002 -1.2837e+001 18738 116238,116800,116264
 3.6000e+000 116999 -1.8108e+002 -6.0562e+002  2.9506e+001 18184 116872,116924,116898
 3.6000e+000 116976 -1.8051e+002 -3.1454e+002 -9.6618e+000 18184 116872,116950,116924
 3.6000e+000 117330 -3.6396e+001 -7.2771e+002  4.8592e+001 17694 117157,117235,117183
 3.6000e+000 117307 -2.2821e+002 -8.2647e+002  5.8356e+000 17694 117131,117235,117157
 3.6000e+000 117284 -1.6029e+002 -9.1926e+002 -4.5806e+001 17694 117105,117235,117131
 3.6000e+000 117261  1.2204e+002 -4.5409e+002 -2.6249e+001 17694 117183,117235,117209
 3.6000e+000 117480 -2.3192e+002 -5.9500e+002 -5.9103e+001 17290 117353,117405,117379
 3.6000e+000 117457 -1.1627e+002 -6.3700e+002 -6.7897e+001 17290 117353,117431,117405
 3.6000e+000 117679 -4.9205e+001 -4.7899e+002 -2.2585e+001 16718 117555,117607,117581
 3.6000e+000 117656 -2.3706e+002 -6.0074e+002  3.0315e+001 16718 117529,117607,117555
 3.6000e+000 117633  1.2734e+001 -5.7500e+002  2.5442e+001 16718 117503,117607,117529
 3.6000e+000 117782 -7.0897e+001 -4.2873e+002  1.3831e+001 16520 117704,117756,117730
 3.6000e+000 117983 -1.8076e+002 -7.4345e+002  3.0070e+000 16208 117859,117911,117885
 3.6000e+000 117960 -8.5875e+001 -6.9126e+002 -1.7086e+001 16208 117833,117911,117859
 3.6000e+000 117937  1.4308e+001 -5.7397e+002  3.5300e+001 16208 117807,117911,117833
 3.6000e+000 118135 -2.9672e+002 -5.3214e+002 -7.2769e+001 15674 118034,118086,118060
 3.6000e+000 118112 -1.0607e+002 -3.9229e+002  1.2320e+001 15674 118008,118086,118034
 3.6000e+000 118238 -5.7455e+001 -5.5052e+002  3.4093e+001 15355 118160,118212,118186
 3.6000e+000 118341 -2.3758e+002 -5.7691e+002  1.5034e+002 421 118263,118315,118289
 3.7000e+000 68152 -1.6732e+002 -2.1073e+002  2.6244e+001 67838 68074,68126,68100
 3.7000e+000 68550 -1.6191e+002 -3.7278e+002  8.1859e-001 67526 68276,68380,68302
 3.7000e+000 68527 -1.2046e+002 -3.6835e+002 -2.7288e+000 67526 68276,68406,68380
 3.7000e+000 68504 -1.5183e+002 -3.2179e+002  1.7429e+000 67526 68328,68380,68354
 3.7000e+000 68481 -1.3782e+002 -3.1662e+002  8.8554e-002 67526 68302,68380,68328
 3.7000e+000 68458 -1.5368e+002 -4.3131e+002 -2.1140e+001 67526 68276,68432,68406
 3.7000e+000 68651 -3.2640e+002 -4.7870e+002  6.0457e+001 67328 68573,68625,68599
 3.7000e+000 68970 -1.4577e+002 -4.2302e+002  9.4668e+000 67016 68722,68800,68774
 3.7000e+000 68947 -1.6405e+002 -4.6263e+002  4.8817e+000 67016 68722,68826,68800
 3.7000e+000 68924 -1.7057e+002 -4.3675e+002  2.3894e+000 67016 68696,68826,68722
 3.7000e+000 68901 -1.3016e+002 -4.5629e+002 -1.7178e+001 67016 68722,68774,68748
 3.7000e+000 68878 -2.2417e+002 -4.2074e+002 -6.5351e+001 67016 68696,68852,68826
 3.7000e+000 69291 -2.0612e+002 -4.0038e+002  1.0555e+000 66654 69069,69147,69095
 3.7000e+000 69268 -1.8959e+002 -4.2540e+002  6.7966e+000 66654 69069,69173,69147
 3.7000e+000 69245 -2.1153e+002 -3.5213e+002  4.5586e+001 66654 69043,69173,69069
 3.7000e+000 69222 -2.4374e+002 -4.6601e+002  1.8940e+001 66654 69095,69147,69121
 3.7000e+000 69199 -2.8188e+002 -4.7763e+002  3.0844e+001 66654 69017,69173,69043
 3.7000e+000 69695 -1.6311e+002 -5.7535e+002  1.4230e+001 66456 69447,69577,69551
 3.7000e+000 69672 -8.1372e+001 -5.1421e+002 -1.3656e+001 66456 69421,69577,69447
 3.7000e+000 69649 -5.4061e+001 -3.7424e+002 -5.3017e+001 66456 69473,69551,69525
 3.7000e+000 69626 -1.3425e+002 -5.1586e+002  2.4801e+000 66456 69447,69551,69473
 3.7000e+000 69603 -6.0494e+000 -3.3309e+002 -1.2698e+002 66456 69473,69525,69499
 3.7000e+000 70024 -2.5137e+002 -4.1907e+002  8.7722e-001 66258 70047,69851,69825
 3.7000e+000 70001 -2.5696e+002 -4.0775e+002  2.1486e+001 66258 70047,69825,69903
 3.7000e+000 69978 -2.9198e+002 -4.8253e+002  4.1641e+001 66258 69799,69903,69825
 3.7000e+000 69955 -1.6515e+002 -6.3779e+002  1.2975e+002 66258 69799,69929,69903
 3.7000e+000 70073 -2.7322e+002 -4.2313e+002 -8.8836e+000 66258 69877,69851,70047
 3.7000e+000 70096 -2.8233e+002 -4.1039e+002  1.2279e+001 66258 69877,70047,69903
 3.7000e+000 70602 -1.1004e+001 -3.3020e+002 -7.7025e+001 66060 70305,70435,70331
 3.7000e+000 70579 -2.7921e+002 -5.2333e+002  2.4339e+001 66060 70279,70435,70305
 3.7000e+000 70556 -2.5838e+002 -4.2508e+002 -7.3122e+001 66060 70331,70435,70409
 3.7000e+000 70533 -2.3990e+002 -4.4722e+002  4.7186e+001 66060 70279,70461,70435
 3.7000e+000 70510 -1.1733e+002 -2.8748e+002 -1.3831e+002 66060 70331,70409,70357
 3.7000e+000 70487 -7.5544e+001 -3.1818e+002 -2.8311e+001 66060 70357,70409,70383
 3.7000e+000 70703 -5.1702e+002 -7.2034e+002 -7.1870e+000 65862 70625,70677,70651
 3.7000e+000 71083 -1.3704e+002 -3.2342e+002  4.1063e+000 65664 70887,70965,70939
 3.7000e+000 71060 -1.4230e+002 -3.2815e+002  6.1198e+000 65664 70861,70965,70887
 3.7000e+000 71037 -1.4784e+002 -3.3238e+002  2.4951e+000 65664 70809,70965,70861
 3.7000e+000 71014 -1.4227e+002 -3.2794e+002 -3.8160e+000 65664 70809,70861,70835
 3.7000e+000 70991 -1.5890e+002 -3.6123e+002  1.7540e+001 65664 70887,70939,70913
 3.7000e+000 71611 -2.4324e+002 -5.9628e+002 -2.8206e+001 65260 71288,71444,71314
 3.7000e+000 71588 -1.6058e+002 -5.4770e+002 -7.8919e+000 65260 71288,71470,71444
 3.7000e+000 71565 -1.1638e+002 -3.7435e+002  2.9310e+001 65260 71314,71418,71392
 3.7000e+000 71542 -2.2420e+002 -5.3874e+002 -2.0877e+001 65260 71314,71444,71418
 3.7000e+000 71519 -2.4262e+002 -4.1213e+002  4.4778e+001 65260 71314,71392,71340
 3.7000e+000 71496 -1.9112e+002 -3.1716e+002  1.3527e+002 65260 71340,71392,71366
 3.7000e+000 72060 -2.4064e+002 -4.4428e+002 -2.0872e+001 64870 71737,71893,71789
 3.7000e+000 72037 -1.5553e+002 -4.0703e+002 -1.3829e+001 64870 71737,71919,71893
 3.7000e+000 72014 -2.3552e+002 -4.0455e+002  1.5977e+001 64870 71789,71841,71815
 3.7000e+000 71991 -2.0715e+002 -4.1951e+002 -9.7087e-001 64870 71789,71893,71841
 3.7000e+000 71968 -2.4443e+002 -5.3892e+002 -6.2654e+001 64870 71737,71789,71763
 3.7000e+000 71945 -1.7114e+002 -4.5141e+002  0.0000e+000 64870 71841,71893,71867
 3.7000e+000 72517 -2.4480e+002 -3.6246e+002 -4.9704e+001 64466 72321,72399,72347
 3.7000e+000 72494 -2.3164e+002 -3.1224e+002 -3.6508e+001 64466 72269,72399,72321
 3.7000e+000 72471 -2.4870e+002 -4.0889e+002  2.5677e+001 64466 72347,72399,72373
 3.7000e+000 72448 -2.4665e+002 -3.5516e+002 -1.1125e+002 64466 72243,72399,72269
 3.7000e+000 72425 -2.9050e+002 -4.4617e+002 -2.7064e+001 64466 72269,72321,72295
 3.7000e+000 72944 -1.4161e+002 -3.3942e+002  3.2334e+000 64062 73111,73039,72699
 3.7000e+000 72921 -1.1790e+002 -3.6530e+002 -2.2752e+001 64062 73183,72967,72647
 3.7000e+000 72898 -1.3437e+002 -3.7266e+002 -1.1876e+001 64062 72967,72803,72751
 3.7000e+000 72875 -1.3688e+002 -3.3736e+002  2.3749e+000 64062 73111,72699,72673
 3.7000e+000 72852 -9.6975e+001 -3.8842e+002 -8.2242e+000 64062 73183,72647,72621
 3.7000e+000 72829 -1.0361e+002 -3.0782e+002 -6.7973e+001 64062 72751,72803,72777
 3.7000e+000 72993 -1.2150e+002 -3.3705e+002 -6.1278e+000 64062 73039,72647,72967
 3.7000e+000 73016 -1.7920e+002 -3.8651e+002 -1.3024e+001 64062 72725,72967,72751
 3.7000e+000 73065 -4.0110e+001 -3.8987e+002  1.1928e+002 64062 72725,72699,73039
 3.7000e+000 73088 -1.3968e+002 -3.8813e+002 -1.3981e+001 64062 72725,73039,72967
 3.7000e+000 73137 -1.3338e+002 -3.4072e+002  3.1370e+000 64062 72647,73039,73111
 3.7000e+000 73160 -1.3202e+002 -3.4008e+002  2.9096e+000 64062 72647,73111,72673
 3.7000e+000 73209 -1.3887e+002 -3.8579e+002 -1.1519e+001 64062 72803,72967,73183
 3.7000e+000 73232 -1.2704e+002 -4.2433e+002  5.3030e+000 64062 72803,73183,72621
 3.7000e+000 73333 -4.4153e+002 -6.6981e+002  5.5236e+001 63814 73356,73281,73255
 3.7000e+000 73382 -3.2654e+002 -4.7337e+002  3.3589e+001 63814 73486,73356,73307
 3.7000e+000 73512 -4.0264e+002 -5.0598e+002 -1.4113e+001 63814 73281,73356,73486
 3.7000e+000 73839 -2.1385e+002 -3.5737e+002 -1.6276e+001 63616 73862,73692,73666
 3.7000e+000 73816 -1.6400e+002 -3.3425e+002 -5.5398e+000 63616 73934,73862,73666
 3.7000e+000 73793 -1.3558e+002 -3.4650e+002  2.2257e+001 63616 73934,73666,73640
 3.7000e+000 73770 -1.5593e+002 -4.0638e+002  2.1330e+001 63616 73614,73744,73640
 3.7000e+000 73888 -2.8157e+002 -3.4631e+002  2.2394e+000 63616 73718,73692,73862
 3.7000e+000 73911 -2.0470e+002 -3.0718e+002  1.6484e+001 63616 73718,73862,73744
 3.7000e+000 73960 -2.1519e+002 -3.5577e+002 -7.9275e-001 63616 73744,73862,73934
 3.7000e+000 73983 -1.9285e+002 -3.7096e+002  2.3431e+001 63616 73744,73934,73640
 3.7000e+000 74363 -1.3635e+002 -3.9550e+002  8.2052e+000 63390 74386,74115,74089
 3.7000e+000 74340 -1.5833e+002 -3.6715e+002  3.5853e+000 63390 74458,74386,74089
 3.7000e+000 74317 -1.4024e+002 -3.7936e+002  4.5691e+001 63390 74458,74089,74245
 3.7000e+000 74294 -1.7068e+002 -4.3630e+002  5.0880e+000 63390 74530,74167,74141
 3.7000e+000 74271 -1.4705e+002 -3.9590e+002 -7.4261e+001 63390 74167,74219,74193
 3.7000e+000 74412 -1.2813e+002 -3.9518e+002  6.2445e+000 63390 74141,74115,74386
 3.7000e+000 74435 -1.4381e+002 -4.0947e+002  1.9348e+001 63390 74530,74141,74386
 3.7000e+000 74484 -1.2524e+002 -3.0838e+002  2.3773e+001 63390 74219,74386,74458
 3.7000e+000 74507 -9.1754e+001 -3.0511e+002  6.9775e+001 63390 74219,74458,74245
 3.7000e+000 74556 -2.1531e+002 -4.1273e+002 -2.6789e+001 63390 74219,74167,74530
 3.7000e+000 74579 -1.8706e+002 -3.7854e+002 -1.0654e+001 63390 74219,74530,74386
 3.7000e+000 74680 -1.6825e+002 -3.0958e+002  2.6138e+001 63100 75089,74833,74703
 3.7000e+000 74729 -2.6795e+002 -4.2944e+002  2.0490e+001 63100 74961,74703,74654
 3.7000e+000 74859 -9.2727e+001 -2.9269e+002  3.4336e+001 63100 74602,74703,74833
 3.7000e+000 74987 -2.0838e+002 -3.0310e+002 -2.3821e+000 63100 75089,74703,74961
 3.7000e+000 75115 -8.2680e+001 -3.0780e+002  3.7202e+001 63100 74628,74833,75089
 3.7000e+000 75138 -1.2204e+002 -3.0084e+002  8.8200e+000 63100 74628,75089,74961
 3.7000e+000 75723 -2.2573e+002 -2.7372e+002  2.0231e+001 62532 75746,75504,75426
 3.7000e+000 75700 -2.3319e+002 -2.2790e+002  2.5577e+001 62532 75746,75426,75556
 3.7000e+000 75677 -2.4498e+002 -1.8177e+002 -1.1708e+002 62532 75426,75504,75452
 3.7000e+000 75654 -2.0182e+002 -1.3039e+002 -8.0344e+001 62532 75400,75556,75426
 3.7000e+000 75631 -2.4874e+002 -2.7012e+002 -1.0700e+002 62532 75400,75582,75556
 3.7000e+000 75608 -1.0258e+002 -1.7387e+002 -1.3384e+002 62532 75452,75504,75478
 3.7000e+000 75772 -2.2301e+002 -3.1976e+002  8.5972e+000 62532 75530,75504,75746
 3.7000e+000 75795 -2.3014e+002 -2.6939e+002  8.7405e+000 62532 75530,75746,75556
 3.7000e+000 76301 -1.7010e+002 -3.5605e+002  5.3432e+000 62192 76324,76082,76030
 3.7000e+000 76278 -1.4708e+002 -3.2942e+002  1.6381e+001 62192 76324,76030,76004
 3.7000e+000 76255 -1.3191e+002 -3.4968e+002  3.2267e+001 62192 76030,76082,76056
 3.7000e+000 76232 -2.1900e+002 -3.8065e+002 -3.6703e+001 62192 76082,76134,76108
 3.7000e+000 76209 -1.5170e+002 -2.8355e+002 -3.0979e+001 62192 76004,76160,76134
 3.7000e+000 76186 -9.6877e+001 -2.9483e+002 -1.0508e+001 62192 75978,76160,76004
 3.7000e+000 76350 -2.0815e+002 -3.1931e+002  5.5215e+000 62192 76134,76082,76324
 3.7000e+000 76373 -1.8126e+002 -2.8299e+002  1.7455e+001 62192 76134,76324,76004
 3.7000e+000 76879 -2.3150e+002 -2.6329e+002 -3.5212e+001 61788 76902,76660,76582
 3.7000e+000 76856 -1.5108e+002 -2.7218e+002 -4.5821e+001 61788 76902,76582,76556
 3.7000e+000 76833 -2.0683e+002 -2.7789e+002  6.0282e+000 61788 76582,76660,76634
 3.7000e+000 76810 -2.1361e+002 -2.3917e+002 -5.8302e+000 61788 76582,76634,76608
 3.7000e+000 76787 -1.9963e+002 -2.8255e+002 -3.4910e+001 61788 76556,76738,76686
 3.7000e+000 76764 -1.5044e+002 -2.6291e+002 -4.7834e+001 61788 76686,76738,76712
 3.7000e+000 76928 -2.7812e+002 -2.6475e+002 -2.7143e+001 61788 76686,76660,76902
 3.7000e+000 76951 -2.1505e+002 -2.9007e+002 -3.0981e+001 61788 76686,76902,76556
 3.7000e+000 77408 -2.3279e+002 -3.1594e+002 -7.7917e+000 61498 77212,77264,77238
 3.7000e+000 77385 -2.0399e+002 -2.6170e+002  8.2346e+000 61498 77160,77264,77212
 3.7000e+000 77362 -2.3477e+002 -2.8128e+002 -1.2504e-001 61498 77160,77290,77264
 3.7000e+000 77339 -1.3121e+002 -3.2548e+002  1.8244e+001 61498 77160,77212,77186
 3.7000e+000 77316 -1.9540e+002 -2.7252e+002  9.7946e+001 61498 77134,77290,77160
 3.7000e+000 77678 -1.1957e+002 -2.1183e+002 -1.2520e+001 61129 77479,77557,77505
 3.7000e+000 77655 -1.4428e+002 -2.4795e+002 -1.5192e+000 61129 77479,77583,77557
 3.7000e+000 77632 -1.2019e+002 -2.6640e+002  1.2661e+001 61129 77453,77583,77479
 3.7000e+000 77609 -5.5837e+001 -1.7350e+002  8.7673e+000 61129 77505,77557,77531
 3.7000e+000 77828 -1.2126e+002 -2.8986e+002  1.5701e+001 60931 77851,77727,77701
 3.7000e+000 77805 -1.2777e+002 -3.1319e+002  2.7160e+001 60931 77851,77701,77779
 3.7000e+000 77877 -1.7401e+002 -3.5449e+002  5.1416e+001 60931 77923,77851,77753
 3.7000e+000 77900 -1.1414e+002 -3.2474e+002  2.9335e+001 60931 77753,77851,77779
 3.7000e+000 77949 -1.1106e+002 -2.2472e+002  3.0774e+001 60931 77727,77851,77923
 3.7000e+000 78133 -1.1817e+002 -2.6318e+002 -1.7622e+001 60377 78055,78107,78081
 3.7000e+000 78535 -3.9899e+002 -5.2342e+002 -2.6214e+001 60015 78287,78391,78313
 3.7000e+000 78512 -2.5547e+002 -5.4189e+002 -4.1358e+001 60015 78287,78417,78391
 3.7000e+000 78489 -2.8587e+002 -5.8812e+002 -8.2656e+001 60015 78261,78417,78287
 3.7000e+000 78466 -1.8757e+002 -4.5968e+002  5.0029e+001 60015 78339,78391,78365
 3.7000e+000 78443 -2.0245e+002 -4.2592e+002  1.6099e+001 60015 78313,78391,78339
 3.7000e+000 78913 -1.7921e+002 -3.1087e+002  7.6391e+000 59725 78936,78743,78691
 3.7000e+000 78890 -2.0742e+002 -3.4160e+002 -4.1227e+000 59725 79008,78936,78691
 3.7000e+000 78867 -2.0587e+002 -3.2741e+002 -1.8299e+001 59725 79008,78691,78665
 3.7000e+000 78844 -1.1507e+002 -3.0860e+002  4.8110e+001 59725 78691,78743,78717
 3.7000e+000 78821 -8.7972e+001 -2.5981e+002 -1.1176e+002 59725 78639,78795,78769
 3.7000e+000 78962 -1.4840e+002 -3.3810e+002 -1.3831e+001 59725 78769,78743,78936
 3.7000e+000 78985 -2.0003e+002 -4.0120e+002 -3.8080e+001 59725 78769,78936,78639
 3.7000e+000 79034 -1.7592e+002 -3.2670e+002 -1.1124e+001 59725 78639,78936,79008
 3.7000e+000 79057 -1.9070e+002 -3.2416e+002 -2.2779e+001 59725 78639,79008,78665
 3.7000e+000 79386 -1.8852e+002 -4.3924e+002  3.6860e+001 59221 79187,79239,79213
 3.7000e+000 79363 -1.4981e+002 -3.9632e+002  1.9009e+001 59221 79187,79265,79239
 3.7000e+000 79340 -2.0214e+002 -4.1457e+002  2.2674e+001 59221 79187,79291,79265
 3.7000e+000 79317 -1.3965e+002 -2.6518e+002  1.2351e+001 59221 79161,79291,79187
 3.7000e+000 79813 -1.0769e+002 -2.5576e+002 -1.5313e+001 58831 79836,79542,79516
 3.7000e+000 79790 -1.0777e+002 -2.5208e+002 -1.9623e+001 58831 79980,79836,79516
 3.7000e+000 79767 -1.6646e+002 -3.2140e+002 -8.6330e+001 58831 79908,79646,79568
 3.7000e+000 79744 -1.1466e+002 -2.4453e+002 -1.2770e+001 58831 79980,79516,79490
 3.7000e+000 79721 -2.0278e+002 -3.2411e+002 -7.9156e+001 58831 79568,79646,79594
 3.7000e+000 79698 -1.7597e+003 -1.2367e+003 -8.8092e+002 58831 79594,79646,79620
 3.7000e+000 79862 -8.3522e+001 -1.6811e+002  2.4423e+001 58831 79568,79542,79836
 3.7000e+000 79885 -5.7542e+001 -2.5160e+002  2.8399e+000 58831 79908,79568,79836
 3.7000e+000 79934 -2.4230e+002 -3.2070e+002 -1.4918e+002 58831 79672,79646,79908
 3.7000e+000 79957 -2.2471e+002 -2.9960e+002 -6.0468e+001 58831 79672,79908,79836
 3.7000e+000 80006 -1.0030e+002 -2.3832e+002 -2.2368e+001 58831 79672,79836,79980
 3.7000e+000 80029 -1.0898e+002 -2.3617e+002 -1.5469e+001 58831 79672,79980,79490
 3.7000e+000 80358 -1.3883e+002 -4.0178e+002  4.7341e+000 58377 80381,80185,80159
 3.7000e+000 80335 -1.4114e+002 -3.9827e+002  6.3101e+000 58377 80381,80159,80133
 3.7000e+000 80312 -9.1038e+001 -3.7215e+002 -1.5901e+000 58377 80133,80263,80237
 3.7000e+000 80289 -1.5354e+002 -4.4263e+002  2.7080e+001 58377 80185,80237,80211
 3.7000e+000 80407 -1.3764e+002 -3.9854e+002  3.7961e+000 58377 80237,80185,80381
 3.7000e+000 80430 -1.4066e+002 -3.9601e+002  6.0696e+000 58377 80237,80381,80133
 3.7000e+000 80759 -8.8313e+001 -3.7245e+002  9.2033e+001 57873 80782,80586,80560
 3.7000e+000 80736 -1.5878e+002 -4.4267e+002  6.2777e+001 57873 80782,80560,80534
 3.7000e+000 80713 -1.6054e+002 -4.6416e+002  4.3083e+001 57873 80586,80638,80612
 3.7000e+000 80690 -4.3088e+001 -4.2620e+002  4.4941e+001 57873 80534,80664,80638
 3.7000e+000 80808 -1.2125e+002 -4.3668e+002  5.7935e+001 57873 80638,80586,80782
 3.7000e+000 80831 -1.3075e+002 -4.5603e+002  4.4605e+001 57873 80638,80782,80534
 3.7000e+000 81337 -9.7572e+001 -2.3800e+002 -1.1817e+001 57262 81360,81144,81092
 3.7000e+000 81314 -1.1025e+002 -2.5672e+002  8.3586e+000 57262 81360,81092,81066
 3.7000e+000 81291 -1.4606e+002 -3.0530e+002  1.4691e+001 57262 81014,81196,81066
 3.7000e+000 81268 -1.2319e+002 -1.7499e+002 -2.5302e+001 57262 81092,81144,81118
 3.7000e+000 81245 -1.4479e+002 -2.3349e+002  3.2350e+000 57262 81144,81196,81170
 3.7000e+000 81222 -1.5384e+002 -3.2201e+002  3.6834e+001 57262 81014,81066,81040
 3.7000e+000 81386 -1.2895e+002 -2.2843e+002  1.0696e+000 57262 81196,81144,81360
 3.7000e+000 81409 -1.3477e+002 -2.4492e+002  2.1760e+001 57262 81196,81360,81066
 3.7000e+000 81608 -8.3515e+001 -2.1169e+002  7.4484e+000 57007 81458,81536,81510
 3.7000e+000 81585 -1.0477e+002 -2.5628e+002  9.3810e-001 57007 81432,81536,81458
 3.7000e+000 81562 -1.6835e+002 -1.8190e+002  7.5049e+001 57007 81458,81510,81484
 3.7000e+000 82086 -3.0942e+002 -4.9934e+002 -3.2089e+001 56339 81792,81922,81818
 3.7000e+000 82063 -2.1123e+002 -4.8930e+002 -3.7394e+001 56339 81714,81922,81792
 3.7000e+000 82040 -2.6784e+002 -4.2400e+002 -4.1566e+001 56339 82109,81844,81818
 3.7000e+000 82017 -2.8218e+002 -4.3929e+002 -4.7439e+001 56339 82109,81818,81922
 3.7000e+000 81994 -2.0622e+002 -4.3621e+002 -5.9341e+001 56339 81844,81896,81870
 3.7000e+000 81971 -2.7440e+002 -5.8770e+002 -3.2633e+002 56339 81714,81792,81766
 3.7000e+000 81948 -1.1065e+003 -8.7013e+002 -6.7126e+002 56339 81714,81766,81740
 3.7000e+000 82135 -2.3459e+002 -4.3898e+002 -3.1189e+001 56339 81896,81844,82109
 3.7000e+000 82158 -2.6216e+002 -4.7015e+002 -4.2728e+001 56339 81896,82109,81922
 3.7000e+000 82536 -1.9530e+002 -4.1752e+002 -7.1937e+000 55699 82288,82392,82314
 3.7000e+000 82513 -2.0302e+002 -4.1933e+002 -1.7859e+000 55699 82288,82418,82392
 3.7000e+000 82490 -2.3775e+002 -5.1115e+002 -2.5653e+001 55699 82314,82392,82340
 3.7000e+000 82467 -1.0699e+002 -6.1621e+002 -6.4673e+001 55699 82340,82392,82366
 3.7000e+000 82444 -1.8279e+002 -4.2344e+002  5.4808e-001 55699 82262,82418,82288
 3.7000e+000 83091 -2.5420e+002 -3.0448e+002  7.0138e+001 55409 82745,82901,82875
 3.7000e+000 83068 -2.2727e+002 -2.5048e+002  8.3565e+001 55409 82719,82901,82745
 3.7000e+000 83045 -1.9988e+002 -3.2827e+002  3.9723e+001 55409 82771,82849,82823
 3.7000e+000 83022 -3.0987e+002 -3.4580e+002  1.0521e+002 55409 82745,82849,82771
 3.7000e+000 82999 -1.5376e+002 -2.6125e+002  5.8692e+001 55409 82745,82875,82849
 3.7000e+000 82976 -3.7293e+002 -2.6642e+002  5.7051e+001 55409 82771,82823,82797
 3.7000e+000 82953 -1.6289e+002 -2.4891e+002  7.7772e+001 55409 82719,82927,82901
 3.7000e+000 83388 -1.8306e+002 -4.8914e+002 -1.3978e+001 54905 83411,83218,83166
 3.7000e+000 83365 -1.2015e+002 -4.7970e+002 -1.4442e+001 54905 83411,83166,83114
 3.7000e+000 83342 -2.3380e+002 -4.9538e+002 -3.3403e+001 54905 83483,83270,83244
 3.7000e+000 83319 -2.1852e+002 -4.6885e+002 -3.2322e+001 54905 83166,83218,83192
 3.7000e+000 83296 -1.2254e+002 -5.0699e+002  8.5697e+000 54905 83114,83166,83140
 3.7000e+000 83437 -2.0118e+002 -4.8414e+002  3.7087e+000 54905 83244,83218,83411
 3.7000e+000 83460 -1.9254e+002 -4.9527e+002 -1.5371e+001 54905 83483,83244,83411
 3.7000e+000 83509 -1.8015e+002 -4.5395e+002 -1.4887e+001 54905 83114,83270,83483
 3.7000e+000 83532 -1.6634e+002 -4.6985e+002 -8.5423e-001 54905 83114,83483,83411
 3.7000e+000 83961 -9.7557e+001 -2.6213e+002  7.6517e-001 54593 83638,83768,83690
 3.7000e+000 83938 -2.9246e+001 -2.3634e+002 -1.0688e+001 54593 83638,83794,83768
 3.7000e+000 83915 -7.1500e+001 -2.5145e+002  4.1005e+000 54593 83690,83768,83742
 3.7000e+000 83892 -1.1291e+002 -2.3619e+002 -4.4036e+001 54593 83638,83820,83794
 3.7000e+000 83869 -9.2813e+001 -2.7544e+002  1.6450e+001 54593 83638,83690,83664
 3.7000e+000 83846 -5.8656e+001 -1.7999e+002 -6.1715e+001 54593 83690,83742,83716
 3.7000e+000 84209 -1.8804e+002 -5.7554e+002  5.3532e+001 54132 84232,84062,83984
 3.7000e+000 84186 -1.7895e+002 -4.8776e+002  3.0175e+001 54132 84232,83984,84114
 3.7000e+000 84163 -2.0614e+002 -6.1023e+002  9.5844e+000 54132 83984,84062,84036
 3.7000e+000 84140 -2.3033e+002 -5.7767e+002 -6.7706e+000 54132 83984,84036,84010
 3.7000e+000 84258 -1.3433e+002 -6.7409e+002  3.6969e+001 54132 84088,84062,84232
 3.7000e+000 84281 -1.1410e+002 -5.7903e+002 -2.3935e+000 54132 84088,84232,84114
 3.7000e+000 84382 -5.1513e+001 -2.1279e+002 -6.5447e+000 53521 84304,84356,84330
 3.7000e+000 84632 -1.6317e+002 -4.3383e+002  5.2725e-001 53067 84655,84485,84459
 3.7000e+000 84609 -1.6607e+002 -4.4534e+002 -1.6866e+000 53067 84655,84459,84407
 3.7000e+000 84586 -1.4568e+002 -4.0847e+002  6.3614e+000 53067 84485,84537,84511
 3.7000e+000 84563 -1.7643e+002 -4.8804e+002 -3.2623e+001 53067 84407,84459,84433
 3.7000e+000 84681 -1.5661e+002 -4.4594e+002  3.3394e+000 53067 84537,84485,84655
 3.7000e+000 84704 -1.6023e+002 -4.5849e+002  3.0453e+000 53067 84537,84655,84407
 3.7000e+000 85214 -8.6298e+001 -3.5282e+002 -3.1017e+001 52513 85021,85073,85047
 3.7000e+000 85191 -9.3800e+001 -2.5627e+002 -4.9216e+001 52513 84943,85073,85021
 3.7000e+000 85168 -4.6247e+001 -2.2795e+002 -1.6816e+001 52513 84943,85021,84995
 3.7000e+000 85145 -1.4261e+002 -3.9590e+002 -2.6969e+001 52513 84917,85073,84943
 3.7000e+000 85122 -6.5133e+001 -1.7392e+002 -3.2058e+001 52513 84943,84995,84969
 3.7000e+000 85099 -1.2845e+002 -4.4602e+002 -4.4203e+001 52513 84891,85073,84917
 3.7000e+000 85582 -1.6504e+002 -4.5073e+002  4.6101e+001 52037 85605,85311,85285
 3.7000e+000 85559 -1.7252e+002 -4.8045e+002  4.3692e+001 52037 85749,85605,85285
 3.7000e+000 85536 -7.0229e+001 -4.2485e+002  3.6951e+000 52037 85893,85677,85389
 3.7000e+000 85513 -1.2761e+002 -4.4936e+002  3.0144e+001 52037 85749,85285,85259
 3.7000e+000 85490 -2.9623e+000 -3.9881e+002 -2.0009e+001 52037 85893,85389,85363
 3.7000e+000 85467 -1.0475e+002 -4.7512e+002 -2.6834e+001 52037 85259,85441,85415
 3.7000e+000 85631 -2.3858e+002 -4.9960e+002  1.8818e+001 52037 85337,85311,85605
 3.7000e+000 85654 -1.7530e+002 -4.7137e+002  7.0254e+001 52037 85677,85337,85605
 3.7000e+000 85703 -5.5870e+001 -4.6796e+002  2.4106e+001 52037 85415,85389,85677
 3.7000e+000 85726 -6.7317e+001 -4.5949e+002  5.7962e+001 52037 85821,85677,85605
 3.7000e+000 85775 -1.1213e+002 -4.7800e+002  5.8104e+001 52037 85821,85605,85749
 3.7000e+000 85798 -1.4370e+002 -4.8752e+002  2.3582e+001 52037 85415,85749,85259
 3.7000e+000 85847 -7.7422e+001 -4.6807e+002  2.1768e+001 52037 85415,85677,85821
 3.7000e+000 85870 -9.3905e+001 -4.7416e+002  2.3139e+001 52037 85415,85821,85749
 3.7000e+000 85919 -6.1779e+001 -4.5379e+002  7.6654e+001 52037 85337,85677,85893
 3.7000e+000 85942 -3.4661e+001 -4.4783e+002  5.4495e+001 52037 85337,85893,85363
 3.7000e+000 86224 -5.4753e+001 -1.5753e+002  7.6260e+000 51368 86375,86100,86074
 3.7000e+000 86201 -1.3043e+002 -1.9169e+002 -1.8698e-001 51368 86375,86074,86247
 3.7000e+000 86178 -3.9308e+001 -2.8042e+002 -5.5635e+001 51368 86048,86152,86126
 3.7000e+000 86273 -7.7999e+001 -2.2528e+002 -5.0863e+001 51368 86048,86126,86247
 3.7000e+000 86401 -1.2895e+001 -2.0359e+002 -3.0192e+001 51368 86126,86100,86375
 3.7000e+000 86424 -5.0444e+001 -2.1773e+002 -3.5064e+001 51368 86126,86375,86247
 3.7000e+000 86802 -1.8644e+002 -3.9677e+002  2.9163e+000 51028 86528,86632,86580
 3.7000e+000 86779 -2.1557e+002 -4.7296e+002  2.4952e+001 51028 86528,86684,86632
 3.7000e+000 86756 -2.4144e+002 -5.2293e+002 -6.2799e+000 51028 86528,86580,86554
 3.7000e+000 86733 -1.5489e+002 -4.5913e+002  9.0529e+001 51028 86632,86684,86658
 3.7000e+000 86710 -2.0636e+002 -4.5303e+002 -4.4528e+001 51028 86580,86632,86606
 3.7000e+000 87131 -1.7274e+002 -3.5977e+002  6.8209e+001 50624 86958,87036,87010
 3.7000e+000 87108 -2.4229e+002 -3.3288e+002  4.9059e+001 50624 86932,87036,86958
 3.7000e+000 87085 -1.8544e+002 -3.6098e+002  3.8134e+001 50624 86958,87010,86984
 3.7000e+000 87062 -1.8835e+002 -2.9938e+002  6.8820e+001 50624 86906,87036,86932
 3.7000e+000 87330 -2.9794e+002 -4.3454e+002 -2.5944e+001 50234 87353,87180,87154
 3.7000e+000 87307 -2.5177e+002 -4.2890e+002 -2.5983e+001 50234 87353,87154,87258
 3.7000e+000 87284 -1.7144e+002 -4.1318e+002 -1.3200e+001 50234 87206,87258,87232
 3.7000e+000 87379 -2.5782e+002 -4.7044e+002  1.8071e+000 50234 87206,87180,87353
 3.7000e+000 87402 -1.8684e+002 -4.4880e+002 -8.6350e+000 50234 87206,87353,87258
 3.7000e+000 87650 -1.9950e+002 -4.3698e+002 -3.2042e+001 49730 87673,87503,87451
 3.7000e+000 87627 -1.3751e+002 -4.1088e+002 -3.3964e+001 49730 87673,87451,87425
 3.7000e+000 87604 -1.2680e+002 -3.4593e+002  2.8432e+001 49730 87503,87555,87529
 3.7000e+000 87581 -2.3634e+002 -3.5289e+002 -4.1272e+001 49730 87451,87503,87477
 3.7000e+000 87699 -2.0698e+002 -4.2289e+002 -1.6365e+001 49730 87555,87503,87673
 3.7000e+000 87722 -1.9372e+002 -4.2437e+002 -1.8391e+001 49730 87555,87673,87425
 3.7000e+000 88232 -1.8068e+002 -4.3431e+002  2.7930e+001 49176 88255,87935,87909
 3.7000e+000 88209 -2.3681e+002 -4.8843e+002  8.6612e+001 49176 88255,87909,88065
 3.7000e+000 88186 -2.0675e+002 -3.9782e+002  5.7770e+001 49176 87935,88039,87961
 3.7000e+000 88163 -2.0592e+002 -4.2983e+002  6.1250e+001 49176 87909,88091,88065
 3.7000e+000 88140 -2.6819e+002 -4.2493e+002  5.1561e+001 49176 87961,88039,88013
 3.7000e+000 88117 -2.2388e+002 -4.8230e+002 -2.0636e+001 49176 87961,88013,87987
 3.7000e+000 88281 -2.4138e+002 -4.5671e+002  8.2734e+001 49176 88039,87935,88255
 3.7000e+000 88304 -2.9706e+002 -5.0704e+002  1.4092e+002 49176 88039,88255,88065
 3.7000e+000 88503 -6.2642e+001 -2.8898e+002 -3.1934e+000 48772 88526,88379,88353
 3.7000e+000 88480 -7.8469e+001 -2.4762e+002  4.6735e+000 48772 88526,88353,88327
 3.7000e+000 88457 -8.2061e+001 -3.4267e+002 -1.6974e+000 48772 88379,88431,88405
 3.7000e+000 88552 -5.0852e+001 -2.5629e+002 -9.0284e+000 48772 88431,88379,88526
 3.7000e+000 88575 -7.4061e+001 -2.2816e+002 -4.8494e+000 48772 88431,88526,88327
 3.7000e+000 89083 -5.5068e+001 -1.3402e+002 -4.6797e+001 48368 88786,88916,88864
 3.7000e+000 89060 -4.8249e+001 -1.7153e+002 -1.6889e+001 48368 88786,88942,88916
 3.7000e+000 89037 -8.3387e+001 -1.1146e+002 -7.5490e+000 48368 88786,88864,88812
 3.7000e+000 89014 -9.0088e+001 -1.9564e+002 -6.6815e+001 48368 88864,88916,88890
 3.7000e+000 88991 -1.6471e+001 -1.4575e+002  2.7667e+001 48368 88812,88864,88838
 3.7000e+000 88968  2.7893e+000 -1.4474e+002 -6.3704e+000 48368 88760,88942,88786
 3.7000e+000 89331 -8.4657e+001 -3.3727e+002  1.4341e+001 47928 89158,89236,89210
 3.7000e+000 89308 -6.4095e+001 -2.7137e+002  2.1368e+001 47928 89132,89236,89158
 3.7000e+000 89285 -1.3996e+002 -2.1313e+002  3.5954e+000 47928 89158,89210,89184
 3.7000e+000 89262 -1.0165e+002 -2.1455e+002  2.8744e+001 47928 89106,89236,89132
 3.7000e+000 89662 -2.1095e+002 -4.4857e+002 -1.4974e+001 47588 89463,89541,89515
 3.7000e+000 89639 -1.5918e+002 -3.6378e+002 -3.7036e+001 47588 89463,89567,89541
 3.7000e+000 89616 -1.7865e+002 -4.3034e+002  1.5395e+001 47588 89463,89515,89489
 3.7000e+000 89593 -1.9387e+002 -3.6607e+002 -4.3307e+001 47588 89437,89567,89463
 3.7000e+000 89763 -5.9056e+000 -2.6207e+001  3.2660e+000 47390 89685,89737,89711
 3.7000e+000 89913 -1.2430e+001 -1.4089e+002 -4.6811e+000 47078 89786,89838,89812
 3.7000e+000 89890 -3.8842e+001 -1.8154e+002  9.4529e+000 47078 89786,89864,89838
 3.7000e+000 90163 -1.9006e+002 -3.9189e+002  7.8613e+000 46474 89964,90042,89990
 3.7000e+000 90140 -1.4856e+002 -3.7627e+002  1.8426e+001 46474 89938,90042,89964
 3.7000e+000 90117 -2.0825e+002 -3.5775e+002  1.3266e+001 46474 89990,90042,90016
 3.7000e+000 90094 -1.9959e+002 -3.6313e+002  2.5836e+001 46474 89938,90068,90042
 3.7000e+000 90364 -1.7123e+002 -3.4777e+002  5.2255e+001 46184 90240,90292,90266
 3.7000e+000 90341 -1.9957e+002 -3.1559e+002  7.1227e+001 46184 90188,90292,90240
 3.7000e+000 90318 -1.7982e+002 -3.6818e+002  7.7817e+001 46184 90188,90240,90214
 3.7000e+000 90565 -1.8532e+002 -3.0338e+002 -1.9292e+001 45780 90588,90415,90389
 3.7000e+000 90542 -1.5926e+002 -3.0508e+002 -1.5111e+001 45780 90588,90389,90493
 3.7000e+000 90519 -1.7690e+002 -3.2734e+002 -9.8715e+000 45780 90415,90467,90441
 3.7000e+000 90614 -1.6588e+002 -3.1025e+002 -2.6857e+000 45780 90467,90415,90588
 3.7000e+000 90637 -1.3144e+002 -3.0043e+002  5.5294e+000 45780 90467,90588,90493
 3.7000e+000 91196 -2.4557e+002 -4.4941e+002 -3.6727e+001 45226 91219,90876,90850
 3.7000e+000 91173 -1.4045e+002 -4.2670e+002  1.6676e+001 45226 91219,90850,91032
 3.7000e+000 91150 -1.1444e+002 -4.8670e+002 -3.9878e+001 45226 90824,91032,90850
 3.7000e+000 91127 -1.7251e+002 -3.2887e+002  4.3460e+000 45226 90876,90980,90902
 3.7000e+000 91104 -1.0896e+002 -3.4395e+002  4.5622e+001 45226 90876,91006,90980
 3.7000e+000 91081 -1.5442e+002 -3.4139e+002 -1.6983e+001 45226 90902,90980,90954
 3.7000e+000 91058 -8.7414e+001 -2.8258e+002 -5.2707e+001 45226 90902,90954,90928
 3.7000e+000 91245 -1.4759e+002 -4.0863e+002 -3.6823e+000 45226 91006,90876,91219
 3.7000e+000 91268 -5.2751e+001 -4.0436e+002  4.2036e+001 45226 91006,91219,91032
 3.7000e+000 91516 -2.6875e+001 -4.0333e+002  4.1611e+001 44836 91539,91421,91395
 3.7000e+000 91493 -4.0834e+001 -3.9822e+002  1.5965e+000 44836 91317,91421,91343
 3.7000e+000 91470 -1.0622e+002 -3.9359e+002  3.0928e+001 44836 91539,91395,91369
 3.7000e+000 91447 -7.3058e+001 -2.6943e+002  8.0658e+001 44836 91291,91421,91317
 3.7000e+000 91565 -6.4828e+001 -4.0637e+002 -1.8525e+000 44836 91343,91421,91539
 3.7000e+000 91588 -1.2360e+002 -4.1185e+002 -2.5933e+001 44836 91343,91539,91369
 3.7000e+000 91787 -1.3848e+002 -3.0688e+002  2.2368e+001 44432 91810,91637,91611
 3.7000e+000 91764 -1.4881e+002 -3.3368e+002  3.0154e+001 44432 91810,91611,91715
 3.7000e+000 91741 -7.3207e+001 -2.6283e+002 -1.4622e+001 44432 91637,91689,91663
 3.7000e+000 91836 -1.5074e+002 -2.9388e+002  2.2416e+001 44432 91689,91637,91810
 3.7000e+000 91859 -1.4923e+002 -3.0794e+002  2.6661e+001 44432 91689,91810,91715
 3.7000e+000 92207 -1.9231e+002 -3.6372e+002  3.7914e+001 43864 92230,91936,91910
 3.7000e+000 92184 -2.2202e+002 -3.8722e+002  4.8649e+001 43864 92230,91910,92040
 3.7000e+000 92161 -2.6674e+002 -3.9952e+002  9.3214e+001 43864 91884,92040,91910
 3.7000e+000 92138 -1.5066e+002 -2.8914e+002  1.1918e+001 43864 91936,92014,91988
 3.7000e+000 92115 -1.2167e+002 -3.7015e+002  7.2013e+001 43864 91936,91988,91962
 3.7000e+000 92092 -1.9397e+002 -3.2246e+002  6.2828e+001 43864 91884,92066,92040
 3.7000e+000 92256 -2.2715e+002 -3.2632e+002  3.8853e+001 43864 92014,91936,92230
 3.7000e+000 92279 -2.5783e+002 -3.5721e+002  5.2881e+001 43864 92014,92230,92040
 3.7000e+000 92529 -1.9198e+002 -3.8684e+002  2.2960e+001 43410 92552,92330,92304
 3.7000e+000 92506 -1.8754e+002 -3.7702e+002  3.6741e-001 43410 92552,92304,92408
 3.7000e+000 92483 -2.0287e+002 -3.7325e+002  5.9871e+000 43410 92304,92434,92408
 3.7000e+000 92460 -1.2907e+002 -3.2625e+002 -1.3438e+001 43410 92330,92382,92356
 3.7000e+000 92578 -1.7916e+002 -3.8020e+002  9.3053e+000 43410 92382,92330,92552
 3.7000e+000 92601 -1.5673e+002 -3.5169e+002 -1.6191e+001 43410 92382,92552,92408
 3.7000e+000 92802 -7.1090e+001 -3.6983e+002  3.8779e+001 43162 92825,92704,92652
 3.7000e+000 92779 -4.7196e+001 -3.4392e+002  7.0414e+001 43162 92825,92652,92626
 3.7000e+000 92756 -2.5797e+001 -3.6088e+002  4.5376e+001 43162 92652,92704,92678
 3.7000e+000 92851 -1.2202e+002 -3.7194e+002 -4.7495e+000 43162 92730,92704,92825
 3.7000e+000 92874 -1.0895e+002 -2.3342e+002  4.1984e+001 43162 92730,92825,92626
 3.7000e+000 93463 -1.2279e+002 -2.9896e+002 -5.4368e+001 42758 93140,93270,93166
 3.7000e+000 93440 -1.5888e+002 -3.4888e+002 -3.5298e+001 42758 93140,93296,93270
 3.7000e+000 93417 -1.1497e+002 -3.1572e+002 -4.0469e+001 42758 93166,93270,93218
 3.7000e+000 93394 -7.7635e+001 -3.1333e+002 -4.6834e+001 42758 93218,93270,93244
 3.7000e+000 93371 -4.7293e+001 -3.7764e+002 -3.8520e+001 42758 93140,93322,93296
 3.7000e+000 93348 -1.5581e+002 -3.8999e+002  1.7677e+001 42758 93166,93218,93192
 3.7000e+000 93920 -1.1898e+002 -3.3024e+002 -9.9880e+000 42304 93943,93672,93646
 3.7000e+000 93897 -1.1479e+002 -3.0238e+002 -2.5643e+000 42304 93943,93646,93802
 3.7000e+000 93874 -1.0989e+002 -3.2361e+002  1.8382e+001 42304 93724,93802,93776
 3.7000e+000 93851 -1.5953e+002 -3.8843e+002  1.2095e+001 42304 93672,93724,93698
 3.7000e+000 93828 -1.9439e+002 -3.8542e+002 -1.4102e+001 42304 93724,93776,93750
 3.7000e+000 93969 -1.1828e+002 -3.4020e+002 -1.7434e+001 42304 93724,93672,93943
 3.7000e+000 93992 -1.2488e+002 -3.2679e+002 -1.0821e+001 42304 93724,93943,93802
 3.7000e+000 94321 -1.3727e+002 -3.3486e+002  1.0436e+001 41478 94096,94148,94122
 3.7000e+000 94298 -1.5472e+002 -3.6276e+002  1.8155e+001 41478 94096,94226,94148
 3.7000e+000 94275 -1.8033e+002 -4.6856e+002 -4.9077e+000 41478 94148,94226,94174
 3.7000e+000 94252 -7.1036e+001 -4.0330e+002 -1.0562e+002 41478 94174,94226,94200
 3.7000e+000 94618 -1.4229e+002 -4.5072e+002 -6.3851e+000 40910 94344,94422,94396
 3.7000e+000 94595 -1.8207e+002 -4.3978e+002 -1.5445e+001 40910 94344,94448,94422
 3.7000e+000 94572 -1.5422e+002 -3.7177e+002 -3.6758e+000 40910 94344,94474,94448
 3.7000e+000 94549 -1.2859e+002 -4.5776e+002 -1.2954e+001 40910 94344,94396,94370
 3.7000e+000 94526 -2.5001e+002 -4.8591e+002  3.7276e+001 40910 94344,94500,94474
 3.7000e+000 94866 -1.4607e+002 -3.0264e+002 -3.9921e+001 40306 94667,94719,94693
 3.7000e+000 94843 -1.9037e+002 -3.3137e+002 -2.6981e+001 40306 94641,94719,94667
 3.7000e+000 94820 -2.2177e+002 -3.4228e+002  1.1410e-001 40306 94641,94745,94719
 3.7000e+000 94797 -1.6555e+002 -3.0760e+002 -1.5595e+001 40306 94641,94771,94745
 3.7000e+000 95089 -2.3739e+001 -3.1985e+002  2.9771e+001 39702 94913,94991,94939
 3.7000e+000 95066 -3.3910e+001 -2.8996e+002  8.7626e+000 39702 94913,95017,94991
 3.7000e+000 95043 -5.1498e+000 -3.1495e+002  5.0830e+000 39702 94939,94991,94965
 3.7000e+000 95339 -1.3762e+002 -3.0887e+002 -4.0882e+001 39248 95140,95218,95166
 3.7000e+000 95316 -1.8052e+002 -3.3877e+002 -2.3106e+001 39248 95140,95244,95218
 3.7000e+000 95293 -1.1272e+002 -3.6909e+002 -4.8204e+001 39248 95114,95244,95140
 3.7000e+000 95270 -1.2267e+002 -3.3642e+002 -6.7821e+001 39248 95166,95218,95192
 3.7000e+000 95770 -1.3911e+002 -2.5512e+002  1.7977e+001 38694 95551,95629,95577
 3.7000e+000 95747 -9.6151e+001 -3.2692e+002  1.6798e+001 38694 95447,95629,95551
 3.7000e+000 95724 -7.0106e+001 -2.8090e+002 -1.4195e+001 38694 95447,95551,95473
 3.7000e+000 95701 -5.2814e+001 -2.6994e+002 -2.0011e+001 38694 95473,95551,95499
 3.7000e+000 95678 -4.4829e+001 -2.5733e+002 -4.0206e+001 38694 95499,95551,95525
 3.7000e+000 95655 -1.4171e+002 -2.8874e+002  4.8694e+001 38694 95577,95629,95603
 3.7000e+000 96325 -1.8731e+002 -4.2010e+002  1.4890e+001 38240 95953,96031,96005
 3.7000e+000 96302 -1.8943e+002 -2.4234e+002  8.1624e+001 38240 95953,96161,96031
 3.7000e+000 96279 -1.2824e+002 -2.3066e+002 -1.2470e+001 38240 96031,96161,96135
 3.7000e+000 96256 -1.4537e+002 -3.0994e+002  5.1480e+001 38240 96348,96109,96057
 3.7000e+000 96233 -1.2759e+002 -2.7738e+002  4.0046e+001 38240 96348,96057,96031
 3.7000e+000 96210 -1.1459e+002 -3.1643e+002  7.3919e+001 38240 96057,96109,96083
 3.7000e+000 96187 -2.0985e+002 -2.6818e+002 -5.4827e+000 38240 95953,96005,95979
 3.7000e+000 96374 -1.1892e+002 -3.6236e+002  2.9994e+001 38240 96135,96109,96348
 3.7000e+000 96397 -8.9293e+001 -3.0825e+002  1.4425e+001 38240 96135,96348,96031
 3.7000e+000 96618 -1.2274e+002 -3.9445e+002 -5.6310e+000 37821 96494,96546,96520
 3.7000e+000 96595 -3.3173e+001 -3.2771e+002  2.3693e+001 37821 96468,96546,96494
 3.7000e+000 96572  6.6609e+000 -3.1061e+002  2.0616e+001 37821 96442,96546,96468
 3.7000e+000 97126 -1.0863e+002 -2.6612e+002 -2.8832e+001 37367 97149,96855,96829
 3.7000e+000 97103 -1.2215e+002 -2.7254e+002 -2.5728e+001 37367 97149,96829,96985
 3.7000e+000 97080 -9.9391e+001 -2.8365e+002 -3.1463e+001 37367 96803,96985,96829
 3.7000e+000 97057 -8.0033e+001 -2.4912e+002 -3.5412e+001 37367 96855,96907,96881
 3.7000e+000 97034 -1.6313e+002 -2.5005e+002 -1.0130e+001 37367 96907,96985,96959
 3.7000e+000 97011 -1.9047e+002 -2.4917e+002 -3.1302e+001 37367 96907,96959,96933
 3.7000e+000 97175 -1.2139e+002 -2.5985e+002 -3.5671e+001 37367 96907,96855,97149
 3.7000e+000 97198 -1.3121e+002 -2.6520e+002 -3.2946e+001 37367 96907,97149,96985
 3.7000e+000 97704 -1.2991e+002 -3.1435e+002  3.6103e+001 36863 97727,97511,97485
 3.7000e+000 97681 -1.2285e+002 -2.7875e+002  5.0163e+001 36863 97727,97485,97433
 3.7000e+000 97658 -1.7754e+002 -3.4277e+002  2.6425e+000 36863 97381,97563,97433
 3.7000e+000 97635 -7.8987e+001 -2.9586e+002 -8.2009e+000 36863 97511,97563,97537
 3.7000e+000 97612 -6.8312e+001 -1.8945e+002  2.9641e+000 36863 97433,97485,97459
 3.7000e+000 97589 -2.1114e+002 -3.4859e+002  3.0000e+001 36863 97381,97433,97407
 3.7000e+000 97753 -1.3130e+002 -3.4266e+002  1.9062e+001 36863 97563,97511,97727
 3.7000e+000 97776 -1.2958e+002 -3.1047e+002  3.1422e+001 36863 97563,97727,97433
 3.7000e+000 98331 -2.0085e+002 -4.6743e+002  3.1254e-001 36287 98354,98089,98063
 3.7000e+000 98308 -1.8148e+002 -4.6456e+002  2.7575e+001 36287 98354,98063,98011
 3.7000e+000 98285 -2.4142e+002 -4.1488e+002  6.1355e+001 36287 98426,97985,98115
 3.7000e+000 98262 -1.7715e+002 -4.7832e+002  2.5026e+001 36287 98011,98063,98037
 3.7000e+000 98239 -2.4287e+002 -3.6740e+002  2.5219e+001 36287 97985,98141,98115
 3.7000e+000 98216 -2.0333e+002 -3.2922e+002  4.4834e+001 36287 97959,98141,97985
 3.7000e+000 98193 -1.7726e+002 -4.5289e+002  8.5200e+001 36287 97959,98167,98141
 3.7000e+000 98380 -2.0927e+002 -4.5165e+002 -1.1906e+001 36287 98115,98089,98354
 3.7000e+000 98403 -1.8780e+002 -4.1251e+002  1.7686e+000 36287 98426,98115,98354
 3.7000e+000 98452 -3.0390e+002 -4.8651e+002  9.6396e+001 36287 98011,97985,98426
 3.7000e+000 98475 -2.6088e+002 -5.0398e+002  4.0412e+001 36287 98011,98426,98354
 3.7000e+000 99030 -1.6148e+002 -4.8781e+002 -4.3287e+001 35726 99053,98736,98710
 3.7000e+000 99007 -8.7795e+001 -3.8656e+002  3.6448e+000 35726 99053,98710,98684
 3.7000e+000 98984 -1.7826e+002 -3.7697e+002 -3.8918e+001 35726 99125,98814,98736
 3.7000e+000 98961 -1.4773e+002 -3.2330e+002 -1.6436e+001 35726 98736,98814,98788
 3.7000e+000 98938 -1.4676e+002 -3.2877e+002  2.9569e+001 35726 98684,98866,98840
 3.7000e+000 98915 -1.2889e+002 -3.1875e+002 -6.1495e+000 35726 98736,98788,98762
 3.7000e+000 98892 -9.1740e+001 -3.1364e+002  3.3575e+001 35726 98658,98866,98684
 3.7000e+000 99079 -1.2978e+002 -3.7784e+002 -1.1159e+001 35726 99125,98736,99053
 3.7000e+000 99102 -1.5779e+002 -3.2624e+002  8.1338e+000 35726 98840,99053,98684
 3.7000e+000 99151 -2.2206e+002 -3.9798e+002 -5.3210e+001 35726 98840,98814,99125
 3.7000e+000 99174 -1.9569e+002 -4.0164e+002 -1.9326e+001 35726 98840,99125,99053
 3.7000e+000 99454 -6.0034e+001 -2.5003e+002 -2.0691e+001 35222 99278,99330,99304
 3.7000e+000 99431 -8.5312e+001 -2.4942e+002  1.0021e+001 35222 99278,99382,99330
 3.7000e+000 99408 -1.3317e+002 -2.8195e+002 -7.4127e+000 35222 99330,99382,99356
 3.7000e+000 99653 -1.0215e+000 -3.6756e+002 -2.0883e+001 34867 99477,99529,99503
 3.7000e+000 99630 -9.1881e+001 -2.6007e+002 -3.9044e+001 34867 99477,99581,99529
 3.7000e+000 99607 -1.0561e+002 -4.2627e+002 -1.1930e+002 34867 99529,99581,99555
 3.7000e+000 100104 -8.6489e+001 -3.7358e+002 -9.9139e+000 34363 99781,99885,99807
 3.7000e+000 100081 -1.4294e+002 -4.0574e+002  1.3710e+001 34363 99781,99963,99885
 3.7000e+000 100058 -4.8634e+001 -3.5993e+002 -1.0427e+001 34363 99885,99963,99911
 3.7000e+000 100035 -6.7164e+001 -3.0973e+002  6.7718e+000 34363 99807,99885,99859
 3.7000e+000 100012 -2.9617e+001 -3.4568e+002 -4.4692e+001 34363 99911,99963,99937
 3.7000e+000 99989 -6.8731e+000 -2.7764e+002  2.9221e+001 34363 99807,99859,99833
 3.7000e+000 100303 -1.4973e+002 -2.8327e+002 -8.2477e+001 33909 100127,100205,100179
 3.7000e+000 100280 -2.2855e+002 -3.1736e+002 -7.2503e+001 33909 100127,100231,100205
 3.7000e+000 100257 -1.8215e+002 -3.3834e+002 -5.0159e+001 33909 100127,100179,100153
 3.7000e+000 100890 -7.7863e+001 -3.0202e+002 -4.4752e+001 33412 100645,100749,100697
 3.7000e+000 100867 -8.0632e+001 -3.6941e+002 -3.2287e+001 33412 100567,100749,100645
 3.7000e+000 100844 -7.8056e+001 -3.7831e+002 -3.7750e+001 33412 100567,100645,100619
 3.7000e+000 100821 -9.1779e+001 -3.5463e+002 -7.5751e+001 33412 100645,100697,100671
 3.7000e+000 100798 -1.0545e+002 -5.0413e+002 -1.7228e+001 33412 100567,100619,100593
 3.7000e+000 100775 -1.6856e+002 -2.9634e+002 -1.8034e+001 33412 100697,100749,100723
 3.7000e+000 101268 -6.5228e+001 -4.1329e+002 -5.8319e+000 32908 101435,101291,101098
 3.7000e+000 101245 -1.3521e+002 -4.0505e+002  2.3884e+001 32908 101291,101072,101020
 3.7000e+000 101222 -1.2789e+002 -4.2726e+002 -7.2560e+001 32908 101363,101150,101124
 3.7000e+000 101199 -1.5991e+002 -4.3588e+002  6.4563e+001 32908 101020,101072,101046
 3.7000e+000 101176 -6.9777e+001 -2.9193e+002 -1.8847e+001 32908 100994,101150,101020
 3.7000e+000 101317 -9.9519e+001 -4.4054e+002  6.2567e+000 32908 101124,101098,101291
 3.7000e+000 101340 -1.0319e+002 -4.6612e+002 -8.6698e+000 32908 101363,101124,101291
 3.7000e+000 101389 -9.0316e+001 -3.5984e+002 -5.7105e+001 32908 101020,101150,101363
 3.7000e+000 101412 -5.8555e+001 -3.6616e+002  4.9631e+000 32908 101020,101363,101291
 3.7000e+000 101461 -4.9943e+001 -3.5992e+002  4.6747e+001 32908 101072,101291,101435
 3.7000e+000 101918 -1.0467e+002 -4.3286e+002 -4.1552e+001 32618 101941,101670,101644
 3.7000e+000 101895 -3.7733e+001 -4.3486e+002  4.6272e+000 32618 101941,101644,101774
 3.7000e+000 101872 -1.6949e+002 -3.8194e+002 -5.4911e+000 32618 102013,101696,101670
 3.7000e+000 101849 -3.3591e+001 -2.9035e+002 -5.3330e+001 32618 101696,101748,101722
 3.7000e+000 101826 -2.5368e+001 -4.1686e+002 -1.2474e+000 32618 101644,101800,101774
 3.7000e+000 101967 -1.6733e+002 -4.3641e+002 -3.5660e+001 32618 102013,101670,101941
 3.7000e+000 101990 -1.3347e+002 -4.8957e+002  2.6625e+001 32618 101748,101941,101774
 3.7000e+000 102039 -1.5230e+002 -3.6253e+002  4.6690e+000 32618 101748,101696,102013
 3.7000e+000 102062 -9.0797e+001 -3.8259e+002 -1.0228e+001 32618 101748,102013,101941
 3.7000e+000 102440 -1.6697e+002 -4.1605e+002  3.1567e+001 32306 102463,102270,102244
 3.7000e+000 102417 -1.6985e+002 -4.1277e+002  3.5430e+000 32306 102463,102244,102192
 3.7000e+000 102394 -1.6116e+002 -3.5234e+002 -1.4719e+000 32306 102192,102244,102218
 3.7000e+000 102371 -1.2355e+002 -4.0708e+002  2.9613e+001 32306 102270,102322,102296
 3.7000e+000 102348 -8.2208e+001 -4.6481e+002 -3.7054e+001 32306 102166,102322,102192
 3.7000e+000 102489 -1.3956e+002 -4.0561e+002  3.2999e+001 32306 102322,102270,102463
 3.7000e+000 102512 -1.4087e+002 -4.0304e+002  3.4612e+000 32306 102322,102463,102192
 3.7000e+000 102662 -1.1267e+002 -4.2602e+002  1.5199e+000 31852 102943,102587,102561
 3.7000e+000 102639 -5.7799e+001 -3.8511e+002  1.6438e+001 31852 102815,102685,102561
 3.7000e+000 102711 -1.2554e+002 -4.6506e+002 -1.6367e+001 31852 102943,102561,102685
 3.7000e+000 102841 -4.8413e+001 -3.1876e+002  5.0828e+001 31852 102535,102685,102815
 3.7000e+000 102969 -1.2274e+002 -4.6502e+002 -1.8202e+001 31852 102613,102587,102943
 3.7000e+000 102992 -1.3364e+002 -4.9802e+002 -3.6656e+001 31852 102613,102943,102685
 3.7000e+000 103370 -2.2869e+002 -5.2869e+002  1.8022e+001 31134 103096,103200,103122
 3.7000e+000 103347 -2.7069e+002 -6.3985e+002  5.5880e+001 31134 103096,103226,103200
 3.7000e+000 103324 -2.4237e+002 -5.1340e+002  3.8894e+000 31134 103122,103200,103174
 3.7000e+000 103301 -1.4661e+002 -5.5436e+002  1.0554e+001 31134 103096,103252,103226
 3.7000e+000 103278 -1.6906e+002 -5.3374e+002 -6.9900e+001 31134 103122,103174,103148
 3.7000e+000 103520 -6.1208e+001 -6.2416e+002  1.8185e+000 30822 103393,103445,103419
 3.7000e+000 103497 -3.1215e+001 -3.7823e+002  2.4392e+001 30822 103393,103471,103445
 3.7000e+000 103719 -2.9955e+001 -2.6353e+002  1.6093e+001 30182 103742,103621,103569
 3.7000e+000 103696  2.8426e+000 -2.5978e+002  2.3988e+001 30182 103742,103569,103543
 3.7000e+000 103673 -4.9050e+001 -2.6973e+002  2.3209e+001 30182 103569,103621,103595
 3.7000e+000 103768 -5.5261e+001 -2.5665e+002  1.1438e+001 30182 103647,103621,103742
 3.7000e+000 103791 -3.5070e+001 -2.5896e+002  2.3899e+001 30182 103647,103742,103543
 3.7000e+000 104252 -1.5728e+002 -3.2402e+002  1.0553e+001 29728 104030,104108,104056
 3.7000e+000 104229 -1.0299e+002 -2.0371e+002  2.2633e+001 29728 104004,104108,104030
 3.7000e+000 104206 -5.5678e+001 -2.2788e+002  1.7782e+001 29728 104004,104134,104108
 3.7000e+000 104183 -9.8990e+001 -2.6184e+002 -3.8544e+001 29728 103978,104134,104004
 3.7000e+000 104160 -9.2815e+001 -2.9154e+002 -1.6754e+001 29728 104056,104108,104082
 3.7000e+000 104630 -1.3969e+002 -4.3994e+002 -4.6461e+001 29217 104653,104382,104356
 3.7000e+000 104607 -1.1402e+002 -3.9181e+002 -1.3252e+001 29217 104653,104356,104512
 3.7000e+000 104584 -1.8407e+002 -4.4147e+002 -5.0984e+001 29217 104434,104512,104486
 3.7000e+000 104561 -1.1427e+002 -4.8170e+002 -6.1834e+001 29217 104382,104434,104408
 3.7000e+000 104538 -8.1049e+001 -3.1996e+002  1.4712e+001 29217 104434,104486,104460
 3.7000e+000 104679 -1.5224e+002 -4.4581e+002 -6.6056e+001 29217 104434,104382,104653
 3.7000e+000 104702 -1.4997e+002 -4.2702e+002 -3.6368e+001 29217 104434,104653,104512
 3.7000e+000 105178 -1.0191e+002 -3.7623e+002  2.5200e+001 28649 105201,104962,104936
 3.7000e+000 105155 -1.0498e+002 -3.6666e+002  2.7877e+001 28649 105201,104936,104884
 3.7000e+000 105132 -1.1183e+002 -3.1936e+002 -2.9401e+001 28649 105273,104858,105014
 3.7000e+000 105109 -1.9739e+002 -3.8946e+002  9.1193e+000 28649 104962,105014,104988
 3.7000e+000 105086 -3.4233e+001 -2.9317e+002 -4.5976e+001 28649 104884,104936,104910
 3.7000e+000 105063 -1.0562e+002 -2.9307e+002 -1.4370e+001 28649 104806,105014,104858
 3.7000e+000 105040 -1.4149e+002 -2.7358e+002 -3.2700e+001 28649 104806,104858,104832
 3.7000e+000 105227 -9.4735e+001 -3.8660e+002  1.1757e+001 28649 105014,104962,105201
 3.7000e+000 105250 -7.1442e+001 -3.4287e+002 -2.7645e-001 28649 105273,105014,105201
 3.7000e+000 105299 -1.5078e+002 -3.4450e+002 -1.6555e+001 28649 104884,104858,105273
 3.7000e+000 105322 -1.3877e+002 -3.8504e+002  1.8776e+001 28649 104884,105273,105201
 3.7000e+000 105673 -2.9256e+001 -4.2423e+002  4.6419e+000 28351 105474,105578,105552
 3.7000e+000 105650  7.6524e+000 -2.7050e+002 -8.6139e+000 28351 105448,105578,105474
 3.7000e+000 105627 -5.5972e+000 -3.9753e+002  1.5535e+000 28351 105500,105552,105526
 3.7000e+000 105604 -1.1272e+001 -4.1564e+002  2.0160e+000 28351 105474,105552,105500
 3.7000e+000 106130 -1.5908e+002 -2.6886e+002 -7.7742e+001 28004 106153,105882,105856
 3.7000e+000 106107 -1.4486e+002 -3.6111e+002 -4.7718e+001 28004 106153,105856,105986
 3.7000e+000 106084 -2.6322e+002 -3.9399e+002  2.0098e+001 28004 105934,105986,105960
 3.7000e+000 106061 -2.1526e+002 -4.4695e+002 -1.7225e+001 28004 105856,106012,105986
 3.7000e+000 106038 -2.6887e+002 -4.2357e+002 -3.1633e+001 28004 105882,105934,105908
 3.7000e+000 106179 -2.3397e+002 -3.4323e+002 -3.5793e+001 28004 105934,105882,106153
 3.7000e+000 106202 -1.5965e+002 -3.8970e+002 -2.0336e+001 28004 105934,106153,105986
 3.7000e+000 106885 -2.1692e+002 -3.4089e+002 -9.4509e+000 27564 106908,106620,106516
 3.7000e+000 106862 -2.0943e+002 -3.2862e+002 -3.4166e+000 27564 106908,106516,106490
 3.7000e+000 106839 -1.8527e+002 -3.1475e+002 -3.8496e+001 27564 106516,106620,106542
 3.7000e+000 106816 -2.1239e+002 -2.9469e+002 -1.2035e+001 27564 106620,106672,106646
 3.7000e+000 106793 -1.5190e+002 -3.3225e+002 -5.0863e+001 27564 106542,106620,106594
 3.7000e+000 106770 -2.1820e+002 -3.0267e+002  1.7569e+001 27564 106490,106698,106672
 3.7000e+000 106747 -1.7281e+002 -3.3044e+002  5.8512e+001 27564 106464,106698,106490
 3.7000e+000 106724 -2.7024e+001 -2.5927e+002 -8.4408e+001 27564 106542,106594,106568
 3.7000e+000 106934 -2.2641e+002 -3.3075e+002 -1.2143e+001 27564 106672,106620,106908
 3.7000e+000 106957 -2.2136e+002 -3.1884e+002 -9.1199e+000 27564 106672,106908,106490
 3.7000e+000 107463 -1.0329e+002 -2.8060e+002 -4.3188e+000 27053 107218,107322,107296
 3.7000e+000 107440 -1.2575e+002 -3.2948e+002  1.5386e+001 27053 107166,107322,107218
 3.7000e+000 107417 -1.1024e+002 -3.4045e+002 -9.3754e+000 27053 107218,107296,107244
 3.7000e+000 107394 -1.3598e+002 -2.6635e+002  3.1081e+001 27053 107140,107322,107166
 3.7000e+000 107371 -1.2938e+002 -3.6518e+002  2.8131e+001 27053 107166,107218,107192
 3.7000e+000 107348 -1.0614e+002 -4.3958e+002 -5.3571e+001 27053 107244,107296,107270
 3.7000e+000 108097 -1.7656e+002 -4.6033e+002 -2.4586e+001 26549 108192,108120,107803
 3.7000e+000 108074 -1.6436e+002 -5.2669e+002  3.4576e+001 26549 108120,107725,107933
 3.7000e+000 108051 -6.9060e+001 -6.0118e+002  2.2855e+001 26549 107751,107803,107777
 3.7000e+000 108028 -1.7399e+002 -4.9346e+002 -3.3483e+001 26549 108192,107803,107751
 3.7000e+000 108005 -1.0881e+002 -3.1252e+002 -5.4526e+000 26549 108264,107855,107803
 3.7000e+000 107982 -5.2900e+001 -3.6478e+002 -1.7623e+001 26549 107881,107933,107907
 3.7000e+000 107959 -1.4716e+002 -3.3415e+002  4.3430e+000 26549 107803,107855,107829
 3.7000e+000 108146 -1.3794e+002 -3.6398e+002 -2.5537e+001 26549 108264,107803,108120
 3.7000e+000 108169 -1.3063e+002 -4.3816e+002  1.2727e+001 26549 107881,108120,107933
 3.7000e+000 108218 -1.7068e+002 -4.2639e+002 -5.6079e-001 26549 107725,108120,108192
 3.7000e+000 108241 -1.6556e+002 -4.5199e+002 -1.1155e+001 26549 107725,108192,107751
 3.7000e+000 108290 -7.1030e+001 -3.7871e+002 -1.7231e+001 26549 107881,107855,108264
 3.7000e+000 108313 -9.6945e+001 -4.3653e+002 -3.1071e+001 26549 107881,108264,108120
 3.7000e+000 108512 -5.3292e+001 -2.9541e+002 -3.2864e+001 26137 108388,108440,108414
 3.7000e+000 108489 -3.5415e+001 -2.8733e+002 -9.9481e+000 26137 108362,108440,108388
 3.7000e+000 108466 -1.8656e+001 -3.2797e+002 -2.1290e+001 26137 108336,108440,108362
 3.7000e+000 108662 -1.1287e+002 -3.4921e+002 -3.5684e+001 25733 108817,108685,108535
 3.7000e+000 108639 -4.7827e+001 -3.7145e+002 -1.7265e+001 25733 109017,108817,108535
 3.7000e+000 108711 -1.2173e+002 -3.1387e+002 -1.6574e+001 25733 108561,108535,108685
 3.7000e+000 108843 -6.0729e+001 -3.4121e+002 -9.4941e+000 25733 108587,108685,108817
 3.7000e+000 108866 -6.1556e+001 -3.3504e+002  2.3827e+000 25733 108889,108817,108613
 3.7000e+000 108915 -6.0208e+001 -3.2854e+002 -9.3732e+000 25733 108587,108817,108889
 3.7000e+000 109043 -4.7017e+001 -2.7660e+002  1.3057e+001 25733 108613,108817,109017
 3.7000e+000 109500 -2.2632e+002 -4.3895e+002  5.1944e+001 25229 109523,109356,109330
 3.7000e+000 109477 -1.1875e+002 -3.2888e+002 -1.1775e+001 25229 109595,109523,109330
 3.7000e+000 109454 -1.2287e+002 -2.9895e+002 -4.0293e+001 25229 109595,109330,109278
 3.7000e+000 109431 -1.3265e+002 -3.0420e+002 -2.5055e+001 25229 109667,109226,109382
 3.7000e+000 109408 -1.3532e+002 -3.1461e+002 -4.8989e+001 25229 109278,109330,109304
 3.7000e+000 109549 -6.5729e+001 -3.5648e+002  1.0841e+001 25229 109382,109356,109523
 3.7000e+000 109572 -1.1107e+002 -3.3981e+002 -3.2154e+001 25229 109667,109382,109523
 3.7000e+000 109621 -1.4036e+002 -3.9449e+002 -2.5644e+001 25229 109252,109523,109595
 3.7000e+000 109644 -9.0431e+001 -3.2221e+002 -1.6066e+001 25229 109739,109595,109278
 3.7000e+000 109693 -1.7443e+002 -3.6852e+002 -7.5512e-001 25229 109252,109226,109667
 3.7000e+000 109716 -1.3687e+002 -3.9440e+002 -2.1609e+001 25229 109252,109667,109523
 3.7000e+000 109765 -1.6838e+002 -3.5072e+002 -1.3237e+001 25229 109252,109595,109739
 3.7000e+000 110478 -7.6227e+001 -2.5464e+002  3.5938e+001 24917 110158,110236,110184
 3.7000e+000 110455 -9.3182e+001 -2.7879e+002 -1.8836e+001 24917 110158,110288,110236
 3.7000e+000 110432 -4.3165e+001 -3.9201e+002  3.3674e+000 24917 110236,110288,110262
 3.7000e+000 110409 -4.8676e+001 -2.8180e+002  4.3413e+001 24917 110184,110236,110210
 3.7000e+000 110386 -1.5487e+002 -3.7730e+002 -4.6051e+001 24917 110132,110288,110158
 3.7000e+000 110363 -1.5726e+002 -3.6379e+002 -8.6244e+000 24917 110132,110314,110288
 3.7000e+000 110340 -2.1655e+002 -4.4056e+002 -3.1664e+001 24917 110106,110314,110132
 3.7000e+000 110829  4.0185e+001 -9.1940e+001  1.0773e+001 24307 110604,110682,110630
 3.7000e+000 110806 -6.3909e+001 -4.4747e+002  3.1440e+001 24307 110604,110708,110682
 3.7000e+000 110783  5.2854e+000 -4.0583e+002 -1.0508e+001 24307 110604,110734,110708
 3.7000e+000 110760  4.5317e-001 -1.0897e+002  1.2285e+001 24307 110630,110682,110656
 3.7000e+000 111335 -8.6083e+001 -2.7715e+002 -5.0607e+001 23767 111012,111168,111038
 3.7000e+000 111312 -7.7637e+001 -3.0021e+002 -6.0551e+001 23767 111012,111194,111168
 3.7000e+000 111289 -1.8014e+002 -3.4958e+002  3.1988e+001 23767 111358,111064,111038
 3.7000e+000 111266 -1.2081e+002 -3.2712e+002 -2.2451e+001 23767 111358,111038,111168
 3.7000e+000 111243 -7.4356e+001 -2.8658e+002 -1.7100e+001 23767 111430,111142,111090
 3.7000e+000 111220 -4.7732e-001 -2.5474e+002  6.1515e+000 23767 111090,111142,111116
 3.7000e+000 111384 -1.3097e+002 -3.1980e+002 -8.1143e+000 23767 111090,111064,111358
 3.7000e+000 111407 -1.3681e+002 -2.9880e+002 -2.6563e+001 23767 111430,111090,111358
 3.7000e+000 111456 -1.4025e+001 -3.1756e+002 -3.1496e+001 23767 111168,111142,111430
 3.7000e+000 111479 -4.9489e+001 -3.0898e+002 -3.5459e+001 23767 111168,111430,111358
 3.7000e+000 111985 -1.0757e+002 -2.8266e+002  3.4474e+001 23477 111688,111844,111818
 3.7000e+000 111962 -9.7143e+001 -2.9358e+002 -4.4535e+001 23477 111662,111844,111688
 3.7000e+000 111939 -6.5076e+001 -4.6720e+002  4.5233e+001 23477 111766,111818,111792
 3.7000e+000 111916 -1.8910e+002 -4.4207e+002  2.8579e+001 23477 111740,111818,111766
 3.7000e+000 111893 -1.0843e+002 -2.5021e+002  4.0999e+001 23477 111688,111818,111740
 3.7000e+000 111870 -1.7733e+002 -3.0980e+002  6.8622e+001 23477 111688,111740,111714
 3.7000e+000 112314 -1.3204e+002 -2.6371e+002  2.5769e+000 23023 112141,112219,112193
 3.7000e+000 112291 -1.0404e+002 -2.6947e+002 -1.3723e+001 23023 112115,112219,112141
 3.7000e+000 112268 -9.8079e+001 -3.2397e+002  5.1085e+001 23023 112141,112193,112167
 3.7000e+000 112245 -8.8093e+001 -2.7786e+002 -5.8774e+000 23023 112089,112219,112115
 3.7000e+000 112692 -1.2201e+002 -3.5705e+002 -1.4453e+001 22768 112444,112574,112548
 3.7000e+000 112669 -8.5440e+001 -3.3897e+002  3.2669e-001 22768 112418,112574,112444
 3.7000e+000 112646 -1.5565e+002 -3.6488e+002  9.8344e+000 22768 112444,112522,112470
 3.7000e+000 112623 -1.1197e+002 -3.4941e+002 -4.7910e+000 22768 112444,112548,112522
 3.7000e+000 112600  5.5044e+000 -2.9423e+002 -8.4962e+000 22768 112470,112522,112496
 3.7000e+000 113011 -7.6487e+001 -4.3243e+002 -3.1407e+001 22314 112763,112867,112789
 3.7000e+000 112988 -3.3107e+001 -4.3465e+002 -4.0245e+001 22314 112763,112893,112867
 3.7000e+000 112965 -7.9631e+001 -4.2588e+002  0.0000e+000 22314 112815,112867,112841
 3.7000e+000 112942 -1.1503e+002 -4.5122e+002 -2.4298e+001 22314 112789,112867,112815
 3.7000e+000 112919 -2.1321e+001 -3.4111e+002  8.5155e+001 22314 112737,112893,112763
 3.7000e+000 113519 -1.9071e+001 -3.2536e+002  7.6412e+001 21924 113614,113542,113248
 3.7000e+000 113496 -6.5456e+001 -3.2726e+002  3.2198e+001 21924 113542,113196,113378
 3.7000e+000 113473 -5.5163e+001 -3.2525e+002  7.7129e+001 21924 113614,113248,113222
 3.7000e+000 113450 -6.5654e+001 -4.5659e+002  2.5180e+001 21924 113686,113274,113248
 3.7000e+000 113427 -1.2442e+002 -5.0222e+002 -2.8177e+001 21924 113274,113352,113326
 3.7000e+000 113404 -2.1265e+002 -6.4516e+002 -6.5701e+001 21924 113274,113326,113300
 3.7000e+000 113568 -1.6447e+001 -3.9213e+002  5.2393e+001 21924 113686,113248,113542
 3.7000e+000 113591 -5.7180e+001 -3.0534e+002  3.4526e+001 21924 113352,113542,113378
 3.7000e+000 113640 -5.4435e+001 -3.3415e+002  6.1802e+001 21924 113196,113542,113614
 3.7000e+000 113663 -6.9833e+001 -3.2105e+002  5.9467e+001 21924 113196,113614,113222
 3.7000e+000 113712 -1.1670e+002 -3.8460e+002 -4.0414e+000 21924 113352,113274,113686
 3.7000e+000 113735 -9.2277e+001 -3.5200e+002  1.6103e+001 21924 113352,113686,113542
 3.7000e+000 113885 -2.4778e+002 -3.5889e+002  9.5854e-001 21520 113980,113908,113784
 3.7000e+000 113862 -1.9365e+002 -3.3302e+002 -5.6022e+001 21520 114238,113908,113758
 3.7000e+000 113934 -1.5725e+002 -2.9531e+002  3.4662e+001 21520 114110,113908,113810
 3.7000e+000 113957 -1.3350e+002 -3.6216e+002 -3.3706e+001 21520 113810,113908,113836
 3.7000e+000 114006 -1.7317e+002 -2.9556e+002 -2.6278e+001 21520 113758,113908,113980
 3.7000e+000 114136 -2.3058e+002 -3.5081e+002  3.1776e+000 21520 113784,113908,114110
 3.7000e+000 114264 -2.5210e+002 -4.1340e+002 -8.5684e+001 21520 113836,113908,114238
 3.7000e+000 114662 -1.6469e+002 -4.7246e+002  1.2335e+001 21030 114414,114518,114492
 3.7000e+000 114639 -3.8492e+001 -3.6814e+002 -3.9732e+001 21030 114414,114544,114518
 3.7000e+000 114616 -1.9506e+002 -4.9136e+002 -9.0822e-001 21030 114440,114492,114466
 3.7000e+000 114593 -1.6869e+002 -4.8198e+002  1.1888e+001 21030 114414,114492,114440
 3.7000e+000 114570 -9.1855e+001 -3.7683e+002  2.8254e+000 21030 114388,114544,114414
 3.7000e+000 114959 -2.9890e+002 -5.2376e+002  3.5607e+001 20512 114982,114711,114685
 3.7000e+000 114936 -2.7134e+002 -4.9770e+002 -9.6864e+000 20512 115054,114982,114685
 3.7000e+000 114913 -2.2144e+002 -4.2032e+002 -3.1644e+001 20512 115054,114685,114841
 3.7000e+000 114890 -1.6616e+002 -4.8351e+002  1.7193e+001 20512 114711,114763,114737
 3.7000e+000 114867 -1.1046e+002 -4.5833e+002  9.2818e+000 20512 114763,114815,114789
 3.7000e+000 115008 -2.5561e+002 -5.1418e+002  2.1135e+001 20512 114763,114711,114982
 3.7000e+000 115031 -2.3440e+002 -5.1110e+002 -9.7553e+000 20512 114763,114982,114815
 3.7000e+000 115080 -2.5213e+002 -5.2757e+002 -9.2571e-001 20512 114815,114982,115054
 3.7000e+000 115103 -2.5795e+002 -5.1051e+002 -5.7548e-001 20512 114815,115054,114841
 3.7000e+000 115507 -2.0358e+002 -4.4162e+002 -1.3222e+001 20143 115285,115389,115363
 3.7000e+000 115484 -2.4504e+002 -5.1740e+002  3.0422e+000 20143 115259,115389,115285
 3.7000e+000 115461 -2.1414e+002 -4.1614e+002 -2.3674e-001 20143 115233,115389,115259
 3.7000e+000 115438 -2.0403e+002 -5.4059e+002  1.8457e+001 20143 115285,115337,115311
 3.7000e+000 115415 -2.8556e+002 -6.3069e+002 -2.3870e+001 20143 115285,115363,115337
 3.7000e+000 115875 -1.3203e+002 -3.3788e+002  3.7897e+000 19632 115656,115734,115682
 3.7000e+000 115852 -4.8885e+001 -2.9549e+002  4.5185e+001 19632 115552,115734,115656
 3.7000e+000 115829 -5.6660e+001 -3.0082e+002 -2.0555e+001 19632 115552,115656,115578
 3.7000e+000 115806 -1.2861e+002 -3.4885e+002  9.3813e+000 19632 115578,115656,115630
 3.7000e+000 115783 -1.1932e+002 -3.0255e+002  2.6082e+000 19632 115682,115734,115708
 3.7000e+000 115760 -1.6900e+002 -3.6827e+002 -3.1307e+001 19632 115578,115630,115604
 3.7000e+000 116025 -5.1610e+001 -3.7004e+002 -9.5511e+001 19178 115898,115950,115924
 3.7000e+000 116002 -1.1543e+002 -4.0456e+002 -3.7413e+001 19178 115898,115976,115950
 3.7000e+000 116633 -4.1709e+001 -3.1380e+002 -8.4812e+000 18738 116800,116656,116342
 3.7000e+000 116610 -2.4270e+001 -3.1825e+002  1.0250e+001 18738 116656,116238,116446
 3.7000e+000 116587 -8.2013e+001 -2.9866e+002 -3.4563e+001 18738 116728,116368,116342
 3.7000e+000 116564 -4.3257e+001 -3.0172e+002 -1.6143e+001 18738 116800,116342,116264
 3.7000e+000 116541 -7.7709e+001 -5.1957e+002  2.4015e+001 18738 116212,116446,116238
 3.7000e+000 116518 -1.1031e+001 -1.6447e+002 -2.1856e+001 18738 116394,116446,116420
 3.7000e+000 116495  1.7666e+002 -2.3017e+002 -6.1051e+001 18738 116264,116342,116316
 3.7000e+000 116472 -3.9198e+000 -3.7242e+002  4.1876e+001 18738 116264,116316,116290
 3.7000e+000 116682 -7.2755e+001 -2.8881e+002  1.0906e+001 18738 116728,116342,116656
 3.7000e+000 116705 -4.6123e+001 -2.0875e+002  3.8985e+001 18738 116394,116656,116446
 3.7000e+000 116754 -1.5219e+002 -3.2637e+002 -5.2558e+001 18738 116394,116368,116728
 3.7000e+000 116777 -1.4945e+002 -3.1673e+002 -5.9207e+000 18738 116394,116728,116656
 3.7000e+000 116826 -4.1769e+001 -3.3561e+002 -2.9738e+000 18738 116238,116656,116800
 3.7000e+000 116849 -3.9676e+001 -3.2149e+002 -1.2224e+001 18738 116238,116800,116264
 3.7000e+000 116999 -1.3614e+002 -4.5477e+002  2.1269e+001 18184 116872,116924,116898
 3.7000e+000 116976 -1.3569e+002 -2.3783e+002 -8.1333e+000 18184 116872,116950,116924
 3.7000e+000 117330 -2.6220e+001 -5.4673e+002  3.6039e+001 17694 117157,117235,117183
 3.7000e+000 117307 -1.6926e+002 -6.1934e+002  4.6745e+000 17694 117131,117235,117157
 3.7000e+000 117284 -1.2032e+002 -6.8515e+002 -3.2087e+001 17694 117105,117235,117131
 3.7000e+000 117261  9.0047e+001 -3.4176e+002 -1.9131e+001 17694 117183,117235,117209
 3.7000e+000 117480 -1.7380e+002 -4.5006e+002 -4.4388e+001 17290 117353,117405,117379
 3.7000e+000 117457 -8.5455e+001 -4.7767e+002 -5.2141e+001 17290 117353,117431,117405
 3.7000e+000 117679 -4.2397e+001 -3.5049e+002 -2.0927e+001 16718 117555,117607,117581
 3.7000e+000 117656 -1.7332e+002 -4.4614e+002  2.2509e+001 16718 117529,117607,117555
 3.7000e+000 117633  9.2404e+000 -4.3047e+002  1.7313e+001 16718 117503,117607,117529
 3.7000e+000 117782 -3.4690e+001 -3.0163e+002  1.0278e+001 16520 117704,117756,117730
 3.7000e+000 117983 -1.3673e+002 -5.5442e+002  4.5223e+000 16208 117859,117911,117885
 3.7000e+000 117960 -5.5103e+001 -5.0670e+002 -1.5518e+001 16208 117833,117911,117859
 3.7000e+000 117937  4.2424e+001 -4.1088e+002  2.7065e+001 16208 117807,117911,117833
 3.7000e+000 118135 -2.0636e+002 -3.8940e+002 -6.5249e+001 15674 118034,118086,118060
 3.7000e+000 118112 -6.2141e+001 -2.7475e+002  9.0832e+000 15674 118008,118086,118034
 3.7000e+000 118238 -4.5564e+001 -4.1473e+002  2.7958e+001 15355 118160,118212,118186
 3.7000e+000 118341 -1.5892e+002 -4.2211e+002  1.2309e+002 421 118263,118315,118289
 3.8000e+000 68152 -1.1739e+002 -6.9304e+001  3.3418e+001 67838 68074,68126,68100
 3.8000e+000 68550 -1.1859e+002 -2.0277e+002 -2.9303e-001 67526 68276,68380,68302
 3.8000e+000 68527 -7.4710e+001 -1.9073e+002  1.0964e+000 67526 68276,68406,68380
 3.8000e+000 68504 -1.1059e+002 -1.7597e+002  4.6613e-001 67526 68328,68380,68354
 3.8000e+000 68481 -1.0628e+002 -1.7408e+002 -6.3424e-001 67526 68302,68380,68328
 3.8000e+000 68458 -1.3029e+002 -3.0870e+002 -2.0248e+001 67526 68276,68432,68406
 3.8000e+000 68651 -2.4397e+002 -3.5376e+002  4.1434e+001 67328 68573,68625,68599
 3.8000e+000 68970 -1.1334e+002 -3.0834e+002  7.0559e+000 67016 68722,68800,68774
 3.8000e+000 68947 -1.2808e+002 -3.4299e+002  4.9172e+000 67016 68722,68826,68800
 3.8000e+000 68924 -1.2464e+002 -3.2139e+002  7.0495e-001 67016 68696,68826,68722
 3.8000e+000 68901 -1.0806e+002 -3.3131e+002 -1.0315e+001 67016 68722,68774,68748
 3.8000e+000 68878 -1.6288e+002 -3.0770e+002 -4.8230e+001 67016 68696,68852,68826
 3.8000e+000 69291 -1.4789e+002 -2.5723e+002  8.4190e+000 66654 69069,69147,69095
 3.8000e+000 69268 -1.5630e+002 -2.5807e+002  4.9072e+000 66654 69069,69173,69147
 3.8000e+000 69245 -1.7355e+002 -2.2123e+002  2.9351e+001 66654 69043,69173,69069
 3.8000e+000 69222 -1.5859e+002 -2.8894e+002  6.6244e+000 66654 69095,69147,69121
 3.8000e+000 69199 -2.2448e+002 -3.1306e+002  2.5571e+001 66654 69017,69173,69043
 3.8000e+000 69695 -1.4180e+002 -4.1230e+002  1.2832e+001 66456 69447,69577,69551
 3.8000e+000 69672 -7.2842e+001 -3.6526e+002 -7.9559e+000 66456 69421,69577,69447
 3.8000e+000 69649 -4.9343e+001 -2.6796e+002 -3.4712e+001 66456 69473,69551,69525
 3.8000e+000 69626 -1.1671e+002 -3.6068e+002  2.5478e+000 66456 69447,69551,69473
 3.8000e+000 69603 -1.2744e+001 -2.3890e+002 -9.2690e+001 66456 69473,69525,69499
 3.8000e+000 70024 -1.6144e+002 -2.7315e+002  6.0545e+000 66258 70047,69851,69825
 3.8000e+000 70001 -1.6002e+002 -2.5941e+002  1.4586e+001 66258 70047,69825,69903
 3.8000e+000 69978 -1.6661e+002 -3.0108e+002  2.2533e+001 66258 69799,69903,69825
 3.8000e+000 69955 -8.6382e+001 -3.7799e+002  7.6381e+001 66258 69799,69929,69903
 3.8000e+000 70073 -1.7201e+002 -2.7109e+002 -6.5859e+000 66258 69877,69851,70047
 3.8000e+000 70096 -1.7104e+002 -2.5404e+002  1.9820e+000 66258 69877,70047,69903
 3.8000e+000 70602 -2.2335e+001 -2.3249e+002 -5.4811e+001 66060 70305,70435,70331
 3.8000e+000 70579 -2.1722e+002 -3.7005e+002  1.8674e+001 66060 70279,70435,70305
 3.8000e+000 70556 -1.9674e+002 -3.0408e+002 -4.5809e+001 66060 70331,70435,70409
 3.8000e+000 70533 -1.9693e+002 -3.2778e+002  2.6813e+001 66060 70279,70461,70435
 3.8000e+000 70510 -9.5840e+001 -2.0999e+002 -9.2739e+001 66060 70331,70409,70357
 3.8000e+000 70487 -6.9693e+001 -2.3619e+002 -9.9513e+000 66060 70357,70409,70383
 3.8000e+000 70703 -3.6777e+002 -4.9242e+002  5.8342e+000 65862 70625,70677,70651
 3.8000e+000 71083 -1.0299e+002 -1.7533e+002  5.4390e+000 65664 70887,70965,70939
 3.8000e+000 71060 -1.0499e+002 -1.7223e+002  5.4898e+000 65664 70861,70965,70887
 3.8000e+000 71037 -1.1078e+002 -1.7112e+002  2.2006e-001 65664 70809,70965,70861
 3.8000e+000 71014 -1.1386e+002 -1.7469e+002  1.5455e+000 65664 70809,70861,70835
 3.8000e+000 70991 -1.1294e+002 -1.8681e+002  1.6254e+001 65664 70887,70939,70913
 3.8000e+000 71611 -1.7468e+002 -4.0292e+002 -1.6037e+001 65260 71288,71444,71314
 3.8000e+000 71588 -1.4117e+002 -3.7904e+002 -4.9093e+000 65260 71288,71470,71444
 3.8000e+000 71565 -8.7971e+001 -2.4445e+002  2.0081e+001 65260 71314,71418,71392
 3.8000e+000 71542 -1.5972e+002 -3.6305e+002 -1.4334e+001 65260 71314,71444,71418
 3.8000e+000 71519 -1.7103e+002 -2.7052e+002  2.8536e+001 65260 71314,71392,71340
 3.8000e+000 71496 -1.3242e+002 -1.9661e+002  8.8895e+001 65260 71340,71392,71366
 3.8000e+000 72060 -1.8276e+002 -3.2484e+002 -1.5668e+001 64870 71737,71893,71789
 3.8000e+000 72037 -1.2542e+002 -2.9896e+002 -6.6482e+000 64870 71737,71919,71893
 3.8000e+000 72014 -1.7786e+002 -3.0012e+002  9.6631e+000 64870 71789,71841,71815
 3.8000e+000 71991 -1.5822e+002 -3.0864e+002 -6.8487e-001 64870 71789,71893,71841
 3.8000e+000 71968 -1.8844e+002 -4.0057e+002 -4.5741e+001 64870 71737,71789,71763
 3.8000e+000 71945 -1.2989e+002 -3.3330e+002  0.0000e+000 64870 71841,71893,71867
 3.8000e+000 72517 -1.8597e+002 -2.6211e+002 -3.6518e+001 64466 72321,72399,72347
 3.8000e+000 72494 -1.7734e+002 -2.2515e+002 -2.6971e+001 64466 72269,72399,72321
 3.8000e+000 72471 -1.9095e+002 -2.9880e+002  1.6713e+001 64466 72347,72399,72373
 3.8000e+000 72448 -1.9331e+002 -2.5825e+002 -8.0924e+001 64466 72243,72399,72269
 3.8000e+000 72425 -2.2040e+002 -3.2158e+002 -1.8809e+001 64466 72269,72321,72295
 3.8000e+000 72944 -1.0964e+002 -2.4293e+002  7.2236e+000 64062 73111,73039,72699
 3.8000e+000 72921 -9.4488e+001 -2.6532e+002 -1.3998e+001 64062 73183,72967,72647
 3.8000e+000 72898 -1.0699e+002 -2.7258e+002 -4.2773e+000 64062 72967,72803,72751
 3.8000e+000 72875 -1.1114e+002 -2.4353e+002  4.1079e+000 64062 73111,72699,72673
 3.8000e+000 72852 -8.3012e+001 -2.7879e+002 -5.9398e+000 64062 73183,72647,72621
 3.8000e+000 72829 -9.0452e+001 -2.2377e+002 -4.8722e+001 64062 72751,72803,72777
 3.8000e+000 72993 -9.9249e+001 -2.4327e+002 -7.9442e-001 64062 73039,72647,72967
 3.8000e+000 73016 -1.4248e+002 -2.8080e+002 -3.0049e+000 64062 72725,72967,72751
 3.8000e+000 73065 -4.5790e+001 -2.8498e+002  9.1827e+001 64062 72725,72699,73039
 3.8000e+000 73088 -1.1338e+002 -2.8049e+002 -4.3285e+000 64062 72725,73039,72967
 3.8000e+000 73137 -1.1225e+002 -2.4795e+002  5.2640e+000 64062 72647,73039,73111
 3.8000e+000 73160 -1.1303e+002 -2.4742e+002  3.0125e+000 64062 72647,73111,72673
 3.8000e+000 73209 -1.0557e+002 -2.7761e+002 -6.9721e+000 64062 72803,72967,73183
 3.8000e+000 73232 -9.9828e+001 -3.0085e+002  2.1198e+000 64062 72803,73183,72621
 3.8000e+000 73333 -3.1437e+002 -4.6122e+002  4.0125e+001 63814 73356,73281,73255
 3.8000e+000 73382 -2.1533e+002 -3.2723e+002  2.8570e+001 63814 73486,73356,73307
 3.8000e+000 73512 -2.8232e+002 -3.5609e+002 -4.4669e+000 63814 73281,73356,73486
 3.8000e+000 73839 -1.3095e+002 -2.1566e+002 -7.7936e+000 63616 73862,73692,73666
 3.8000e+000 73816 -1.1378e+002 -2.0313e+002 -2.3063e+000 63616 73934,73862,73666
 3.8000e+000 73793 -1.0330e+002 -2.2432e+002  1.1949e+001 63616 73934,73666,73640
 3.8000e+000 73770 -1.0965e+002 -2.4556e+002  2.5222e+001 63616 73614,73744,73640
 3.8000e+000 73888 -1.5329e+002 -2.0940e+002 -1.8322e+000 63616 73718,73692,73862
 3.8000e+000 73911 -1.2794e+002 -1.8852e+002  1.4896e+001 63616 73718,73862,73744
 3.8000e+000 73960 -1.4001e+002 -2.2476e+002  9.9425e+000 63616 73744,73862,73934
 3.8000e+000 73983 -1.2841e+002 -2.3813e+002  2.3817e+001 63616 73744,73934,73640
 3.8000e+000 74363 -1.1509e+002 -2.9409e+002  1.1272e+001 63390 74386,74115,74089
 3.8000e+000 74340 -1.2135e+002 -2.6585e+002  4.5498e+000 63390 74458,74386,74089
 3.8000e+000 74317 -1.0728e+002 -2.7422e+002  3.4809e+001 63390 74458,74089,74245
 3.8000e+000 74294 -1.2933e+002 -3.2333e+002  5.8836e+000 63390 74530,74167,74141
 3.8000e+000 74271 -1.0590e+002 -2.9252e+002 -5.5308e+001 63390 74167,74219,74193
 3.8000e+000 74412 -9.9372e+001 -2.9516e+002  6.0164e+000 63390 74141,74115,74386
 3.8000e+000 74435 -1.1022e+002 -3.0338e+002  1.5863e+001 63390 74530,74141,74386
 3.8000e+000 74484 -9.6430e+001 -2.2424e+002  2.2199e+001 63390 74219,74386,74458
 3.8000e+000 74507 -6.9329e+001 -2.2062e+002  5.5212e+001 63390 74219,74458,74245
 3.8000e+000 74556 -1.6064e+002 -3.0592e+002 -1.7200e+001 63390 74219,74167,74530
 3.8000e+000 74579 -1.4047e+002 -2.8061e+002 -5.9395e+000 63390 74219,74530,74386
 3.8000e+000 74680 -1.1255e+002 -2.2253e+002  1.0347e+001 63100 75089,74833,74703
 3.8000e+000 74729 -1.9888e+002 -2.9146e+002  7.6098e+000 63100 74961,74703,74654
 3.8000e+000 74859 -7.2017e+001 -2.0903e+002  1.6569e+001 63100 74602,74703,74833
 3.8000e+000 74987 -1.5128e+002 -1.9675e+002 -2.0254e+001 63100 75089,74703,74961
 3.8000e+000 75115 -3.2057e+001 -1.9433e+002  3.2737e+000 63100 74628,74833,75089
 3.8000e+000 75138 -7.0384e+001 -1.6847e+002 -2.7177e+001 63100 74628,75089,74961
 3.8000e+000 75723 -1.9828e+002 -1.7847e+002  3.8893e+001 62532 75746,75504,75426
 3.8000e+000 75700 -1.7926e+002 -1.5397e+002  3.0544e+001 62532 75746,75426,75556
 3.8000e+000 75677 -2.2019e+002 -9.0769e+001 -9.1550e+001 62532 75426,75504,75452
 3.8000e+000 75654 -1.4554e+002 -7.1781e+001 -5.3961e+001 62532 75400,75556,75426
 3.8000e+000 75631 -1.8087e+002 -1.7587e+002 -7.3445e+001 62532 75400,75582,75556
 3.8000e+000 75608 -7.8531e+001 -1.2774e+002 -9.5888e+001 62532 75452,75504,75478
 3.8000e+000 75772 -1.6855e+002 -2.2126e+002  3.1216e+001 62532 75530,75504,75746
 3.8000e+000 75795 -1.3868e+002 -1.8460e+002  1.8411e+001 62532 75530,75746,75556
 3.8000e+000 76301 -1.2255e+002 -2.4979e+002  1.2527e+001 62192 76324,76082,76030
 3.8000e+000 76278 -1.1548e+002 -2.2795e+002  2.1137e+001 62192 76324,76030,76004
 3.8000e+000 76255 -7.9922e+001 -2.3437e+002  1.8511e+001 62192 76030,76082,76056
 3.8000e+000 76232 -1.4305e+002 -2.4530e+002 -2.3203e+001 62192 76082,76134,76108
 3.8000e+000 76209 -1.0969e+002 -1.8939e+002 -1.5584e+001 62192 76004,76160,76134
 3.8000e+000 76186 -7.3815e+001 -1.9967e+002 -2.3635e+000 62192 75978,76160,76004
 3.8000e+000 76350 -1.4499e+002 -2.2210e+002  1.1665e+001 62192 76134,76082,76324
 3.8000e+000 76373 -1.3138e+002 -1.8946e+002  1.9218e+001 62192 76134,76324,76004
 3.8000e+000 76879 -1.3135e+002 -1.6352e+002 -2.2538e+001 61788 76902,76660,76582
 3.8000e+000 76856 -1.0128e+002 -1.7127e+002 -2.9201e+001 61788 76902,76582,76556
 3.8000e+000 76833 -4.6430e+001 -1.2349e+002 -3.4060e+001 61788 76582,76660,76634
 3.8000e+000 76810 -5.7974e+001 -7.3591e+001 -4.7998e+001 61788 76582,76634,76608
 3.8000e+000 76787 -1.2650e+002 -1.8709e+002 -1.5107e+001 61788 76556,76738,76686
 3.8000e+000 76764 -6.6325e+001 -1.6563e+002 -3.0421e+001 61788 76686,76738,76712
 3.8000e+000 76928 -1.4591e+002 -1.6794e+002 -1.9019e+001 61788 76686,76660,76902
 3.8000e+000 76951 -1.2325e+002 -1.8327e+002 -2.2702e+001 61788 76686,76902,76556
 3.8000e+000 77408 -1.6695e+002 -2.1591e+002 -8.3023e+000 61498 77212,77264,77238
 3.8000e+000 77385 -1.4937e+002 -1.8477e+002  3.3698e+000 61498 77160,77264,77212
 3.8000e+000 77362 -1.7394e+002 -2.0076e+002 -3.5087e+000 61498 77160,77290,77264
 3.8000e+000 77339 -9.0798e+001 -2.1973e+002  6.3759e+000 61498 77160,77212,77186
 3.8000e+000 77316 -1.4711e+002 -1.9522e+002  6.3961e+001 61498 77134,77290,77160
 3.8000e+000 77678 -7.8746e+001 -1.0381e+002 -4.5079e+000 61129 77479,77557,77505
 3.8000e+000 77655 -9.9633e+001 -1.3476e+002  4.8095e+000 61129 77479,77583,77557
 3.8000e+000 77632 -1.0643e+002 -1.6285e+002  3.2929e+000 61129 77453,77583,77479
 3.8000e+000 77609 -3.1364e+001 -8.7236e+001 -1.2509e+000 61129 77505,77557,77531
 3.8000e+000 77828 -9.5332e+001 -1.5987e+002  1.2162e+001 60931 77851,77727,77701
 3.8000e+000 77805 -9.4657e+001 -1.5494e+002  9.6832e+000 60931 77851,77701,77779
 3.8000e+000 77877 -1.1963e+002 -2.1764e+002  4.1693e+001 60931 77923,77851,77753
 3.8000e+000 77900 -6.0934e+001 -1.8718e+002  1.4390e+001 60931 77753,77851,77779
 3.8000e+000 77949 -7.6759e+001 -1.3794e+002  2.0798e+001 60931 77727,77851,77923
 3.8000e+000 78133 -1.0529e+002 -1.9948e+002 -1.2314e+001 60377 78055,78107,78081
 3.8000e+000 78535 -3.0044e+002 -3.8373e+002 -2.0945e+001 60015 78287,78391,78313
 3.8000e+000 78512 -1.9008e+002 -4.0256e+002 -3.1402e+001 60015 78287,78417,78391
 3.8000e+000 78489 -2.1562e+002 -4.3813e+002 -6.2339e+001 60015 78261,78417,78287
 3.8000e+000 78466 -1.3550e+002 -3.2484e+002  3.6012e+001 60015 78339,78391,78365
 3.8000e+000 78443 -1.4775e+002 -3.0766e+002  1.2732e+001 60015 78313,78391,78339
 3.8000e+000 78913 -1.3428e+002 -2.3082e+002  6.8822e+000 59725 78936,78743,78691
 3.8000e+000 78890 -1.5082e+002 -2.4872e+002  1.1978e-003 59725 79008,78936,78691
 3.8000e+000 78867 -1.5077e+002 -2.4400e+002 -6.1133e+000 59725 79008,78691,78665
 3.8000e+000 78844 -8.3714e+001 -2.2528e+002  3.1794e+001 59725 78691,78743,78717
 3.8000e+000 78821 -7.2708e+001 -1.9766e+002 -6.6839e+001 59725 78639,78795,78769
 3.8000e+000 78962 -1.1428e+002 -2.4912e+002 -7.2280e+000 59725 78769,78743,78936
 3.8000e+000 78985 -1.5092e+002 -2.8513e+002 -2.1947e+001 59725 78769,78936,78639
 3.8000e+000 79034 -1.3853e+002 -2.4309e+002 -1.9170e+000 59725 78639,78936,79008
 3.8000e+000 79057 -1.4516e+002 -2.4235e+002 -7.0420e+000 59725 78639,79008,78665
 3.8000e+000 79386 -1.4095e+002 -3.2646e+002  2.8278e+001 59221 79187,79239,79213
 3.8000e+000 79363 -1.1598e+002 -2.9099e+002  1.3868e+001 59221 79187,79265,79239
 3.8000e+000 79340 -1.4745e+002 -3.0038e+002  1.8692e+001 59221 79187,79291,79265
 3.8000e+000 79317 -1.0550e+002 -1.9614e+002  2.1792e+001 59221 79161,79291,79187
 3.8000e+000 79813 -8.1448e+001 -1.6241e+002 -3.0388e-001 58831 79836,79542,79516
 3.8000e+000 79790 -8.3517e+001 -1.5209e+002 -1.2544e+001 58831 79980,79836,79516
 3.8000e+000 79767 -1.1532e+002 -2.1056e+002 -2.3325e+001 58831 79908,79646,79568
 3.8000e+000 79744 -7.7861e+001 -1.3592e+002 -1.5558e+000 58831 79980,79516,79490
 3.8000e+000 79721 -9.0311e+000 -2.5571e+002 -6.2210e+001 58831 79568,79646,79594
 3.8000e+000 79698 -3.4916e+002 -1.1121e+003 -1.3984e+002 58831 79594,79646,79620
 3.8000e+000 79862 -6.7531e+001 -1.3448e+002  1.2366e+001 58831 79568,79542,79836
 3.8000e+000 79885 -6.7178e+001 -1.6543e+002  9.2869e+000 58831 79908,79568,79836
 3.8000e+000 79934 -1.4641e+002 -2.0167e+002 -6.1611e+001 58831 79672,79646,79908
 3.8000e+000 79957 -1.3179e+002 -1.7690e+002 -3.1057e+001 58831 79672,79908,79836
 3.8000e+000 80006 -7.8135e+001 -1.2734e+002 -1.0341e+001 58831 79672,79836,79980
 3.8000e+000 80029 -8.4621e+001 -1.2353e+002 -2.0893e+000 58831 79672,79980,79490
 3.8000e+000 80358 -1.0757e+002 -2.9901e+002  5.6891e+000 58377 80381,80185,80159
 3.8000e+000 80335 -1.1079e+002 -2.9543e+002  7.3150e+000 58377 80381,80159,80133
 3.8000e+000 80312 -7.7078e+001 -2.7452e+002 -1.0500e+000 58377 80133,80263,80237
 3.8000e+000 80289 -1.1342e+002 -3.2372e+002  2.9465e+001 58377 80185,80237,80211
 3.8000e+000 80407 -1.0462e+002 -2.9538e+002  4.3419e+000 58377 80237,80185,80381
 3.8000e+000 80430 -1.0921e+002 -2.9321e+002  6.6466e+000 58377 80237,80381,80133
 3.8000e+000 80759 -6.8059e+001 -2.7411e+002  6.4620e+001 57873 80782,80586,80560
 3.8000e+000 80736 -1.1556e+002 -3.2262e+002  4.4510e+001 57873 80782,80560,80534
 3.8000e+000 80713 -1.2051e+002 -3.3244e+002  3.1103e+001 57873 80586,80638,80612
 3.8000e+000 80690 -3.4155e+001 -3.1230e+002  3.4325e+001 57873 80534,80664,80638
 3.8000e+000 80808 -9.0704e+001 -3.1853e+002  4.1669e+001 57873 80638,80586,80782
 3.8000e+000 80831 -9.6739e+001 -3.3192e+002  3.2323e+001 57873 80638,80782,80534
 3.8000e+000 81337 -6.9482e+001 -1.4089e+002 -3.4838e+000 57262 81360,81144,81092
 3.8000e+000 81314 -7.4688e+001 -1.4814e+002  5.9481e+000 57262 81360,81092,81066
 3.8000e+000 81291 -9.4099e+001 -1.6924e+002  6.9051e+000 57262 81014,81196,81066
 3.8000e+000 81268 -7.3887e+001 -1.3029e+002 -5.3768e+000 57262 81092,81144,81118
 3.8000e+000 81245 -8.5391e+001 -1.2635e+002 -3.4401e+000 57262 81144,81196,81170
 3.8000e+000 81222 -8.6074e+001 -1.4722e+002  2.0244e+001 57262 81014,81066,81040
 3.8000e+000 81386 -8.3617e+001 -1.3780e+002  1.5466e+000 57262 81196,81144,81360
 3.8000e+000 81409 -8.5461e+001 -1.4374e+002  1.1227e+001 57262 81196,81360,81066
 3.8000e+000 81608 -5.4547e+001 -1.3068e+002  5.6712e+000 57007 81458,81536,81510
 3.8000e+000 81585 -7.0962e+001 -1.3950e+002 -4.6609e+000 57007 81432,81536,81458
 3.8000e+000 81562 -1.0617e+002 -9.7442e+001  6.8207e+001 57007 81458,81510,81484
 3.8000e+000 82086 -2.3428e+002 -3.2688e+002  3.8914e+001 56339 81792,81922,81818
 3.8000e+000 82063 -4.0682e+001 -3.8741e+002 -3.1086e+001 56339 81714,81922,81792
 3.8000e+000 82040 -2.2413e+002 -2.7329e+002 -4.3422e+001 56339 82109,81844,81818
 3.8000e+000 82017 -2.2902e+002 -3.2421e+002 -5.2372e+001 56339 82109,81818,81922
 3.8000e+000 81994 -1.3722e+002 -3.1599e+002 -5.3685e+001 56339 81844,81896,81870
 3.8000e+000 81971 -9.4483e+001 -4.6544e+002 -1.3459e+002 56339 81714,81792,81766
 3.8000e+000 81948 -1.1031e+002 -6.2454e+002 -1.1939e+002 56339 81714,81766,81740
 3.8000e+000 82135 -1.7254e+002 -3.1793e+002 -1.7102e+001 56339 81896,81844,82109
 3.8000e+000 82158 -2.0480e+002 -4.0419e+002 -3.7352e+001 56339 81896,82109,81922
 3.8000e+000 82536 -1.3572e+002 -2.8965e+002  3.5444e-001 55699 82288,82392,82314
 3.8000e+000 82513 -1.4674e+002 -2.9376e+002  2.5534e+000 55699 82288,82418,82392
 3.8000e+000 82490 -1.6956e+002 -3.5459e+002 -1.4449e+001 55699 82314,82392,82340
 3.8000e+000 82467 -8.1630e+001 -4.2112e+002 -4.2069e+001 55699 82340,82392,82366
 3.8000e+000 82444 -1.1946e+002 -2.9261e+002  7.1794e+000 55699 82262,82418,82288
 3.8000e+000 83091 -1.2406e+002 -1.9747e+002  1.0711e+001 55409 82745,82901,82875
 3.8000e+000 83068 -5.8842e+001 -1.3096e+002  3.7783e+001 55409 82719,82901,82745
 3.8000e+000 83045 -1.2966e+002 -2.3793e+002  3.7233e+001 55409 82771,82849,82823
 3.8000e+000 83022 -1.7347e+002 -2.4694e+002  5.9460e+001 55409 82745,82849,82771
 3.8000e+000 82999 -9.1666e+001 -1.8484e+002  3.0876e+001 55409 82745,82875,82849
 3.8000e+000 82976 -2.0999e+002 -1.9572e+002  4.1997e+001 55409 82771,82823,82797
 3.8000e+000 82953 -2.4223e+001 -2.6650e+001 -4.1310e+000 55409 82719,82927,82901
 3.8000e+000 83388 -1.3098e+002 -3.4474e+002 -8.9381e+000 54905 83411,83218,83166
 3.8000e+000 83365 -8.8403e+001 -3.4260e+002 -1.1731e+001 54905 83411,83166,83114
 3.8000e+000 83342 -1.6754e+002 -3.5573e+002 -2.5660e+001 54905 83483,83270,83244
 3.8000e+000 83319 -1.5429e+002 -3.3005e+002 -2.1874e+001 54905 83166,83218,83192
 3.8000e+000 83296 -9.0606e+001 -3.6919e+002  1.0975e+001 54905 83114,83166,83140
 3.8000e+000 83437 -1.4490e+002 -3.4635e+002  3.1590e+000 54905 83244,83218,83411
 3.8000e+000 83460 -1.3798e+002 -3.5567e+002 -1.2670e+001 54905 83483,83244,83411
 3.8000e+000 83509 -1.2969e+002 -3.2599e+002 -1.2499e+001 54905 83114,83270,83483
 3.8000e+000 83532 -1.1941e+002 -3.3721e+002 -2.4769e+000 54905 83114,83483,83411
 3.8000e+000 83961 -6.1904e+001 -1.3473e+002  8.4782e+000 54593 83638,83768,83690
 3.8000e+000 83938 -5.6151e+001 -1.4253e+002  9.2952e+000 54593 83638,83794,83768
 3.8000e+000 83915 -6.9309e+001 -1.4982e+002 -3.3063e-001 54593 83690,83768,83742
 3.8000e+000 83892 -6.3521e+001 -1.2870e+002 -5.7930e+000 54593 83638,83820,83794
 3.8000e+000 83869 -5.8862e+001 -1.1399e+002  3.9584e+000 54593 83638,83690,83664
 3.8000e+000 83846 -3.8683e+001 -1.0674e+002 -3.2673e+001 54593 83690,83742,83716
 3.8000e+000 84209 -1.3389e+002 -4.0506e+002  3.5157e+001 54132 84232,84062,83984
 3.8000e+000 84186 -1.2660e+002 -3.4250e+002  1.8620e+001 54132 84232,83984,84114
 3.8000e+000 84163 -1.4788e+002 -4.3189e+002  8.3823e+000 54132 83984,84062,84036
 3.8000e+000 84140 -1.6358e+002 -4.0703e+002 -1.6706e+000 54132 83984,84036,84010
 3.8000e+000 84258 -9.5612e+001 -4.7421e+002  2.3263e+001 54132 84088,84062,84232
 3.8000e+000 84281 -8.0547e+001 -4.0683e+002 -4.5396e+000 54132 84088,84232,84114
 3.8000e+000 84382 -3.4292e+001 -8.4263e+001 -2.0096e+000 53521 84304,84356,84330
 3.8000e+000 84632 -1.1763e+002 -2.9348e+002  7.3283e-001 53067 84655,84485,84459
 3.8000e+000 84609 -1.1159e+002 -3.1577e+002 -4.8091e-001 53067 84655,84459,84407
 3.8000e+000 84586 -1.0197e+002 -2.7656e+002  1.0185e+001 53067 84485,84537,84511
 3.8000e+000 84563 -1.2620e+002 -3.6402e+002 -2.6176e+001 53067 84407,84459,84433
 3.8000e+000 84681 -1.1224e+002 -3.1426e+002  6.0724e+000 53067 84537,84485,84655
 3.8000e+000 84704 -1.1402e+002 -3.4315e+002  9.8016e+000 53067 84537,84655,84407
 3.8000e+000 85214 -9.1920e+001 -2.2430e+002  8.6941e+000 52513 85021,85073,85047
 3.8000e+000 85191 -6.1811e+001 -1.6662e+002 -8.8823e+000 52513 84943,85073,85021
 3.8000e+000 85168 -4.2006e+001 -1.5595e+002  6.6188e-001 52513 84943,85021,84995
 3.8000e+000 85145 -7.9163e+001 -2.2496e+002  8.0148e+000 52513 84917,85073,84943
 3.8000e+000 85122 -3.3258e+001 -1.0965e+002 -1.4677e+001 52513 84943,84995,84969
 3.8000e+000 85099 -4.3782e+001 -2.6464e+002 -4.5649e+000 52513 84891,85073,84917
 3.8000e+000 85582 -1.2279e+002 -3.2567e+002  3.7007e+001 52037 85605,85311,85285
 3.8000e+000 85559 -1.2667e+002 -3.4873e+002  3.3219e+001 52037 85749,85605,85285
 3.8000e+000 85536 -5.1679e+001 -3.0184e+002  2.7024e+000 52037 85893,85677,85389
 3.8000e+000 85513 -9.4336e+001 -3.2671e+002  2.3643e+001 52037 85749,85285,85259
 3.8000e+000 85490 -2.3205e+000 -2.8276e+002 -1.4020e+001 52037 85893,85389,85363
 3.8000e+000 85467 -8.0044e+001 -3.4808e+002 -2.1882e+001 52037 85259,85441,85415
 3.8000e+000 85631 -1.7152e+002 -3.6044e+002  1.5962e+001 52037 85337,85311,85605
 3.8000e+000 85654 -1.2683e+002 -3.3604e+002  5.1075e+001 52037 85677,85337,85605
 3.8000e+000 85703 -3.8122e+001 -3.3453e+002  1.8289e+001 52037 85415,85389,85677
 3.8000e+000 85726 -4.8752e+001 -3.3114e+002  4.3539e+001 52037 85821,85677,85605
 3.8000e+000 85775 -8.3295e+001 -3.4532e+002  4.3871e+001 52037 85821,85605,85749
 3.8000e+000 85798 -1.0879e+002 -3.5353e+002  1.7561e+001 52037 85415,85749,85259
 3.8000e+000 85847 -5.6463e+001 -3.3760e+002  1.5389e+001 52037 85415,85677,85821
 3.8000e+000 85870 -6.8977e+001 -3.4210e+002  1.6682e+001 52037 85415,85821,85749
 3.8000e+000 85919 -4.5447e+001 -3.2218e+002  5.6418e+001 52037 85337,85677,85893
 3.8000e+000 85942 -2.5773e+001 -3.1793e+002  4.0816e+001 52037 85337,85893,85363
 3.8000e+000 86224 -3.4867e+001 -9.8194e+001 -3.0909e+001 51368 86375,86100,86074
 3.8000e+000 86201 -4.2171e+001 -1.0866e+002 -4.1241e+001 51368 86375,86074,86247
 3.8000e+000 86178 -3.5476e+001 -1.1530e+002 -5.0781e+001 51368 86048,86152,86126
 3.8000e+000 86273 -2.6068e+001 -1.2585e+002 -5.2375e+001 51368 86048,86126,86247
 3.8000e+000 86401 -2.9185e+001 -1.1696e+002 -3.8507e+001 51368 86126,86100,86375
 3.8000e+000 86424 -3.2801e+001 -1.3061e+002 -4.5575e+001 51368 86126,86375,86247
 3.8000e+000 86802 -1.2554e+002 -2.7222e+002  1.8142e-001 51028 86528,86632,86580
 3.8000e+000 86779 -1.4729e+002 -3.2689e+002  1.5976e+001 51028 86528,86684,86632
 3.8000e+000 86756 -1.6805e+002 -3.7066e+002 -1.0153e+000 51028 86528,86580,86554
 3.8000e+000 86733 -1.0614e+002 -3.1838e+002  6.0132e+001 51028 86632,86684,86658
 3.8000e+000 86710 -1.4181e+002 -3.0599e+002 -2.7077e+001 51028 86580,86632,86606
 3.8000e+000 87131 -1.4422e+002 -2.4850e+002  5.2538e+001 50624 86958,87036,87010
 3.8000e+000 87108 -1.0975e+002 -2.3581e+002  6.4346e+001 50624 86932,87036,86958
 3.8000e+000 87085 -1.0987e+002 -2.3158e+002  3.6611e+001 50624 86958,87010,86984
 3.8000e+000 87062 -3.2844e+001 -2.1183e+002  5.3026e+001 50624 86906,87036,86932
 3.8000e+000 87330 -1.8336e+002 -2.8509e+002 -1.0973e+001 50234 87353,87180,87154
 3.8000e+000 87307 -1.6653e+002 -2.8200e+002 -1.1653e+001 50234 87353,87154,87258
 3.8000e+000 87284 -1.3960e+002 -2.8818e+002 -2.1424e+001 50234 87206,87258,87232
 3.8000e+000 87379 -1.6823e+002 -3.0004e+002 -6.7740e-001 50234 87206,87180,87353
 3.8000e+000 87402 -1.4149e+002 -2.9023e+002 -5.3331e+000 50234 87206,87353,87258
 3.8000e+000 87650 -1.3793e+002 -2.9107e+002 -1.8599e+001 49730 87673,87503,87451
 3.8000e+000 87627 -1.0916e+002 -2.8004e+002 -2.8152e+001 49730 87673,87451,87425
 3.8000e+000 87604 -8.6179e+001 -2.3266e+002  1.6348e+001 49730 87503,87555,87529
 3.8000e+000 87581 -1.6051e+002 -2.3378e+002 -2.5055e+001 49730 87451,87503,87477
 3.8000e+000 87699 -1.4166e+002 -2.9043e+002 -1.3542e+001 49730 87555,87503,87673
 3.8000e+000 87722 -1.3491e+002 -2.9865e+002 -1.8928e+001 49730 87555,87673,87425
 3.8000e+000 88232 -1.2395e+002 -3.0428e+002  1.6461e+001 49176 88255,87935,87909
 3.8000e+000 88209 -1.6971e+002 -3.4865e+002  6.4131e+001 49176 88255,87909,88065
 3.8000e+000 88186 -1.4046e+002 -2.6574e+002  3.7129e+001 49176 87935,88039,87961
 3.8000e+000 88163 -1.4346e+002 -3.0318e+002  4.4392e+001 49176 87909,88091,88065
 3.8000e+000 88140 -1.8134e+002 -2.8391e+002  3.1925e+001 49176 87961,88039,88013
 3.8000e+000 88117 -1.5310e+002 -3.1884e+002 -1.4525e+001 49176 87961,88013,87987
 3.8000e+000 88281 -1.7297e+002 -3.2249e+002  6.1106e+001 49176 88039,87935,88255
 3.8000e+000 88304 -2.1809e+002 -3.6352e+002  1.0833e+002 49176 88039,88255,88065
 3.8000e+000 88503 -4.3931e+001 -2.0779e+002 -8.8050e-001 48772 88526,88379,88353
 3.8000e+000 88480 -5.6217e+001 -1.7438e+002  5.6324e+000 48772 88526,88353,88327
 3.8000e+000 88457 -5.9126e+001 -2.4481e+002 -2.8968e+000 48772 88379,88431,88405
 3.8000e+000 88552 -3.4800e+001 -1.8141e+002 -5.4199e+000 48772 88431,88379,88526
 3.8000e+000 88575 -5.3293e+001 -1.5879e+002 -1.9731e+000 48772 88431,88526,88327
 3.8000e+000 89083 -3.7140e+001 -9.8848e+001 -2.6975e+001 48368 88786,88916,88864
 3.8000e+000 89060 -3.9841e+001 -1.1371e+002 -1.6368e+001 48368 88786,88942,88916
 3.8000e+000 89037 -4.5785e+001 -7.1638e+001 -7.4948e+000 48368 88786,88864,88812
 3.8000e+000 89014 -6.4532e+001 -1.1486e+002 -3.4173e+001 48368 88864,88916,88890
 3.8000e+000 88991 -1.0435e+001 -9.7640e+001  1.6055e+001 48368 88812,88864,88838
 3.8000e+000 88968  1.8393e+001 -9.2718e+001 -1.8105e+001 48368 88760,88942,88786
 3.8000e+000 89331 -5.4081e+001 -2.1048e+002  1.4107e+001 47928 89158,89236,89210
 3.8000e+000 89308 -2.2905e+001 -1.6642e+002 -6.4784e+000 47928 89132,89236,89158
 3.8000e+000 89285 -8.1106e+001 -1.4038e+002  9.7771e+000 47928 89158,89210,89184
 3.8000e+000 89262 -5.9229e+001 -1.1753e+002 -1.1082e+000 47928 89106,89236,89132
 3.8000e+000 89662 -1.4661e+002 -3.1579e+002 -9.6660e+000 47588 89463,89541,89515
 3.8000e+000 89639 -1.1222e+002 -2.5102e+002 -2.2527e+001 47588 89463,89567,89541
 3.8000e+000 89616 -1.2086e+002 -3.0607e+002  1.6227e+001 47588 89463,89515,89489
 3.8000e+000 89593 -1.3755e+002 -2.5679e+002 -2.3684e+001 47588 89437,89567,89463
 3.8000e+000 89763 -6.5386e+000 -2.2258e+001  3.0412e+000 47390 89685,89737,89711
 3.8000e+000 89913 -7.0737e+000 -7.0588e+001 -1.0169e+000 47078 89786,89838,89812
 3.8000e+000 89890 -1.6142e+000 -7.1084e+001 -2.7518e+000 47078 89786,89864,89838
 3.8000e+000 90163 -1.3032e+002 -2.6808e+002  6.8324e+000 46474 89964,90042,89990
 3.8000e+000 90140 -9.7391e+001 -2.5572e+002  1.4935e+001 46474 89938,90042,89964
 3.8000e+000 90117 -1.4921e+002 -2.3734e+002  1.1474e+001 46474 89990,90042,90016
 3.8000e+000 90094 -1.3160e+002 -2.5019e+002  2.0576e+001 46474 89938,90068,90042
 3.8000e+000 90364 -1.0807e+002 -2.1987e+002  3.4139e+001 46184 90240,90292,90266
 3.8000e+000 90341 -1.0092e+002 -2.0566e+002  4.1391e+001 46184 90188,90292,90240
 3.8000e+000 90318 -1.0952e+002 -2.4311e+002  3.6865e+001 46184 90188,90240,90214
 3.8000e+000 90565 -1.1266e+002 -1.9875e+002 -1.3322e+001 45780 90588,90415,90389
 3.8000e+000 90542 -1.0467e+002 -2.0719e+002 -7.3254e+000 45780 90588,90389,90493
 3.8000e+000 90519 -1.0968e+002 -1.9293e+002 -6.6576e+000 45780 90415,90467,90441
 3.8000e+000 90614 -1.0682e+002 -1.9727e+002 -9.1615e+000 45780 90467,90415,90588
 3.8000e+000 90637 -9.3111e+001 -1.9601e+002 -8.3821e-001 45780 90467,90588,90493
 3.8000e+000 91196 -1.6755e+002 -3.0998e+002 -2.5753e+001 45226 91219,90876,90850
 3.8000e+000 91173 -9.6320e+001 -2.9556e+002  1.1785e+001 45226 91219,90850,91032
 3.8000e+000 91150 -7.8911e+001 -3.3687e+002 -2.7518e+001 45226 90824,91032,90850
 3.8000e+000 91127 -1.1722e+002 -2.2099e+002  1.0463e+000 45226 90876,90980,90902
 3.8000e+000 91104 -6.9218e+001 -2.3244e+002  3.2009e+001 45226 90876,91006,90980
 3.8000e+000 91081 -1.0457e+002 -2.2844e+002 -1.2375e+001 45226 90902,90980,90954
 3.8000e+000 91058 -6.0034e+001 -1.9416e+002 -3.2791e+001 45226 90902,90954,90928
 3.8000e+000 91245 -1.0160e+002 -2.8007e+002 -3.3029e+000 45226 91006,90876,91219
 3.8000e+000 91268 -3.7370e+001 -2.7839e+002  2.8992e+001 45226 91006,91219,91032
 3.8000e+000 91516 -1.3496e+000 -2.3488e+002  2.6092e+001 44836 91539,91421,91395
 3.8000e+000 91493 -2.1927e+001 -2.3617e+002 -5.0847e+000 44836 91317,91421,91343
 3.8000e+000 91470 -5.7617e+001 -2.3058e+002  1.9739e+001 44836 91539,91395,91369
 3.8000e+000 91447 -4.0314e+001 -1.4236e+002  5.2140e+001 44836 91291,91421,91317
 3.8000e+000 91565 -2.8168e+001 -2.3600e+002 -5.0762e+000 44836 91343,91421,91539
 3.8000e+000 91588 -6.8325e+001 -2.4033e+002 -2.0778e+001 44836 91343,91539,91369
 3.8000e+000 91787 -6.6275e+001 -2.0376e+002  1.9780e+001 44432 91810,91637,91611
 3.8000e+000 91764 -9.6378e+001 -2.1935e+002  2.8643e+001 44432 91810,91611,91715
 3.8000e+000 91741 -4.3131e+001 -1.7558e+002 -6.2952e+000 44432 91637,91689,91663
 3.8000e+000 91836 -9.3604e+001 -1.9587e+002  1.5920e+001 44432 91689,91637,91810
 3.8000e+000 91859 -1.0902e+002 -1.9921e+002  1.8533e+001 44432 91689,91810,91715
 3.8000e+000 92207 -1.0380e+002 -2.2391e+002  2.6408e+001 43864 92230,91936,91910
 3.8000e+000 92184 -1.2976e+002 -2.3046e+002  3.3278e+001 43864 92230,91910,92040
 3.8000e+000 92161 -1.3748e+002 -2.3184e+002  4.7469e+001 43864 91884,92040,91910
 3.8000e+000 92138 -8.7563e+001 -1.9098e+002  9.4307e+000 43864 91936,92014,91988
 3.8000e+000 92115 -8.3156e+001 -2.4233e+002  4.4524e+001 43864 91936,91988,91962
 3.8000e+000 92092 -1.1854e+002 -1.9050e+002  3.5251e+001 43864 91884,92066,92040
 3.8000e+000 92256 -1.3046e+002 -2.1151e+002  2.3848e+001 43864 92014,91936,92230
 3.8000e+000 92279 -1.5189e+002 -2.1727e+002  3.4405e+001 43864 92014,92230,92040
 3.8000e+000 92529 -1.2653e+002 -2.5176e+002  1.8012e+001 43410 92552,92330,92304
 3.8000e+000 92506 -1.2328e+002 -2.4423e+002 -5.8659e-001 43410 92552,92304,92408
 3.8000e+000 92483 -1.2955e+002 -2.4726e+002  1.8497e+000 43410 92304,92434,92408
 3.8000e+000 92460 -7.6615e+001 -2.0095e+002 -1.0926e+001 43410 92330,92382,92356
 3.8000e+000 92578 -1.1567e+002 -2.4620e+002  7.9999e+000 43410 92382,92330,92552
 3.8000e+000 92601 -9.8105e+001 -2.2447e+002 -1.2954e+001 43410 92382,92552,92408
 3.8000e+000 92802 -3.7373e+001 -2.0857e+002  2.4807e+001 43162 92825,92704,92652
 3.8000e+000 92779 -2.7514e+001 -1.9399e+002  3.4503e+001 43162 92825,92652,92626
 3.8000e+000 92756 -2.0115e+001 -2.1471e+002  2.4154e+001 43162 92652,92704,92678
 3.8000e+000 92851 -5.9704e+001 -2.0820e+002  2.1632e+000 43162 92730,92704,92825
 3.8000e+000 92874 -4.1618e+001 -1.2907e+002  1.4859e+001 43162 92730,92825,92626
 3.8000e+000 93463 -8.2836e+001 -1.9719e+002 -4.0410e+001 42758 93140,93270,93166
 3.8000e+000 93440 -1.1071e+002 -2.4003e+002 -2.7020e+001 42758 93140,93296,93270
 3.8000e+000 93417 -8.4613e+001 -2.1620e+002 -2.6752e+001 42758 93166,93270,93218
 3.8000e+000 93394 -5.7012e+001 -2.1389e+002 -3.1060e+001 42758 93218,93270,93244
 3.8000e+000 93371 -3.2031e+001 -2.5483e+002 -3.1122e+001 42758 93140,93322,93296
 3.8000e+000 93348 -1.2077e+002 -2.8208e+002  2.5405e+001 42758 93166,93218,93192
 3.8000e+000 93920 -7.5621e+001 -2.2616e+002 -6.5451e+000 42304 93943,93672,93646
 3.8000e+000 93897 -7.5193e+001 -2.0835e+002  1.1440e+000 42304 93943,93646,93802
 3.8000e+000 93874 -7.4601e+001 -2.1719e+002  1.2494e+001 42304 93724,93802,93776
 3.8000e+000 93851 -1.1255e+002 -2.6077e+002  3.8958e+000 42304 93672,93724,93698
 3.8000e+000 93828 -1.3256e+002 -2.5922e+002 -9.7139e+000 42304 93724,93776,93750
 3.8000e+000 93969 -7.8098e+001 -2.3251e+002 -1.0780e+001 42304 93724,93672,93943
 3.8000e+000 93992 -8.5200e+001 -2.2350e+002 -4.4433e+000 42304 93724,93943,93802
 3.8000e+000 94321 -7.4879e+001 -2.0261e+002  5.2565e+000 41478 94096,94148,94122
 3.8000e+000 94298 -8.9028e+001 -2.1901e+002  1.2994e+001 41478 94096,94226,94148
 3.8000e+000 94275 -1.1241e+002 -2.8658e+002 -3.4536e+000 41478 94148,94226,94174
 3.8000e+000 94252 -4.5427e+001 -2.6403e+002 -7.3282e+001 41478 94174,94226,94200
 3.8000e+000 94618 -8.0642e+001 -2.9088e+002 -4.9538e+000 40910 94344,94422,94396
 3.8000e+000 94595 -1.1459e+002 -2.7946e+002 -1.2312e+001 40910 94344,94448,94422
 3.8000e+000 94572 -9.7804e+001 -2.3802e+002 -2.8546e+000 40910 94344,94474,94448
 3.8000e+000 94549 -7.3749e+001 -2.9007e+002 -4.7611e+000 40910 94344,94396,94370
 3.8000e+000 94526 -1.5567e+002 -3.1505e+002  2.2920e+001 40910 94344,94500,94474
 3.8000e+000 94866 -9.2308e+001 -1.9830e+002 -3.1137e+001 40306 94667,94719,94693
 3.8000e+000 94843 -1.2305e+002 -2.1440e+002 -2.3474e+001 40306 94641,94719,94667
 3.8000e+000 94820 -1.4419e+002 -2.2276e+002 -5.3459e+000 40306 94641,94745,94719
 3.8000e+000 94797 -1.0378e+002 -1.9576e+002 -1.7647e+001 40306 94641,94771,94745
 3.8000e+000 95089 -2.1382e+001 -2.2150e+002  2.1892e+001 39702 94913,94991,94939
 3.8000e+000 95066 -2.2566e+001 -2.0087e+002  8.2463e+000 39702 94913,95017,94991
 3.8000e+000 95043  1.8617e+000 -2.1340e+002  6.8178e+000 39702 94939,94991,94965
 3.8000e+000 95339 -8.1129e+001 -1.9309e+002 -2.5712e+001 39248 95140,95218,95166
 3.8000e+000 95316 -1.1486e+002 -2.1287e+002 -1.6451e+001 39248 95140,95244,95218
 3.8000e+000 95293 -6.7909e+001 -2.3469e+002 -3.4570e+001 39248 95114,95244,95140
 3.8000e+000 95270 -7.1496e+001 -2.0364e+002 -3.6991e+001 39248 95166,95218,95192
 3.8000e+000 95770 -8.0759e+001 -1.4340e+002  9.4367e+000 38694 95551,95629,95577
 3.8000e+000 95747 -4.3859e+001 -1.8108e+002  1.2195e+001 38694 95447,95629,95551
 3.8000e+000 95724 -3.4450e+001 -1.7141e+002 -1.2925e+001 38694 95447,95551,95473
 3.8000e+000 95701 -3.1797e+001 -1.6454e+002 -1.4840e+001 38694 95473,95551,95499
 3.8000e+000 95678 -2.3752e+001 -1.6030e+002 -1.7899e+001 38694 95499,95551,95525
 3.8000e+000 95655 -9.6284e+001 -2.0434e+002  3.5582e+001 38694 95577,95629,95603
 3.8000e+000 96325 -1.2929e+002 -2.9012e+002  1.2474e+001 38240 95953,96031,96005
 3.8000e+000 96302 -1.3326e+002 -1.6719e+002  6.0565e+001 38240 95953,96161,96031
 3.8000e+000 96279 -9.2962e+001 -1.6306e+002 -2.7955e+000 38240 96031,96161,96135
 3.8000e+000 96256 -1.0194e+002 -2.1663e+002  3.2004e+001 38240 96348,96109,96057
 3.8000e+000 96233 -9.0409e+001 -1.8919e+002  3.1486e+001 38240 96348,96057,96031
 3.8000e+000 96210 -8.2643e+001 -2.1831e+002  4.5812e+001 38240 96057,96109,96083
 3.8000e+000 96187 -1.4095e+002 -2.0588e+002  1.8566e+000 38240 95953,96005,95979
 3.8000e+000 96374 -9.0654e+001 -2.5635e+002  1.5817e+001 38240 96135,96109,96348
 3.8000e+000 96397 -7.2083e+001 -2.1452e+002  1.2499e+001 38240 96135,96348,96031
 3.8000e+000 96618 -6.6150e+001 -2.3500e+002 -1.2831e+001 37821 96494,96546,96520
 3.8000e+000 96595 -4.1109e+000 -1.8244e+002  1.0569e+001 37821 96468,96546,96494
 3.8000e+000 96572  1.3679e+001 -1.7481e+002  9.2081e+000 37821 96442,96546,96468
 3.8000e+000 97126 -6.5788e+001 -1.7033e+002 -1.7280e+001 37367 97149,96855,96829
 3.8000e+000 97103 -8.0097e+001 -1.7566e+002 -2.0302e+001 37367 97149,96829,96985
 3.8000e+000 97080 -6.0068e+001 -1.8526e+002 -2.5373e+001 37367 96803,96985,96829
 3.8000e+000 97057 -5.2382e+001 -1.6043e+002 -2.0961e+001 37367 96855,96907,96881
 3.8000e+000 97034 -1.1199e+002 -1.6571e+002 -1.0723e+001 37367 96907,96985,96959
 3.8000e+000 97011 -1.2685e+002 -1.6119e+002 -2.2853e+001 37367 96907,96959,96933
 3.8000e+000 97175 -7.8980e+001 -1.7118e+002 -2.3918e+001 37367 96907,96855,97149
 3.8000e+000 97198 -8.9334e+001 -1.7384e+002 -2.6719e+001 37367 96907,97149,96985
 3.8000e+000 97704 -7.7121e+001 -1.9433e+002  2.7386e+001 36863 97727,97511,97485
 3.8000e+000 97681 -7.1524e+001 -1.7028e+002  3.5350e+001 36863 97727,97485,97433
 3.8000e+000 97658 -9.9582e+001 -1.9673e+002  4.7866e+000 36863 97381,97563,97433
 3.8000e+000 97635 -3.7926e+001 -1.7408e+002 -9.1916e+000 36863 97511,97563,97537
 3.8000e+000 97612 -4.1330e+001 -1.0830e+002  1.7600e+000 36863 97433,97485,97459
 3.8000e+000 97589 -1.1367e+002 -2.0306e+002  1.5201e+001 36863 97381,97433,97407
 3.8000e+000 97753 -7.6464e+001 -2.1375e+002  1.5460e+001 36863 97563,97511,97727
 3.8000e+000 97776 -7.4015e+001 -1.9182e+002  2.2346e+001 36863 97563,97727,97433
 3.8000e+000 98331 -1.3267e+002 -3.1614e+002  3.8933e+000 36287 98354,98089,98063
 3.8000e+000 98308 -1.1835e+002 -3.0763e+002  2.0418e+001 36287 98354,98063,98011
 3.8000e+000 98285 -1.5843e+002 -2.6596e+002  4.3323e+001 36287 98426,97985,98115
 3.8000e+000 98262 -1.1570e+002 -3.1606e+002  1.8846e+001 36287 98011,98063,98037
 3.8000e+000 98239 -1.6691e+002 -2.3797e+002  2.0626e+001 36287 97985,98141,98115
 3.8000e+000 98216 -1.2962e+002 -2.1817e+002  2.8342e+001 36287 97959,98141,97985
 3.8000e+000 98193 -1.2866e+002 -2.7793e+002  4.7950e+001 36287 97959,98167,98141
 3.8000e+000 98380 -1.4362e+002 -2.9938e+002 -9.4170e+000 36287 98115,98089,98354
 3.8000e+000 98403 -1.2497e+002 -2.6554e+002  2.4205e+000 36287 98426,98115,98354
 3.8000e+000 98452 -1.9772e+002 -3.1753e+002  6.3738e+001 36287 98011,97985,98426
 3.8000e+000 98475 -1.7155e+002 -3.3080e+002  2.5314e+001 36287 98011,98426,98354
 3.8000e+000 99030 -9.2715e+001 -3.1126e+002 -3.0431e+001 35726 99053,98736,98710
 3.8000e+000 99007 -3.9452e+001 -2.4318e+002  9.5718e-001 35726 99053,98710,98684
 3.8000e+000 98984 -1.0535e+002 -2.4388e+002 -2.2845e+001 35726 99125,98814,98736
 3.8000e+000 98961 -9.4837e+001 -2.1053e+002 -9.0550e+000 35726 98736,98814,98788
 3.8000e+000 98938 -7.9159e+001 -1.9759e+002  1.7013e+001 35726 98684,98866,98840
 3.8000e+000 98915 -8.9147e+001 -2.0789e+002 -1.0292e+001 35726 98736,98788,98762
 3.8000e+000 98892 -5.6462e+001 -1.9025e+002  1.9461e+001 35726 98658,98866,98684
 3.8000e+000 99079 -7.4374e+001 -2.4081e+002 -5.3903e+000 35726 99125,98736,99053
 3.8000e+000 99102 -8.9560e+001 -1.9746e+002  3.6886e+000 35726 98840,99053,98684
 3.8000e+000 99151 -1.3446e+002 -2.5872e+002 -3.7631e+001 35726 98840,98814,99125
 3.8000e+000 99174 -1.1507e+002 -2.5316e+002 -1.6320e+001 35726 98840,99125,99053
 3.8000e+000 99454 -2.4908e+001 -1.4407e+002 -1.5228e+001 35222 99278,99330,99304
 3.8000e+000 99431 -4.5775e+001 -1.4894e+002  7.9824e+000 35222 99278,99382,99330
 3.8000e+000 99408 -8.4591e+001 -1.7401e+002 -5.9652e+000 35222 99330,99382,99356
 3.8000e+000 99653  3.2342e+001 -2.1138e+002 -2.3208e+001 34867 99477,99529,99503
 3.8000e+000 99630 -4.6865e+001 -1.5254e+002 -2.9730e+001 34867 99477,99581,99529
 3.8000e+000 99607 -5.8098e+001 -2.4918e+002 -7.1533e+001 34867 99529,99581,99555
 3.8000e+000 100104 -5.7975e+001 -2.5772e+002 -6.7162e+000 34363 99781,99885,99807
 3.8000e+000 100081 -1.0156e+002 -2.8259e+002  1.1711e+001 34363 99781,99963,99885
 3.8000e+000 100058 -3.3237e+001 -2.4584e+002 -6.8211e+000 34363 99885,99963,99911
 3.8000e+000 100035 -4.4282e+001 -2.1226e+002  5.1375e+000 34363 99807,99885,99859
 3.8000e+000 100012 -2.5172e+001 -2.3848e+002 -2.8714e+001 34363 99911,99963,99937
 3.8000e+000 99989 -5.2660e-002 -1.8840e+002  2.2669e+001 34363 99807,99859,99833
 3.8000e+000 100303 -9.2640e+001 -1.8574e+002 -5.3417e+001 33909 100127,100205,100179
 3.8000e+000 100280 -1.5353e+002 -2.0722e+002 -4.9227e+001 33909 100127,100231,100205
 3.8000e+000 100257 -1.1139e+002 -2.1269e+002 -2.6973e+001 33909 100127,100179,100153
 3.8000e+000 100890 -3.8294e+001 -1.8822e+002 -2.7805e+001 33412 100645,100749,100697
 3.8000e+000 100867 -3.5118e+001 -2.2931e+002 -1.6513e+001 33412 100567,100749,100645
 3.8000e+000 100844 -3.1574e+001 -2.3580e+002 -2.2182e+001 33412 100567,100645,100619
 3.8000e+000 100821 -5.6715e+001 -2.2829e+002 -5.0499e+001 33412 100645,100697,100671
 3.8000e+000 100798 -4.8638e+001 -3.0853e+002 -1.1726e+001 33412 100567,100619,100593
 3.8000e+000 100775 -1.0962e+002 -1.9348e+002 -5.6588e+000 33412 100697,100749,100723
 3.8000e+000 101268 -3.1269e+001 -2.6753e+002 -4.5319e+000 32908 101435,101291,101098
 3.8000e+000 101245 -8.5804e+001 -2.6747e+002  2.2551e+001 32908 101291,101072,101020
 3.8000e+000 101222 -8.3985e+001 -2.8647e+002 -4.6353e+001 32908 101363,101150,101124
 3.8000e+000 101199 -1.0494e+002 -2.9335e+002  5.0873e+001 32908 101020,101072,101046
 3.8000e+000 101176 -4.5101e+001 -1.9827e+002 -7.0139e+000 32908 100994,101150,101020
 3.8000e+000 101317 -6.0549e+001 -2.9201e+002  6.4000e+000 32908 101124,101098,101291
 3.8000e+000 101340 -6.0899e+001 -3.0951e+002 -4.0488e+000 32908 101363,101124,101291
 3.8000e+000 101389 -5.4336e+001 -2.4076e+002 -3.1221e+001 32908 101020,101150,101363
 3.8000e+000 101412 -3.0801e+001 -2.4395e+002  1.0456e+001 32908 101020,101363,101291
 3.8000e+000 101461 -2.2920e+001 -2.3321e+002  3.9711e+001 32908 101072,101291,101435
 3.8000e+000 101918 -7.4463e+001 -2.9404e+002 -2.6667e+001 32618 101941,101670,101644
 3.8000e+000 101895 -3.3894e+001 -2.9552e+002  1.0294e+000 32618 101941,101644,101774
 3.8000e+000 101872 -1.1554e+002 -2.6101e+002 -2.8082e+000 32618 102013,101696,101670
 3.8000e+000 101849 -2.5278e+001 -1.9891e+002 -3.8490e+001 32618 101696,101748,101722
 3.8000e+000 101826 -2.3495e+001 -2.8744e+002 -5.5168e+000 32618 101644,101800,101774
 3.8000e+000 101967 -1.1417e+002 -2.9643e+002 -2.2723e+001 32618 102013,101670,101941
 3.8000e+000 101990 -9.0645e+001 -3.2868e+002  1.4621e+001 32618 101748,101941,101774
 3.8000e+000 102039 -1.0427e+002 -2.4857e+002  3.6905e+000 32618 101748,101696,102013
 3.8000e+000 102062 -6.3889e+001 -2.6154e+002 -6.3101e+000 32618 101748,102013,101941
 3.8000e+000 102440 -9.5767e+001 -2.6631e+002  2.2077e+001 32306 102463,102270,102244
 3.8000e+000 102417 -9.6360e+001 -2.6138e+002  4.1868e+000 32306 102463,102244,102192
 3.8000e+000 102394 -8.6656e+001 -2.0364e+002 -1.1632e+000 32306 102192,102244,102218
 3.8000e+000 102371 -8.2114e+001 -2.6853e+002  2.2206e+001 32306 102270,102322,102296
 3.8000e+000 102348 -4.2540e+001 -2.9299e+002 -2.4803e+001 32306 102166,102322,102192
 3.8000e+000 102489 -7.9706e+001 -2.5870e+002  1.9977e+001 32306 102322,102270,102463
 3.8000e+000 102512 -7.8624e+001 -2.5255e+002  1.2137e+000 32306 102322,102463,102192
 3.8000e+000 102662 -7.6353e+001 -2.8440e+002  3.8883e+000 31852 102943,102587,102561
 3.8000e+000 102639 -3.8104e+001 -2.6841e+002  1.2274e+001 31852 102815,102685,102561
 3.8000e+000 102711 -8.4523e+001 -3.1697e+002 -1.1089e+001 31852 102943,102561,102685
 3.8000e+000 102841 -3.1852e+001 -2.1827e+002  3.8334e+001 31852 102535,102685,102815
 3.8000e+000 102969 -8.5440e+001 -3.1698e+002 -1.0529e+001 31852 102613,102587,102943
 3.8000e+000 102992 -9.1726e+001 -3.4419e+002 -2.6063e+001 31852 102613,102943,102685
 3.8000e+000 103370 -1.4973e+002 -3.5559e+002  1.5939e+001 31134 103096,103200,103122
 3.8000e+000 103347 -1.7679e+002 -4.2751e+002  4.1157e+001 31134 103096,103226,103200
 3.8000e+000 103324 -1.5326e+002 -3.4323e+002  6.0102e+000 31134 103122,103200,103174
 3.8000e+000 103301 -9.6697e+001 -3.7259e+002  1.1906e+001 31134 103096,103252,103226
 3.8000e+000 103278 -9.8180e+001 -3.5347e+002 -4.8316e+001 31134 103122,103174,103148
 3.8000e+000 103520 -3.5771e+001 -4.1142e+002  1.4760e+000 30822 103393,103445,103419
 3.8000e+000 103497 -2.0816e+001 -2.6425e+002  1.7316e+001 30822 103393,103471,103445
 3.8000e+000 103719  4.8237e+000 -1.4402e+002  1.2447e+001 30182 103742,103621,103569
 3.8000e+000 103696  4.4615e+001 -1.3687e+002  2.2504e+001 30182 103742,103569,103543
 3.8000e+000 103673 -1.3545e+001 -1.4976e+002  2.0131e+001 30182 103569,103621,103595
 3.8000e+000 103768 -2.8039e+001 -1.3225e+002  4.9810e+000 30182 103647,103621,103742
 3.8000e+000 103791 -2.3713e+000 -1.3096e+002  2.0327e+001 30182 103647,103742,103543
 3.8000e+000 104252 -8.9541e+001 -1.9591e+002  6.9380e+000 29728 104030,104108,104056
 3.8000e+000 104229 -5.8985e+001 -1.2766e+002  1.3426e+001 29728 104004,104108,104030
 3.8000e+000 104206 -2.2580e+001 -1.3718e+002  1.2866e+001 29728 104004,104134,104108
 3.8000e+000 104183 -5.0780e+001 -1.5602e+002 -2.6541e+001 29728 103978,104134,104004
 3.8000e+000 104160 -6.3566e+001 -1.6676e+002 -4.2843e+000 29728 104056,104108,104082
 3.8000e+000 104630 -8.9400e+001 -2.8970e+002 -3.0333e+001 29217 104653,104382,104356
 3.8000e+000 104607 -7.5336e+001 -2.6431e+002 -8.7376e+000 29217 104653,104356,104512
 3.8000e+000 104584 -1.2369e+002 -2.9390e+002 -3.1689e+001 29217 104434,104512,104486
 3.8000e+000 104561 -7.4413e+001 -3.2262e+002 -3.5684e+001 29217 104382,104434,104408
 3.8000e+000 104538 -5.3986e+001 -2.1440e+002  1.0764e+001 29217 104434,104486,104460
 3.8000e+000 104679 -9.8545e+001 -2.9392e+002 -4.0015e+001 29217 104434,104382,104653
 3.8000e+000 104702 -9.8240e+001 -2.8404e+002 -2.0697e+001 29217 104434,104653,104512
 3.8000e+000 105178 -5.8962e+001 -2.3759e+002  2.3124e+001 28649 105201,104962,104936
 3.8000e+000 105155 -6.0674e+001 -2.3779e+002  2.4074e+001 28649 105201,104936,104884
 3.8000e+000 105132 -6.2419e+001 -1.8914e+002 -1.9337e+001 28649 105273,104858,105014
 3.8000e+000 105109 -1.2824e+002 -2.4624e+002  8.5339e+000 28649 104962,105014,104988
 3.8000e+000 105086 -1.5237e+001 -1.8439e+002 -3.4002e+001 28649 104884,104936,104910
 3.8000e+000 105063 -4.9710e+001 -1.7394e+002 -1.1582e+001 28649 104806,105014,104858
 3.8000e+000 105040 -7.8928e+001 -1.6009e+002 -2.6206e+001 28649 104806,104858,104832
 3.8000e+000 105227 -5.4270e+001 -2.4678e+002  1.1847e+001 28649 105014,104962,105201
 3.8000e+000 105250 -3.4428e+001 -2.0977e+002  1.4151e+000 28649 105273,105014,105201
 3.8000e+000 105299 -8.7679e+001 -2.1037e+002 -5.4758e+000 28649 104884,104858,105273
 3.8000e+000 105322 -8.1069e+001 -2.4471e+002  1.9838e+001 28649 104884,105273,105201
 3.8000e+000 105673 -2.0690e+001 -2.8676e+002  3.0187e+000 28351 105474,105578,105552
 3.8000e+000 105650  2.9815e+000 -1.8581e+002 -6.1787e+000 28351 105448,105578,105474
 3.8000e+000 105627 -3.8917e+000 -2.6883e+002  1.3240e+000 28351 105500,105552,105526
 3.8000e+000 105604 -7.9395e+000 -2.8073e+002  1.2638e+000 28351 105474,105552,105500
 3.8000e+000 106130 -1.0416e+002 -1.8453e+002 -4.5817e+001 28004 106153,105882,105856
 3.8000e+000 106107 -9.4556e+001 -2.4216e+002 -2.6393e+001 28004 106153,105856,105986
 3.8000e+000 106084 -1.6888e+002 -2.6102e+002  1.6547e+001 28004 105934,105986,105960
 3.8000e+000 106061 -1.4066e+002 -3.0140e+002 -6.4330e+000 28004 105856,106012,105986
 3.8000e+000 106038 -1.7565e+002 -2.8482e+002 -1.9273e+001 28004 105882,105934,105908
 3.8000e+000 106179 -1.5250e+002 -2.3084e+002 -2.0087e+001 28004 105934,105882,106153
 3.8000e+000 106202 -1.0473e+002 -2.5963e+002 -1.0029e+001 28004 105934,106153,105986
 3.8000e+000 106885 -1.3886e+002 -2.2251e+002 -4.8641e+000 27564 106908,106620,106516
 3.8000e+000 106862 -1.3419e+002 -2.1864e+002 -3.0638e+000 27564 106908,106516,106490
 3.8000e+000 106839 -1.1685e+002 -2.0483e+002 -2.3963e+001 27564 106516,106620,106542
 3.8000e+000 106816 -1.3890e+002 -2.0607e+002 -4.5724e+000 27564 106620,106672,106646
 3.8000e+000 106793 -9.4808e+001 -2.1317e+002 -3.0210e+001 27564 106542,106620,106594
 3.8000e+000 106770 -1.4291e+002 -2.0702e+002  1.2669e+001 27564 106490,106698,106672
 3.8000e+000 106747 -1.1409e+002 -2.1759e+002  3.7242e+001 27564 106464,106698,106490
 3.8000e+000 106724 -1.5800e+001 -1.6635e+002 -5.2918e+001 27564 106542,106594,106568
 3.8000e+000 106934 -1.4283e+002 -2.1839e+002 -5.9479e+000 27564 106672,106620,106908
 3.8000e+000 106957 -1.4037e+002 -2.1578e+002 -4.8870e+000 27564 106672,106908,106490
 3.8000e+000 107463 -4.3472e+001 -1.5795e+002 -7.5073e+000 27053 107218,107322,107296
 3.8000e+000 107440 -6.1885e+001 -1.9804e+002  8.7584e+000 27053 107166,107322,107218
 3.8000e+000 107417 -5.3445e+001 -2.0673e+002 -1.3286e+001 27053 107218,107296,107244
 3.8000e+000 107394 -6.2586e+001 -1.4278e+002  2.3704e+001 27053 107140,107322,107166
 3.8000e+000 107371 -7.3897e+001 -2.2885e+002  2.0294e+001 27053 107166,107218,107192
 3.8000e+000 107348 -5.5754e+001 -2.7844e+002 -3.9441e+001 27053 107244,107296,107270
 3.8000e+000 108097 -1.1922e+002 -3.1049e+002 -1.3786e+001 26549 108192,108120,107803
 3.8000e+000 108074 -1.1331e+002 -3.5360e+002  2.4885e+001 26549 108120,107725,107933
 3.8000e+000 108051 -5.2538e+001 -3.9828e+002  1.4697e+001 26549 107751,107803,107777
 3.8000e+000 108028 -1.1770e+002 -3.3223e+002 -1.9440e+001 26549 108192,107803,107751
 3.8000e+000 108005 -7.4978e+001 -2.1205e+002 -2.9105e+000 26549 108264,107855,107803
 3.8000e+000 107982 -4.1188e+001 -2.5078e+002 -1.1431e+001 26549 107881,107933,107907
 3.8000e+000 107959 -1.0065e+002 -2.2741e+002  4.8436e+000 26549 107803,107855,107829
 3.8000e+000 108146 -9.4257e+001 -2.4621e+002 -1.6200e+001 26549 108264,107803,108120
 3.8000e+000 108169 -9.2212e+001 -2.9671e+002  8.1108e+000 26549 107881,108120,107933
 3.8000e+000 108218 -1.1574e+002 -2.8831e+002  1.9089e+000 26549 107725,108120,108192
 3.8000e+000 108241 -1.1257e+002 -3.0517e+002 -4.8755e+000 26549 107725,108192,107751
 3.8000e+000 108290 -5.0091e+001 -2.5587e+002 -1.0631e+001 26549 107881,107855,108264
 3.8000e+000 108313 -6.7204e+001 -2.9409e+002 -1.9779e+001 26549 107881,108264,108120
 3.8000e+000 108512 -2.1881e+001 -1.8925e+002 -2.2356e+001 26137 108388,108440,108414
 3.8000e+000 108489 -4.1086e+000 -1.6409e+002 -1.3775e+001 26137 108362,108440,108388
 3.8000e+000 108466  1.9243e+001 -1.8510e+002 -1.8313e+001 26137 108336,108440,108362
 3.8000e+000 108662 -6.7185e+001 -2.2345e+002 -2.6925e+001 25733 108817,108685,108535
 3.8000e+000 108639 -1.6494e+001 -2.3824e+002 -1.4215e+001 25733 109017,108817,108535
 3.8000e+000 108711 -6.8657e+001 -1.8833e+002 -1.4776e+001 25733 108561,108535,108685
 3.8000e+000 108843 -2.9063e+001 -2.1859e+002 -7.7978e+000 25733 108587,108685,108817
 3.8000e+000 108866 -2.7680e+001 -2.1389e+002  3.6574e+000 25733 108889,108817,108613
 3.8000e+000 108915 -2.8013e+001 -2.0811e+002 -7.9873e+000 25733 108587,108817,108889
 3.8000e+000 109043 -2.0723e+001 -1.7946e+002  9.5094e+000 25733 108613,108817,109017
 3.8000e+000 109500 -1.4279e+002 -2.8031e+002  4.1639e+001 25229 109523,109356,109330
 3.8000e+000 109477 -6.4699e+001 -1.9321e+002 -2.9363e+000 25229 109595,109523,109330
 3.8000e+000 109454 -7.2727e+001 -1.7900e+002 -1.8112e+001 25229 109595,109330,109278
 3.8000e+000 109431 -7.7091e+001 -1.8134e+002 -1.6061e+001 25229 109667,109226,109382
 3.8000e+000 109408 -7.8810e+001 -1.9531e+002 -2.8292e+001 25229 109278,109330,109304
 3.8000e+000 109549 -3.6932e+001 -2.2210e+002  4.8687e+000 25229 109382,109356,109523
 3.8000e+000 109572 -6.2181e+001 -2.0500e+002 -2.0878e+001 25229 109667,109382,109523
 3.8000e+000 109621 -7.9631e+001 -2.4535e+002 -1.3401e+001 25229 109252,109523,109595
 3.8000e+000 109644 -5.3153e+001 -1.8859e+002 -4.1337e+000 25229 109739,109595,109278
 3.8000e+000 109693 -9.9835e+001 -2.2482e+002 -2.3987e-001 25229 109252,109226,109667
 3.8000e+000 109716 -7.7123e+001 -2.4366e+002 -1.5104e+001 25229 109252,109667,109523
 3.8000e+000 109765 -8.7928e+001 -2.0529e+002 -9.6007e+000 25229 109252,109595,109739
 3.8000e+000 110478 -2.8496e+001 -1.3901e+002  2.5550e+001 24917 110158,110236,110184
 3.8000e+000 110455 -3.6134e+001 -1.5678e+002 -2.0416e+001 24917 110158,110288,110236
 3.8000e+000 110432 -1.1029e+001 -2.5020e+002  3.6009e-001 24917 110236,110288,110262
 3.8000e+000 110409 -2.9866e+001 -1.4863e+002  2.4424e+001 24917 110184,110236,110210
 3.8000e+000 110386 -7.5557e+001 -2.3676e+002 -3.3700e+001 24917 110132,110288,110158
 3.8000e+000 110363 -9.5452e+001 -2.3262e+002 -1.4542e+000 24917 110132,110314,110288
 3.8000e+000 110340 -1.3590e+002 -2.6921e+002 -1.2796e+001 24917 110106,110314,110132
 3.8000e+000 110829  5.8507e+001  7.5423e-001  1.4870e+001 24307 110604,110682,110630
 3.8000e+000 110806 -7.7769e+000 -2.7869e+002  2.1284e+001 24307 110604,110708,110682
 3.8000e+000 110783  1.7447e+001 -2.5901e+002 -1.0413e+001 24307 110604,110734,110708
 3.8000e+000 110760 -1.8050e+000 -2.5107e+001  1.7186e+001 24307 110630,110682,110656
 3.8000e+000 111335 -5.0340e+001 -1.7195e+002 -3.5829e+001 23767 111012,111168,111038
 3.8000e+000 111312 -3.7766e+001 -1.7311e+002 -4.4952e+001 23767 111012,111194,111168
 3.8000e+000 111289 -1.0552e+002 -2.1177e+002  1.6330e+001 23767 111358,111064,111038
 3.8000e+000 111266 -6.6716e+001 -1.9909e+002 -2.0213e+001 23767 111358,111038,111168
 3.8000e+000 111243 -3.8099e+001 -1.6755e+002 -1.5803e+001 23767 111430,111142,111090
 3.8000e+000 111220  2.4502e+000 -1.5018e+002  4.5052e+000 23767 111090,111142,111116
 3.8000e+000 111384 -7.1042e+001 -1.9163e+002 -8.4832e+000 23767 111090,111064,111358
 3.8000e+000 111407 -7.5913e+001 -1.7726e+002 -2.2335e+001 23767 111430,111090,111358
 3.8000e+000 111456 -8.3098e-001 -1.8999e+002 -2.4272e+001 23767 111168,111142,111430
 3.8000e+000 111479 -2.1943e+001 -1.8666e+002 -2.7030e+001 23767 111168,111430,111358
 3.8000e+000 111985 -7.1039e+001 -1.8669e+002  2.5284e+001 23477 111688,111844,111818
 3.8000e+000 111962 -6.4100e+001 -1.9407e+002 -2.7172e+001 23477 111662,111844,111688
 3.8000e+000 111939 -4.2892e+001 -3.0350e+002  2.8933e+001 23477 111766,111818,111792
 3.8000e+000 111916 -1.2311e+002 -2.9007e+002  1.9925e+001 23477 111740,111818,111766
 3.8000e+000 111893 -7.1267e+001 -1.6631e+002  2.9407e+001 23477 111688,111818,111740
 3.8000e+000 111870 -1.1640e+002 -2.0472e+002  4.7144e+001 23477 111688,111740,111714
 3.8000e+000 112314 -8.1503e+001 -1.6508e+002  5.0124e+000 23023 112141,112219,112193
 3.8000e+000 112291 -5.8472e+001 -1.6914e+002 -8.3705e+000 23023 112115,112219,112141
 3.8000e+000 112268 -5.1534e+001 -2.0497e+002  4.3997e+001 23023 112141,112193,112167
 3.8000e+000 112245 -4.4653e+001 -1.7161e+002 -1.7328e+000 23023 112089,112219,112115
 3.8000e+000 112692 -7.4035e+001 -2.3142e+002 -1.2649e+001 22768 112444,112574,112548
 3.8000e+000 112669 -5.0818e+001 -2.1701e+002 -3.1510e+000 22768 112418,112574,112444
 3.8000e+000 112646 -1.0515e+002 -2.3621e+002  1.0511e+001 22768 112444,112522,112470
 3.8000e+000 112623 -6.9718e+001 -2.2554e+002 -1.1663e+000 22768 112444,112548,112522
 3.8000e+000 112600  1.9330e+001 -1.8244e+002  3.4607e+000 22768 112470,112522,112496
 3.8000e+000 113011 -5.0360e+001 -2.8939e+002 -2.0885e+001 22314 112763,112867,112789
 3.8000e+000 112988 -2.2071e+001 -2.8836e+002 -2.7173e+001 22314 112763,112893,112867
 3.8000e+000 112965 -5.2599e+001 -2.8448e+002  0.0000e+000 22314 112815,112867,112841
 3.8000e+000 112942 -7.7421e+001 -3.0212e+002 -1.7056e+001 22314 112789,112867,112815
 3.8000e+000 112919 -1.3230e+001 -2.2760e+002  5.5133e+001 22314 112737,112893,112763
 3.8000e+000 113519 -1.3622e+001 -2.1855e+002  5.2709e+001 21924 113614,113542,113248
 3.8000e+000 113496 -4.4432e+001 -2.2067e+002  2.3783e+001 21924 113542,113196,113378
 3.8000e+000 113473 -3.6282e+001 -2.1786e+002  5.2886e+001 21924 113614,113248,113222
 3.8000e+000 113450 -4.4740e+001 -3.0462e+002  1.6884e+001 21924 113686,113274,113248
 3.8000e+000 113427 -8.5829e+001 -3.3959e+002 -1.7985e+001 21924 113274,113352,113326
 3.8000e+000 113404 -1.4123e+002 -4.2332e+002 -4.2618e+001 21924 113274,113326,113300
 3.8000e+000 113568 -1.1166e+001 -2.6270e+002  3.6080e+001 21924 113686,113248,113542
 3.8000e+000 113591 -3.8996e+001 -2.0699e+002  2.4464e+001 21924 113352,113542,113378
 3.8000e+000 113640 -3.5908e+001 -2.2475e+002  4.3481e+001 21924 113196,113542,113614
 3.8000e+000 113663 -4.5666e+001 -2.1599e+002  4.1866e+001 21924 113196,113614,113222
 3.8000e+000 113712 -7.9420e+001 -2.5767e+002 -2.0961e+000 21924 113352,113274,113686
 3.8000e+000 113735 -6.3023e+001 -2.3715e+002  1.2471e+001 21924 113352,113686,113542
 3.8000e+000 113885 -1.6437e+002 -2.3785e+002  1.0577e+000 21520 113980,113908,113784
 3.8000e+000 113862 -1.2262e+002 -2.1963e+002 -3.4206e+001 21520 114238,113908,113758
 3.8000e+000 113934 -1.0138e+002 -1.9643e+002  2.5881e+001 21520 114110,113908,113810
 3.8000e+000 113957 -8.5520e+001 -2.4305e+002 -2.0736e+001 21520 113810,113908,113836
 3.8000e+000 114006 -1.1146e+002 -1.9997e+002 -1.5552e+001 21520 113758,113908,113980
 3.8000e+000 114136 -1.5032e+002 -2.2968e+002  4.8629e+000 21520 113784,113908,114110
 3.8000e+000 114264 -1.6278e+002 -2.7643e+002 -5.5007e+001 21520 113836,113908,114238
 3.8000e+000 114662 -1.0336e+002 -3.0563e+002  9.2592e+000 21030 114414,114518,114492
 3.8000e+000 114639 -6.8563e+000 -2.3545e+002 -3.0128e+001 21030 114414,114544,114518
 3.8000e+000 114616 -1.2621e+002 -3.2112e+002 -9.8848e+000 21030 114440,114492,114466
 3.8000e+000 114593 -1.0794e+002 -3.1647e+002  8.9876e+000 21030 114414,114492,114440
 3.8000e+000 114570 -4.2170e+001 -2.3817e+002  8.2153e+000 21030 114388,114544,114414
 3.8000e+000 114959 -1.9609e+002 -3.5112e+002  2.4457e+001 20512 114982,114711,114685
 3.8000e+000 114936 -1.7713e+002 -3.3188e+002 -5.6008e+000 20512 115054,114982,114685
 3.8000e+000 114913 -1.4442e+002 -2.7736e+002 -2.0045e+001 20512 115054,114685,114841
 3.8000e+000 114890 -1.0096e+002 -3.2329e+002  1.1307e+001 20512 114711,114763,114737
 3.8000e+000 114867 -7.3540e+001 -3.0405e+002  6.9036e+000 20512 114763,114815,114789
 3.8000e+000 115008 -1.6769e+002 -3.4548e+002  1.3718e+001 20512 114763,114711,114982
 3.8000e+000 115031 -1.5249e+002 -3.4087e+002 -7.0434e+000 20512 114763,114982,114815
 3.8000e+000 115080 -1.6519e+002 -3.5335e+002 -2.1829e-001 20512 114815,114982,115054
 3.8000e+000 115103 -1.7001e+002 -3.4062e+002  2.1751e-001 20512 114815,115054,114841
 3.8000e+000 115507 -1.2781e+002 -2.9542e+002 -7.8480e+000 20143 115285,115389,115363
 3.8000e+000 115484 -1.5807e+002 -3.5026e+002  4.0989e+000 20143 115259,115389,115285
 3.8000e+000 115461 -1.3864e+002 -2.7678e+002 -1.2208e+000 20143 115233,115389,115259
 3.8000e+000 115438 -1.3396e+002 -3.7135e+002  1.2381e+001 20143 115285,115337,115311
 3.8000e+000 115415 -1.8479e+002 -4.2797e+002 -1.4252e+001 20143 115285,115363,115337
 3.8000e+000 115875 -7.7842e+001 -2.0317e+002  3.6024e+000 19632 115656,115734,115682
 3.8000e+000 115852 -2.7906e+001 -1.8001e+002  2.8646e+001 19632 115552,115734,115656
 3.8000e+000 115829 -3.1470e+001 -1.8065e+002 -1.0814e+001 19632 115552,115656,115578
 3.8000e+000 115806 -7.3336e+001 -2.0944e+002  6.6430e+000 19632 115578,115656,115630
 3.8000e+000 115783 -5.7753e+001 -1.8116e+002 -8.7339e+000 19632 115682,115734,115708
 3.8000e+000 115760 -1.0291e+002 -2.3204e+002 -1.9322e+001 19632 115578,115630,115604
 3.8000e+000 116025 -1.3065e+001 -2.3030e+002 -7.0266e+001 19178 115898,115950,115924
 3.8000e+000 116002 -6.3391e+001 -2.5135e+002 -2.1716e+001 19178 115898,115976,115950
 3.8000e+000 116633  8.8004e-001 -1.8180e+002 -5.7432e+000 18738 116800,116656,116342
 3.8000e+000 116610  2.0695e+001 -1.7524e+002  8.5822e+000 18738 116656,116238,116446
 3.8000e+000 116587 -2.2595e+001 -1.5560e+002 -3.0298e+001 18738 116728,116368,116342
 3.8000e+000 116564  7.0845e-001 -1.7587e+002 -9.4538e+000 18738 116800,116342,116264
 3.8000e+000 116541 -3.5426e+001 -3.4552e+002  9.4477e+000 18738 116212,116446,116238
 3.8000e+000 116518  1.6203e+000 -7.1203e+001 -2.7491e+001 18738 116394,116446,116420
 3.8000e+000 116495  1.5978e+002 -1.2633e+002 -4.6625e+001 18738 116264,116342,116316
 3.8000e+000 116472  3.3352e+001 -2.2558e+002  1.8495e+001 18738 116264,116316,116290
 3.8000e+000 116682 -1.6591e+001 -1.5128e+002  6.5660e+000 18738 116728,116342,116656
 3.8000e+000 116705 -2.3733e+000 -1.0257e+002  3.3062e+001 18738 116394,116656,116446
 3.8000e+000 116754 -7.7786e+001 -1.7829e+002 -3.7515e+001 18738 116394,116368,116728
 3.8000e+000 116777 -7.7749e+001 -1.7544e+002  2.8565e-001 18738 116394,116728,116656
 3.8000e+000 116826  1.6542e+000 -1.9146e+002 -2.6308e+000 18738 116238,116656,116800
 3.8000e+000 116849  3.4195e+000 -1.8448e+002 -7.1030e+000 18738 116238,116800,116264
 3.8000e+000 116999 -9.1277e+001 -3.0259e+002  1.3654e+001 18184 116872,116924,116898
 3.8000e+000 116976 -8.9908e+001 -1.6063e+002 -6.0086e+000 18184 116872,116950,116924
 3.8000e+000 117330 -1.7621e+001 -3.6615e+002  2.3895e+001 17694 117157,117235,117183
 3.8000e+000 117307 -1.1004e+002 -4.1509e+002  2.7716e+000 17694 117131,117235,117157
 3.8000e+000 117284 -7.8693e+001 -4.5726e+002 -2.0876e+001 17694 117105,117235,117131
 3.8000e+000 117261  5.6711e+001 -2.3013e+002 -1.1668e+001 17694 117183,117235,117209
 3.8000e+000 117480 -1.0471e+002 -3.0192e+002 -2.2919e+001 17290 117353,117405,117379
 3.8000e+000 117457 -5.0839e+001 -3.0240e+002 -3.1561e+001 17290 117353,117431,117405
 3.8000e+000 117679 -2.3076e+001 -2.2329e+002 -1.9205e+001 16718 117555,117607,117581
 3.8000e+000 117656 -1.2262e+002 -2.9800e+002  1.5116e+001 16718 117529,117607,117555
 3.8000e+000 117633  5.8040e+000 -2.8555e+002  1.2295e+001 16718 117503,117607,117529
 3.8000e+000 117782  1.3510e+001 -1.4775e+002  8.1709e+000 16520 117704,117756,117730
 3.8000e+000 117983 -8.8459e+001 -3.7601e+002 -5.2726e-001 16208 117859,117911,117885
 3.8000e+000 117960 -2.2366e+001 -3.4482e+002 -9.2585e+000 16208 117833,117911,117859
 3.8000e+000 117937  5.5694e+001 -2.7780e+002  2.0401e+001 16208 117807,117911,117833
 3.8000e+000 118135 -1.1518e+002 -2.2696e+002 -2.4443e+001 15674 118034,118086,118060
 3.8000e+000 118112 -6.1785e+000 -1.5740e+002  7.6936e+000 15674 118008,118086,118034
 3.8000e+000 118238 -3.0587e+001 -2.7412e+002  2.0110e+001 15355 118160,118212,118186
 3.8000e+000 118341 -7.5197e+001 -2.6039e+002  8.6120e+001 421 118263,118315,118289
 3.9000e+000 68152 -1.1662e+002 -5.6044e+001  2.9501e+001 67838 68074,68126,68100
 3.9000e+000 68550 -1.0875e+002 -5.0993e+001 -3.2193e+000 67526 68276,68380,68302
 3.9000e+000 68527 -1.1838e+002 -5.5694e+001 -4.4852e+000 67526 68276,68406,68380
 3.9000e+000 68504 -9.9367e+001 -5.6797e+001 -1.8901e+000 67526 68328,68380,68354
 3.9000e+000 68481 -1.1228e+002 -5.9290e+001 -3.0432e+000 67526 68302,68380,68328
 3.9000e+000 68458 -1.5152e+002 -1.1435e+002 -1.9729e+001 67526 68276,68432,68406
 3.9000e+000 68651 -1.7097e+002 -2.2472e+002  2.2183e+001 67328 68573,68625,68599
 3.9000e+000 68970 -9.4593e+001 -1.9331e+002  4.6548e+000 67016 68722,68800,68774
 3.9000e+000 68947 -1.0413e+002 -2.2124e+002  6.4161e+000 67016 68722,68826,68800
 3.9000e+000 68924 -8.6675e+001 -1.9973e+002 -1.1805e+000 67016 68696,68826,68722
 3.9000e+000 68901 -9.6721e+001 -2.0666e+002 -4.4505e+000 67016 68722,68774,68748
 3.9000e+000 68878 -1.0854e+002 -1.8827e+002 -3.0363e+001 67016 68696,68852,68826
 3.9000e+000 69291 -1.0360e+002 -1.1120e+002  5.7439e+000 66654 69069,69147,69095
 3.9000e+000 69268 -1.1227e+002 -1.1682e+002  1.9869e+000 66654 69069,69173,69147
 3.9000e+000 69245 -8.2626e+001 -6.9284e+001 -1.2176e+001 66654 69043,69173,69069
 3.9000e+000 69222 -1.0912e+002 -1.2936e+002  3.8785e+000 66654 69095,69147,69121
 3.9000e+000 69199 -1.2741e+002 -2.0298e+002  2.1985e+001 66654 69017,69173,69043
 3.9000e+000 69695 -1.0793e+002 -2.4400e+002  6.1880e+000 66456 69447,69577,69551
 3.9000e+000 69672 -8.1267e+001 -2.2356e+002 -3.2772e+000 66456 69421,69577,69447
 3.9000e+000 69649 -4.1434e+001 -1.5967e+002 -2.1042e+001 66456 69473,69551,69525
 3.9000e+000 69626 -9.4637e+001 -2.1565e+002  2.1803e+000 66456 69447,69551,69473
 3.9000e+000 69603 -2.2544e+001 -1.4655e+002 -5.2583e+001 66456 69473,69525,69499
 3.9000e+000 70024 -1.2399e+002 -1.3912e+002  3.3562e+000 66258 70047,69851,69825
 3.9000e+000 70001 -1.3020e+002 -1.4602e+002  1.0394e+001 66258 70047,69825,69903
 3.9000e+000 69978 -1.2650e+002 -1.6890e+002  1.2889e+001 66258 69799,69903,69825
 3.9000e+000 69955 -9.2381e+001 -1.9873e+002  3.5329e+001 66258 69799,69929,69903
 3.9000e+000 70073 -1.2881e+002 -1.4457e+002  1.0292e+001 66258 69877,69851,70047
 3.9000e+000 70096 -1.3768e+002 -1.5465e+002  1.7800e+001 66258 69877,70047,69903
 3.9000e+000 70602 -3.2044e+001 -1.3159e+002 -3.0736e+001 66060 70305,70435,70331
 3.9000e+000 70579 -1.4930e+002 -2.0949e+002  1.3048e+001 66060 70279,70435,70305
 3.9000e+000 70556 -1.3138e+002 -1.7613e+002 -2.0690e+001 66060 70331,70435,70409
 3.9000e+000 70533 -1.4683e+002 -1.9545e+002  2.9711e+000 66060 70279,70461,70435
 3.9000e+000 70510 -6.9072e+001 -1.1388e+002 -4.9488e+001 66060 70331,70409,70357
 3.9000e+000 70487 -5.9686e+001 -1.2914e+002 -8.7956e+000 66060 70357,70409,70383
 3.9000e+000 70703 -2.3442e+002 -2.5868e+002  1.5048e+001 65862 70625,70677,70651
 3.9000e+000 71083 -7.9614e+001 -6.0575e+001  6.9327e+000 65664 70887,70965,70939
 3.9000e+000 71060 -8.0042e+001 -4.1987e+001  4.3488e+000 65664 70861,70965,70887
 3.9000e+000 71037 -8.4873e+001 -3.9684e+001 -4.0591e-001 65664 70809,70965,70861
 3.9000e+000 71014 -7.7663e+001 -1.9674e+001 -1.0523e+000 65664 70809,70861,70835
 3.9000e+000 70991 -9.2887e+001 -8.8529e+001  9.3974e+000 65664 70887,70939,70913
 3.9000e+000 71611 -1.2042e+002 -2.1875e+002 -1.0977e+001 65260 71288,71444,71314
 3.9000e+000 71588 -8.1698e+001 -1.8786e+002  3.9506e+000 65260 71288,71470,71444
 3.9000e+000 71565 -8.0166e+001 -1.3569e+002  4.3906e+000 65260 71314,71418,71392
 3.9000e+000 71542 -1.0707e+002 -1.8218e+002 -8.7411e+000 65260 71314,71444,71418
 3.9000e+000 71519 -1.2573e+002 -1.4475e+002  1.6776e+001 65260 71314,71392,71340
 3.9000e+000 71496 -1.0690e+002 -1.1104e+002  5.6506e+001 65260 71340,71392,71366
 3.9000e+000 72060 -1.3236e+002 -2.0968e+002 -1.0333e+001 64870 71737,71893,71789
 3.9000e+000 72037 -1.1273e+002 -2.0025e+002 -3.4204e+000 64870 71737,71919,71893
 3.9000e+000 72014 -1.2567e+002 -1.9397e+002 -8.1870e-001 64870 71789,71841,71815
 3.9000e+000 71991 -1.1768e+002 -1.9407e+002 -2.4886e+000 64870 71789,71893,71841
 3.9000e+000 71968 -1.3938e+002 -2.5983e+002 -2.6092e+001 64870 71737,71789,71763
 3.9000e+000 71945 -1.0755e+002 -2.1273e+002  0.0000e+000 64870 71841,71893,71867
 3.9000e+000 72517 -1.2196e+002 -1.5400e+002 -2.4201e+001 64466 72321,72399,72347
 3.9000e+000 72494 -1.1788e+002 -1.2985e+002 -1.8238e+001 64466 72269,72399,72321
 3.9000e+000 72471 -1.2598e+002 -1.7478e+002  4.1577e+000 64466 72347,72399,72373
 3.9000e+000 72448 -1.2810e+002 -1.5174e+002 -5.4039e+001 64466 72243,72399,72269
 3.9000e+000 72425 -1.4262e+002 -1.7933e+002 -8.6476e+000 64466 72269,72321,72295
 3.9000e+000 72944 -9.0482e+001 -1.5998e+002  8.8494e+000 64062 73111,73039,72699
 3.9000e+000 72921 -8.7639e+001 -1.7136e+002 -3.1600e+000 64062 73183,72967,72647
 3.9000e+000 72898 -9.1423e+001 -1.7456e+002  1.4184e+000 64062 72967,72803,72751
 3.9000e+000 72875 -9.4039e+001 -1.6145e+002  6.7088e+000 64062 73111,72699,72673
 3.9000e+000 72852 -8.6050e+001 -1.7390e+002 -1.9405e+000 64062 73183,72647,72621
 3.9000e+000 72829 -7.2901e+001 -1.4091e+002 -2.6769e+001 64062 72751,72803,72777
 3.9000e+000 72993 -8.6481e+001 -1.5994e+002  3.3470e+000 64062 73039,72647,72967
 3.9000e+000 73016 -1.0662e+002 -1.7900e+002  1.2495e+000 64062 72725,72967,72751
 3.9000e+000 73065 -4.8739e+001 -1.8408e+002  5.8215e+001 64062 72725,72699,73039
 3.9000e+000 73088 -9.6108e+001 -1.8371e+002  2.5775e+000 64062 72725,73039,72967
 3.9000e+000 73137 -9.8529e+001 -1.6463e+002  6.8264e+000 64062 72647,73039,73111
 3.9000e+000 73160 -9.9444e+001 -1.6434e+002  5.0905e+000 64062 72647,73111,72673
 3.9000e+000 73209 -8.8260e+001 -1.7401e+002 -1.2953e+000 64062 72803,72967,73183
 3.9000e+000 73232 -8.8337e+001 -1.7938e+002 -2.2746e-001 64062 72803,73183,72621
 3.9000e+000 73333 -1.8740e+002 -2.5793e+002  2.3699e+001 63814 73356,73281,73255
 3.9000e+000 73382 -1.2359e+002 -1.7877e+002  2.1520e+001 63814 73486,73356,73307
 3.9000e+000 73512 -1.6058e+002 -1.9478e+002 -3.1239e+000 63814 73281,73356,73486
 3.9000e+000 73839 -9.6479e+001 -5.7831e+001  5.7261e+000 63616 73862,73692,73666
 3.9000e+000 73816 -7.1236e+001 -7.3907e+001  1.7699e-001 63616 73934,73862,73666
 3.9000e+000 73793 -6.4575e+001 -8.1606e+001  7.8339e+000 63616 73934,73666,73640
 3.9000e+000 73770 -9.1249e+001 -8.8005e+001  9.9549e+000 63616 73614,73744,73640
 3.9000e+000 73888 -1.4136e+002 -8.2970e+001  2.1707e+001 63616 73718,73692,73862
 3.9000e+000 73911 -8.2622e+001 -6.6311e+001  1.2998e+001 63616 73718,73862,73744
 3.9000e+000 73960 -8.5112e+001 -8.3176e+001  4.6547e+000 63616 73744,73862,73934
 3.9000e+000 73983 -7.8755e+001 -8.8635e+001  1.1806e+001 63616 73744,73934,73640
 3.9000e+000 74363 -9.3373e+001 -1.9125e+002  1.0655e+001 63390 74386,74115,74089
 3.9000e+000 74340 -8.8665e+001 -1.7169e+002  4.7828e+000 63390 74458,74386,74089
 3.9000e+000 74317 -7.9971e+001 -1.7676e+002  2.3157e+001 63390 74458,74089,74245
 3.9000e+000 74294 -9.2857e+001 -2.0812e+002  6.4121e+000 63390 74530,74167,74141
 3.9000e+000 74271 -7.3676e+001 -1.8852e+002 -3.3021e+001 63390 74167,74219,74193
 3.9000e+000 74412 -7.5567e+001 -1.8980e+002  7.0397e+000 63390 74141,74115,74386
 3.9000e+000 74435 -8.1953e+001 -1.9631e+002  1.2035e+001 63390 74530,74141,74386
 3.9000e+000 74484 -7.3008e+001 -1.4694e+002  1.7171e+001 63390 74219,74386,74458
 3.9000e+000 74507 -5.5323e+001 -1.4426e+002  3.7178e+001 63390 74219,74458,74245
 3.9000e+000 74556 -1.1085e+002 -1.9775e+002 -7.1714e+000 63390 74219,74167,74530
 3.9000e+000 74579 -9.9263e+001 -1.8277e+002 -8.3316e-001 63390 74219,74530,74386
 3.9000e+000 74680 -7.3821e+001 -1.2046e+002  7.1325e+000 63100 75089,74833,74703
 3.9000e+000 74729 -1.4979e+002 -1.7467e+002  1.9127e+001 63100 74961,74703,74654
 3.9000e+000 74859 -3.9865e+001 -1.2276e+002  6.8100e+000 63100 74602,74703,74833
 3.9000e+000 74987 -1.0908e+002 -1.0415e+002 -1.9893e+001 63100 75089,74703,74961
 3.9000e+000 75115 -9.8384e-001 -1.0441e+002  7.1178e+000 63100 74628,74833,75089
 3.9000e+000 75138 -3.5833e+001 -8.7932e+001 -1.9792e+001 63100 74628,75089,74961
 3.9000e+000 75723 -1.4115e+002 -9.3146e+001  1.9789e+001 62532 75746,75504,75426
 3.9000e+000 75700 -1.3253e+002 -8.3054e+001  1.5986e+001 62532 75746,75426,75556
 3.9000e+000 75677 -1.5026e+002 -3.1174e+001 -5.3619e+001 62532 75426,75504,75452
 3.9000e+000 75654 -9.0519e+001 -2.1870e+001 -3.8708e+001 62532 75400,75556,75426
 3.9000e+000 75631 -1.1679e+002 -9.0137e+001 -4.3370e+001 62532 75400,75582,75556
 3.9000e+000 75608 -4.9255e+001 -7.3701e+001 -5.3758e+001 62532 75452,75504,75478
 3.9000e+000 75772 -1.2787e+002 -1.1175e+002  1.6372e+001 62532 75530,75504,75746
 3.9000e+000 75795 -1.1432e+002 -9.6190e+001  1.0654e+001 62532 75530,75746,75556
 3.9000e+000 76301 -7.0760e+001 -1.3440e+002  8.5682e+000 62192 76324,76082,76030
 3.9000e+000 76278 -6.0143e+001 -1.2185e+002  1.3801e+001 62192 76324,76030,76004
 3.9000e+000 76255 -5.1037e+001 -1.2515e+002  5.5793e+000 62192 76030,76082,76056
 3.9000e+000 76232 -8.5110e+001 -1.2705e+002 -1.4309e+001 62192 76082,76134,76108
 3.9000e+000 76209 -6.6751e+001 -1.0152e+002 -7.5996e+000 62192 76004,76160,76134
 3.9000e+000 76186 -4.3850e+001 -1.0653e+002  8.9332e-001 62192 75978,76160,76004
 3.9000e+000 76350 -8.8366e+001 -1.1700e+002  8.8356e+000 62192 76134,76082,76324
 3.9000e+000 76373 -7.5807e+001 -9.9730e+001  1.4453e+001 62192 76134,76324,76004
 3.9000e+000 76879 -8.7909e+001 -8.2480e+001 -1.5905e+001 61788 76902,76660,76582
 3.9000e+000 76856 -4.0422e+001 -7.8425e+001 -1.7180e+001 61788 76902,76582,76556
 3.9000e+000 76833 -1.8736e+001 -5.9067e+001 -1.0074e+001 61788 76582,76660,76634
 3.9000e+000 76810 -1.1462e+001 -2.5092e+001 -2.1677e+001 61788 76582,76634,76608
 3.9000e+000 76787 -8.1150e+001 -7.3205e+001 -2.1790e+001 61788 76556,76738,76686
 3.9000e+000 76764 -7.0815e+001 -8.0126e+001 -2.2018e+001 61788 76686,76738,76712
 3.9000e+000 76928 -1.2209e+002 -7.4327e+001 -1.2026e+001 61788 76686,76660,76902
 3.9000e+000 76951 -8.3385e+001 -7.7463e+001 -1.0232e+001 61788 76686,76902,76556
 3.9000e+000 77408 -1.0658e+002 -1.1805e+002 -1.0063e+001 61498 77212,77264,77238
 3.9000e+000 77385 -9.7314e+001 -1.0377e+002 -1.8141e+000 61498 77160,77264,77212
 3.9000e+000 77362 -1.1076e+002 -1.1633e+002 -7.7389e+000 61498 77160,77290,77264
 3.9000e+000 77339 -6.4924e+001 -1.2957e+002  1.5123e+000 61498 77160,77212,77186
 3.9000e+000 77316 -9.1137e+001 -1.0873e+002  3.7524e+001 61498 77134,77290,77160
 3.9000e+000 77678 -5.5292e+001 -1.7184e+001  2.8231e+000 61129 77479,77557,77505
 3.9000e+000 77655 -4.6001e+001 -2.9628e+000 -9.2862e-001 61129 77479,77583,77557
 3.9000e+000 77632 -5.0046e+001  3.2031e+000 -3.1668e+000 61129 77453,77583,77479
 3.9000e+000 77609 -5.2426e+001 -1.4611e+000  2.3217e+001 61129 77505,77557,77531
 3.9000e+000 77828 -5.6563e+001 -4.2635e+001  4.5017e+000 60931 77851,77727,77701
 3.9000e+000 77805 -5.6045e+001 -3.7878e+001  2.1051e+000 60931 77851,77701,77779
 3.9000e+000 77877 -5.1792e+001 -4.1377e+001  2.1703e+000 60931 77923,77851,77753
 3.9000e+000 77900 -6.0615e+001 -4.4316e+001  5.7415e-003 60931 77753,77851,77779
 3.9000e+000 77949 -5.5482e+001 -4.7796e+001  4.3132e+000 60931 77727,77851,77923
 3.9000e+000 78133 -1.0574e+002 -1.3926e+002 -8.5333e+000 60377 78055,78107,78081
 3.9000e+000 78535 -2.0052e+002 -2.3871e+002 -1.4147e+001 60015 78287,78391,78313
 3.9000e+000 78512 -1.2359e+002 -2.5379e+002 -2.0933e+001 60015 78287,78417,78391
 3.9000e+000 78489 -1.5279e+002 -2.7949e+002 -3.8782e+001 60015 78261,78417,78287
 3.9000e+000 78466 -9.0059e+001 -1.9413e+002  2.2949e+001 60015 78339,78391,78365
 3.9000e+000 78443 -9.8135e+001 -1.8727e+002  9.4928e+000 60015 78313,78391,78339
 3.9000e+000 78913 -9.2373e+001 -1.5023e+002  3.5830e+000 59725 78936,78743,78691
 3.9000e+000 78890 -9.9757e+001 -1.5561e+002  7.9632e-001 59725 79008,78936,78691
 3.9000e+000 78867 -1.0057e+002 -1.5558e+002 -1.7414e+000 59725 79008,78691,78665
 3.9000e+000 78844 -6.6033e+001 -1.5190e+002  2.4166e+001 59725 78691,78743,78717
 3.9000e+000 78821 -7.1089e+001 -1.2988e+002 -2.5484e+001 59725 78639,78795,78769
 3.9000e+000 78962 -8.4318e+001 -1.5657e+002 -2.0378e+000 59725 78769,78743,78936
 3.9000e+000 78985 -9.8114e+001 -1.6543e+002 -6.2433e+000 59725 78769,78936,78639
 3.9000e+000 79034 -9.5232e+001 -1.5386e+002  1.5111e+000 59725 78639,78936,79008
 3.9000e+000 79057 -9.8135e+001 -1.5396e+002 -6.3484e-001 59725 78639,79008,78665
 3.9000e+000 79386 -9.4636e+001 -2.0038e+002  1.5701e+001 59221 79187,79239,79213
 3.9000e+000 79363 -8.5311e+001 -1.8404e+002  9.1732e+000 59221 79187,79265,79239
 3.9000e+000 79340 -9.5794e+001 -1.8456e+002  1.5059e+001 59221 79187,79291,79265
 3.9000e+000 79317 -7.2068e+001 -1.2326e+002  1.5083e+001 59221 79161,79291,79187
 3.9000e+000 79813 -5.9700e+001 -5.2885e+001  7.4272e-002 58831 79836,79542,79516
 3.9000e+000 79790 -6.4984e+001 -5.1741e+001 -3.4058e+000 58831 79980,79836,79516
 3.9000e+000 79767 -7.3883e+001 -7.6782e+001 -2.3227e+001 58831 79908,79646,79568
 3.9000e+000 79744 -7.8727e+001 -6.1436e+001 -7.8060e+000 58831 79980,79516,79490
 3.9000e+000 79721 -2.5105e+001 -1.0430e+002 -4.2163e+001 58831 79568,79646,79594
 3.9000e+000 79698 -1.9284e+002 -5.4179e+002 -4.7226e+001 58831 79594,79646,79620
 3.9000e+000 79862 -5.6903e+001 -3.3369e+001  8.9884e+000 58831 79568,79542,79836
 3.9000e+000 79885 -4.4752e+001 -5.8879e+001 -2.8360e-001 58831 79908,79568,79836
 3.9000e+000 79934 -9.2852e+001 -7.6222e+001 -3.8221e+001 58831 79672,79646,79908
 3.9000e+000 79957 -8.8159e+001 -7.1359e+001 -1.5384e+001 58831 79672,79908,79836
 3.9000e+000 80006 -6.2827e+001 -6.4618e+001 -8.7109e+000 58831 79672,79836,79980
 3.9000e+000 80029 -6.5062e+001 -6.6534e+001 -9.9339e+000 58831 79672,79980,79490
 3.9000e+000 80358 -7.5012e+001 -1.8963e+002  4.6768e+000 58377 80381,80185,80159
 3.9000e+000 80335 -7.8196e+001 -1.8544e+002  6.5899e+000 58377 80381,80159,80133
 3.9000e+000 80312 -6.2142e+001 -1.7380e+002  2.6250e+000 58377 80133,80263,80237
 3.9000e+000 80289 -7.7478e+001 -2.0339e+002  2.7013e+001 58377 80185,80237,80211
 3.9000e+000 80407 -7.2869e+001 -1.8527e+002  3.3260e+000 58377 80237,80185,80381
 3.9000e+000 80430 -7.7132e+001 -1.8239e+002  6.0983e+000 58377 80237,80381,80133
 3.9000e+000 80759 -5.0960e+001 -1.7112e+002  3.7558e+001 57873 80782,80586,80560
 3.9000e+000 80736 -7.7607e+001 -1.9829e+002  2.6323e+001 57873 80782,80560,80534
 3.9000e+000 80713 -8.6409e+001 -2.0121e+002  1.7255e+001 57873 80586,80638,80612
 3.9000e+000 80690 -2.6993e+001 -1.9179e+002  2.1689e+001 57873 80534,80664,80638
 3.9000e+000 80808 -6.3646e+001 -1.9611e+002  2.4768e+001 57873 80638,80586,80782
 3.9000e+000 80831 -6.7114e+001 -2.0359e+002  1.9580e+001 57873 80638,80782,80534
 3.9000e+000 81337 -5.1072e+001 -3.3512e+001  6.0204e+000 57262 81360,81144,81092
 3.9000e+000 81314 -4.4835e+001 -1.7120e+001  9.1912e+000 57262 81360,81092,81066
 3.9000e+000 81291 -4.3371e+001 -2.9111e+001 -2.3642e-001 57262 81014,81196,81066
 3.9000e+000 81268 -4.4921e+001 -1.3947e+001  8.8653e+000 57262 81092,81144,81118
 3.9000e+000 81245 -4.4919e+001 -5.4195e+001 -1.2822e+000 57262 81144,81196,81170
 3.9000e+000 81222 -3.2437e+001  1.8870e+000  3.2368e+000 57262 81014,81066,81040
 3.9000e+000 81386 -5.1190e+001 -4.7435e+001 -4.1775e+000 57262 81196,81144,81360
 3.9000e+000 81409 -4.3100e+001 -2.9232e+001 -3.5075e-001 57262 81196,81360,81066
 3.9000e+000 81608 -4.3047e+001  6.4863e+000 -4.2828e+000 57007 81458,81536,81510
 3.9000e+000 81585 -5.1351e+001 -1.4767e+001 -5.6910e+000 57007 81432,81536,81458
 3.9000e+000 81562 -2.7438e+001  4.6607e+000  9.4028e+000 57007 81458,81510,81484
 3.9000e+000 82086 -1.4441e+002 -1.4638e+002  3.2538e+001 56339 81792,81922,81818
 3.9000e+000 82063 -1.4053e+001 -1.7352e+002 -3.7250e+000 56339 81714,81922,81792
 3.9000e+000 82040 -1.3627e+002 -1.5079e+002 -2.5157e+001 56339 82109,81844,81818
 3.9000e+000 82017 -1.4929e+002 -1.6573e+002 -3.0647e+001 56339 82109,81818,81922
 3.9000e+000 81994 -8.3891e+001 -1.7591e+002 -3.9410e+001 56339 81844,81896,81870
 3.9000e+000 81971 -4.8363e+001 -2.3290e+002 -5.4711e+001 56339 81714,81792,81766
 3.9000e+000 81948 -4.4226e+001 -2.1628e+002 -2.0858e+001 56339 81714,81766,81740
 3.9000e+000 82135 -1.0377e+002 -1.6728e+002 -1.4784e+001 56339 81896,81844,82109
 3.9000e+000 82158 -1.3027e+002 -1.9830e+002 -2.6019e+001 56339 81896,82109,81922
 3.9000e+000 82536 -8.6744e+001 -1.7034e+002  4.3958e+000 55699 82288,82392,82314
 3.9000e+000 82513 -8.9262e+001 -1.7101e+002  6.0923e+000 55699 82288,82418,82392
 3.9000e+000 82490 -1.0507e+002 -2.0245e+002 -3.6389e+000 55699 82314,82392,82340
 3.9000e+000 82467 -6.0435e+001 -2.3078e+002 -1.8621e+001 55699 82340,82392,82366
 3.9000e+000 82444 -7.5045e+001 -1.7956e+002  6.2501e+000 55699 82262,82418,82288
 3.9000e+000 83091 -6.6771e+001 -8.7414e+001  1.4984e+001 55409 82745,82901,82875
 3.9000e+000 83068 -5.0080e+001 -7.0722e+001  2.2059e+001 55409 82719,82901,82745
 3.9000e+000 83045 -7.4198e+001 -1.0723e+002  2.2259e+001 55409 82771,82849,82823
 3.9000e+000 83022 -1.0347e+002 -1.1346e+002  3.6247e+001 55409 82745,82849,82771
 3.9000e+000 82999 -3.6076e+001 -7.4342e+001  1.5302e+001 55409 82745,82875,82849
 3.9000e+000 82976 -1.1411e+002 -5.9647e+001  1.8166e+001 55409 82771,82823,82797
 3.9000e+000 82953 -2.1157e+000 -9.3903e+000 -5.6013e+000 55409 82719,82927,82901
 3.9000e+000 83388 -8.2609e+001 -2.0447e+002 -2.2397e+000 54905 83411,83218,83166
 3.9000e+000 83365 -6.6841e+001 -2.0516e+002 -4.1128e+000 54905 83411,83166,83114
 3.9000e+000 83342 -1.0904e+002 -2.1511e+002 -1.7227e+001 54905 83483,83270,83244
 3.9000e+000 83319 -9.6186e+001 -1.9919e+002 -7.6692e+000 54905 83166,83218,83192
 3.9000e+000 83296 -6.9095e+001 -2.2200e+002  9.3965e+000 54905 83114,83166,83140
 3.9000e+000 83437 -8.7603e+001 -2.0866e+002  1.0901e+000 54905 83244,83218,83411
 3.9000e+000 83460 -8.9827e+001 -2.1602e+002 -7.5605e+000 54905 83483,83244,83411
 3.9000e+000 83509 -8.4786e+001 -1.9368e+002 -8.2624e+000 54905 83114,83270,83483
 3.9000e+000 83532 -7.7369e+001 -2.0159e+002 -1.1364e+000 54905 83114,83483,83411
 3.9000e+000 83961 -1.9482e+001 -1.1025e+000 -2.7471e-001 54593 83638,83768,83690
 3.9000e+000 83938 -2.3076e+001 -1.7085e+001  4.7872e+000 54593 83638,83794,83768
 3.9000e+000 83915 -1.1878e+001 -1.2438e+001 -8.7842e+000 54593 83690,83768,83742
 3.9000e+000 83892 -3.5241e+001 -1.3741e+001  1.1193e+000 54593 83638,83820,83794
 3.9000e+000 83869 -1.8065e+001  6.1806e+000  1.1822e-001 54593 83638,83690,83664
 3.9000e+000 83846 -1.5121e+001 -1.2622e+001 -9.7062e+000 54593 83690,83742,83716
 3.9000e+000 84209 -8.5621e+001 -2.3449e+002  2.1496e+001 54132 84232,84062,83984
 3.9000e+000 84186 -8.3564e+001 -1.9648e+002  1.1954e+001 54132 84232,83984,84114
 3.9000e+000 84163 -9.0555e+001 -2.4277e+002  1.0123e+001 54132 83984,84062,84036
 3.9000e+000 84140 -9.8143e+001 -2.2132e+002  5.3886e+000 54132 83984,84036,84010
 3.9000e+000 84258 -6.4436e+001 -2.7530e+002  1.4093e+001 54132 84088,84062,84232
 3.9000e+000 84281 -5.8876e+001 -2.3538e+002 -2.2521e+000 54132 84088,84232,84114
 3.9000e+000 84382 -1.9351e+001  8.7249e+000 -4.9680e+000 53521 84304,84356,84330
 3.9000e+000 84632 -7.2006e+001 -1.5817e+002  1.1444e+000 53067 84655,84485,84459
 3.9000e+000 84609 -7.2848e+001 -1.7433e+002 -1.1989e+000 53067 84655,84459,84407
 3.9000e+000 84586 -5.7433e+001 -1.5220e+002  6.6369e+000 53067 84485,84537,84511
 3.9000e+000 84563 -8.2134e+001 -2.0306e+002 -1.5457e+001 53067 84407,84459,84433
 3.9000e+000 84681 -6.4368e+001 -1.7504e+002  5.0097e+000 53067 84537,84485,84655
 3.9000e+000 84704 -6.7919e+001 -1.9388e+002  5.7391e+000 53067 84537,84655,84407
 3.9000e+000 85214 -2.7602e+001 -7.6443e+001 -6.8691e+000 52513 85021,85073,85047
 3.9000e+000 85191 -2.8679e+001 -5.0786e+001 -1.1842e+001 52513 84943,85073,85021
 3.9000e+000 85168 -6.3103e+000 -3.8702e+001 -1.1135e+000 52513 84943,85021,84995
 3.9000e+000 85145 -3.1792e+001 -8.4494e+001  1.5262e+001 52513 84917,85073,84943
 3.9000e+000 85122 -1.5839e+000 -3.6573e+000 -1.2654e+001 52513 84943,84995,84969
 3.9000e+000 85099 -3.7315e+001 -8.5745e+001  2.0506e+001 52513 84891,85073,84917
 3.9000e+000 85582 -8.0557e+001 -2.0095e+002  2.3893e+001 52037 85605,85311,85285
 3.9000e+000 85559 -8.1392e+001 -2.1675e+002  1.9488e+001 52037 85749,85605,85285
 3.9000e+000 85536 -3.5516e+001 -1.7895e+002 -1.4130e+000 52037 85893,85677,85389
 3.9000e+000 85513 -6.2373e+001 -2.0609e+002  1.4997e+001 52037 85749,85285,85259
 3.9000e+000 85490 -3.1669e+000 -1.6649e+002 -1.2032e+001 52037 85893,85389,85363
 3.9000e+000 85467 -5.4908e+001 -2.1994e+002 -1.7008e+001 52037 85259,85441,85415
 3.9000e+000 85631 -1.0303e+002 -2.1904e+002  1.1654e+001 52037 85337,85311,85605
 3.9000e+000 85654 -7.9426e+001 -2.0282e+002  2.9264e+001 52037 85677,85337,85605
 3.9000e+000 85703 -3.2115e+001 -2.0233e+002  9.6360e+000 52037 85415,85389,85677
 3.9000e+000 85726 -3.3894e+001 -2.0261e+002  2.5835e+001 52037 85821,85677,85605
 3.9000e+000 85775 -5.6400e+001 -2.1181e+002  2.6131e+001 52037 85821,85605,85749
 3.9000e+000 85798 -7.2884e+001 -2.1882e+002  1.0411e+001 52037 85415,85749,85259
 3.9000e+000 85847 -3.8790e+001 -2.0664e+002  7.5988e+000 52037 85415,85677,85821
 3.9000e+000 85870 -4.7025e+001 -2.0957e+002  8.5204e+000 52037 85415,85821,85749
 3.9000e+000 85919 -3.1435e+001 -1.9160e+002  3.3897e+001 52037 85337,85677,85893
 3.9000e+000 85942 -1.8681e+001 -1.8893e+002  2.3990e+001 52037 85337,85893,85363
 3.9000e+000 86224 -7.8177e+000 -1.9184e+001 -1.7891e+001 51368 86375,86100,86074
 3.9000e+000 86201 -9.0195e+000 -2.4339e+001 -2.4186e+001 51368 86375,86074,86247
 3.9000e+000 86178 -1.6616e+001 -5.6817e+001 -2.4554e+001 51368 86048,86152,86126
 3.9000e+000 86273 -1.5474e+001 -4.0794e+001 -2.6498e+001 51368 86048,86126,86247
 3.9000e+000 86401 -6.1051e+000 -2.9278e+001 -2.1080e+001 51368 86126,86100,86375
 3.9000e+000 86424 -6.6340e+000 -3.7414e+001 -2.5376e+001 51368 86126,86375,86247
 3.9000e+000 86802 -7.4862e+001 -1.5445e+002  1.0186e+000 51028 86528,86632,86580
 3.9000e+000 86779 -8.6352e+001 -1.8309e+002  9.2453e+000 51028 86528,86684,86632
 3.9000e+000 86756 -1.0413e+002 -2.2143e+002 -2.2114e+000 51028 86528,86580,86554
 3.9000e+000 86733 -6.7354e+001 -1.8584e+002  3.2186e+001 51028 86632,86684,86658
 3.9000e+000 86710 -8.6464e+001 -1.7510e+002 -1.5061e+001 51028 86580,86632,86606
 3.9000e+000 87131 -9.5375e+001 -1.3236e+002  3.1660e+001 50624 86958,87036,87010
 3.9000e+000 87108 -7.7204e+001 -1.1832e+002  3.8731e+001 50624 86932,87036,86958
 3.9000e+000 87085 -8.4311e+001 -1.2779e+002  2.9251e+001 50624 86958,87010,86984
 3.9000e+000 87062 -2.2216e+001 -9.9713e+001  3.3330e+001 50624 86906,87036,86932
 3.9000e+000 87330 -1.0286e+002 -1.4188e+002 -5.3881e+000 50234 87353,87180,87154
 3.9000e+000 87307 -9.7474e+001 -1.3304e+002 -9.5988e+000 50234 87353,87154,87258
 3.9000e+000 87284 -8.5483e+001 -1.5299e+002 -8.9775e+000 50234 87206,87258,87232
 3.9000e+000 87379 -9.6210e+001 -1.6163e+002  4.2773e-001 50234 87206,87180,87353
 3.9000e+000 87402 -8.1939e+001 -1.4500e+002 -6.5079e+000 50234 87206,87353,87258
 3.9000e+000 87650 -7.7005e+001 -1.5947e+002 -1.1266e+001 49730 87673,87503,87451
 3.9000e+000 87627 -5.6877e+001 -1.5184e+002 -1.8952e+001 49730 87673,87451,87425
 3.9000e+000 87604 -4.9262e+001 -1.2525e+002  7.8832e+000 49730 87503,87555,87529
 3.9000e+000 87581 -8.7376e+001 -1.2209e+002 -1.6379e+001 49730 87451,87503,87477
 3.9000e+000 87699 -7.9694e+001 -1.5976e+002 -7.9258e+000 49730 87555,87503,87673
 3.9000e+000 87722 -7.4964e+001 -1.6636e+002 -1.2226e+001 49730 87555,87673,87425
 3.9000e+000 88232 -7.6507e+001 -1.8467e+002  9.5920e+000 49176 88255,87935,87909
 3.9000e+000 88209 -1.0504e+002 -2.1340e+002  3.8604e+001 49176 88255,87909,88065
 3.9000e+000 88186 -8.5133e+001 -1.5677e+002  2.1226e+001 49176 87935,88039,87961
 3.9000e+000 88163 -8.8593e+001 -1.8284e+002  2.5293e+001 49176 87909,88091,88065
 3.9000e+000 88140 -1.0691e+002 -1.6649e+002  1.8067e+001 49176 87961,88039,88013
 3.9000e+000 88117 -9.4728e+001 -1.9045e+002 -6.4638e+000 49176 87961,88013,87987
 3.9000e+000 88281 -1.0603e+002 -1.9572e+002  3.7604e+001 49176 88039,87935,88255
 3.9000e+000 88304 -1.3388e+002 -2.2208e+002  6.6291e+001 49176 88039,88255,88065
 3.9000e+000 88503 -3.8852e+001 -1.3289e+002  2.0584e+000 48772 88526,88379,88353
 3.9000e+000 88480 -4.7839e+001 -1.1112e+002  6.2043e+000 48772 88526,88353,88327
 3.9000e+000 88457 -4.8634e+001 -1.6004e+002  2.0701e+000 48772 88379,88431,88405
 3.9000e+000 88552 -3.2380e+001 -1.1583e+002 -1.0762e+000 48772 88431,88379,88526
 3.9000e+000 88575 -4.4959e+001 -1.0074e+002  1.2210e+000 48772 88431,88526,88327
 3.9000e+000 89083 -7.6938e+000 -5.1306e+000 -1.2121e+001 48368 88786,88916,88864
 3.9000e+000 89060 -2.6901e+001 -2.5898e+001 -3.7434e-001 48368 88786,88942,88916
 3.9000e+000 89037 -1.2799e+001 -5.8379e+000 -7.0065e+000 48368 88786,88864,88812
 3.9000e+000 89014 -1.5684e+001 -1.7969e+001 -1.5573e+001 48368 88864,88916,88890
 3.9000e+000 88991  5.2408e+000  3.4113e+000 -1.2191e+001 48368 88812,88864,88838
 3.9000e+000 88968 -1.3593e+001 -3.0501e+001 -1.4217e+001 48368 88760,88942,88786
 3.9000e+000 89331 -1.8212e+001 -8.2239e+001  1.3632e+001 47928 89158,89236,89210
 3.9000e+000 89308  1.0396e+001 -3.7408e+001 -2.6111e+000 47928 89132,89236,89158
 3.9000e+000 89285 -3.1261e+001 -4.4016e+001  1.1894e+001 47928 89158,89210,89184
 3.9000e+000 89262 -1.0803e+001 -2.9353e+001 -3.8402e+000 47928 89106,89236,89132
 3.9000e+000 89662 -8.6053e+001 -1.7721e+002 -7.9702e+000 47588 89463,89541,89515
 3.9000e+000 89639 -6.9534e+001 -1.4218e+002 -1.3275e+001 47588 89463,89567,89541
 3.9000e+000 89616 -7.3642e+001 -1.7702e+002  6.2487e+000 47588 89463,89515,89489
 3.9000e+000 89593 -7.8136e+001 -1.4617e+002 -1.2025e+001 47588 89437,89567,89463
 3.9000e+000 89763  4.4901e+000  2.5827e+000 -1.7355e+000 47390 89685,89737,89711
 3.9000e+000 89913 -1.2610e+000  2.4242e+001  4.7633e+000 47078 89786,89838,89812
 3.9000e+000 89890  1.0320e+001  1.2453e+001  6.0013e+000 47078 89786,89864,89838
 3.9000e+000 90163 -7.1197e+001 -1.5171e+002  2.4323e+000 46474 89964,90042,89990
 3.9000e+000 90140 -5.2347e+001 -1.4533e+002  1.0296e+001 46474 89938,90042,89964
 3.9000e+000 90117 -8.3542e+001 -1.4109e+002  3.2466e+000 46474 89990,90042,90016
 3.9000e+000 90094 -7.8660e+001 -1.5156e+002  1.6650e+001 46474 89938,90068,90042
 3.9000e+000 90364 -6.1974e+001 -1.1470e+002  2.3046e+001 46184 90240,90292,90266
 3.9000e+000 90341 -5.9087e+001 -8.8798e+001  3.6773e+001 46184 90188,90292,90240
 3.9000e+000 90318 -5.8654e+001 -9.7585e+001  3.6718e+001 46184 90188,90240,90214
 3.9000e+000 90565 -6.4990e+001 -1.0023e+002 -1.3316e+001 45780 90588,90415,90389
 3.9000e+000 90542 -5.5917e+001 -1.0324e+002 -1.0504e+001 45780 90588,90389,90493
 3.9000e+000 90519 -5.6821e+001 -1.0197e+002 -7.7030e+000 45780 90415,90467,90441
 3.9000e+000 90614 -5.8218e+001 -1.0141e+002 -7.9038e+000 45780 90467,90415,90588
 3.9000e+000 90637 -4.5190e+001 -9.8504e+001 -3.3457e+000 45780 90467,90588,90493
 3.9000e+000 91196 -1.0014e+002 -1.8073e+002 -1.7172e+001 45226 91219,90876,90850
 3.9000e+000 91173 -5.7537e+001 -1.7274e+002  6.2340e+000 45226 91219,90850,91032
 3.9000e+000 91150 -4.6744e+001 -1.9353e+002 -1.4291e+001 45226 90824,91032,90850
 3.9000e+000 91127 -7.0114e+001 -1.2446e+002  1.4498e+000 45226 90876,90980,90902
 3.9000e+000 91104 -3.9695e+001 -1.3064e+002  1.9744e+001 45226 90876,91006,90980
 3.9000e+000 91081 -6.3891e+001 -1.3232e+002 -9.8474e+000 45226 90902,90980,90954
 3.9000e+000 91058 -2.4273e+001 -1.0639e+002 -2.4361e+001 45226 90902,90954,90928
 3.9000e+000 91245 -6.0097e+001 -1.6153e+002 -3.4684e+000 45226 91006,90876,91219
 3.9000e+000 91268 -2.1693e+001 -1.6134e+002  1.6754e+001 45226 91006,91219,91032
 3.9000e+000 91516  1.2064e+001 -6.2465e+001  6.4682e+000 44836 91539,91421,91395
 3.9000e+000 91493  3.9073e+000 -5.7543e+001 -3.5650e+000 44836 91317,91421,91343
 3.9000e+000 91470 -9.9831e+000 -6.2973e+001  5.1225e+000 44836 91539,91395,91369
 3.9000e+000 91447  3.7459e+000 -1.9230e+001  1.9182e+001 44836 91291,91421,91317
 3.9000e+000 91565  1.4461e+000 -6.2169e+001 -5.9290e+000 44836 91343,91421,91539
 3.9000e+000 91588 -1.3017e+001 -6.4225e+001 -1.0827e+001 44836 91343,91539,91369
 3.9000e+000 91787 -3.5624e+001 -9.7269e+001  1.1430e+001 44432 91810,91637,91611
 3.9000e+000 91764 -4.6732e+001 -9.5111e+001  1.2937e+001 44432 91810,91611,91715
 3.9000e+000 91741 -2.9050e+001 -9.2547e+001  2.2611e+000 44432 91637,91689,91663
 3.9000e+000 91836 -4.4628e+001 -9.8360e+001  9.3924e+000 44432 91689,91637,91810
 3.9000e+000 91859 -5.2753e+001 -9.4817e+001  9.1493e+000 44432 91689,91810,91715
 3.9000e+000 92207 -3.5907e+001 -8.6043e+001  1.7865e+001 43864 92230,91936,91910
 3.9000e+000 92184 -5.7967e+001 -7.6787e+001  2.0927e+001 43864 92230,91910,92040
 3.9000e+000 92161 -7.4112e+001 -8.1127e+001  3.8092e+001 43864 91884,92040,91910
 3.9000e+000 92138 -3.5286e+001 -8.9200e+001  3.5345e+000 43864 91936,92014,91988
 3.9000e+000 92115 -4.5221e+001 -1.0686e+002  1.2909e+001 43864 91936,91988,91962
 3.9000e+000 92092 -7.0547e+001 -7.5180e+001  3.5705e+001 43864 91884,92066,92040
 3.9000e+000 92256 -5.4549e+001 -9.8434e+001  1.1793e+001 43864 92014,91936,92230
 3.9000e+000 92279 -6.6910e+001 -8.0506e+001  1.8810e+001 43864 92014,92230,92040
 3.9000e+000 92529 -6.4377e+001 -1.3023e+002  3.6207e+000 43410 92552,92330,92304
 3.9000e+000 92506 -6.4176e+001 -1.2976e+002 -9.6582e-001 43410 92552,92304,92408
 3.9000e+000 92483 -7.1469e+001 -1.3087e+002  1.8087e+000 43410 92304,92434,92408
 3.9000e+000 92460 -5.3760e+001 -1.1070e+002 -5.1109e+000 43410 92330,92382,92356
 3.9000e+000 92578 -6.1469e+001 -1.2887e+002  2.2202e+000 43410 92382,92330,92552
 3.9000e+000 92601 -5.8232e+001 -1.2606e+002 -2.8756e+000 43410 92382,92552,92408
 3.9000e+000 92802 -9.4927e+000 -7.4900e+001  8.0807e+000 43162 92825,92704,92652
 3.9000e+000 92779 -3.1332e+000 -6.2591e+001  1.1643e+001 43162 92825,92652,92626
 3.9000e+000 92756 -9.7828e+000 -6.2488e+001  1.1908e+001 43162 92652,92704,92678
 3.9000e+000 92851 -2.4957e+001 -7.3608e+001 -1.0511e+001 43162 92730,92704,92825
 3.9000e+000 92874 -2.7203e+000 -4.4904e+000 -7.4628e+000 43162 92730,92825,92626
 3.9000e+000 93463 -4.8859e+001 -1.1820e+002 -2.2831e+001 42758 93140,93270,93166
 3.9000e+000 93440 -6.6007e+001 -1.4820e+002 -1.5755e+001 42758 93140,93296,93270
 3.9000e+000 93417 -5.2933e+001 -1.2893e+002 -1.5765e+001 42758 93166,93270,93218
 3.9000e+000 93394 -3.1249e+001 -1.2184e+002 -1.5005e+001 42758 93218,93270,93244
 3.9000e+000 93371 -2.2143e+001 -1.5661e+002 -1.8143e+001 42758 93140,93322,93296
 3.9000e+000 93348 -7.5403e+001 -1.7046e+002  1.5963e+001 42758 93166,93218,93192
 3.9000e+000 93920 -4.8331e+001 -1.2207e+002 -2.9691e+000 42304 93943,93672,93646
 3.9000e+000 93897 -4.3707e+001 -1.0544e+002 -1.0900e+000 42304 93943,93646,93802
 3.9000e+000 93874 -4.0988e+001 -1.2659e+002  1.0428e+001 42304 93724,93802,93776
 3.9000e+000 93851 -6.3758e+001 -1.4920e+002  4.5037e+000 42304 93672,93724,93698
 3.9000e+000 93828 -7.3070e+001 -1.4296e+002 -1.1845e+000 42304 93724,93776,93750
 3.9000e+000 93969 -4.4915e+001 -1.2797e+002 -8.0495e+000 42304 93724,93672,93943
 3.9000e+000 93992 -4.6342e+001 -1.2059e+002 -5.8602e+000 42304 93724,93943,93802
 3.9000e+000 94321 -3.3863e+001 -8.9951e+001  9.7839e-001 41478 94096,94148,94122
 3.9000e+000 94298 -4.4241e+001 -1.0940e+002  4.9341e+000 41478 94096,94226,94148
 3.9000e+000 94275 -5.6102e+001 -1.2991e+002 -1.1431e+000 41478 94148,94226,94174
 3.9000e+000 94252 -1.8587e+001 -1.1130e+002 -3.8085e+001 41478 94174,94226,94200
 3.9000e+000 94618 -4.6769e+001 -1.2766e+002 -5.2625e+000 40910 94344,94422,94396
 3.9000e+000 94595 -5.1745e+001 -1.3005e+002 -6.9809e+000 40910 94344,94448,94422
 3.9000e+000 94572 -4.0481e+001 -1.0253e+002 -2.1240e+000 40910 94344,94474,94448
 3.9000e+000 94549 -3.9146e+001 -1.2579e+002 -4.3936e+000 40910 94344,94396,94370
 3.9000e+000 94526 -7.0535e+001 -1.4738e+002  1.1833e+001 40910 94344,94500,94474
 3.9000e+000 94866 -4.4527e+001 -9.8014e+001 -1.5716e+001 40306 94667,94719,94693
 3.9000e+000 94843 -6.2995e+001 -1.0468e+002 -1.2147e+001 40306 94641,94719,94667
 3.9000e+000 94820 -8.0118e+001 -1.1465e+002  1.5260e+000 40306 94641,94745,94719
 3.9000e+000 94797 -5.0523e+001 -9.0782e+001 -9.3092e+000 40306 94641,94771,94745
 3.9000e+000 95089 -2.1656e+001 -1.3987e+002  1.2414e+001 39702 94913,94991,94939
 3.9000e+000 95066 -1.9201e+001 -1.3035e+002  6.5359e+000 39702 94913,95017,94991
 3.9000e+000 95043 -2.0188e-001 -1.3142e+002  6.5126e+000 39702 94939,94991,94965
 3.9000e+000 95339 -3.6774e+001 -8.5111e+001 -1.5355e+001 39248 95140,95218,95166
 3.9000e+000 95316 -5.7124e+001 -9.7638e+001 -9.0159e+000 39248 95140,95244,95218
 3.9000e+000 95293 -3.1743e+001 -1.1398e+002 -2.1489e+001 39248 95114,95244,95140
 3.9000e+000 95270 -3.9582e+001 -8.6569e+001 -1.5698e+001 39248 95166,95218,95192
 3.9000e+000 95770 -2.8736e+001 -4.3951e+001  3.3728e+000 38694 95551,95629,95577
 3.9000e+000 95747 -1.0789e+001 -4.9074e+001  6.7840e+000 38694 95447,95629,95551
 3.9000e+000 95724 -7.4687e+000 -4.6919e+001 -4.4029e+000 38694 95447,95551,95473
 3.9000e+000 95701 -4.8210e+000 -4.2964e+001 -5.7813e+000 38694 95473,95551,95499
 3.9000e+000 95678 -4.9727e+000 -4.3381e+001 -6.1696e+000 38694 95499,95551,95525
 3.9000e+000 95655 -2.7061e+001 -6.4285e+001  3.0449e+001 38694 95577,95629,95603
 3.9000e+000 96325 -6.8904e+001 -1.5588e+002  9.8731e+000 38240 95953,96031,96005
 3.9000e+000 96302 -7.7144e+001 -8.9940e+001  4.1533e+001 38240 95953,96161,96031
 3.9000e+000 96279 -5.0926e+001 -8.9486e+001 -3.3529e-001 38240 96031,96161,96135
 3.9000e+000 96256 -5.7926e+001 -1.2215e+002  1.8184e+001 38240 96348,96109,96057
 3.9000e+000 96233 -5.0666e+001 -1.0273e+002  2.0074e+001 38240 96348,96057,96031
 3.9000e+000 96210 -4.8070e+001 -1.2124e+002  2.4981e+001 38240 96057,96109,96083
 3.9000e+000 96187 -7.8033e+001 -1.3417e+002  4.1097e+000 38240 95953,96005,95979
 3.9000e+000 96374 -5.2859e+001 -1.4916e+002  7.2364e+000 38240 96135,96109,96348
 3.9000e+000 96397 -4.1388e+001 -1.2057e+002  7.3258e+000 38240 96135,96348,96031
 3.9000e+000 96618 -5.7604e+000 -5.9919e+001 -5.3748e+000 37821 96494,96546,96520
 3.9000e+000 96595  1.6218e+001 -4.2956e+001  2.0943e+000 37821 96468,96546,96494
 3.9000e+000 96572  1.9558e+001 -4.1522e+001  1.8392e+000 37821 96442,96546,96468
 3.9000e+000 97126 -3.7937e+001 -8.9280e+001 -7.5632e+000 37367 97149,96855,96829
 3.9000e+000 97103 -4.3027e+001 -9.0286e+001 -1.2302e+001 37367 97149,96829,96985
 3.9000e+000 97080 -3.0732e+001 -9.0613e+001 -1.2760e+001 37367 96803,96985,96829
 3.9000e+000 97057 -3.0733e+001 -9.3035e+001 -1.1042e+001 37367 96855,96907,96881
 3.9000e+000 97034 -5.8971e+001 -8.1633e+001 -3.9701e+000 37367 96907,96985,96959
 3.9000e+000 97011 -6.5256e+001 -8.3948e+001 -8.0588e+000 37367 96907,96959,96933
 3.9000e+000 97175 -4.2678e+001 -9.4220e+001 -9.7330e+000 37367 96907,96855,97149
 3.9000e+000 97198 -4.6291e+001 -9.3357e+001 -1.4020e+001 37367 96907,97149,96985
 3.9000e+000 97704 -3.1756e+001 -8.2998e+001  1.3930e+001 36863 97727,97511,97485
 3.9000e+000 97681 -2.9296e+001 -7.1857e+001  1.7824e+001 36863 97727,97485,97433
 3.9000e+000 97658 -3.9391e+001 -7.3019e+001  4.8929e+000 36863 97381,97563,97433
 3.9000e+000 97635 -6.2870e+000 -7.4474e+001  1.1084e+000 36863 97511,97563,97537
 3.9000e+000 97612 -2.0489e+001 -4.3238e+001  1.5478e+000 36863 97433,97485,97459
 3.9000e+000 97589 -4.6246e+001 -8.8028e+001  6.8208e+000 36863 97381,97433,97407
 3.9000e+000 97753 -3.2059e+001 -9.1200e+001  9.0026e+000 36863 97563,97511,97727
 3.9000e+000 97776 -3.1113e+001 -8.1063e+001  1.2377e+001 36863 97563,97727,97433
 3.9000e+000 98331 -6.9811e+001 -1.7172e+002  2.5341e+000 36287 98354,98089,98063
 3.9000e+000 98308 -6.2649e+001 -1.6526e+002  9.5278e+000 36287 98354,98063,98011
 3.9000e+000 98285 -8.1085e+001 -1.4028e+002  2.1238e+001 36287 98426,97985,98115
 3.9000e+000 98262 -5.7437e+001 -1.6559e+002  6.9705e+000 36287 98011,98063,98037
 3.9000e+000 98239 -9.2223e+001 -1.2732e+002  9.3580e+000 36287 97985,98141,98115
 3.9000e+000 98216 -6.1896e+001 -1.1731e+002  1.1561e+001 36287 97959,98141,97985
 3.9000e+000 98193 -8.2239e+001 -1.3395e+002  1.8078e+001 36287 97959,98167,98141
 3.9000e+000 98380 -8.1428e+001 -1.6182e+002 -6.1779e+000 36287 98115,98089,98354
 3.9000e+000 98403 -6.7240e+001 -1.4100e+002  1.4308e+000 36287 98426,98115,98354
 3.9000e+000 98452 -9.6945e+001 -1.6641e+002  2.8098e+001 36287 98011,97985,98426
 3.9000e+000 98475 -8.6513e+001 -1.7371e+002  9.4856e+000 36287 98011,98426,98354
 3.9000e+000 99030 -3.8656e+001 -1.3713e+002 -1.7771e+001 35726 99053,98736,98710
 3.9000e+000 99007 -1.9050e+001 -9.9468e+001 -2.8763e-002 35726 99053,98710,98684
 3.9000e+000 98984 -3.5854e+001 -9.5845e+001 -1.3812e+001 35726 99125,98814,98736
 3.9000e+000 98961 -3.3230e+001 -8.4430e+001 -9.0986e+000 35726 98736,98814,98788
 3.9000e+000 98938 -2.0374e+001 -7.7561e+001  1.1020e+001 35726 98684,98866,98840
 3.9000e+000 98915 -4.0918e+001 -8.7431e+001 -1.0202e+001 35726 98736,98788,98762
 3.9000e+000 98892 -2.0709e+001 -6.3577e+001  1.9136e+001 35726 98658,98866,98684
 3.9000e+000 99079 -2.6359e+001 -9.7350e+001 -8.2197e+000 35726 99125,98736,99053
 3.9000e+000 99102 -3.6734e+001 -8.0892e+001  4.4476e-001 35726 98840,99053,98684
 3.9000e+000 99151 -4.3808e+001 -9.9256e+001 -1.3686e+001 35726 98840,98814,99125
 3.9000e+000 99174 -3.9912e+001 -1.0346e+002 -6.9461e+000 35726 98840,99125,99053
 3.9000e+000 99454 -1.5096e+001 -6.0472e+001  7.3350e-001 35222 99278,99330,99304
 3.9000e+000 99431 -1.9693e+001 -5.3439e+001  9.4253e+000 35222 99278,99382,99330
 3.9000e+000 99408 -3.2624e+001 -7.0696e+001  3.6252e+000 35222 99330,99382,99356
 3.9000e+000 99653  3.9532e+001 -7.0855e+001 -1.6904e+001 34867 99477,99529,99503
 3.9000e+000 99630 -4.6281e+000 -3.9958e+001 -2.0184e+001 34867 99477,99581,99529
 3.9000e+000 99607 -2.5585e+001 -1.0184e+002 -2.5966e+001 34867 99529,99581,99555
 3.9000e+000 100104 -3.1320e+001 -1.4556e+002 -3.7892e+000 34363 99781,99885,99807
 3.9000e+000 100081 -6.0716e+001 -1.6191e+002  7.5078e+000 34363 99781,99963,99885
 3.9000e+000 100058 -1.8893e+001 -1.4221e+002 -3.0299e+000 34363 99885,99963,99911
 3.9000e+000 100035 -2.7990e+001 -1.1673e+002  2.6519e+000 34363 99807,99885,99859
 3.9000e+000 100012 -2.0807e+001 -1.4082e+002 -1.5237e+001 34363 99911,99963,99937
 3.9000e+000 99989  4.8286e-001 -1.0194e+002  1.2088e+001 34363 99807,99859,99833
 3.9000e+000 100303 -4.5232e+001 -8.3530e+001 -2.8719e+001 33909 100127,100205,100179
 3.9000e+000 100280 -7.6335e+001 -8.8324e+001 -3.1096e+001 33909 100127,100231,100205
 3.9000e+000 100257 -4.9697e+001 -8.8750e+001 -2.0465e+001 33909 100127,100179,100153
 3.9000e+000 100890 -1.3299e+001 -8.5658e+001 -1.6735e+001 33412 100645,100749,100697
 3.9000e+000 100867 -1.1105e+001 -1.0669e+002 -1.0577e+001 33412 100567,100749,100645
 3.9000e+000 100844 -7.7978e+000 -1.0914e+002 -1.4713e+001 33412 100567,100645,100619
 3.9000e+000 100821 -2.7204e+001 -1.0132e+002 -2.4691e+001 33412 100645,100697,100671
 3.9000e+000 100798 -1.2233e+001 -1.3871e+002 -7.5453e+000 33412 100567,100619,100593
 3.9000e+000 100775 -4.8787e+001 -7.7608e+001 -6.7459e+000 33412 100697,100749,100723
 3.9000e+000 101268  2.9460e-001 -1.2371e+002 -3.9181e+000 32908 101435,101291,101098
 3.9000e+000 101245 -3.3162e+001 -1.2795e+002  1.4645e+001 32908 101291,101072,101020
 3.9000e+000 101222 -3.1981e+001 -1.3475e+002 -3.0123e+001 32908 101363,101150,101124
 3.9000e+000 101199 -3.8787e+001 -1.3552e+002  2.2694e+001 32908 101020,101072,101046
 3.9000e+000 101176 -1.5571e+001 -7.3946e+001 -4.5346e+000 32908 100994,101150,101020
 3.9000e+000 101317 -3.1253e+001 -1.4316e+002  4.3652e+000 32908 101124,101098,101291
 3.9000e+000 101340 -2.0310e+001 -1.5160e+002 -1.9271e+000 32908 101363,101124,101291
 3.9000e+000 101389 -1.4391e+001 -1.0412e+002 -2.2492e+001 32908 101020,101150,101363
 3.9000e+000 101412 -1.3481e-001 -1.0674e+002  5.0207e+000 32908 101020,101363,101291
 3.9000e+000 101461  2.2789e+000 -1.0986e+002  2.3970e+001 32908 101072,101291,101435
 3.9000e+000 101918 -4.0617e+001 -1.6202e+002 -1.4391e+001 32618 101941,101670,101644
 3.9000e+000 101895 -2.0057e+001 -1.5960e+002 -9.7707e-001 32618 101941,101644,101774
 3.9000e+000 101872 -6.2678e+001 -1.4069e+002 -2.0740e+000 32618 102013,101696,101670
 3.9000e+000 101849 -1.4301e+001 -1.0708e+002 -2.0977e+001 32618 101696,101748,101722
 3.9000e+000 101826 -1.6223e+001 -1.5763e+002 -3.6929e+000 32618 101644,101800,101774
 3.9000e+000 101967 -6.2047e+001 -1.6042e+002 -1.3144e+001 32618 102013,101670,101941
 3.9000e+000 101990 -4.7563e+001 -1.7421e+002  4.4898e+000 32618 101748,101941,101774
 3.9000e+000 102039 -5.6531e+001 -1.3371e+002  1.6019e+000 32618 101748,101696,102013
 3.9000e+000 102062 -3.4247e+001 -1.4104e+002 -3.9832e+000 32618 101748,102013,101941
 3.9000e+000 102440 -2.9011e+001 -1.0026e+002  1.0262e+001 32306 102463,102270,102244
 3.9000e+000 102417 -3.0038e+001 -9.9414e+001  8.5509e-001 32306 102463,102244,102192
 3.9000e+000 102394 -3.0967e+001 -7.4430e+001  5.8135e-001 32306 102192,102244,102218
 3.9000e+000 102371 -1.4719e+001 -9.5644e+001  9.6956e+000 32306 102270,102322,102296
 3.9000e+000 102348 -1.5375e+001 -1.2386e+002 -1.4078e+001 32306 102166,102322,102192
 3.9000e+000 102489 -2.0083e+001 -9.7025e+001  1.1177e+001 32306 102322,102270,102463
 3.9000e+000 102512 -2.0817e+001 -9.6819e+001  1.2755e+000 32306 102322,102463,102192
 3.9000e+000 102662 -4.1703e+001 -1.4927e+002  4.2555e+000 31852 102943,102587,102561
 3.9000e+000 102639 -1.6878e+001 -1.4505e+002  8.4292e+000 31852 102815,102685,102561
 3.9000e+000 102711 -4.5248e+001 -1.7205e+002 -6.2527e+000 31852 102943,102561,102685
 3.9000e+000 102841 -1.9241e+001 -1.2484e+002  1.9238e+001 31852 102535,102685,102815
 3.9000e+000 102969 -4.8755e+001 -1.7229e+002 -3.9441e+000 31852 102613,102587,102943
 3.9000e+000 102992 -5.0775e+001 -1.9106e+002 -1.4910e+001 31852 102613,102943,102685
 3.9000e+000 103370 -7.2567e+001 -1.8425e+002  6.8908e+000 31134 103096,103200,103122
 3.9000e+000 103347 -8.4593e+001 -2.1724e+002  2.1090e+001 31134 103096,103226,103200
 3.9000e+000 103324 -6.8957e+001 -1.7138e+002 -2.0048e+000 31134 103122,103200,103174
 3.9000e+000 103301 -4.6956e+001 -1.8897e+002  7.0003e+000 31134 103096,103252,103226
 3.9000e+000 103278 -4.6996e+001 -1.7018e+002 -2.2418e+001 31134 103122,103174,103148
 3.9000e+000 103520 -1.8634e+001 -2.1612e+002  3.2586e-001 30822 103393,103445,103419
 3.9000e+000 103497 -1.4425e+001 -1.4751e+002  9.7558e+000 30822 103393,103471,103445
 3.9000e+000 103719  9.8555e+000 -4.6330e+001  1.0742e+001 30182 103742,103621,103569
 3.9000e+000 103696  3.7005e+001 -3.8543e+001  1.8129e+001 30182 103742,103569,103543
 3.9000e+000 103673  1.9974e-001 -4.6851e+001  2.4199e+001 30182 103569,103621,103595
 3.9000e+000 103768 -1.4655e+001 -3.5406e+001  4.0880e+000 30182 103647,103621,103742
 3.9000e+000 103791  3.9723e+000 -3.0169e+001  1.4760e+001 30182 103647,103742,103543
 3.9000e+000 104252 -2.5245e+001 -6.3057e+001  7.6209e+000 29728 104030,104108,104056
 3.9000e+000 104229 -1.2539e+001 -3.1403e+001  8.4989e+000 29728 104004,104108,104030
 3.9000e+000 104206  5.5804e+000 -4.4438e+001  5.4290e+000 29728 104004,104134,104108
 3.9000e+000 104183 -3.6163e+000 -4.0157e+001 -1.5457e+001 29728 103978,104134,104004
 3.9000e+000 104160 -2.4404e+001 -4.3546e+001  7.0281e+000 29728 104056,104108,104082
 3.9000e+000 104630 -4.8128e+001 -1.4954e+002 -1.7780e+001 29217 104653,104382,104356
 3.9000e+000 104607 -4.2619e+001 -1.3972e+002 -8.6000e+000 29217 104653,104356,104512
 3.9000e+000 104584 -6.5806e+001 -1.5566e+002 -1.9129e+001 29217 104434,104512,104486
 3.9000e+000 104561 -4.0324e+001 -1.6653e+002 -1.8979e+001 29217 104382,104434,104408
 3.9000e+000 104538 -3.2852e+001 -1.1676e+002  1.7287e+000 29217 104434,104486,104460
 3.9000e+000 104679 -5.2093e+001 -1.5137e+002 -2.1427e+001 29217 104434,104382,104653
 3.9000e+000 104702 -5.2220e+001 -1.4762e+002 -1.3212e+001 29217 104434,104653,104512
 3.9000e+000 105178 -1.6898e+001 -1.0441e+002  1.5763e+001 28649 105201,104962,104936
 3.9000e+000 105155 -1.9170e+001 -1.0671e+002  1.6832e+001 28649 105201,104936,104884
 3.9000e+000 105132 -1.8913e+001 -7.4718e+001 -7.1465e+000 28649 105273,104858,105014
 3.9000e+000 105109 -5.3595e+001 -1.0931e+002  4.7302e+000 28649 104962,105014,104988
 3.9000e+000 105086  6.6732e+000 -7.3958e+001 -2.0836e+001 28649 104884,104936,104910
 3.9000e+000 105063 -1.0876e+001 -6.9210e+001 -4.6809e+000 28649 104806,105014,104858
 3.9000e+000 105040 -2.5358e+001 -5.7837e+001 -1.1856e+001 28649 104806,104858,104832
 3.9000e+000 105227 -1.7437e+001 -1.1223e+002  7.8439e+000 28649 105014,104962,105201
 3.9000e+000 105250 -5.3154e+000 -8.7640e+001  3.3227e+000 28649 105273,105014,105201
 3.9000e+000 105299 -2.9777e+001 -8.7285e+001  2.6598e+000 28649 104884,104858,105273
 3.9000e+000 105322 -2.7663e+001 -1.0806e+002  1.5514e+001 28649 104884,105273,105201
 3.9000e+000 105673 -1.2392e+001 -1.5223e+002  1.0657e+000 28351 105474,105578,105552
 3.9000e+000 105650 -1.4015e+000 -1.0250e+002 -4.0880e+000 28351 105448,105578,105474
 3.9000e+000 105627 -5.7048e+000 -1.4456e+002 -3.5477e-002 28351 105500,105552,105526
 3.9000e+000 105604 -7.0577e+000 -1.4969e+002  3.0189e-001 28351 105474,105552,105500
 3.9000e+000 106130 -4.8361e+001 -9.0145e+001 -2.4845e+001 28004 106153,105882,105856
 3.9000e+000 106107 -4.4953e+001 -1.2274e+002 -1.5368e+001 28004 106153,105856,105986
 3.9000e+000 106084 -7.9478e+001 -1.3453e+002  5.5930e+000 28004 105934,105986,105960
 3.9000e+000 106061 -7.1314e+001 -1.5859e+002 -3.9735e+000 28004 105856,106012,105986
 3.9000e+000 106038 -8.0118e+001 -1.3509e+002 -9.7314e+000 28004 105882,105934,105908
 3.9000e+000 106179 -7.1724e+001 -1.1555e+002 -1.0055e+001 28004 105934,105882,106153
 3.9000e+000 106202 -4.8262e+001 -1.3227e+002 -5.4143e+000 28004 105934,106153,105986
 3.9000e+000 106885 -6.4221e+001 -1.1035e+002 -3.4913e+000 27564 106908,106620,106516
 3.9000e+000 106862 -6.5285e+001 -1.0847e+002 -2.3819e+000 27564 106908,106516,106490
 3.9000e+000 106839 -5.2836e+001 -1.0172e+002 -1.2205e+001 27564 106516,106620,106542
 3.9000e+000 106816 -6.6603e+001 -1.0913e+002 -9.0966e-001 27564 106620,106672,106646
 3.9000e+000 106793 -4.6183e+001 -9.9257e+001 -1.1184e+001 27564 106542,106620,106594
 3.9000e+000 106770 -6.2155e+001 -1.0020e+002  5.6881e+000 27564 106490,106698,106672
 3.9000e+000 106747 -5.0818e+001 -1.0710e+002  1.6007e+001 27564 106464,106698,106490
 3.9000e+000 106724 -1.1539e+001 -7.9504e+001 -2.1565e+001 27564 106542,106594,106568
 3.9000e+000 106934 -6.4788e+001 -1.0922e+002 -3.8255e+000 27564 106672,106620,106908
 3.9000e+000 106957 -6.4996e+001 -1.0641e+002 -3.4483e+000 27564 106672,106908,106490
 3.9000e+000 107463 -2.7509e-001 -4.8504e+001  1.1409e+000 27053 107218,107322,107296
 3.9000e+000 107440 -1.0938e+001 -7.1306e+001  1.3154e+001 27053 107166,107322,107218
 3.9000e+000 107417 -9.5248e+000 -8.3037e+001 -3.7940e+000 27053 107218,107296,107244
 3.9000e+000 107394 -2.3270e+001 -2.5356e+001  2.4048e+001 27053 107140,107322,107166
 3.9000e+000 107371 -1.3204e+001 -9.1359e+001  2.0275e+001 27053 107166,107218,107192
 3.9000e+000 107348 -1.5996e+000 -9.6638e+001 -1.8258e+001 27053 107244,107296,107270
 3.9000e+000 108097 -6.1241e+001 -1.6199e+002 -6.0693e+000 26549 108192,108120,107803
 3.9000e+000 108074 -6.0295e+001 -1.9025e+002  1.3559e+001 26549 108120,107725,107933
 3.9000e+000 108051 -2.8880e+001 -1.9503e+002  3.4367e+000 26549 107751,107803,107777
 3.9000e+000 108028 -6.0045e+001 -1.7090e+002 -8.8045e+000 26549 108192,107803,107751
 3.9000e+000 108005 -4.0809e+001 -1.1040e+002 -1.5344e+000 26549 108264,107855,107803
 3.9000e+000 107982 -2.2290e+001 -1.3814e+002 -6.1446e+000 26549 107881,107933,107907
 3.9000e+000 107959 -5.3391e+001 -1.1973e+002  4.7447e+000 26549 107803,107855,107829
 3.9000e+000 108146 -4.9256e+001 -1.2941e+002 -8.7633e+000 26549 108264,107803,108120
 3.9000e+000 108169 -4.8331e+001 -1.5748e+002  3.1252e+000 26549 107881,108120,107933
 3.9000e+000 108218 -5.8668e+001 -1.5280e+002  1.9309e-001 26549 107725,108120,108192
 3.9000e+000 108241 -5.6962e+001 -1.5990e+002 -2.9700e+000 26549 107725,108192,107751
 3.9000e+000 108290 -2.8350e+001 -1.3424e+002 -5.3022e+000 26549 107881,107855,108264
 3.9000e+000 108313 -3.6426e+001 -1.5616e+002 -1.0020e+001 26549 107881,108264,108120
 3.9000e+000 108512 -2.3081e+001 -6.8981e+001 -9.9709e+000 26137 108388,108440,108414
 3.9000e+000 108489 -3.8678e+000 -4.2537e+001  1.8622e-001 26137 108362,108440,108388
 3.9000e+000 108466  8.5996e+000 -7.1908e+001 -8.0681e+000 26137 108336,108440,108362
 3.9000e+000 108662 -2.7108e+001 -1.0766e+002 -1.6001e+001 25733 108817,108685,108535
 3.9000e+000 108639  6.9129e+000 -1.1663e+002 -8.1586e+000 25733 109017,108817,108535
 3.9000e+000 108711 -2.5751e+001 -8.4198e+001 -1.0061e+001 25733 108561,108535,108685
 3.9000e+000 108843 -2.2400e+000 -9.3812e+001 -4.0939e+000 25733 108587,108685,108817
 3.9000e+000 108866 -1.3812e+001 -1.0302e+002  2.8069e+000 25733 108889,108817,108613
 3.9000e+000 108915 -1.7577e+000 -9.4571e+001 -4.3559e+000 25733 108587,108817,108889
 3.9000e+000 109043  4.0418e-001 -8.4779e+001  9.0757e+000 25733 108613,108817,109017
 3.9000e+000 109500 -6.2298e+001 -1.2685e+002  2.3541e+001 25229 109523,109356,109330
 3.9000e+000 109477 -2.1790e+001 -8.3161e+001 -1.6159e-001 25229 109595,109523,109330
 3.9000e+000 109454 -2.3752e+001 -7.0647e+001 -1.1891e+001 25229 109595,109330,109278
 3.9000e+000 109431 -2.6765e+001 -7.5418e+001 -7.2826e+000 25229 109667,109226,109382
 3.9000e+000 109408 -2.2383e+001 -6.3870e+001 -7.4579e+000 25229 109278,109330,109304
 3.9000e+000 109549 -1.0308e+001 -9.6812e+001  2.1921e+000 25229 109382,109356,109523
 3.9000e+000 109572 -2.0778e+001 -8.5298e+001 -9.4573e+000 25229 109667,109382,109523
 3.9000e+000 109621 -2.5915e+001 -1.0650e+002 -4.2059e+000 25229 109252,109523,109595
 3.9000e+000 109644 -1.6369e+001 -8.4422e+001 -5.3335e+000 25229 109739,109595,109278
 3.9000e+000 109693 -3.2138e+001 -9.5207e+001 -6.1653e-001 25229 109252,109226,109667
 3.9000e+000 109716 -2.5811e+001 -1.0507e+002 -7.8615e+000 25229 109252,109667,109523
 3.9000e+000 109765 -3.0847e+001 -8.7729e+001 -1.9049e+000 25229 109252,109595,109739
 3.9000e+000 110478 -1.0421e+000 -3.6204e+001  2.8941e+000 24917 110158,110236,110184
 3.9000e+000 110455  6.3671e+000 -3.8840e+001 -1.5204e+001 24917 110158,110288,110236
 3.9000e+000 110432  1.2350e+001 -1.0272e+002  5.8219e-001 24917 110236,110288,110262
 3.9000e+000 110409 -4.1476e+000 -2.7779e+001  2.4377e+000 24917 110184,110236,110210
 3.9000e+000 110386 -2.0734e+001 -1.0266e+002 -2.2168e+001 24917 110132,110288,110158
 3.9000e+000 110363 -3.2765e+001 -9.6507e+001  7.1686e+000 24917 110132,110314,110288
 3.9000e+000 110340 -6.6444e+001 -1.2695e+002  1.8878e+001 24917 110106,110314,110132
 3.9000e+000 110829  2.4727e+001 -9.3911e+000  6.5712e+000 24307 110604,110682,110630
 3.9000e+000 110806 -1.2579e+001 -1.5425e+002  1.1767e+001 24307 110604,110708,110682
 3.9000e+000 110783  7.0185e+000 -1.4405e+002 -1.4843e-001 24307 110604,110734,110708
 3.9000e+000 110760  3.5309e-001 -1.9840e+001  7.4882e+000 24307 110630,110682,110656
 3.9000e+000 111335 -1.3162e+001 -5.9614e+001 -1.9871e+001 23767 111012,111168,111038
 3.9000e+000 111312 -6.0928e+000 -6.4499e+001 -2.5817e+001 23767 111012,111194,111168
 3.9000e+000 111289 -4.6096e+001 -8.6930e+001  1.0758e+001 23767 111358,111064,111038
 3.9000e+000 111266 -2.3738e+001 -7.7383e+001 -9.6903e+000 23767 111358,111038,111168
 3.9000e+000 111243 -1.0753e+001 -7.0930e+001 -8.7225e+000 23767 111430,111142,111090
 3.9000e+000 111220  1.0213e+000 -6.6199e+001  7.9170e+000 23767 111090,111142,111116
 3.9000e+000 111384 -1.9155e+001 -7.3210e+001  6.3632e-001 23767 111090,111064,111358
 3.9000e+000 111407 -2.7102e+001 -7.2130e+001 -1.0614e+001 23767 111430,111090,111358
 3.9000e+000 111456  4.8676e+000 -7.6408e+001 -1.2694e+001 23767 111168,111142,111430
 3.9000e+000 111479 -5.0000e+000 -7.2714e+001 -1.3457e+001 23767 111168,111430,111358
 3.9000e+000 111985 -3.7696e+001 -9.6577e+001  1.0358e+001 23477 111688,111844,111818
 3.9000e+000 111962 -3.3980e+001 -9.9823e+001 -1.5990e+001 23477 111662,111844,111688
 3.9000e+000 111939 -2.8849e+001 -1.4802e+002  1.1364e+001 23477 111766,111818,111792
 3.9000e+000 111916 -6.0638e+001 -1.4291e+002  8.4372e+000 23477 111740,111818,111766
 3.9000e+000 111893 -3.5758e+001 -8.3385e+001  1.3413e+001 23477 111688,111818,111740
 3.9000e+000 111870 -5.8703e+001 -9.9511e+001  2.0484e+001 23477 111688,111740,111714
 3.9000e+000 112314 -3.6000e+001 -7.2767e+001  3.4624e+000 23023 112141,112219,112193
 3.9000e+000 112291 -1.8441e+001 -7.2419e+001 -6.4697e+000 23023 112115,112219,112141
 3.9000e+000 112268 -1.6267e+001 -9.1612e+001  2.6985e+001 23023 112141,112193,112167
 3.9000e+000 112245 -3.7469e+000 -6.8418e+001  3.7980e-001 23023 112089,112219,112115
 3.9000e+000 112692 -2.7614e+001 -1.0738e+002 -6.9114e+000 22768 112444,112574,112548
 3.9000e+000 112669 -2.0066e+001 -9.8552e+001 -3.6386e+000 22768 112418,112574,112444
 3.9000e+000 112646 -4.0095e+001 -9.8984e+001  1.0664e+001 22768 112444,112522,112470
 3.9000e+000 112623 -1.5562e+001 -9.8793e+001  3.3109e+000 22768 112444,112548,112522
 3.9000e+000 112600  7.0042e+000 -7.7917e+001  5.5677e-001 22768 112470,112522,112496
 3.9000e+000 113011 -2.6041e+001 -1.4813e+002 -1.0439e+001 22314 112763,112867,112789
 3.9000e+000 112988 -1.3611e+001 -1.4684e+002 -1.3422e+001 22314 112763,112893,112867
 3.9000e+000 112965 -2.8583e+001 -1.4412e+002  0.0000e+000 22314 112815,112867,112841
 3.9000e+000 112942 -4.2515e+001 -1.5545e+002 -9.1771e+000 22314 112789,112867,112815
 3.9000e+000 112919 -6.3588e+000 -1.1623e+002  2.7293e+001 22314 112737,112893,112763
 3.9000e+000 113519 -8.1504e+000 -1.1108e+002  2.6934e+001 21924 113614,113542,113248
 3.9000e+000 113496 -2.1693e+001 -1.1213e+002  1.0220e+001 21924 113542,113196,113378
 3.9000e+000 113473 -1.8371e+001 -1.0913e+002  2.6326e+001 21924 113614,113248,113222
 3.9000e+000 113450 -2.4325e+001 -1.5503e+002  7.5606e+000 21924 113686,113274,113248
 3.9000e+000 113427 -4.7553e+001 -1.7680e+002 -9.0213e+000 21924 113274,113352,113326
 3.9000e+000 113404 -7.2486e+001 -2.1081e+002 -2.0724e+001 21924 113274,113326,113300
 3.9000e+000 113568 -6.7169e+000 -1.3429e+002  1.8031e+001 21924 113686,113248,113542
 3.9000e+000 113591 -2.2281e+001 -1.1360e+002  1.0144e+001 21924 113352,113542,113378
 3.9000e+000 113640 -1.8097e+001 -1.1547e+002  2.2770e+001 21924 113196,113542,113614
 3.9000e+000 113663 -2.2948e+001 -1.1021e+002  2.1691e+001 21924 113196,113614,113222
 3.9000e+000 113712 -4.2394e+001 -1.3180e+002 -1.7589e+000 21924 113352,113274,113686
 3.9000e+000 113735 -3.3944e+001 -1.2206e+002  6.4017e+000 21924 113352,113686,113542
 3.9000e+000 113885 -7.7590e+001 -1.1667e+002 -1.2971e+000 21520 113980,113908,113784
 3.9000e+000 113862 -5.5257e+001 -1.0541e+002 -1.6371e+001 21520 114238,113908,113758
 3.9000e+000 113934 -4.8583e+001 -9.8576e+001  1.0984e+001 21520 114110,113908,113810
 3.9000e+000 113957 -4.2516e+001 -1.2160e+002 -9.5204e+000 21520 113810,113908,113836
 3.9000e+000 114006 -5.0939e+001 -9.7605e+001 -9.6551e+000 21520 113758,113908,113980
 3.9000e+000 114136 -6.9235e+001 -1.1090e+002  2.1002e+000 21520 113784,113908,114110
 3.9000e+000 114264 -7.8651e+001 -1.3723e+002 -2.8135e+001 21520 113836,113908,114238
 3.9000e+000 114662 -4.7341e+001 -1.5585e+002  6.0645e+000 21030 114414,114518,114492
 3.9000e+000 114639  7.0317e+000 -1.1566e+002 -1.6165e+001 21030 114414,114544,114518
 3.9000e+000 114616 -3.7289e+001 -1.5514e+002 -4.3498e+000 21030 114440,114492,114466
 3.9000e+000 114593 -4.9949e+001 -1.6185e+002  6.3920e+000 21030 114414,114492,114440
 3.9000e+000 114570 -8.4836e+000 -1.1434e+002  1.0279e+001 21030 114388,114544,114414
 3.9000e+000 114959 -9.6737e+001 -1.7444e+002  1.0816e+001 20512 114982,114711,114685
 3.9000e+000 114936 -8.7320e+001 -1.6382e+002 -3.0943e+000 20512 115054,114982,114685
 3.9000e+000 114913 -7.2165e+001 -1.3317e+002 -9.8538e+000 20512 115054,114685,114841
 3.9000e+000 114890 -4.9619e+001 -1.6117e+002  5.4063e+000 20512 114711,114763,114737
 3.9000e+000 114867 -4.0631e+001 -1.5236e+002  4.5259e+000 20512 114763,114815,114789
 3.9000e+000 115008 -8.3161e+001 -1.7155e+002  6.0253e+000 20512 114763,114711,114982
 3.9000e+000 115031 -7.7240e+001 -1.7219e+002 -3.5446e+000 20512 114763,114982,114815
 3.9000e+000 115080 -8.3205e+001 -1.7681e+002 -1.2565e+000 20512 114815,114982,115054
 3.9000e+000 115103 -8.6619e+001 -1.6864e+002 -8.5617e-001 20512 114815,115054,114841
 3.9000e+000 115507 -5.8338e+001 -1.4319e+002 -2.5178e+000 20143 115285,115389,115363
 3.9000e+000 115484 -7.3545e+001 -1.7108e+002  3.4441e+000 20143 115259,115389,115285
 3.9000e+000 115461 -6.3781e+001 -1.2934e+002 -5.3840e-001 20143 115233,115389,115259
 3.9000e+000 115438 -6.2229e+001 -1.7955e+002  5.7048e+000 20143 115285,115337,115311
 3.9000e+000 115415 -8.3861e+001 -2.0278e+002 -5.1838e+000 20143 115285,115363,115337
 3.9000e+000 115875 -3.1348e+001 -8.6567e+001  2.1534e+000 19632 115656,115734,115682
 3.9000e+000 115852 -1.2710e+001 -7.9769e+001  1.1612e+001 19632 115552,115734,115656
 3.9000e+000 115829 -1.4447e+001 -8.0321e+001 -6.3663e+000 19632 115552,115656,115578
 3.9000e+000 115806 -3.1620e+001 -8.1772e+001  5.0331e-001 19632 115578,115656,115630
 3.9000e+000 115783 -1.5489e+001 -7.8149e+001 -1.0348e+001 19632 115682,115734,115708
 3.9000e+000 115760 -3.9015e+001 -8.6757e+001 -6.2463e+000 19632 115578,115630,115604
 3.9000e+000 116025  6.7988e+000 -1.0854e+002 -3.9095e+001 19178 115898,115950,115924
 3.9000e+000 116002 -2.3655e+001 -1.2405e+002 -1.0659e+001 19178 115898,115976,115950
 3.9000e+000 116633  1.7617e+001 -4.5886e+001 -7.2920e+000 18738 116800,116656,116342
 3.9000e+000 116610  2.6190e+001 -4.3390e+001 -6.2083e+000 18738 116656,116238,116446
 3.9000e+000 116587  6.0480e+000 -4.2734e+001 -2.2495e+001 18738 116728,116368,116342
 3.9000e+000 116564  2.3141e+001 -4.9026e+001 -4.7878e+000 18738 116800,116342,116264
 3.9000e+000 116541  3.9831e+001  1.2586e+001 -1.0904e+001 18738 116212,116446,116238
 3.9000e+000 116518  1.4487e+001  3.4865e+000 -3.3101e+001 18738 116394,116446,116420
 3.9000e+000 116495  8.7692e+001 -2.7032e+001 -1.3614e+001 18738 116264,116342,116316
 3.9000e+000 116472  3.7039e+001 -8.1934e+001  2.6054e+001 18738 116264,116316,116290
 3.9000e+000 116682  1.1132e+001 -3.6186e+001 -2.8332e+000 18738 116728,116342,116656
 3.9000e+000 116705  1.6162e+001 -1.3938e+001  4.1486e+000 18738 116394,116656,116446
 3.9000e+000 116754 -2.4013e+001 -5.4273e+001 -3.2412e+001 18738 116394,116368,116728
 3.9000e+000 116777 -2.1652e+001 -4.7524e+001 -1.2330e+001 18738 116394,116728,116656
 3.9000e+000 116826  2.3091e+001 -4.2292e+001 -3.5732e+000 18738 116238,116656,116800
 3.9000e+000 116849  3.0408e+001 -4.4363e+001 -1.0851e+000 18738 116238,116800,116264
 3.9000e+000 116999 -4.6994e+001 -1.5204e+002  6.0456e+000 18184 116872,116924,116898
 3.9000e+000 116976 -4.5052e+001 -8.4525e+001 -3.6858e+000 18184 116872,116950,116924
 3.9000e+000 117330 -9.3553e+000 -1.8518e+002  1.2206e+001 17694 117157,117235,117183
 3.9000e+000 117307 -5.4798e+001 -2.1095e+002  1.0768e+000 17694 117131,117235,117157
 3.9000e+000 117284 -4.0531e+001 -2.3100e+002 -1.0157e+001 17694 117105,117235,117131
 3.9000e+000 117261  2.3819e+001 -1.1757e+002 -4.0687e+000 17694 117183,117235,117209
 3.9000e+000 117480 -4.5932e+001 -1.5051e+002 -7.1449e+000 17290 117353,117405,117379
 3.9000e+000 117457 -2.3898e+001 -1.4819e+002 -1.1316e+001 17290 117353,117431,117405
 3.9000e+000 117679 -7.0552e+000 -1.3527e+002 -3.0769e+000 16718 117555,117607,117581
 3.9000e+000 117656 -5.1116e+001 -1.5915e+002  6.9618e+000 16718 117529,117607,117555
 3.9000e+000 117633  4.4582e+000 -1.5067e+002  7.4720e+000 16718 117503,117607,117529
 3.9000e+000 117782  3.6005e+001 -2.9206e+001  4.2794e+000 16520 117704,117756,117730
 3.9000e+000 117983 -5.7623e+001 -2.2876e+002  3.7708e+000 16208 117859,117911,117885
 3.9000e+000 117960  2.8038e+001 -1.9249e+002 -3.5342e+000 16208 117833,117911,117859
 3.9000e+000 117937  1.5943e+001 -1.7120e+002  6.5950e+000 16208 117807,117911,117833
 3.9000e+000 118135 -1.8878e+001 -5.7479e+001 -1.5759e+001 15674 118034,118086,118060
 3.9000e+000 118112  3.6419e+001 -1.7229e+001  3.9300e+000 15674 118008,118086,118034
 3.9000e+000 118238 -2.0108e+001 -1.3792e+002  1.3872e+001 15355 118160,118212,118186
 3.9000e+000 118341 -8.9381e+000 -9.1872e+001  3.4530e+001 421 118263,118315,118289
 4.0000e+000 68152 -1.3841e+001  1.8540e+000 -1.7275e+000 67838 68074,68126,68100
 4.0000e+000 68550 -7.4343e+001  4.2411e+000 -4.0078e+000 67526 68276,68380,68302
 4.0000e+000 68527 -8.8679e+001  5.2613e+000 -4.9403e-001 67526 68276,68406,68380
 4.0000e+000 68504 -7.3763e+001 -3.0623e+000 -6.4080e-001 67526 68328,68380,68354
 4.0000e+000 68481 -7.6138e+001  5.6701e-003 -3.8882e+000 67526 68302,68380,68328
 4.0000e+000 68458 -9.6567e+001  2.6295e+000 -2.2223e+001 67526 68276,68432,68406
 4.0000e+000 68651 -9.3611e+001 -1.0858e+002  5.2030e+000 67328 68573,68625,68599
 4.0000e+000 68970 -7.2111e+001 -9.5620e+001  2.2300e+000 67016 68722,68800,68774
 4.0000e+000 68947 -7.7411e+001 -1.1408e+002  4.8619e+000 67016 68722,68826,68800
 4.0000e+000 68924 -6.0085e+001 -9.9054e+001 -1.6808e+000 67016 68696,68826,68722
 4.0000e+000 68901 -7.5384e+001 -1.0040e+002 -4.9639e-001 67016 68722,68774,68748
 4.0000e+000 68878 -6.6459e+001 -9.3682e+001 -1.0815e+001 67016 68696,68852,68826
 4.0000e+000 69291 -6.2332e+001 -4.3231e-001 -4.0515e+000 66654 69069,69147,69095
 4.0000e+000 69268 -5.1526e+001  2.0671e+000  1.4977e-001 66654 69069,69173,69147
 4.0000e+000 69245 -3.8548e+001 -3.5773e+000 -1.3722e+001 66654 69043,69173,69069
 4.0000e+000 69222 -6.2679e+001  6.3992e+000  1.6839e-001 66654 69095,69147,69121
 4.0000e+000 69199 -4.2768e+001 -8.5565e+000  4.9307e+000 66654 69017,69173,69043
 4.0000e+000 69695 -8.0495e+001 -1.0204e+002  4.9548e+000 66456 69447,69577,69551
 4.0000e+000 69672 -6.5450e+001 -9.0469e+001 -4.4529e-001 66456 69421,69577,69447
 4.0000e+000 69649 -7.2175e+001 -9.2299e+001  4.5638e+000 66456 69473,69551,69525
 4.0000e+000 69626 -7.3481e+001 -8.7254e+001  2.7868e+000 66456 69447,69551,69473
 4.0000e+000 69603 -5.3873e+001 -6.8232e+001 -1.4878e+001 66456 69473,69525,69499
 4.0000e+000 70024 -8.0860e+001 -1.3940e+001  9.5920e+000 66258 70047,69851,69825
 4.0000e+000 70001 -8.5607e+001 -2.8178e+001  7.4491e+000 66258 70047,69825,69903
 4.0000e+000 69978 -8.0060e+001 -2.8949e+001  6.1232e+000 66258 69799,69903,69825
 4.0000e+000 69955 -8.0473e+001 -3.6698e+001  6.0453e+000 66258 69799,69929,69903
 4.0000e+000 70073 -7.6100e+001 -1.8799e+001  2.3002e+001 66258 69877,69851,70047
 4.0000e+000 70096 -8.2230e+001 -3.7593e+001  2.1209e+001 66258 69877,70047,69903
 4.0000e+000 70602 -7.1158e+001 -6.4337e+001 -2.9089e+000 66060 70305,70435,70331
 4.0000e+000 70579 -9.7784e+001 -8.3925e+001  7.2421e+000 66060 70279,70435,70305
 4.0000e+000 70556 -8.6998e+001 -7.3260e+001  1.0578e+000 66060 70331,70435,70409
 4.0000e+000 70533 -1.0525e+002 -9.1546e+001 -5.4469e+000 66060 70279,70461,70435
 4.0000e+000 70510 -8.6731e+001 -7.3087e+001  9.1916e-001 66060 70331,70409,70357
 4.0000e+000 70487 -5.5574e+001 -6.2997e+001  4.7978e+000 66060 70357,70409,70383
 4.0000e+000 70703 -1.1807e+002 -8.9536e+001  1.7361e+001 65862 70625,70677,70651
 4.0000e+000 71083 -4.6844e+001  3.8964e+000  2.0874e+000 65664 70887,70965,70939
 4.0000e+000 71060 -5.1532e+001  7.6607e+000  2.7394e+000 65664 70861,70965,70887
 4.0000e+000 71037 -4.7648e+001  2.1510e+001  2.5201e+000 65664 70809,70965,70861
 4.0000e+000 71014 -5.1998e+001  5.3519e+001  2.3855e+001 65664 70809,70861,70835
 4.0000e+000 70991 -4.7361e+001 -4.2360e+000 -6.4204e+000 65664 70887,70939,70913
 4.0000e+000 71611 -6.8800e+001 -4.3647e+001  3.7716e+000 65260 71288,71444,71314
 4.0000e+000 71588 -7.0449e+001 -4.0380e+001  6.4314e+000 65260 71288,71470,71444
 4.0000e+000 71565 -8.1377e+001 -5.6492e+001  1.6722e+000 65260 71314,71418,71392
 4.0000e+000 71542 -7.4121e+001 -5.6664e+001  3.8000e+000 65260 71314,71444,71418
 4.0000e+000 71519 -7.8912e+001 -5.3605e+001  4.6231e+000 65260 71314,71392,71340
 4.0000e+000 71496 -7.1865e+001 -4.1461e+001  2.3458e+001 65260 71340,71392,71366
 4.0000e+000 72060 -8.1766e+001 -1.0564e+002 -5.3471e+000 64870 71737,71893,71789
 4.0000e+000 72037 -8.2479e+001 -1.0539e+002 -1.0264e+000 64870 71737,71919,71893
 4.0000e+000 72014 -6.9229e+001 -9.8582e+001 -4.6068e+000 64870 71789,71841,71815
 4.0000e+000 71991 -7.4794e+001 -9.6497e+001 -1.9476e+000 64870 71789,71893,71841
 4.0000e+000 71968 -8.9296e+001 -1.3195e+002 -8.6521e+000 64870 71737,71789,71763
 4.0000e+000 71945 -7.1944e+001 -1.0726e+002  0.0000e+000 64870 71841,71893,71867
 4.0000e+000 72517 -8.0482e+001 -6.7154e+001 -6.4807e+000 64466 72321,72399,72347
 4.0000e+000 72494 -7.7342e+001 -6.5927e+001 -5.6299e+000 64466 72269,72399,72321
 4.0000e+000 72471 -8.5568e+001 -7.5152e+001 -6.8730e+000 64466 72347,72399,72373
 4.0000e+000 72448 -7.8031e+001 -7.0960e+001 -1.5084e+001 64466 72243,72399,72269
 4.0000e+000 72425 -8.6439e+001 -7.6472e+001  4.3903e+000 64466 72269,72321,72295
 4.0000e+000 72944 -6.6424e+001 -7.9494e+001  9.1822e+000 64062 73111,73039,72699
 4.0000e+000 72921 -6.6451e+001 -8.2423e+001  5.8582e+000 64062 73183,72967,72647
 4.0000e+000 72898 -7.1834e+001 -8.6226e+001  2.4027e+000 64062 72967,72803,72751
 4.0000e+000 72875 -7.1078e+001 -8.1416e+001  6.9538e+000 64062 73111,72699,72673
 4.0000e+000 72852 -6.9379e+001 -7.6591e+001  3.6323e+000 64062 73183,72647,72621
 4.0000e+000 72829 -6.6922e+001 -7.5277e+001 -7.1901e+000 64062 72751,72803,72777
 4.0000e+000 72993 -6.7543e+001 -8.1964e+001  6.2170e+000 64062 73039,72647,72967
 4.0000e+000 73016 -7.1545e+001 -8.3976e+001  4.1071e+000 64062 72725,72967,72751
 4.0000e+000 73065 -4.0675e+001 -8.6714e+001  2.9024e+001 64062 72725,72699,73039
 4.0000e+000 73088 -7.1208e+001 -9.0403e+001  6.5084e+000 64062 72725,73039,72967
 4.0000e+000 73137 -7.5768e+001 -8.5491e+001  6.5940e+000 64062 72647,73039,73111
 4.0000e+000 73160 -7.7435e+001 -8.5512e+001  4.9087e+000 64062 72647,73111,72673
 4.0000e+000 73209 -6.7651e+001 -7.6664e+001  1.3257e+000 64062 72803,72967,73183
 4.0000e+000 73232 -6.6138e+001 -6.3460e+001 -1.3156e-001 64062 72803,73183,72621
 4.0000e+000 73333 -9.3623e+001 -7.3295e+001  8.7785e+000 63814 73356,73281,73255
 4.0000e+000 73382 -6.1101e+001 -6.1102e+001  5.0804e+000 63814 73486,73356,73307
 4.0000e+000 73512 -6.7444e+001 -6.3913e+001  4.5744e+000 63814 73281,73356,73486
 4.0000e+000 73839 -7.7495e+001  3.6097e+000  9.8206e+000 63616 73862,73692,73666
 4.0000e+000 73816 -6.2497e+001 -1.5292e+001  2.8923e+000 63616 73934,73862,73666
 4.0000e+000 73793 -5.7402e+001 -1.0994e+001  6.1094e+000 63616 73934,73666,73640
 4.0000e+000 73770 -6.2317e+001 -2.2230e+001  6.4445e-002 63616 73614,73744,73640
 4.0000e+000 73888 -9.7819e+001 -1.8380e+001  1.8239e+001 63616 73718,73692,73862
 4.0000e+000 73911 -7.1690e+001 -2.0904e+001 -1.1153e-001 63616 73718,73862,73744
 4.0000e+000 73960 -6.8262e+001 -1.3223e+001 -7.7389e-001 63616 73744,73862,73934
 4.0000e+000 73983 -6.5819e+001 -1.3341e+001  1.4342e+000 63616 73744,73934,73640
 4.0000e+000 74363 -5.8584e+001 -9.3326e+001  7.0606e+000 63390 74386,74115,74089
 4.0000e+000 74340 -5.4514e+001 -8.2873e+001  3.7208e+000 63390 74458,74386,74089
 4.0000e+000 74317 -5.2000e+001 -8.5264e+001  1.0857e+001 63390 74458,74089,74245
 4.0000e+000 74294 -5.3756e+001 -1.0288e+002  4.1389e+000 63390 74530,74167,74141
 4.0000e+000 74271 -4.3236e+001 -9.1452e+001 -1.4722e+001 63390 74167,74219,74193
 4.0000e+000 74412 -4.7720e+001 -9.2435e+001  4.8474e+000 63390 74141,74115,74386
 4.0000e+000 74435 -4.9932e+001 -9.6438e+001  5.7223e+000 63390 74530,74141,74386
 4.0000e+000 74484 -4.8776e+001 -7.3156e+001  7.6396e+000 63390 74219,74386,74458
 4.0000e+000 74507 -4.3286e+001 -7.2773e+001  1.5426e+001 63390 74219,74458,74245
 4.0000e+000 74556 -6.1124e+001 -9.7337e+001 -2.5258e+000 63390 74219,74167,74530
 4.0000e+000 74579 -5.6543e+001 -8.9123e+001 -7.2148e-001 63390 74219,74530,74386
 4.0000e+000 74680 -8.0696e+001 -4.2324e+001 -2.3195e+000 63100 75089,74833,74703
 4.0000e+000 74729 -7.7811e+001 -4.8332e+001  8.7655e-001 63100 74961,74703,74654
 4.0000e+000 74859 -7.2838e+001 -5.8770e+001 -8.9637e+000 63100 74602,74703,74833
 4.0000e+000 74987 -7.8613e+001 -5.0640e+001  4.2384e-001 63100 75089,74703,74961
 4.0000e+000 75115 -8.3057e+001 -5.2902e+001  4.2333e+000 63100 74628,74833,75089
 4.0000e+000 75138 -8.1155e+001 -6.1387e+001  6.9902e+000 63100 74628,75089,74961
 4.0000e+000 75723 -7.7011e+001 -3.0346e+001  5.0390e+000 62532 75746,75504,75426
 4.0000e+000 75700 -7.2595e+001 -4.5993e+001  1.8412e+000 62532 75746,75426,75556
 4.0000e+000 75677 -8.0076e+001 -5.0186e+000 -2.1582e+001 62532 75426,75504,75452
 4.0000e+000 75654 -5.3631e+001 -3.1315e+001 -7.2406e+000 62532 75400,75556,75426
 4.0000e+000 75631 -5.6786e+001 -5.0308e+001 -1.9625e+001 62532 75400,75582,75556
 4.0000e+000 75608 -1.8156e+001 -3.7198e+001 -2.1608e+001 62532 75452,75504,75478
 4.0000e+000 75772 -7.5347e+001 -1.7068e+001  9.1075e+000 62532 75530,75504,75746
 4.0000e+000 75795 -6.9763e+001 -3.3086e+001  7.5058e+000 62532 75530,75746,75556
 4.0000e+000 76301 -5.7147e+001 -5.0921e+001  8.0189e+000 62192 76324,76082,76030
 4.0000e+000 76278 -5.4125e+001 -5.2004e+001  7.6810e+000 62192 76324,76030,76004
 4.0000e+000 76255 -4.0755e+001 -4.5126e+001  1.0306e+001 62192 76030,76082,76056
 4.0000e+000 76232 -5.9921e+001 -6.5445e+001 -4.7796e+000 62192 76082,76134,76108
 4.0000e+000 76209 -6.4276e+001 -5.9582e+001  5.0134e-001 62192 76004,76160,76134
 4.0000e+000 76186 -6.7177e+001 -4.1680e+001  2.6033e-001 62192 75978,76160,76004
 4.0000e+000 76350 -5.8233e+001 -5.1829e+001  8.4258e+000 62192 76134,76082,76324
 4.0000e+000 76373 -5.6537e+001 -5.4319e+001  8.6389e+000 62192 76134,76324,76004
 4.0000e+000 76879 -3.2995e+001 -1.6370e+001  2.4002e+000 61788 76902,76660,76582
 4.0000e+000 76856 -1.3878e+001 -2.0105e+001 -1.1155e+000 61788 76902,76582,76556
 4.0000e+000 76833 -4.6725e+001 -2.6983e+001  1.0411e+001 61788 76582,76660,76634
 4.0000e+000 76810 -5.9394e+001 -1.6796e+001  8.2216e+000 61788 76582,76634,76608
 4.0000e+000 76787 -2.4705e+001 -2.0990e+001 -1.2445e+001 61788 76556,76738,76686
 4.0000e+000 76764 -5.2591e+001 -4.3849e+001 -2.4597e+000 61788 76686,76738,76712
 4.0000e+000 76928 -4.2955e+001 -1.8864e+001  4.6786e+000 61788 76686,76660,76902
 4.0000e+000 76951 -2.8357e+001 -2.7069e+001  2.9320e+000 61788 76686,76902,76556
 4.0000e+000 77408 -7.0282e+001 -5.9023e+001 -9.5093e+000 61498 77212,77264,77238
 4.0000e+000 77385 -6.2930e+001 -5.4642e+001  3.7643e+000 61498 77160,77264,77212
 4.0000e+000 77362 -7.4817e+001 -6.3016e+001  7.7071e-002 61498 77160,77290,77264
 4.0000e+000 77339 -5.5934e+001 -5.8133e+001  3.7115e+000 61498 77160,77212,77186
 4.0000e+000 77316 -5.6579e+001 -4.6647e+001  3.1041e+001 61498 77134,77290,77160
 4.0000e+000 77678 -1.1368e+002  1.2456e+001  1.8445e+000 61129 77479,77557,77505
 4.0000e+000 77655 -1.1666e+002 -1.7170e+001  2.1206e+000 61129 77479,77583,77557
 4.0000e+000 77632 -1.1332e+002 -4.7637e+001  6.1435e+000 61129 77453,77583,77479
 4.0000e+000 77609 -1.0374e+002  3.5662e+001  2.7960e+001 61129 77505,77557,77531
 4.0000e+000 77828  9.8006e+000 -4.2790e+000  4.7962e+000 60931 77851,77727,77701
 4.0000e+000 77805 -2.2109e+001 -1.4864e+001  8.5871e+000 60931 77851,77701,77779
 4.0000e+000 77877 -2.2292e+001  1.3238e+001  1.9533e+000 60931 77923,77851,77753
 4.0000e+000 77900 -4.3262e+001  4.1502e+000  5.3470e+000 60931 77753,77851,77779
 4.0000e+000 77949 -2.8048e+001 -7.9068e+000 -3.2355e+000 60931 77727,77851,77923
 4.0000e+000 78133 -7.3528e+001 -7.4424e+001  5.1111e-001 60377 78055,78107,78081
 4.0000e+000 78535 -1.0747e+002 -1.1167e+002 -5.2382e+000 60015 78287,78391,78313
 4.0000e+000 78512 -7.4790e+001 -1.2778e+002 -5.5870e+000 60015 78287,78417,78391
 4.0000e+000 78489 -9.5512e+001 -1.4437e+002 -1.6357e+001 60015 78261,78417,78287
 4.0000e+000 78466 -5.2159e+001 -8.2967e+001  1.0774e+001 60015 78339,78391,78365
 4.0000e+000 78443 -5.4231e+001 -8.4344e+001  8.5407e+000 60015 78313,78391,78339
 4.0000e+000 78913 -7.0888e+001 -8.9181e+001  4.5201e-001 59725 78936,78743,78691
 4.0000e+000 78890 -6.7788e+001 -8.2645e+001  2.0915e+000 59725 79008,78936,78691
 4.0000e+000 78867 -6.7319e+001 -8.2875e+001  3.9179e+000 59725 79008,78691,78665
 4.0000e+000 78844 -6.8024e+001 -8.8647e+001  1.1997e+000 59725 78691,78743,78717
 4.0000e+000 78821 -6.5463e+001 -7.4488e+001  3.1138e+000 59725 78639,78795,78769
 4.0000e+000 78962 -7.3407e+001 -8.3659e+001  2.6030e+000 59725 78769,78743,78936
 4.0000e+000 78985 -6.9339e+001 -7.6909e+001  5.0066e+000 59725 78769,78936,78639
 4.0000e+000 79034 -7.1501e+001 -8.4145e+001  1.7680e+000 59725 78639,78936,79008
 4.0000e+000 79057 -6.9459e+001 -8.4085e+001  3.2913e+000 59725 78639,79008,78665
 4.0000e+000 79386 -6.8630e+001 -1.0167e+002  1.1312e+001 59221 79187,79239,79213
 4.0000e+000 79363 -5.3148e+001 -8.9547e+001  6.0595e+000 59221 79187,79265,79239
 4.0000e+000 79340 -6.7697e+001 -9.2902e+001  9.9403e+000 59221 79187,79291,79265
 4.0000e+000 79317 -5.8738e+001 -6.6490e+001  6.5840e+000 59221 79161,79291,79187
 4.0000e+000 79813 -7.1700e+001 -1.3897e+001  8.4551e+000 58831 79836,79542,79516
 4.0000e+000 79790 -6.7091e+001 -9.8243e+000  5.5603e+000 58831 79980,79836,79516
 4.0000e+000 79767 -4.5014e+001 -1.0692e+001 -1.3441e+000 58831 79908,79646,79568
 4.0000e+000 79744 -8.4587e+001 -2.0385e+001  1.2373e+000 58831 79980,79516,79490
 4.0000e+000 79721 -2.5890e+001 -1.3620e+001 -6.6561e-001 58831 79568,79646,79594
 4.0000e+000 79698 -6.7549e+001 -1.7577e+001  3.8287e+001 58831 79594,79646,79620
 4.0000e+000 79862 -6.2217e+001 -2.4221e+001  3.3101e+000 58831 79568,79542,79836
 4.0000e+000 79885 -4.9232e+001 -1.7571e+001 -3.4140e+000 58831 79908,79568,79836
 4.0000e+000 79934 -4.2272e+001 -1.3042e+001  4.8007e+000 58831 79672,79646,79908
 4.0000e+000 79957 -4.4818e+001 -1.8191e+001  3.3438e+000 58831 79672,79908,79836
 4.0000e+000 80006 -6.3170e+001 -2.3661e+001 -1.5192e+000 58831 79672,79836,79980
 4.0000e+000 80029 -6.6456e+001 -2.5299e+001 -1.8937e+000 58831 79672,79980,79490
 4.0000e+000 80358 -5.4696e+001 -9.7256e+001  4.3634e+000 58377 80381,80185,80159
 4.0000e+000 80335 -5.8653e+001 -9.2986e+001  6.3391e+000 58377 80381,80159,80133
 4.0000e+000 80312 -5.0958e+001 -8.5885e+001  3.1474e+000 58377 80133,80263,80237
 4.0000e+000 80289 -5.1823e+001 -9.8227e+001  1.7880e+001 58377 80185,80237,80211
 4.0000e+000 80407 -5.1212e+001 -9.3075e+001  2.8018e+000 58377 80237,80185,80381
 4.0000e+000 80430 -5.6858e+001 -9.0553e+001  5.5821e+000 58377 80237,80381,80133
 4.0000e+000 80759 -3.5236e+001 -8.3050e+001  1.3265e+001 57873 80782,80586,80560
 4.0000e+000 80736 -4.1778e+001 -9.2365e+001  9.6137e+000 57873 80782,80560,80534
 4.0000e+000 80713 -5.4719e+001 -8.7569e+001  5.9228e+000 57873 80586,80638,80612
 4.0000e+000 80690 -2.0551e+001 -9.1914e+001  1.2229e+001 57873 80534,80664,80638
 4.0000e+000 80808 -3.9422e+001 -9.1808e+001  1.0199e+001 57873 80638,80586,80782
 4.0000e+000 80831 -3.9413e+001 -9.4479e+001  8.0706e+000 57873 80638,80782,80534
 4.0000e+000 81337 -1.9359e+001  6.4926e+000 -1.5114e+000 57262 81360,81144,81092
 4.0000e+000 81314 -1.3219e+001  1.5407e+001 -1.0911e+001 57262 81360,81092,81066
 4.0000e+000 81291  3.5610e+001  3.0439e+000 -2.8858e+000 57262 81014,81196,81066
 4.0000e+000 81268 -1.7319e+001  1.1700e+001 -2.5019e-001 57262 81092,81144,81118
 4.0000e+000 81245 -1.9913e+001 -9.4864e+000 -2.2235e+000 57262 81144,81196,81170
 4.0000e+000 81222  2.9452e+001 -5.4619e+000 -5.6980e-001 57262 81014,81066,81040
 4.0000e+000 81386 -5.6702e+000  2.0927e+000 -7.2537e+000 57262 81196,81144,81360
 4.0000e+000 81409 -2.7586e+000  1.0224e+001 -1.6887e+001 57262 81196,81360,81066
 4.0000e+000 81608 -1.1369e+002 -3.4052e+001 -2.2172e+001 57007 81458,81536,81510
 4.0000e+000 81585 -1.0744e+002 -3.3334e+001 -1.6960e+001 57007 81432,81536,81458
 4.0000e+000 81562 -5.4477e+001 -6.9673e+001 -5.0413e+001 57007 81458,81510,81484
 4.0000e+000 82086 -7.1715e+001 -4.8374e+001  1.6375e+001 56339 81792,81922,81818
 4.0000e+000 82063 -1.9856e+001 -4.8317e+001  9.4597e+000 56339 81714,81922,81792
 4.0000e+000 82040 -7.9116e+001 -6.0236e+001 -2.5360e+000 56339 82109,81844,81818
 4.0000e+000 82017 -7.9784e+001 -6.9758e+001 -4.1460e+000 56339 82109,81818,81922
 4.0000e+000 81994 -5.6925e+001 -7.1603e+001 -1.3787e+001 56339 81844,81896,81870
 4.0000e+000 81971 -1.6108e+001 -2.6090e+001 -2.6709e+001 56339 81714,81792,81766
 4.0000e+000 81948 -9.3150e+001 -5.3526e+001 -2.4957e+001 56339 81714,81766,81740
 4.0000e+000 82135 -7.0118e+001 -6.8324e+001  2.0756e+000 56339 81896,81844,82109
 4.0000e+000 82158 -7.5605e+001 -8.3987e+001 -1.5176e+000 56339 81896,82109,81922
 4.0000e+000 82536 -5.7969e+001 -7.4382e+001  1.0383e+001 55699 82288,82392,82314
 4.0000e+000 82513 -6.2308e+001 -7.7032e+001  7.2264e+000 55699 82288,82418,82392
 4.0000e+000 82490 -6.2466e+001 -8.3970e+001  8.3857e+000 55699 82314,82392,82340
 4.0000e+000 82467 -5.6111e+001 -6.8454e+001  4.6988e+000 55699 82340,82392,82366
 4.0000e+000 82444 -6.2226e+001 -8.9757e+001  4.1707e+000 55699 82262,82418,82288
 4.0000e+000 83091 -3.2798e+001 -3.0293e+001  4.8683e+000 55409 82745,82901,82875
 4.0000e+000 83068 -1.6823e+001 -3.8739e+001  9.3774e+000 55409 82719,82901,82745
 4.0000e+000 83045 -3.0793e+001 -4.2250e+001  1.0038e+001 55409 82771,82849,82823
 4.0000e+000 83022 -3.6534e+001 -4.2800e+001  1.4217e+001 55409 82745,82849,82771
 4.0000e+000 82999 -1.5458e+001 -2.2998e+001  5.9794e+000 55409 82745,82875,82849
 4.0000e+000 82976 -1.1475e+001 -2.5018e+001  2.0010e+000 55409 82771,82823,82797
 4.0000e+000 82953 -2.2275e+000 -1.7410e+001 -1.8943e+000 55409 82719,82927,82901
 4.0000e+000 83388 -4.5355e+001 -8.8975e+001  4.5837e+000 54905 83411,83218,83166
 4.0000e+000 83365 -4.4359e+001 -8.9981e+001  3.9663e+000 54905 83411,83166,83114
 4.0000e+000 83342 -7.1363e+001 -9.9201e+001 -9.6195e+000 54905 83483,83270,83244
 4.0000e+000 83319 -5.2367e+001 -8.9142e+001  3.5961e+000 54905 83166,83218,83192
 4.0000e+000 83296 -4.3814e+001 -9.4266e+001  1.2132e+001 54905 83114,83166,83140
 4.0000e+000 83437 -4.1567e+001 -9.1504e+001  4.0677e-001 54905 83244,83218,83411
 4.0000e+000 83460 -5.4238e+001 -9.8604e+001 -2.6890e+000 54905 83483,83244,83411
 4.0000e+000 83509 -4.8408e+001 -8.2705e+001 -2.0366e+000 54905 83114,83270,83483
 4.0000e+000 83532 -4.3319e+001 -8.9097e+001  3.5520e+000 54905 83114,83483,83411
 4.0000e+000 83961  5.2112e+000  1.1358e+001 -1.5069e+001 54593 83638,83768,83690
 4.0000e+000 83938 -3.0654e+000 -9.9870e+000 -7.0321e+000 54593 83638,83794,83768
 4.0000e+000 83915 -1.6232e+001  2.2246e+001 -4.7179e+000 54593 83690,83768,83742
 4.0000e+000 83892  1.3114e+001  2.7074e+001 -3.9473e+001 54593 83638,83820,83794
 4.0000e+000 83869  4.2831e+001  1.1074e+002 -1.2788e+001 54593 83638,83690,83664
 4.0000e+000 83846  1.3672e+001  2.3782e+000  2.5373e+001 54593 83690,83742,83716
 4.0000e+000 84209 -5.1469e+001 -9.5754e+001  7.2542e+000 54132 84232,84062,83984
 4.0000e+000 84186 -4.6928e+001 -8.4896e+001  3.9673e+000 54132 84232,83984,84114
 4.0000e+000 84163 -4.8023e+001 -8.5378e+001  1.0218e+000 54132 83984,84062,84036
 4.0000e+000 84140 -5.2473e+001 -7.1302e+001 -1.0800e+000 54132 83984,84036,84010
 4.0000e+000 84258 -4.0896e+001 -1.0941e+002  5.1878e+000 54132 84088,84062,84232
 4.0000e+000 84281 -3.3398e+001 -9.6588e+001 -1.0461e-001 54132 84088,84232,84114
 4.0000e+000 84382 -5.4143e+001  5.8238e-001  4.5649e-001 53521 84304,84356,84330
 4.0000e+000 84632 -5.1676e+001 -5.5534e+001  4.3007e+000 53067 84655,84485,84459
 4.0000e+000 84609 -4.0413e+001 -7.0267e+001  5.3321e+000 53067 84655,84459,84407
 4.0000e+000 84586 -4.3689e+001 -5.3657e+001  4.1735e+000 53067 84485,84537,84511
 4.0000e+000 84563 -3.7596e+001 -6.8257e+001 -5.6455e+000 53067 84407,84459,84433
 4.0000e+000 84681 -5.1815e+001 -6.8152e+001  7.8596e+000 53067 84537,84485,84655
 4.0000e+000 84704 -4.9540e+001 -8.9940e+001  1.2983e+001 53067 84537,84655,84407
 4.0000e+000 85214 -4.0238e+001  1.6570e+000 -2.3170e+000 52513 85021,85073,85047
 4.0000e+000 85191 -3.3642e+001 -5.9006e+000 -2.1813e+000 52513 84943,85073,85021
 4.0000e+000 85168 -5.5211e+001 -1.6665e+001 -8.6609e+000 52513 84943,85021,84995
 4.0000e+000 85145 -4.3205e+001 -2.0524e+001 -1.0393e+001 52513 84917,85073,84943
 4.0000e+000 85122 -6.6326e+001  1.4782e+000 -1.3356e+001 52513 84943,84995,84969
 4.0000e+000 85099 -4.0400e+001 -2.3772e+001 -5.7718e+000 52513 84891,85073,84917
 4.0000e+000 85582 -4.6128e+001 -9.2781e+001  1.1335e+001 52037 85605,85311,85285
 4.0000e+000 85559 -4.4503e+001 -1.0190e+002  6.6936e+000 52037 85749,85605,85285
 4.0000e+000 85536 -2.9895e+001 -7.3298e+001 -2.7702e+000 52037 85893,85677,85389
 4.0000e+000 85513 -3.8073e+001 -1.0318e+002  7.6064e+000 52037 85749,85285,85259
 4.0000e+000 85490 -1.6587e+001 -6.8271e+001 -7.5543e+000 52037 85893,85389,85363
 4.0000e+000 85467 -3.5591e+001 -1.0769e+002 -1.0232e+001 52037 85259,85441,85415
 4.0000e+000 85631 -4.5143e+001 -9.5241e+001  7.8310e+000 52037 85337,85311,85605
 4.0000e+000 85654 -4.1466e+001 -8.6612e+001  8.6668e+000 52037 85677,85337,85605
 4.0000e+000 85703 -3.3385e+001 -8.6986e+001  3.5618e+000 52037 85415,85389,85677
 4.0000e+000 85726 -2.8508e+001 -9.1596e+001  9.4148e+000 52037 85821,85677,85605
 4.0000e+000 85775 -3.7572e+001 -9.5358e+001  9.3847e+000 52037 85821,85605,85749
 4.0000e+000 85798 -4.3289e+001 -1.0136e+002  5.1390e+000 52037 85415,85749,85259
 4.0000e+000 85847 -3.0683e+001 -9.3588e+001  1.8381e+000 52037 85415,85677,85821
 4.0000e+000 85870 -3.3811e+001 -9.4733e+001  2.0969e+000 52037 85415,85821,85749
 4.0000e+000 85919 -2.8597e+001 -7.9229e+001  1.1856e+001 52037 85337,85677,85893
 4.0000e+000 85942 -2.3513e+001 -7.8362e+001  7.3963e+000 52037 85337,85893,85363
 4.0000e+000 86224 -2.1656e+001  1.7613e+000  1.0698e+001 51368 86375,86100,86074
 4.0000e+000 86201 -2.7022e+001 -3.9124e+000  5.7137e+000 51368 86375,86074,86247
 4.0000e+000 86178 -2.0168e+001 -1.1957e+001 -8.8326e+000 51368 86048,86152,86126
 4.0000e+000 86273 -3.8745e+001 -2.0479e+001 -2.1595e+000 51368 86048,86126,86247
 4.0000e+000 86401 -1.7940e+001 -7.5922e+000  6.0811e+000 51368 86126,86100,86375
 4.0000e+000 86424 -2.0663e+001 -1.4367e+001  2.6686e+000 51368 86126,86375,86247
 4.0000e+000 86802 -3.7598e+001 -6.0064e+001 -2.8742e-002 51028 86528,86632,86580
 4.0000e+000 86779 -4.4145e+001 -6.5707e+001  2.3925e+000 51028 86528,86684,86632
 4.0000e+000 86756 -5.0120e+001 -8.9664e+001  3.8270e+000 51028 86528,86580,86554
 4.0000e+000 86733 -4.0183e+001 -7.5466e+001  1.0857e+001 51028 86632,86684,86658
 4.0000e+000 86710 -4.6526e+001 -7.2996e+001 -9.4492e+000 51028 86580,86632,86606
 4.0000e+000 87131 -4.6871e+001 -4.6017e+001  9.7857e+000 50624 86958,87036,87010
 4.0000e+000 87108 -3.8216e+001 -3.8237e+001  1.3317e+001 50624 86932,87036,86958
 4.0000e+000 87085 -3.8688e+001 -4.3192e+001  1.0272e+001 50624 86958,87010,86984
 4.0000e+000 87062 -1.6294e+001 -3.0220e+001  1.2117e+001 50624 86906,87036,86932
 4.0000e+000 87330 -4.0499e+001 -4.6458e+001  1.0844e+000 50234 87353,87180,87154
 4.0000e+000 87307 -4.4723e+001 -4.3763e+001 -4.5034e-001 50234 87353,87154,87258
 4.0000e+000 87284 -5.0300e+001 -5.4584e+001 -3.9586e+000 50234 87206,87258,87232
 4.0000e+000 87379 -4.2913e+001 -5.0087e+001  7.0798e-002 50234 87206,87180,87353
 4.0000e+000 87402 -4.6577e+001 -4.6209e+001 -1.2481e+000 50234 87206,87353,87258
 4.0000e+000 87650 -3.4320e+001 -5.3613e+001  8.0474e-001 49730 87673,87503,87451
 4.0000e+000 87627 -4.0516e+001 -5.6780e+001 -3.3896e+000 49730 87673,87451,87425
 4.0000e+000 87604 -2.7266e+001 -4.7287e+001  1.0558e+000 49730 87503,87555,87529
 4.0000e+000 87581 -3.7266e+001 -4.6635e+001 -1.1803e-001 49730 87451,87503,87477
 4.0000e+000 87699 -3.4044e+001 -5.8375e+001 -1.8428e+000 49730 87555,87503,87673
 4.0000e+000 87722 -3.5133e+001 -6.2116e+001 -3.9104e+000 49730 87555,87673,87425
 4.0000e+000 88232 -3.7009e+001 -7.5992e+001  6.2847e-001 49176 88255,87935,87909
 4.0000e+000 88209 -5.1288e+001 -9.2370e+001  1.3857e+001 49176 88255,87909,88065
 4.0000e+000 88186 -4.0447e+001 -6.4914e+001  9.0397e+000 49176 87935,88039,87961
 4.0000e+000 88163 -3.9083e+001 -8.2249e+001  9.3947e+000 49176 87909,88091,88065
 4.0000e+000 88140 -5.2797e+001 -7.0624e+001  5.7283e+000 49176 87961,88039,88013
 4.0000e+000 88117 -4.3606e+001 -6.7461e+001 -4.6670e+000 49176 87961,88013,87987
 4.0000e+000 88281 -5.0591e+001 -8.1028e+001  1.5856e+001 49176 88039,87935,88255
 4.0000e+000 88304 -6.4391e+001 -9.6006e+001  2.8906e+001 49176 88039,88255,88065
 4.0000e+000 88503 -3.4888e+001 -6.9560e+001  6.2848e+000 48772 88526,88379,88353
 4.0000e+000 88480 -4.0653e+001 -6.0153e+001  7.8314e+000 48772 88526,88353,88327
 4.0000e+000 88457 -3.7708e+001 -8.2080e+001  8.0992e+000 48772 88379,88431,88405
 4.0000e+000 88552 -3.1455e+001 -6.2318e+001  4.7108e+000 48772 88431,88379,88526
 4.0000e+000 88575 -3.8254e+001 -5.5421e+001  5.6399e+000 48772 88431,88526,88327
 4.0000e+000 89083 -1.9882e+000  2.3218e+000 -2.7077e+000 48368 88786,88916,88864
 4.0000e+000 89060 -8.6312e-001 -3.7260e+000  2.0233e+000 48368 88786,88942,88916
 4.0000e+000 89037 -5.8792e+000  5.2390e+000  2.3984e+000 48368 88786,88864,88812
 4.0000e+000 89014  2.3688e+000  2.0699e+000 -1.1029e+000 48368 88864,88916,88890
 4.0000e+000 88991  2.9537e-001  1.1581e+000  4.7249e+000 48368 88812,88864,88838
 4.0000e+000 88968 -9.6990e+000 -4.7368e+000  5.3817e+000 48368 88760,88942,88786
 4.0000e+000 89331 -4.0919e+001 -3.0281e+001 -5.3676e+000 47928 89158,89236,89210
 4.0000e+000 89308 -3.9470e+001 -1.8139e+001 -8.5264e-001 47928 89132,89236,89158
 4.0000e+000 89285 -1.2103e+001 -2.1615e+001  5.8883e+000 47928 89158,89210,89184
 4.0000e+000 89262 -4.5485e+001 -1.4899e+001 -4.4404e-001 47928 89106,89236,89132
 4.0000e+000 89662 -4.5487e+001 -8.0006e+001  2.4437e+000 47588 89463,89541,89515
 4.0000e+000 89639 -3.4896e+001 -5.8848e+001 -1.2347e+000 47588 89463,89567,89541
 4.0000e+000 89616 -4.6283e+001 -7.8156e+001  8.7228e-001 47588 89463,89515,89489
 4.0000e+000 89593 -4.1352e+001 -6.5899e+001  2.8890e+000 47588 89437,89567,89463
 4.0000e+000 89763  8.0905e-001 -1.8724e+000 -1.7597e+000 47390 89685,89737,89711
 4.0000e+000 89913  6.6133e+000  1.7758e+001  8.1104e-001 47078 89786,89838,89812
 4.0000e+000 89890  6.4414e+000  1.1987e+001  1.1392e+000 47078 89786,89864,89838
 4.0000e+000 90163 -3.0941e+001 -5.8149e+001 -2.9203e-001 46474 89964,90042,89990
 4.0000e+000 90140 -2.7301e+001 -5.7914e+001  5.9114e+000 46474 89938,90042,89964
 4.0000e+000 90117 -3.7803e+001 -5.5277e+001 -5.1999e-001 46474 89990,90042,90016
 4.0000e+000 90094 -2.5059e+001 -5.4389e+001  4.4975e+000 46474 89938,90068,90042
 4.0000e+000 90364 -2.6317e+001 -3.1657e+001  6.9628e+000 46184 90240,90292,90266
 4.0000e+000 90341 -1.8824e+001 -2.5106e+001  1.0090e+001 46184 90188,90292,90240
 4.0000e+000 90318 -2.6255e+001 -3.4825e+001  6.8650e+000 46184 90188,90240,90214
 4.0000e+000 90565 -2.9301e+001 -3.9678e+001 -3.1227e+000 45780 90588,90415,90389
 4.0000e+000 90542 -3.0178e+001 -4.0155e+001 -2.9691e+000 45780 90588,90389,90493
 4.0000e+000 90519 -2.7528e+001 -4.0986e+001 -3.9797e+000 45780 90415,90467,90441
 4.0000e+000 90614 -2.9868e+001 -3.9250e+001 -3.6405e+000 45780 90467,90415,90588
 4.0000e+000 90637 -3.0742e+001 -3.9634e+001 -3.5517e+000 45780 90467,90588,90493
 4.0000e+000 91196 -4.8781e+001 -7.6514e+001 -2.7677e+000 45226 91219,90876,90850
 4.0000e+000 91173 -3.7309e+001 -7.5360e+001  5.7851e+000 45226 91219,90850,91032
 4.0000e+000 91150 -3.1929e+001 -8.0052e+001  3.0991e-001 45226 90824,91032,90850
 4.0000e+000 91127 -3.6321e+001 -5.1233e+001  1.2014e+000 45226 90876,90980,90902
 4.0000e+000 91104 -2.9504e+001 -5.6345e+001  9.3190e+000 45226 90876,91006,90980
 4.0000e+000 91081 -3.4146e+001 -5.0443e+001  1.4247e+000 45226 90902,90980,90954
 4.0000e+000 91058 -1.9811e+001 -4.1582e+001 -5.0154e+000 45226 90902,90954,90928
 4.0000e+000 91245 -3.8907e+001 -6.8009e+001  1.0545e+000 45226 91006,90876,91219
 4.0000e+000 91268 -2.9091e+001 -6.9742e+001  8.6689e+000 45226 91006,91219,91032
 4.0000e+000 91516 -3.3989e+000  9.8693e+000 -4.9559e+000 44836 91539,91421,91395
 4.0000e+000 91493  8.0119e+000  7.8390e+000  5.1124e+000 44836 91317,91421,91343
 4.0000e+000 91470  2.4651e+001 -1.0945e+001  8.8516e+000 44836 91539,91395,91369
 4.0000e+000 91447  1.1872e+001  1.8454e+000  9.7370e-001 44836 91291,91421,91317
 4.0000e+000 91565  1.2360e+001  1.9534e+001  1.0314e+001 44836 91343,91421,91539
 4.0000e+000 91588  3.9338e+001  1.6966e+001  2.9017e+001 44836 91343,91539,91369
 4.0000e+000 91787 -1.5187e+001 -3.6162e+001  5.6208e+000 44432 91810,91637,91611
 4.0000e+000 91764 -2.3424e+001 -3.4048e+001  6.6259e+000 44432 91810,91611,91715
 4.0000e+000 91741 -2.3603e+001 -3.8912e+001 -2.3356e+000 44432 91637,91689,91663
 4.0000e+000 91836 -2.1978e+001 -3.7386e+001  4.0043e+000 44432 91689,91637,91810
 4.0000e+000 91859 -2.8100e+001 -3.4424e+001  3.7447e+000 44432 91689,91810,91715
 4.0000e+000 92207 -2.2077e+001 -1.2871e+001  2.0648e-001 43864 92230,91936,91910
 4.0000e+000 92184 -2.1138e+001 -1.4362e+001  2.1892e-001 43864 92230,91910,92040
 4.0000e+000 92161 -1.2583e+001 -1.0991e+001  3.4989e-001 43864 91884,92040,91910
 4.0000e+000 92138 -1.8118e+001 -1.0389e+001 -4.4893e+000 43864 91936,92014,91988
 4.0000e+000 92115 -2.0089e+001 -1.1312e+001 -5.4479e+000 43864 91936,91988,91962
 4.0000e+000 92092 -2.3342e+001 -2.4119e+001  4.5759e+000 43864 91884,92066,92040
 4.0000e+000 92256 -2.1158e+001 -1.2145e+001  6.6547e-001 43864 92014,91936,92230
 4.0000e+000 92279 -2.0643e+001 -1.4084e+001  3.9002e-001 43864 92014,92230,92040
 4.0000e+000 92529 -2.5962e+001 -4.5577e+001 -1.2092e+000 43410 92552,92330,92304
 4.0000e+000 92506 -2.6595e+001 -4.7120e+001  1.4988e+000 43410 92552,92304,92408
 4.0000e+000 92483 -2.7982e+001 -5.3922e+001  2.1655e+000 43410 92304,92434,92408
 4.0000e+000 92460 -3.4212e+001 -3.7706e+001 -2.5203e+000 43410 92330,92382,92356
 4.0000e+000 92578 -2.7175e+001 -4.6286e+001  5.3982e-001 43410 92382,92330,92552
 4.0000e+000 92601 -3.0111e+001 -5.0329e+001  3.5946e+000 43410 92382,92552,92408
 4.0000e+000 92802 -2.3963e+001  2.2440e+000  8.0153e+000 43162 92825,92704,92652
 4.0000e+000 92779 -2.8071e+001 -1.3072e-001  6.1863e-001 43162 92825,92652,92626
 4.0000e+000 92756 -9.9922e+000 -8.5672e+000  5.6559e+000 43162 92652,92704,92678
 4.0000e+000 92851 -1.7694e+001  2.9656e+000  1.2497e+001 43162 92730,92704,92825
 4.0000e+000 92874 -1.1935e+001 -7.4731e+000  1.2714e+000 43162 92730,92825,92626
 4.0000e+000 93463 -2.0525e+001 -4.8588e+001 -7.7272e+000 42758 93140,93270,93166
 4.0000e+000 93440 -3.0082e+001 -6.9051e+001 -5.0043e+000 42758 93140,93296,93270
 4.0000e+000 93417 -2.7779e+001 -5.4002e+001 -5.1546e+000 42758 93166,93270,93218
 4.0000e+000 93394 -1.2418e+001 -4.4244e+001 -8.1644e-001 42758 93218,93270,93244
 4.0000e+000 93371 -1.5462e+001 -7.4569e+001 -5.0798e+000 42758 93140,93322,93296
 4.0000e+000 93348 -3.7238e+001 -7.2405e+001  5.8814e+000 42758 93166,93218,93192
 4.0000e+000 93920 -2.8463e+001 -5.2437e+001  1.1975e+000 42304 93943,93672,93646
 4.0000e+000 93897 -2.4507e+001 -4.3681e+001  2.5567e-001 42304 93943,93646,93802
 4.0000e+000 93874 -1.7679e+001 -5.0459e+001  8.0808e+000 42304 93724,93802,93776
 4.0000e+000 93851 -3.4362e+001 -6.3111e+001  1.6481e+000 42304 93672,93724,93698
 4.0000e+000 93828 -3.8037e+001 -6.0896e+001  7.0533e-001 42304 93724,93776,93750
 4.0000e+000 93969 -2.4261e+001 -5.5498e+001 -1.9420e+000 42304 93724,93672,93943
 4.0000e+000 93992 -2.3225e+001 -5.2099e+001 -2.1087e+000 42304 93724,93943,93802
 4.0000e+000 94321 -1.6839e+001 -2.0270e+001  3.7047e+000 41478 94096,94148,94122
 4.0000e+000 94298 -1.4192e+001 -2.2806e+001  1.0498e+000 41478 94096,94226,94148
 4.0000e+000 94275 -1.5647e+001 -3.2658e+001 -7.9952e-001 41478 94148,94226,94174
 4.0000e+000 94252 -2.3321e+000 -2.2664e+001 -1.3363e+001 41478 94174,94226,94200
 4.0000e+000 94618 -2.0442e+001 -4.2481e+001 -3.8935e+000 40910 94344,94422,94396
 4.0000e+000 94595 -1.7573e+001 -3.6024e+001 -2.3112e+000 40910 94344,94448,94422
 4.0000e+000 94572 -1.3842e+001 -2.7907e+001 -5.1066e+000 40910 94344,94474,94448
 4.0000e+000 94549 -1.8241e+001 -4.0875e+001 -2.2478e+000 40910 94344,94396,94370
 4.0000e+000 94526 -2.4793e+001 -4.1294e+001 -6.2443e-001 40910 94344,94500,94474
 4.0000e+000 94866 -1.3607e+001 -3.8899e+001 -4.8567e+000 40306 94667,94719,94693
 4.0000e+000 94843 -2.1293e+001 -3.9941e+001 -3.9566e+000 40306 94641,94719,94667
 4.0000e+000 94820 -2.3870e+001 -3.6665e+001 -3.2906e-001 40306 94641,94745,94719
 4.0000e+000 94797 -2.4843e+001 -3.7864e+001 -3.0411e-001 40306 94641,94771,94745
 4.0000e+000 95089 -2.6685e+001 -6.5128e+001  2.5714e+000 39702 94913,94991,94939
 4.0000e+000 95066 -3.0158e+001 -7.0302e+001  5.4349e+000 39702 94913,95017,94991
 4.0000e+000 95043 -1.7820e+001 -6.1022e+001  5.3260e+000 39702 94939,94991,94965
 4.0000e+000 95339 -1.5681e+001 -2.8435e+001 -1.1456e+001 39248 95140,95218,95166
 4.0000e+000 95316 -2.4417e+001 -3.7651e+001 -4.0308e+000 39248 95140,95244,95218
 4.0000e+000 95293 -2.1055e+001 -3.8902e+001 -5.0539e+000 39248 95114,95244,95140
 4.0000e+000 95270 -1.3913e+001 -2.5357e+001 -9.0836e+000 39248 95166,95218,95192
 4.0000e+000 95770  5.8123e-001  2.7131e+001  2.7863e+000 38694 95551,95629,95577
 4.0000e+000 95747 -9.1820e+000  8.6460e+000 -2.6664e+000 38694 95447,95629,95551
 4.0000e+000 95724 -1.2474e+001  1.2435e+001  2.1363e+001 38694 95447,95551,95473
 4.0000e+000 95701  2.7303e+001  6.6123e+000  1.3602e+001 38694 95473,95551,95499
 4.0000e+000 95678  1.3410e+001  3.5006e+000  7.4321e+000 38694 95499,95551,95525
 4.0000e+000 95655 -9.0032e+000  8.7335e+000 -1.7131e+000 38694 95577,95629,95603
 4.0000e+000 96325 -2.6915e+001 -5.0025e+001  4.8967e+000 38240 95953,96031,96005
 4.0000e+000 96302 -2.7670e+001 -4.0303e+001  8.5683e+000 38240 95953,96161,96031
 4.0000e+000 96279 -2.2996e+001 -3.8820e+001  2.7455e+000 38240 96031,96161,96135
 4.0000e+000 96256 -2.2372e+001 -4.9086e+001  3.0218e-001 38240 96348,96109,96057
 4.0000e+000 96233 -2.0023e+001 -3.3930e+001  1.0015e+001 38240 96348,96057,96031
 4.0000e+000 96210 -2.5368e+001 -4.7796e+001 -2.1049e+000 38240 96057,96109,96083
 4.0000e+000 96187 -3.3516e+001 -4.9845e+001  1.6128e+000 38240 95953,96005,95979
 4.0000e+000 96374 -2.8117e+001 -6.6283e+001 -6.7972e+000 38240 96135,96109,96348
 4.0000e+000 96397 -2.5255e+001 -4.7338e+001  2.1599e+000 38240 96135,96348,96031
 4.0000e+000 96618 -6.4180e+000  9.4096e+000 -2.0127e+000 37821 96494,96546,96520
 4.0000e+000 96595 -1.9677e+001  3.0445e+000 -4.6530e+000 37821 96468,96546,96494
 4.0000e+000 96572 -2.6359e+001  1.8360e-001 -4.1497e+000 37821 96442,96546,96468
 4.0000e+000 97126 -1.6929e+001 -3.3937e+001 -6.6654e+000 37367 97149,96855,96829
 4.0000e+000 97103 -1.8893e+001 -3.5039e+001 -5.5183e+000 37367 97149,96829,96985
 4.0000e+000 97080 -1.1680e+001 -3.5179e+001 -5.7523e+000 37367 96803,96985,96829
 4.0000e+000 97057 -2.1590e+001 -3.3942e+001 -8.3497e+000 37367 96855,96907,96881
 4.0000e+000 97034 -2.7445e+001 -3.0035e+001 -1.4529e+000 37367 96907,96985,96959
 4.0000e+000 97011 -2.8363e+001 -3.4931e+001 -9.1935e-001 37367 96907,96959,96933
 4.0000e+000 97175 -1.8830e+001 -3.2225e+001 -7.7039e+000 37367 96907,96855,97149
 4.0000e+000 97198 -2.0263e+001 -3.3344e+001 -6.6743e+000 37367 96907,97149,96985
 4.0000e+000 97704 -5.7585e+000 -1.4436e+001 -1.3486e+000 36863 97727,97511,97485
 4.0000e+000 97681 -4.7037e+000 -9.3765e+000  5.2914e-001 36863 97727,97485,97433
 4.0000e+000 97658 -1.1118e+001 -2.4237e+001 -4.1419e+000 36863 97381,97563,97433
 4.0000e+000 97635  3.0007e+000 -1.8816e+001 -1.0738e+000 36863 97511,97563,97537
 4.0000e+000 97612 -5.0753e+000 -6.8051e+000 -1.3036e+000 36863 97433,97485,97459
 4.0000e+000 97589 -1.0663e+001 -2.0687e+001 -3.6936e+000 36863 97381,97433,97407
 4.0000e+000 97753 -5.9905e+000 -1.8475e+001 -3.7514e+000 36863 97563,97511,97727
 4.0000e+000 97776 -5.6202e+000 -1.3842e+001 -2.1210e+000 36863 97563,97727,97433
 4.0000e+000 98331 -3.1476e+001 -5.4649e+001  5.8128e-001 36287 98354,98089,98063
 4.0000e+000 98308 -3.0998e+001 -5.2180e+001 -1.6796e-001 36287 98354,98063,98011
 4.0000e+000 98285 -3.1025e+001 -4.4442e+001  1.8913e+000 36287 98426,97985,98115
 4.0000e+000 98262 -2.9475e+001 -5.0504e+001 -9.1820e-001 36287 98011,98063,98037
 4.0000e+000 98239 -3.0146e+001 -4.0759e+001 -6.8366e-001 36287 97985,98141,98115
 4.0000e+000 98216 -2.3970e+001 -3.6802e+001  1.1591e+000 36287 97959,98141,97985
 4.0000e+000 98193 -1.4084e+001 -4.3548e+001  2.0218e+000 36287 97959,98167,98141
 4.0000e+000 98380 -3.9091e+001 -5.2053e+001 -2.4534e+000 36287 98115,98089,98354
 4.0000e+000 98403 -3.2523e+001 -4.5623e+001  1.5996e-001 36287 98426,98115,98354
 4.0000e+000 98452 -2.9092e+001 -4.8396e+001 -8.5430e-001 36287 98011,97985,98426
 4.0000e+000 98475 -3.0592e+001 -4.9994e+001 -2.5250e+000 36287 98011,98426,98354
 4.0000e+000 99030  1.2848e+000 -2.4615e+000  1.9989e+000 35726 99053,98736,98710
 4.0000e+000 99007  5.2194e+000 -2.2695e+000  1.8352e+000 35726 99053,98710,98684
 4.0000e+000 98984 -4.5736e+000 -1.2073e+000 -9.7401e-001 35726 99125,98814,98736
 4.0000e+000 98961 -2.5804e-001  3.9906e-001 -2.1079e-001 35726 98736,98814,98788
 4.0000e+000 98938 -6.8008e+000 -4.8295e+000  4.6249e+000 35726 98684,98866,98840
 4.0000e+000 98915 -4.0622e+000 -2.3512e-001 -3.6057e+000 35726 98736,98788,98762
 4.0000e+000 98892 -1.4905e+001 -5.9407e+000  5.0005e+000 35726 98658,98866,98684
 4.0000e+000 99079  1.7356e+000 -8.4048e-001  2.6074e+000 35726 99125,98736,99053
 4.0000e+000 99102  5.4757e-001 -9.3731e-001  2.6013e+000 35726 98840,99053,98684
 4.0000e+000 99151 -1.0150e+001 -4.0052e+000 -3.2874e+000 35726 98840,98814,99125
 4.0000e+000 99174 -6.5011e+000 -3.6287e+000  1.0510e+000 35726 98840,99125,99053
 4.0000e+000 99454 -1.0885e+001 -1.3010e+001  1.0456e+000 35222 99278,99330,99304
 4.0000e+000 99431 -9.7593e+000 -1.3057e+001 -3.3068e-001 35222 99278,99382,99330
 4.0000e+000 99408  2.7726e+000 -1.8171e+001  2.4459e+000 35222 99330,99382,99356
 4.0000e+000 99653 -1.2724e+001  4.2034e-001 -1.6974e+000 34867 99477,99529,99503
 4.0000e+000 99630 -8.1278e+000 -1.7048e+000 -1.8931e+000 34867 99477,99581,99529
 4.0000e+000 99607 -9.1419e+000 -8.6504e-001 -9.3350e-001 34867 99529,99581,99555
 4.0000e+000 100104 -1.7924e+001 -4.8998e+001  2.1720e+000 34363 99781,99885,99807
 4.0000e+000 100081 -2.9242e+001 -5.3967e+001  2.8685e+000 34363 99781,99963,99885
 4.0000e+000 100058 -1.9980e+001 -5.4522e+001  1.9595e+000 34363 99885,99963,99911
 4.0000e+000 100035 -2.1681e+001 -4.4284e+001  2.3711e+000 34363 99807,99885,99859
 4.0000e+000 100012 -1.6351e+001 -5.1889e+001 -3.9557e+000 34363 99911,99963,99937
 4.0000e+000 99989 -7.3570e+000 -3.8962e+001  1.1007e-001 34363 99807,99859,99833
 4.0000e+000 100303 -1.2855e+001 -2.2898e+001 -1.1456e+001 33909 100127,100205,100179
 4.0000e+000 100280 -1.2431e+001 -2.0768e+001 -1.2978e+001 33909 100127,100231,100205
 4.0000e+000 100257 -2.2418e+000 -2.6694e+000 -1.8950e+001 33909 100127,100179,100153
 4.0000e+000 100890  4.1469e+000 -1.0205e+001 -6.2929e+000 33412 100645,100749,100697
 4.0000e+000 100867  4.9333e+000 -1.0942e+001 -5.5073e+000 33412 100567,100749,100645
 4.0000e+000 100844 -1.6657e+000 -1.7995e+001 -1.2695e+000 33412 100567,100645,100619
 4.0000e+000 100821 -6.4990e+000 -1.8402e+001 -9.9624e+000 33412 100645,100697,100671
 4.0000e+000 100798  8.1823e-001 -1.5242e+001  5.8767e-001 33412 100567,100619,100593
 4.0000e+000 100775 -4.3803e+000 -2.5261e-001 -4.7004e+000 33412 100697,100749,100723
 4.0000e+000 101268  8.3178e+000 -1.5735e+001 -2.3659e+000 32908 101435,101291,101098
 4.0000e+000 101245  6.2825e+000 -2.0872e+001 -5.5014e-001 32908 101291,101072,101020
 4.0000e+000 101222  3.8933e+000 -2.5645e+001 -1.5768e+001 32908 101363,101150,101124
 4.0000e+000 101199  6.7010e+000 -2.2187e+001 -4.2133e+000 32908 101020,101072,101046
 4.0000e+000 101176  2.6524e+000  8.0703e+000 -2.6359e+000 32908 100994,101150,101020
 4.0000e+000 101317 -6.5393e+000 -2.6760e+001  2.4599e+000 32908 101124,101098,101291
 4.0000e+000 101340  5.0886e+000 -3.4466e+001 -3.5081e+000 32908 101363,101124,101291
 4.0000e+000 101389  9.1622e+000 -1.2071e+001 -1.5165e+001 32908 101020,101150,101363
 4.0000e+000 101412  1.3956e+001 -1.3665e+001 -3.5135e+000 32908 101020,101363,101291
 4.0000e+000 101461  9.7526e+000 -1.0703e+001  2.8460e+000 32908 101072,101291,101435
 4.0000e+000 101918 -2.3674e+001 -5.2563e+001  7.0866e-001 32618 101941,101670,101644
 4.0000e+000 101895 -2.5944e+001 -4.4225e+001 -2.0585e+000 32618 101941,101644,101774
 4.0000e+000 101872 -2.1745e+001 -4.2065e+001 -1.2012e+000 32618 102013,101696,101670
 4.0000e+000 101849 -1.7338e+001 -3.6115e+001 -3.6307e+000 32618 101696,101748,101722
 4.0000e+000 101826 -2.3914e+001 -5.6015e+001 -6.4865e+000 32618 101644,101800,101774
 4.0000e+000 101967 -2.2633e+001 -4.5397e+001 -1.6981e+000 32618 102013,101670,101941
 4.0000e+000 101990 -2.1764e+001 -3.9862e+001 -4.5235e+000 32618 101748,101941,101774
 4.0000e+000 102039 -2.2655e+001 -3.9924e+001  3.2980e-001 32618 101748,101696,102013
 4.0000e+000 102062 -2.2341e+001 -4.2509e+001  5.3749e-001 32618 101748,102013,101941
 4.0000e+000 102440  3.5614e+000 -8.5109e-001  2.7125e+000 32306 102463,102270,102244
 4.0000e+000 102417  4.1673e+000 -7.5117e-001  5.7704e+000 32306 102463,102244,102192
 4.0000e+000 102394  6.4822e+000  3.8102e-001  4.7454e+000 32306 102192,102244,102218
 4.0000e+000 102371 -3.1800e+000 -5.9367e+000  3.8084e+000 32306 102270,102322,102296
 4.0000e+000 102348  1.2459e+001 -1.7283e+000  5.0178e+000 32306 102166,102322,102192
 4.0000e+000 102489  6.3721e-001 -1.7249e+000  2.2435e+000 32306 102322,102270,102463
 4.0000e+000 102512  9.6352e-001 -1.6100e+000  5.5004e+000 32306 102322,102463,102192
 4.0000e+000 102662 -1.6875e+001 -4.3537e+001  4.0068e-001 31852 102943,102587,102561
 4.0000e+000 102639 -6.3858e+000 -4.5617e+001  4.0072e+000 31852 102815,102685,102561
 4.0000e+000 102711 -1.8766e+001 -5.1497e+001 -3.2620e+000 31852 102943,102561,102685
 4.0000e+000 102841 -2.3481e+001 -5.2648e+001  1.3834e+000 31852 102535,102685,102815
 4.0000e+000 102969 -1.9199e+001 -5.1551e+001 -2.8860e+000 31852 102613,102587,102943
 4.0000e+000 102992 -2.0590e+001 -5.8164e+001 -6.6796e+000 31852 102613,102943,102685
 4.0000e+000 103370 -1.7574e+001 -4.3390e+001  9.1521e-001 31134 103096,103200,103122
 4.0000e+000 103347 -1.8792e+001 -4.6485e+001  1.7021e+000 31134 103096,103226,103200
 4.0000e+000 103324 -1.6816e+001 -3.6145e+001 -4.3294e+000 31134 103122,103200,103174
 4.0000e+000 103301 -1.0552e+001 -4.4175e+001 -9.3376e-001 31134 103096,103252,103226
 4.0000e+000 103278 -1.3849e+001 -2.4946e+001 -3.9196e+000 31134 103122,103174,103148
 4.0000e+000 103520 -1.9253e+001 -5.3110e+001 -2.9200e-001 30822 103393,103445,103419
 4.0000e+000 103497 -2.4424e+001 -5.3936e+001  3.2839e+000 30822 103393,103471,103445
 4.0000e+000 103719 -5.3336e+000  1.0258e+000 -3.9964e-001 30182 103742,103621,103569
 4.0000e+000 103696 -6.6894e+000  1.3987e+000 -6.3228e-001 30182 103742,103569,103543
 4.0000e+000 103673 -3.3533e+000  2.3939e+000  1.7796e+000 30182 103569,103621,103595
 4.0000e+000 103768 -4.7617e+000  9.3816e-001 -3.5076e-001 30182 103647,103621,103742
 4.0000e+000 103791 -5.3864e+000  1.8057e+000 -8.4109e-001 30182 103647,103742,103543
 4.0000e+000 104252  3.7333e+000  6.5976e+000 -2.5259e+000 29728 104030,104108,104056
 4.0000e+000 104229  4.5708e+000  3.4042e+000  3.9677e-001 29728 104004,104108,104030
 4.0000e+000 104206  5.3404e+000  5.0557e+000  1.0378e+000 29728 104004,104134,104108
 4.0000e+000 104183  6.8452e+000  9.5145e+000  4.8667e-001 29728 103978,104134,104004
 4.0000e+000 104160  8.8141e-002  1.0784e+001 -1.0213e+000 29728 104056,104108,104082
 4.0000e+000 104630 -1.7582e+001 -3.0077e+001 -7.9851e+000 29217 104653,104382,104356
 4.0000e+000 104607 -2.1231e+001 -3.8175e+001 -9.4601e+000 29217 104653,104356,104512
 4.0000e+000 104584 -2.0581e+001 -3.5134e+001 -6.2526e+000 29217 104434,104512,104486
 4.0000e+000 104561 -2.2489e+001 -3.0234e+001 -3.8721e+000 29217 104382,104434,104408
 4.0000e+000 104538 -2.0949e+001 -3.1981e+001 -4.1448e+000 29217 104434,104486,104460
 4.0000e+000 104679 -1.8191e+001 -3.0198e+001 -4.4242e+000 29217 104434,104382,104653
 4.0000e+000 104702 -1.9388e+001 -3.3694e+001 -5.7243e+000 29217 104434,104653,104512
 4.0000e+000 105178  2.5964e+001 -6.7634e+000  1.1889e+000 28649 105201,104962,104936
 4.0000e+000 105155  1.3879e+001 -1.3557e+001  7.4954e+000 28649 105201,104936,104884
 4.0000e+000 105132  9.8732e+000  3.2081e+000  1.1929e+000 28649 105273,104858,105014
 4.0000e+000 105109 -1.7086e+000 -7.7893e+000 -2.8356e+000 28649 104962,105014,104988
 4.0000e+000 105086  4.1408e+001  1.0296e+001 -1.4692e+001 28649 104884,104936,104910
 4.0000e+000 105063  1.6973e+001  2.1992e+000 -1.6193e-001 28649 104806,105014,104858
 4.0000e+000 105040  8.0108e+000  3.5472e+000 -4.1889e+000 28649 104806,104858,104832
 4.0000e+000 105227  1.0925e+001 -1.2757e+001  3.4417e-001 28649 105014,104962,105201
 4.0000e+000 105250  1.3875e+001 -1.1981e+000  4.3191e+000 28649 105273,105014,105201
 4.0000e+000 105299  7.3373e+000 -8.4513e-001  4.7208e+000 28649 104884,104858,105273
 4.0000e+000 105322  7.7130e+000 -7.8482e+000  8.5723e+000 28649 104884,105273,105201
 4.0000e+000 105673 -1.7738e+001 -3.7267e+001 -2.5737e-001 28351 105474,105578,105552
 4.0000e+000 105650 -1.5051e+001 -3.5861e+001  1.8851e+000 28351 105448,105578,105474
 4.0000e+000 105627 -1.6091e+001 -3.6168e+001 -7.3431e-001 28351 105500,105552,105526
 4.0000e+000 105604 -1.5767e+001 -3.6402e+001 -3.9363e-001 28351 105474,105552,105500
 4.0000e+000 106130 -1.0155e+001 -2.1337e+001 -5.7878e+000 28004 106153,105882,105856
 4.0000e+000 106107 -7.5994e+000 -2.3446e+001 -3.3775e+000 28004 106153,105856,105986
 4.0000e+000 106084 -1.7241e+001 -2.5052e+001 -2.5759e+000 28004 105934,105986,105960
 4.0000e+000 106061 -2.3533e+001 -2.7002e+001  3.1528e+000 28004 105856,106012,105986
 4.0000e+000 106038 -1.8139e+001 -2.6620e+001 -2.7734e+000 28004 105882,105934,105908
 4.0000e+000 106179 -1.6277e+001 -2.3255e+001 -5.5934e+000 28004 105934,105882,106153
 4.0000e+000 106202 -1.0754e+001 -2.3964e+001 -4.1160e+000 28004 105934,106153,105986
 4.0000e+000 106885 -7.9901e+000 -1.1341e+001 -2.2503e+000 27564 106908,106620,106516
 4.0000e+000 106862 -2.7203e+000 -1.2641e+001 -3.2085e+000 27564 106908,106516,106490
 4.0000e+000 106839 -5.5516e+000 -1.1267e+001 -1.0435e-001 27564 106516,106620,106542
 4.0000e+000 106816 -1.0070e+001 -1.3674e+001 -1.0396e+000 27564 106620,106672,106646
 4.0000e+000 106793 -6.6334e+000 -1.0489e+001  5.9890e-001 27564 106542,106620,106594
 4.0000e+000 106770 -9.0303e+000 -1.6239e+001  8.8498e-002 27564 106490,106698,106672
 4.0000e+000 106747 -5.8270e+000 -1.5958e+001  2.5815e+000 27564 106464,106698,106490
 4.0000e+000 106724 -1.3764e+000 -8.5519e+000 -1.6867e+000 27564 106542,106594,106568
 4.0000e+000 106934 -9.1889e+000 -1.2648e+001 -1.7131e+000 27564 106672,106620,106908
 4.0000e+000 106957 -6.9594e+000 -1.6306e+001 -1.5740e+000 27564 106672,106908,106490
 4.0000e+000 107463  3.5274e+000 -2.3090e-002 -1.4941e+000 27053 107218,107322,107296
 4.0000e+000 107440  3.4834e+000 -7.7917e-001 -5.2573e+000 27053 107166,107322,107218
 4.0000e+000 107417  1.1788e+001 -7.4652e+000  1.2866e+000 27053 107218,107296,107244
 4.0000e+000 107394  5.4047e+000  5.1488e+000 -3.1184e+000 27053 107140,107322,107166
 4.0000e+000 107371  1.0543e+001 -5.7776e+000 -4.0692e+000 27053 107166,107218,107192
 4.0000e+000 107348  2.2616e+001 -6.9234e+000 -1.0967e+001 27053 107244,107296,107270
 4.0000e+000 108097 -1.9482e+001 -3.2531e+001  1.8843e+000 26549 108192,108120,107803
 4.0000e+000 108074 -2.4469e+001 -4.8006e+001  3.0078e+000 26549 108120,107725,107933
 4.0000e+000 108051 -1.7106e+001 -1.7888e+001 -3.5379e+000 26549 107751,107803,107777
 4.0000e+000 108028 -1.8696e+001 -2.8232e+001  2.1452e+000 26549 108192,107803,107751
 4.0000e+000 108005 -2.2234e+001 -2.8745e+001 -2.9014e-001 26549 108264,107855,107803
 4.0000e+000 107982 -2.1340e+001 -4.3935e+001 -6.8546e-001 26549 107881,107933,107907
 4.0000e+000 107959 -2.0208e+001 -3.1306e+001  4.2993e+000 26549 107803,107855,107829
 4.0000e+000 108146 -2.0926e+001 -3.2279e+001 -1.4415e+000 26549 108264,107803,108120
 4.0000e+000 108169 -2.0991e+001 -3.7623e+001 -1.8448e+000 26549 107881,108120,107933
 4.0000e+000 108218 -1.8006e+001 -3.6664e+001 -1.4108e+000 26549 107725,108120,108192
 4.0000e+000 108241 -1.7777e+001 -3.3551e+001 -8.5013e-001 26549 107725,108192,107751
 4.0000e+000 108290 -2.1607e+001 -3.2475e+001 -3.7073e-001 26549 107881,107855,108264
 4.0000e+000 108313 -2.1306e+001 -3.7469e+001 -7.8974e-001 26549 107881,108264,108120
 4.0000e+000 108512 -8.7259e+000  8.2330e+000  2.2341e+000 26137 108388,108440,108414
 4.0000e+000 108489 -8.8281e+000  4.4521e+000 -1.7438e+000 26137 108362,108440,108388
 4.0000e+000 108466 -7.4810e-001 -1.1546e+000 -2.8236e+000 26137 108336,108440,108362
 4.0000e+000 108662 -4.4538e+000 -1.4626e+001 -7.6440e+000 25733 108817,108685,108535
 4.0000e+000 108639  1.0260e+001 -1.6810e+001 -5.2789e+000 25733 109017,108817,108535
 4.0000e+000 108711  9.3067e-001  4.2240e+000 -6.9456e+000 25733 108561,108535,108685
 4.0000e+000 108843  2.0736e+000 -4.2470e+000 -4.8553e+000 25733 108587,108685,108817
 4.0000e+000 108866 -8.0939e+000 -1.0474e+001  1.3353e+000 25733 108889,108817,108613
 4.0000e+000 108915 -4.5820e+000 -7.5553e+000 -1.7601e+000 25733 108587,108817,108889
 4.0000e+000 109043  3.1158e+000 -7.8773e+000  4.9731e+000 25733 108613,108817,109017
 4.0000e+000 109500 -9.1701e+000 -2.5351e+001  5.6093e+000 25229 109523,109356,109330
 4.0000e+000 109477  3.6517e+000 -4.6171e+000 -1.0784e-001 25229 109595,109523,109330
 4.0000e+000 109454  2.0666e+000 -6.8934e+000  1.5131e+000 25229 109595,109330,109278
 4.0000e+000 109431 -7.3996e-001  2.0027e+000 -9.2196e+000 25229 109667,109226,109382
 4.0000e+000 109408  4.7183e-001  2.1666e-001  6.7010e+000 25229 109278,109330,109304
 4.0000e+000 109549 -3.1543e+000 -1.6171e+001 -1.0767e+001 25229 109382,109356,109523
 4.0000e+000 109572  1.8233e+000 -1.7259e+000 -1.0102e+001 25229 109667,109382,109523
 4.0000e+000 109621  2.0140e+000 -1.3241e+001 -1.6944e+000 25229 109252,109523,109595
 4.0000e+000 109644  5.2934e+000 -2.0896e+000  2.8937e+000 25229 109739,109595,109278
 4.0000e+000 109693 -5.3321e-001 -5.9707e+000 -6.7755e+000 25229 109252,109226,109667
 4.0000e+000 109716  7.5775e-001 -1.0570e+001 -1.0037e+001 25229 109252,109667,109523
 4.0000e+000 109765  5.1167e+000 -5.4435e+000 -3.0364e+000 25229 109252,109595,109739
 4.0000e+000 110478  3.7437e+000  1.3240e+001 -4.0515e+000 24917 110158,110236,110184
 4.0000e+000 110455  4.2101e+000  8.5817e+000 -1.9465e+001 24917 110158,110288,110236
 4.0000e+000 110432  2.3421e+001 -9.1152e+000 -1.7663e+001 24917 110236,110288,110262
 4.0000e+000 110409  5.9555e+000  4.7777e+000 -3.8844e+000 24917 110184,110236,110210
 4.0000e+000 110386  9.2122e+000 -2.7598e+001 -6.5599e+000 24917 110132,110288,110158
 4.0000e+000 110363  1.5695e+001 -2.7570e+001 -9.2137e+000 24917 110132,110314,110288
 4.0000e+000 110340 -1.2145e+001 -4.3563e+001  1.3933e+000 24917 110106,110314,110132
 4.0000e+000 110829  1.1384e+001 -9.8522e-001  3.4006e+000 24307 110604,110682,110630
 4.0000e+000 110806 -6.1652e+000 -6.4234e+001  6.6059e+000 24307 110604,110708,110682
 4.0000e+000 110783  1.1419e+000 -5.9909e+001 -3.1762e+000 24307 110604,110734,110708
 4.0000e+000 110760  4.2036e-001 -5.6855e+000  3.8056e+000 24307 110630,110682,110656
 4.0000e+000 111335  7.4286e+000  1.3798e+001 -1.7786e+001 23767 111012,111168,111038
 4.0000e+000 111312  3.2500e+001  1.6486e+001 -3.5387e+001 23767 111012,111194,111168
 4.0000e+000 111289  2.0780e+001  2.8596e+001 -2.1016e+001 23767 111358,111064,111038
 4.0000e+000 111266  1.3318e+001  1.5348e+001 -1.7917e+001 23767 111358,111038,111168
 4.0000e+000 111243  1.0500e+001  1.8915e+001 -1.2079e+001 23767 111430,111142,111090
 4.0000e+000 111220 -6.9062e+000  1.0911e+001  1.3511e+000 23767 111090,111142,111116
 4.0000e+000 111384  1.7851e+001  2.5123e+001 -1.0982e+001 23767 111090,111064,111358
 4.0000e+000 111407  1.5004e+001  1.8974e+001 -1.1744e+001 23767 111430,111090,111358
 4.0000e+000 111456  6.2534e+000  1.9867e+001 -1.0843e+001 23767 111168,111142,111430
 4.0000e+000 111479  8.8572e+000  1.8490e+001 -1.0768e+001 23767 111168,111430,111358
 4.0000e+000 111985 -1.7667e+001 -2.4571e+001 -2.2808e+000 23477 111688,111844,111818
 4.0000e+000 111962 -1.5895e+001 -2.0019e+001 -1.4508e+000 23477 111662,111844,111688
 4.0000e+000 111939 -2.0529e+001 -2.5611e+001 -2.0852e+000 23477 111766,111818,111792
 4.0000e+000 111916 -1.4946e+001 -2.2654e+001 -2.4795e+000 23477 111740,111818,111766
 4.0000e+000 111893 -1.2038e+001 -1.5003e+001  7.6033e-001 23477 111688,111818,111740
 4.0000e+000 111870 -1.1601e+001 -1.5894e+001  1.2672e+000 23477 111688,111740,111714
 4.0000e+000 112314 -4.8949e+000  3.2879e+000  1.9667e+000 23023 112141,112219,112193
 4.0000e+000 112291  3.5617e-001 -1.2226e+000 -1.4279e+000 23023 112115,112219,112141
 4.0000e+000 112268 -2.4191e+000 -5.9221e+000  6.8419e+000 23023 112141,112193,112167
 4.0000e+000 112245  1.5126e+001  1.0170e+001  5.2443e+000 23023 112089,112219,112115
 4.0000e+000 112692  5.3168e+000 -4.5600e+000 -4.8230e+000 22768 112444,112574,112548
 4.0000e+000 112669  7.5033e+000  8.7930e+000 -3.3877e+000 22768 112418,112574,112444
 4.0000e+000 112646  7.9076e+000  4.8436e+000 -3.9909e-001 22768 112444,112522,112470
 4.0000e+000 112623  4.2387e-001 -3.9791e+000  2.7941e+000 22768 112444,112548,112522
 4.0000e+000 112600  1.3606e+001  7.2601e+000 -2.1194e+000 22768 112470,112522,112496
 4.0000e+000 113011 -1.5570e+001 -2.7921e+001 -1.1875e+000 22314 112763,112867,112789
 4.0000e+000 112988 -1.6386e+001 -2.7657e+001 -1.1522e+000 22314 112763,112893,112867
 4.0000e+000 112965 -1.7414e+001 -2.8302e+001  0.0000e+000 22314 112815,112867,112841
 4.0000e+000 112942 -1.9286e+001 -2.9412e+001 -1.3433e+000 22314 112789,112867,112815
 4.0000e+000 112919 -1.4854e+001 -2.5592e+001  1.1808e+000 22314 112737,112893,112763
 4.0000e+000 113519 -1.5989e+001 -2.4067e+001  2.2813e+000 21924 113614,113542,113248
 4.0000e+000 113496 -1.3747e+001 -2.4472e+001 -5.1204e-001 21924 113542,113196,113378
 4.0000e+000 113473 -9.9516e+000 -2.1822e+001  1.2343e+000 21924 113614,113248,113222
 4.0000e+000 113450 -1.8235e+001 -2.9394e+001  3.3185e-001 21924 113686,113274,113248
 4.0000e+000 113427 -2.1299e+001 -3.3810e+001 -1.1006e+000 21924 113274,113352,113326
 4.0000e+000 113404 -2.0595e+001 -2.9550e+001 -1.2808e+000 21924 113274,113326,113300
 4.0000e+000 113568 -1.6398e+001 -2.7439e+001  1.5557e+000 21924 113686,113248,113542
 4.0000e+000 113591 -1.7688e+001 -3.5691e+001 -2.4717e+000 21924 113352,113542,113378
 4.0000e+000 113640 -1.0031e+001 -2.4931e+001  4.6843e+000 21924 113196,113542,113614
 4.0000e+000 113663 -8.1192e+000 -2.5349e+001  4.6120e+000 21924 113196,113614,113222
 4.0000e+000 113712 -2.0146e+001 -2.7190e+001 -4.5135e-001 21924 113352,113274,113686
 4.0000e+000 113735 -1.9294e+001 -2.6362e+001  5.1508e-001 21924 113352,113686,113542
 4.0000e+000 113885 -8.8972e+000 -1.4699e+001 -1.9119e+000 21520 113980,113908,113784
 4.0000e+000 113862 -1.2502e+001 -1.9127e+001 -3.9921e+000 21520 114238,113908,113758
 4.0000e+000 113934 -1.1114e+001 -1.2478e+001  4.8900e+000 21520 114110,113908,113810
 4.0000e+000 113957 -1.2381e+001 -2.1097e+001  2.1163e+000 21520 113810,113908,113836
 4.0000e+000 114006 -9.8776e+000 -1.3571e+001 -2.3146e+000 21520 113758,113908,113980
 4.0000e+000 114136 -1.0516e+001 -9.6790e+000  5.1632e+000 21520 113784,113908,114110
 4.0000e+000 114264 -2.2825e+001 -2.5639e+001 -7.1161e+000 21520 113836,113908,114238
 4.0000e+000 114662 -3.3788e+000 -1.1670e+001  1.1485e+000 21030 114414,114518,114492
 4.0000e+000 114639  6.7798e+000 -9.5448e+000 -2.7353e+000 21030 114414,114544,114518
 4.0000e+000 114616  2.6339e+000 -8.8002e+000  9.4519e-001 21030 114440,114492,114466
 4.0000e+000 114593 -2.7477e+000 -1.0154e+001  1.2328e+000 21030 114414,114492,114440
 4.0000e+000 114570  3.8459e+000 -1.0471e+001  1.1108e+000 21030 114388,114544,114414
 4.0000e+000 114959 -1.7593e+001 -2.6779e+001 -7.9046e-001 20512 114982,114711,114685
 4.0000e+000 114936 -1.7677e+001 -2.7865e+001 -1.8416e+000 20512 115054,114982,114685
 4.0000e+000 114913 -1.8055e+001 -2.8627e+001 -1.6679e+000 20512 115054,114685,114841
 4.0000e+000 114890 -5.1015e+000 -2.5193e+001  2.4595e+000 20512 114711,114763,114737
 4.0000e+000 114867 -1.6116e+001 -2.6254e+001  4.6267e-001 20512 114763,114815,114789
 4.0000e+000 115008 -1.6504e+001 -2.5765e+001  2.9517e-001 20512 114763,114711,114982
 4.0000e+000 115031 -1.6832e+001 -2.8682e+001 -9.4093e-001 20512 114763,114982,114815
 4.0000e+000 115080 -1.7746e+001 -2.7622e+001 -1.8839e+000 20512 114815,114982,115054
 4.0000e+000 115103 -1.7703e+001 -2.7838e+001 -1.8826e+000 20512 114815,115054,114841
 4.0000e+000 115507 -8.0886e+000 -2.3537e+001  1.7264e+000 20143 115285,115389,115363
 4.0000e+000 115484 -8.4679e+000 -3.1615e+001  7.7333e-001 20143 115259,115389,115285
 4.0000e+000 115461 -6.6704e+000 -1.9016e+001 -1.0447e+000 20143 115233,115389,115259
 4.0000e+000 115438 -1.7748e+001 -3.3377e+001  1.7893e+000 20143 115285,115337,115311
 4.0000e+000 115415 -1.4348e+001 -3.6729e+001 -1.9468e-001 20143 115285,115363,115337
 4.0000e+000 115875  1.7793e+001  4.7059e+001 -2.1535e-001 19632 115656,115734,115682
 4.0000e+000 115852  6.5196e+000  3.7853e+001 -5.6646e+000 19632 115552,115734,115656
 4.0000e+000 115829  8.5279e+000  4.0966e+001  2.8094e+000 19632 115552,115656,115578
 4.0000e+000 115806  2.0259e+001  5.0634e+001 -2.1690e+000 19632 115578,115656,115630
 4.0000e+000 115783  3.2921e+001  4.6392e+001 -1.4826e+001 19632 115682,115734,115708
 4.0000e+000 115760  4.6129e+001  6.0444e+001  2.4538e+001 19632 115578,115630,115604
 4.0000e+000 116025  2.1539e+001 -1.8081e-001 -1.4517e+001 19178 115898,115950,115924
 4.0000e+000 116002  5.1844e+000 -9.1315e+000  5.5144e-001 19178 115898,115976,115950
 4.0000e+000 116633  1.0856e+001  5.4993e+001  1.5165e+001 18738 116800,116656,116342
 4.0000e+000 116610  2.9759e+001  5.3443e+001 -3.6608e-001 18738 116656,116238,116446
 4.0000e+000 116587  8.5912e-001  3.4245e+001  2.4664e+001 18738 116728,116368,116342
 4.0000e+000 116564  1.7735e+001  4.7909e+001  2.0201e+001 18738 116800,116342,116264
 4.0000e+000 116541  6.6163e+001  2.2716e+002 -2.1197e+001 18738 116212,116446,116238
 4.0000e+000 116518  2.4230e+001  5.5225e+001 -3.6336e+001 18738 116394,116446,116420
 4.0000e+000 116495 -6.7770e+001  5.2292e+000  4.5218e+000 18738 116264,116342,116316
 4.0000e+000 116472  9.6888e+001  5.6184e+001  7.5746e+000 18738 116264,116316,116290
 4.0000e+000 116682  3.6304e+000  4.2639e+001  1.8162e+001 18738 116728,116342,116656
 4.0000e+000 116705  1.6360e+001  3.1715e+001  5.1415e+000 18738 116394,116656,116446
 4.0000e+000 116754  8.7468e+000  3.9589e+001  1.0759e+001 18738 116394,116368,116728
 4.0000e+000 116777  1.3618e+001  5.0587e+001  4.0240e+000 18738 116394,116728,116656
 4.0000e+000 116826  1.7305e+001  6.4233e+001  1.8286e+001 18738 116238,116656,116800
 4.0000e+000 116849  2.5504e+001  5.8012e+001  2.3675e+001 18738 116238,116800,116264
 4.0000e+000 116999 -1.7620e+001 -2.7223e+001  4.2116e-001 18184 116872,116924,116898
 4.0000e+000 116976 -1.4178e+001 -2.5322e+001 -6.8503e-001 18184 116872,116950,116924
 4.0000e+000 117330 -1.5916e+001 -3.0422e+001  1.0907e+000 17694 117157,117235,117183
 4.0000e+000 117307 -1.0315e+001 -3.4571e+001 -8.3955e-001 17694 117131,117235,117157
 4.0000e+000 117284 -1.0530e+001 -3.2443e+001  3.0433e-001 17694 117105,117235,117131
 4.0000e+000 117261 -1.3599e+001 -2.5427e+001  2.2186e-001 17694 117183,117235,117209
 4.0000e+000 117480  1.4764e+001  1.3043e+001  6.2441e+000 17290 117353,117405,117379
 4.0000e+000 117457  6.5648e+000  2.2717e+001  5.1389e+000 17290 117353,117431,117405
 4.0000e+000 117679  2.0732e+001  4.5285e+000  3.8682e-001 16718 117555,117607,117581
 4.0000e+000 117656  1.1293e-001  1.8428e+000  3.3695e-001 16718 117529,117607,117555
 4.0000e+000 117633 -4.2259e-001  3.8648e+000  1.4876e+000 16718 117503,117607,117529
 4.0000e+000 117782 -1.8825e+001  2.7511e+001 -8.7202e+000 16520 117704,117756,117730
 4.0000e+000 117983 -7.7866e+000 -3.7402e+001 -1.3240e+000 16208 117859,117911,117885
 4.0000e+000 117960  1.8418e+001 -2.1510e+001 -8.0200e+000 16208 117833,117911,117859
 4.0000e+000 117937  1.6143e+000 -7.4943e+000 -1.1284e+000 16208 117807,117911,117833
 4.0000e+000 118135 -6.6574e-001  1.7157e+001  3.9139e+000 15674 118034,118086,118060
 4.0000e+000 118112  2.8270e-001  1.9448e+001  4.3376e-001 15674 118008,118086,118034
 4.0000e+000 118238 -1.5630e+001 -2.3435e+001  6.3776e+000 15355 118160,118212,118186
 4.0000e+000 118341  2.8070e+001 -1.7768e+001 -8.2642e+000 421 118263,118315,118289
