time zIndex S11 S22 S12 block gridPoints
f i f f f i l
 1.0000e-001 68213 -2.3997e+001  1.1738e+001  2.7545e+000 67888 68112,68164,68138
 1.0000e-001 68190  6.4935e+000  2.2676e+001  2.4279e+000 67888 68086,68164,68112
 1.0000e-001 68314 -3.1062e+001  1.5849e+001 -4.8735e+000 67576 68236,68288,68262
 1.0000e-001 68584 -2.0208e+001  1.4844e+000 -4.5214e-001 67378 68385,68489,68463
 1.0000e-001 68561 -1.5746e+001  3.8357e+000 -1.6209e+000 67378 68359,68489,68385
 1.0000e-001 68538 -2.1043e+001  3.5631e-001 -8.1678e-001 67378 68385,68463,68411
 1.0000e-001 68515 -2.5098e+001  3.4592e-001  1.1314e+000 67378 68411,68463,68437
 1.0000e-001 68964 -1.5132e+001 -5.0574e+000 -1.3519e+000 67130 68690,68820,68716
 1.0000e-001 68941 -1.6469e+001 -1.2884e+000 -1.3432e+000 67130 68690,68846,68820
 1.0000e-001 68918 -2.3907e+001 -9.6215e+000  3.4495e+000 67130 68742,68820,68794
 1.0000e-001 68895 -2.3314e+001 -7.7142e+000  1.9509e+000 67130 68716,68820,68742
 1.0000e-001 68872 -2.2696e+001 -5.2456e+000  5.0890e+000 67130 68742,68794,68768
 1.0000e-001 69065 -1.6329e+001  1.0502e+001 -5.5853e-001 66926 68987,69039,69013
 1.0000e-001 69445 -1.7913e+001  1.0926e+001  2.8099e+000 66614 69223,69301,69275
 1.0000e-001 69422 -1.2638e+001  1.4249e+001  8.3280e-001 66614 69171,69301,69223
 1.0000e-001 69399 -1.0524e+001  1.3834e+001 -2.2574e-001 66614 69171,69327,69301
 1.0000e-001 69376 -1.6126e+001  1.8007e+000 -2.6550e+000 66614 69223,69275,69249
 1.0000e-001 69353 -1.4239e+001  1.5771e+001  6.6523e-001 66614 69171,69223,69197
 1.0000e-001 69546 -2.1809e+001 -3.2348e+000 -3.8342e+000 66416 69468,69520,69494
 1.0000e-001 69997 -1.3070e+001  4.9399e-001  7.5603e-001 66104 69700,69830,69726
 1.0000e-001 69974 -1.2566e+001  5.1417e-001  7.9633e-001 66104 69700,69856,69830
 1.0000e-001 69951 -1.0470e+001 -3.7311e+000  1.6554e+000 66104 69726,69804,69778
 1.0000e-001 69928 -1.4360e+001 -2.2836e+000  1.0944e+000 66104 69726,69830,69804
 1.0000e-001 69905 -1.0906e+001 -4.9666e+000  8.2611e-001 66104 69726,69778,69752
 1.0000e-001 69882 -2.0570e+001  3.9298e+000  5.6548e+000 66104 69674,69856,69700
 1.0000e-001 70326 -1.3780e+001 -1.2109e+000  8.6560e-001 65814 70349,70153,70127
 1.0000e-001 70303 -1.4992e+001 -4.4004e-001 -1.3645e-001 65814 70349,70127,70101
 1.0000e-001 70280 -1.2318e+001 -3.5561e+000 -6.6812e+000 65814 70101,70231,70205
 1.0000e-001 70257 -1.1788e+001  2.4263e-001  1.5030e+000 65814 70153,70205,70179
 1.0000e-001 70375 -1.4502e+001 -2.2652e+000  4.2507e-001 65814 70205,70153,70349
 1.0000e-001 70398 -1.5849e+001 -1.4002e+000 -5.6575e-001 65814 70205,70349,70101
 1.0000e-001 70904 -1.6941e+001 -7.2324e+000 -7.9041e-001 65502 70607,70737,70685
 1.0000e-001 70881 -1.8178e+001 -1.0596e+001  7.8078e-001 65502 70581,70737,70607
 1.0000e-001 70858 -1.6707e+001 -8.6763e+000 -3.3373e-001 65502 70581,70763,70737
 1.0000e-001 70835 -1.8808e+001 -7.4896e+000  1.3290e+000 65502 70685,70737,70711
 1.0000e-001 70812 -8.4422e+000  3.7786e+000  3.5436e+000 65502 70607,70659,70633
 1.0000e-001 70789 -1.4738e+001 -1.4710e+000  1.2853e+000 65502 70607,70685,70659
 1.0000e-001 71103 -1.7187e+001  7.3301e+000  7.8451e-001 65304 71126,70979,70953
 1.0000e-001 71080 -1.6370e+001  7.9627e+000  5.0056e-001 65304 71126,70953,70927
 1.0000e-001 71057 -1.2656e+001  1.1975e+001  4.9396e-001 65304 70927,71031,71005
 1.0000e-001 71152 -1.6043e+001  5.6164e+000  1.0140e+000 65304 71005,70979,71126
 1.0000e-001 71175 -1.4670e+001  6.9424e+000  4.5162e-001 65304 71005,71126,70927
 1.0000e-001 71374 -1.7927e+001  3.2877e+000  1.5838e-001 65106 71198,71276,71224
 1.0000e-001 71351 -2.3737e+001  1.8238e+000 -3.1254e-001 65106 71198,71302,71276
 1.0000e-001 71328 -1.7723e+001  3.5355e+000 -9.2823e-001 65106 71224,71276,71250
 1.0000e-001 71756 -1.6187e+001  9.0295e-001  8.7967e-001 64652 71508,71638,71534
 1.0000e-001 71733 -1.9721e+001 -5.5041e-001  3.4299e+000 64652 71482,71638,71508
 1.0000e-001 71710 -1.1741e+001  7.1485e-001 -1.0495e+000 64652 71534,71586,71560
 1.0000e-001 71687 -1.2479e+001  6.2668e-001 -3.1121e-001 64652 71534,71612,71586
 1.0000e-001 71664 -1.8403e+001 -1.6374e+000 -6.0696e-002 64652 71534,71638,71612
 1.0000e-001 72085 -1.5902e+001  1.3147e+000  1.6993e+000 64248 71886,71964,71912
 1.0000e-001 72062 -1.7723e+001  6.3423e-001  1.7880e+000 64248 71860,71964,71886
 1.0000e-001 72039 -2.0107e+001  2.8112e+000  1.0085e+000 64248 71912,71964,71938
 1.0000e-001 72016 -1.2232e+001  4.6724e+000 -3.5468e-001 64248 71860,71990,71964
 1.0000e-001 72235 -1.8142e+001 -4.4025e+000  1.2275e+000 63858 72588,72258,72134
 1.0000e-001 72212 -1.5872e+001 -6.7389e+000 -1.1991e+000 63858 72330,72258,72108
 1.0000e-001 72284 -1.4520e+001 -3.6665e+000  2.0624e+000 63858 72160,72134,72258
 1.0000e-001 72307 -1.1946e+001 -4.3281e+000  8.5017e-001 63858 72460,72258,72186
 1.0000e-001 72356 -1.1350e+001 -3.1127e+000  1.9244e+000 63858 72186,72258,72330
 1.0000e-001 72486 -1.6484e+001 -7.9157e+000  2.5750e+000 63858 72160,72258,72460
 1.0000e-001 72614 -1.9210e+001 -4.3086e+000 -2.6512e-001 63858 72108,72258,72588
 1.0000e-001 73248 -7.0774e+000 -4.1675e+000  1.8310e+000 63404 72902,72954,72928
 1.0000e-001 73225 -1.1490e+001 -4.2781e+000 -1.6455e-001 63404 73271,72954,72902
 1.0000e-001 73202 -1.2024e+001 -4.4876e+000  1.1364e-001 63404 73271,72902,73032
 1.0000e-001 73179 -1.7471e+001 -7.0884e+000  8.8722e-001 63404 72902,73058,73032
 1.0000e-001 73156 -1.2312e+001 -7.4023e-001 -1.3874e+000 63404 72980,73032,73006
 1.0000e-001 73133 -1.6105e+001 -4.1593e+000  2.1197e+000 63404 72876,73058,72902
 1.0000e-001 73110 -4.3301e+001  4.3629e+000 -6.4708e+000 63404 72876,73084,73058
 1.0000e-001 73297 -1.2019e+001 -4.3844e+000  6.2494e-002 63404 72980,72954,73271
 1.0000e-001 73320 -1.2442e+001 -4.4076e+000  2.7679e-001 63404 72980,73271,73032
 1.0000e-001 73470 -2.0625e+001 -3.7864e+000  9.9178e-001 63014 73343,73395,73369
 1.0000e-001 73447 -2.3743e+001 -6.2300e+000 -2.8312e-001 63014 73343,73421,73395
 1.0000e-001 73929 -2.1122e+001  7.3391e+000 -5.2364e-001 62702 73759,73811,73785
 1.0000e-001 73906 -2.2219e+001  6.8999e+000 -4.9460e-001 62702 73655,73811,73759
 1.0000e-001 73883 -1.9998e+001  8.9121e+000  5.1929e-001 62702 73655,73759,73681
 1.0000e-001 73860 -2.3973e+001  9.6906e-001  5.9953e+000 62702 73681,73759,73707
 1.0000e-001 73837 -5.5688e+000  9.4741e+000 -1.5341e+000 62702 73707,73759,73733
 1.0000e-001 74209 -4.2200e+000  8.1863e+000 -1.8776e-001 62404 74059,74137,74085
 1.0000e-001 74186 -4.2291e+000  1.4302e+001 -3.1745e+000 62404 74033,74137,74059
 1.0000e-001 74163 -1.4101e+001  8.5157e+000 -3.3503e+000 62404 74085,74137,74111
 1.0000e-001 74408 -1.6450e+001  8.3908e-001  3.1595e-001 62000 74258,74336,74284
 1.0000e-001 74385 -1.5367e+001  8.3682e-001 -8.5853e-001 62000 74232,74336,74258
 1.0000e-001 74362 -1.5674e+001  1.3281e+000  6.1827e-001 62000 74284,74336,74310
 1.0000e-001 74509 -1.1387e+001  2.9343e+001 -6.3689e+000 61802 74431,74483,74457
 1.0000e-001 74759 -1.7111e+001  5.1710e+000 -1.4379e+000 61554 74782,74586,74560
 1.0000e-001 74736 -2.1133e+001  5.3834e+000 -3.6382e-001 61554 74782,74560,74664
 1.0000e-001 74713 -1.6225e+001  5.8426e+000 -7.0925e+000 61554 74854,74612,74586
 1.0000e-001 74690 -1.8978e+001  8.0168e+000  9.4078e-001 61554 74534,74664,74560
 1.0000e-001 74808 -1.4942e+001  6.5511e+000 -2.6848e+000 61554 74854,74586,74782
 1.0000e-001 74831 -1.9139e+001  1.1989e+001 -1.4199e+000 61554 74638,74782,74664
 1.0000e-001 74880 -2.2017e+001  6.0943e+000 -6.4957e+000 61554 74638,74612,74854
 1.0000e-001 74903 -2.2286e+001  4.7789e+000 -2.8770e+000 61554 74638,74854,74782
 1.0000e-001 75285 -1.6310e+001  1.6771e+001  3.7206e-001 61356 75063,75167,75115
 1.0000e-001 75262 -1.3280e+001  2.2197e+001  2.5692e+000 61356 75037,75167,75063
 1.0000e-001 75239 -1.8309e+001  1.7415e+001  4.3797e-001 61356 75115,75167,75141
 1.0000e-001 75216 -1.2427e+001  1.9878e+001  1.8807e+000 61356 75063,75115,75089
 1.0000e-001 75193 -9.6172e+000  7.6211e+000 -5.0197e+000 61356 75011,75167,75037
 1.0000e-001 75631 -1.0327e+001  2.0430e+001 -1.3515e-001 60952 75654,75412,75360
 1.0000e-001 75608 -1.0221e+001  2.1829e+001  3.7498e-001 60952 75654,75360,75334
 1.0000e-001 75585 -6.3749e+000  2.9298e+001 -1.5011e+000 60952 75726,75438,75412
 1.0000e-001 75562 -1.7768e+001  1.5683e+001  5.6389e+000 60952 75308,75490,75334
 1.0000e-001 75539 -1.1527e+001  1.9575e+001  7.4243e-001 60952 75360,75412,75386
 1.0000e-001 75516 -5.7119e+000  3.3075e+001  2.8491e+000 60952 75438,75490,75464
 1.0000e-001 75680 -9.0899e+000  2.3207e+001 -6.8594e-001 60952 75726,75412,75654
 1.0000e-001 75703 -9.9979e+000  1.9755e+001  7.5841e-001 60952 75490,75654,75334
 1.0000e-001 75752 -8.5847e+000  2.1820e+001  5.5211e-001 60952 75490,75438,75726
 1.0000e-001 75775 -8.3291e+000  2.1715e+001  1.4695e+000 60952 75490,75726,75654
 1.0000e-001 76155 -1.4568e+001  1.7250e+000 -4.6839e+000 60754 75933,75985,75959
 1.0000e-001 76132 -1.1215e+001  2.7198e+000 -2.0547e+000 60754 75933,76037,75985
 1.0000e-001 76109 -1.4835e+001  4.0328e+000 -1.4125e+000 60754 75985,76037,76011
 1.0000e-001 76086 -1.1650e+001  1.0233e+000 -2.1896e+000 60754 75881,76037,75933
 1.0000e-001 76063 -8.2659e+000  4.9243e+000 -4.2852e+000 60754 75881,75933,75907
 1.0000e-001 76612 -1.3862e+001 -2.7560e+000 -4.4858e-001 60350 76635,76442,76390
 1.0000e-001 76589 -1.2948e+001 -3.5286e+000 -2.5438e-001 60350 76635,76390,76364
 1.0000e-001 76566 -1.0687e+001 -1.8861e+000  1.2622e+000 60350 76364,76494,76468
 1.0000e-001 76543 -1.1328e+001 -2.3352e+000 -2.5908e+000 60350 76390,76442,76416
 1.0000e-001 76520 -9.1107e+000 -4.8288e+000  1.6681e+000 60350 76338,76494,76364
 1.0000e-001 76661 -1.4397e+001 -3.2928e+000 -2.1013e-001 60350 76468,76442,76635
 1.0000e-001 76684 -1.3729e+001 -4.1406e+000  5.8935e-002 60350 76468,76635,76364
 1.0000e-001 76932 -1.1008e+001  1.7554e+001 -4.3010e-001 59946 76955,76733,76707
 1.0000e-001 76909 -1.1817e+001  1.6156e+001  1.7204e+000 59946 77027,76955,76707
 1.0000e-001 76886 -8.9871e+000  1.6744e+001  6.7880e-001 59946 77027,76707,76837
 1.0000e-001 76863 -1.5022e+001  2.0572e+001  3.8583e+000 59946 76733,76785,76759
 1.0000e-001 76981 -1.0285e+001  1.6244e+001  1.9779e+000 59946 76785,76733,76955
 1.0000e-001 77004 -1.1789e+001  6.9340e+000  4.1814e+000 59946 76785,76955,76811
 1.0000e-001 77053 -7.6511e+000  1.5100e+001  1.1438e-001 59946 76811,76955,77027
 1.0000e-001 77076 -4.9631e+000  1.6529e+001 -1.4466e+000 59946 76811,77027,76837
 1.0000e-001 77226 -1.5146e+001  1.5377e+000 -3.4026e-001 59542 77099,77151,77125
 1.0000e-001 77203 -1.5598e+001 -1.7970e+000 -1.5061e+000 59542 77099,77177,77151
 1.0000e-001 77427 -1.3862e+001 -1.4599e+000  3.3619e-001 59030 77450,77277,77251
 1.0000e-001 77404 -1.5145e+001 -4.6908e+000  2.9405e-001 59030 77450,77251,77355
 1.0000e-001 77381 -1.4493e+001  5.9773e-001  4.8254e-001 59030 77277,77329,77303
 1.0000e-001 77476 -1.4822e+001 -6.7634e-001  1.4898e+000 59030 77329,77277,77450
 1.0000e-001 77499 -1.5306e+001 -2.4800e+000  1.3919e+000 59030 77329,77450,77355
 1.0000e-001 77749 -1.8060e+001 -1.9399e+000  1.4631e+000 58426 77772,77628,77602
 1.0000e-001 77726 -1.6806e+001 -3.8332e+000  3.0906e+000 58426 77524,77654,77628
 1.0000e-001 77703 -1.4429e+001 -1.8742e+000  1.5873e-001 58426 77772,77602,77550
 1.0000e-001 77680 -1.3441e+001 -1.5513e+000  9.0115e-001 58426 77550,77602,77576
 1.0000e-001 77798 -1.4028e+001 -1.5141e+000  1.7222e+000 58426 77524,77628,77772
 1.0000e-001 77821 -1.2298e+001 -2.5585e+000 -8.1587e-002 58426 77524,77772,77550
 1.0000e-001 78071 -3.8420e+000  2.1807e+001 -2.2403e+000 57922 78094,77924,77898
 1.0000e-001 78048 -6.2630e+000  1.7131e+001 -3.1419e+000 57922 78094,77898,77872
 1.0000e-001 78025 -6.3888e+000  1.1708e+001 -5.6694e+000 57922 78166,77846,77950
 1.0000e-001 78002 -4.7393e+000  1.0526e+001 -4.6656e+000 57922 77846,77976,77950
 1.0000e-001 78120 -5.6457e-001  1.5775e+001 -3.5295e+000 57922 77950,77924,78094
 1.0000e-001 78143 -4.4269e+000  1.2906e+001 -4.8724e+000 57922 78166,77950,78094
 1.0000e-001 78192 -8.9308e+000  1.4071e+001 -3.1362e+000 57922 77872,77846,78166
 1.0000e-001 78215 -5.5674e+000  1.6480e+001 -1.9917e+000 57922 77872,78166,78094
 1.0000e-001 78416 -1.3352e+001  3.3931e+000 -1.2530e-001 57468 78439,78292,78240
 1.0000e-001 78393 -1.4605e+001  2.6993e+000  3.6094e-001 57468 78439,78240,78344
 1.0000e-001 78370 -1.7599e+001  7.3051e+000 -3.8030e+000 57468 78240,78292,78266
 1.0000e-001 78465 -1.4671e+001  3.0645e+000  3.4839e-001 57468 78318,78292,78439
 1.0000e-001 78488 -1.5202e+001  2.9878e+000  7.3258e-001 57468 78318,78439,78344
 1.0000e-001 78689 -1.3143e+001  1.3898e+001  7.8354e-001 57014 78712,78539,78513
 1.0000e-001 78666 -1.1752e+001  1.2409e+001 -3.0240e-001 57014 78712,78513,78617
 1.0000e-001 78643 -9.7776e+000  1.2085e+001  7.0087e-001 57014 78565,78617,78591
 1.0000e-001 78738 -1.1405e+001  1.5573e+001  1.4656e+000 57014 78565,78539,78712
 1.0000e-001 78761 -1.0573e+001  1.3343e+001  1.4558e-001 57014 78565,78712,78617
 1.0000e-001 79241 -1.2054e+001  1.9741e+000 -1.9697e-001 56652 79264,78895,78869
 1.0000e-001 79218 -1.0965e+001  2.7529e+000 -7.8312e-001 56652 79264,78869,79051
 1.0000e-001 79195 -1.3336e+001  1.5185e+000 -3.3961e-001 56652 78869,79077,79051
 1.0000e-001 79172 -1.3801e+001 -1.5373e+000  1.8901e+000 56652 78895,78973,78947
 1.0000e-001 79149 -1.1599e+001  3.5972e+000 -2.6685e+000 56652 78973,79051,78999
 1.0000e-001 79126 -1.1510e+001  5.1946e+000  4.7340e-001 56652 78895,78947,78921
 1.0000e-001 79103 -3.5506e+000  2.8283e+001  3.6671e+000 56652 78999,79051,79025
 1.0000e-001 79290 -1.0966e+001  1.0840e+000 -9.6478e-001 56652 78973,78895,79264
 1.0000e-001 79313 -9.5149e+000  2.3784e+000 -1.6814e+000 56652 78973,79264,79051
 1.0000e-001 79512 -2.1586e+001 -9.3274e+000 -6.0763e-001 56062 79388,79440,79414
 1.0000e-001 79489 -1.8760e+001 -1.1639e+001 -6.2983e-001 56062 79336,79440,79388
 1.0000e-001 79466 -1.4310e+001 -1.1880e+001  3.4852e-001 56062 79336,79388,79362
 1.0000e-001 79941 -6.1277e+000  1.4868e+001 -3.0125e-001 55658 79964,79670,79644
 1.0000e-001 79918 -9.9803e+000  1.6832e+001 -2.0785e-001 55658 79964,79644,79800
 1.0000e-001 79895 -8.1783e+000  1.5751e+001 -2.8057e+000 55658 80036,79696,79670
 1.0000e-001 79872 -6.2136e+000  1.3794e+001 -5.5790e-001 55658 80108,79722,79696
 1.0000e-001 79849 -2.1549e+000  1.6563e+001  1.7922e+000 55658 79722,79774,79748
 1.0000e-001 79826 -1.2313e+001  1.5807e+001 -3.8436e-001 55658 79618,79800,79644
 1.0000e-001 79990 -1.0238e+001  1.5224e+001 -1.0315e+000 55658 80036,79670,79964
 1.0000e-001 80013 -1.9866e+001  1.3029e+001 -5.2600e+000 55658 79774,79964,79800
 1.0000e-001 80062 -8.5102e+000  1.5047e+001 -2.6580e+000 55658 80108,79696,80036
 1.0000e-001 80085 -6.8986e+000  1.8327e+001 -3.5569e+000 55658 79774,80036,79964
 1.0000e-001 80134 -1.7783e+000  1.4691e+001 -1.2526e+000 55658 79774,79722,80108
 1.0000e-001 80157 -3.0017e+000  1.6712e+001 -3.2760e+000 55658 79774,80108,80036
 1.0000e-001 80307  1.2677e+000  1.0225e+001 -2.5722e+000 55254 80402,80330,80206
 1.0000e-001 80284  4.8827e+000  3.1494e+001 -1.4771e+000 55254 80330,80180,80258
 1.0000e-001 80356  6.0221e+000  2.1292e+001 -2.9479e+000 55254 80232,80206,80330
 1.0000e-001 80379 -4.4300e+000  1.6509e+001 -5.7996e+000 55254 80232,80330,80258
 1.0000e-001 80428  1.0853e+001  2.4590e+001  3.0507e+000 55254 80180,80330,80402
 1.0000e-001 80659 -7.8051e+000  3.3207e+000  2.0617e+000 54850 80558,80610,80584
 1.0000e-001 80636 -5.2165e+000  2.7631e+000  5.6898e-001 54850 80532,80610,80558
 1.0000e-001 80760 -5.2371e+000  2.3165e+001 -4.9997e-001 54652 80682,80734,80708
 1.0000e-001 81164 -5.2575e+000  2.1481e+001 -3.4338e-001 54248 81187,80942,80890
 1.0000e-001 81141 -6.1508e+000  2.3094e+001 -1.3529e-001 54248 81187,80890,81046
 1.0000e-001 81118 -1.2246e+000  2.3369e+001 -4.5215e+000 54248 80942,81020,80994
 1.0000e-001 81095 -4.1389e+000  2.4224e+001 -2.9563e-001 54248 80890,80942,80916
 1.0000e-001 81072 -6.7599e+000  1.2637e+001 -1.0433e-001 54248 80942,80994,80968
 1.0000e-001 81213 -5.8286e+000  2.0462e+001 -7.1685e-001 54248 81020,80942,81187
 1.0000e-001 81236 -6.9894e+000  2.1705e+001 -5.6355e-001 54248 81020,81187,81046
 1.0000e-001 81663 -1.1803e+001 -1.5014e+000  2.5808e+000 53594 81340,81444,81366
 1.0000e-001 81640 -9.7958e+000 -2.2741e+000  1.4055e+000 53594 81340,81470,81444
 1.0000e-001 81617 -1.0975e+001 -2.5578e+000  9.6208e-001 53594 81340,81522,81470
 1.0000e-001 81594 -1.6961e+001  1.1997e+000  3.0929e+000 53594 81392,81444,81418
 1.0000e-001 81571 -1.5402e+001 -3.0643e+000  2.7656e+000 53594 81366,81444,81392
 1.0000e-001 81548 -7.7811e+000 -2.7815e+000  1.4704e+000 53594 81470,81522,81496
 1.0000e-001 81943 -9.4023e+000  9.9023e-001 -2.9524e+000 53104 81966,81845,81819
 1.0000e-001 81920 -6.9477e+000  3.4224e+000 -1.9143e+000 53104 81966,81819,81767
 1.0000e-001 81897 -5.9116e+000  7.3687e-001  4.7930e+000 53104 81767,81819,81793
 1.0000e-001 81992 -1.1047e+001  4.5225e+000 -1.2835e+000 53104 81871,81845,81966
 1.0000e-001 82015 -8.1667e+000  7.7248e+000  8.4543e-002 53104 81871,81966,81767
 1.0000e-001 82491 -1.7650e+001 -6.8084e-001  9.7135e-001 52650 82145,82249,82171
 1.0000e-001 82468 -1.2720e+001  1.2038e+000  8.2095e-001 52650 82145,82301,82249
 1.0000e-001 82445 -1.1912e+001  4.1973e+000  9.8341e-001 52650 82249,82301,82275
 1.0000e-001 82422 -1.0480e+001  8.8938e-002  8.2949e-001 52650 82119,82301,82145
 1.0000e-001 82399 -1.5313e+001 -1.1391e+000  7.4065e-002 52650 82171,82249,82223
 1.0000e-001 82376 -1.0348e+001 -4.0195e-001  9.0145e+000 52650 82119,82327,82301
 1.0000e-001 82353 -2.2688e+001  2.7885e+000 -4.8198e+000 52650 82171,82223,82197
 1.0000e-001 82739 -5.7222e+000  7.0833e+000  5.8484e-002 52246 82762,82540,82514
 1.0000e-001 82716 -6.6489e+000  6.7007e+000  3.6623e-001 52246 82762,82514,82644
 1.0000e-001 82693 -1.3140e+001  6.5323e+000 -3.7737e-002 52246 82540,82618,82592
 1.0000e-001 82670 -2.6361e+001  1.3388e+001 -6.5059e+000 52246 82540,82592,82566
 1.0000e-001 82788 -6.5541e+000  7.7648e+000 -3.9275e-001 52246 82618,82540,82762
 1.0000e-001 82811 -7.5701e+000  7.3706e+000 -3.0313e-001 52246 82618,82762,82644
 1.0000e-001 83059 -1.1587e+001  6.4116e+000  8.5173e-001 51578 82860,82964,82938
 1.0000e-001 83036 -1.2205e+001  4.5433e+000  3.5224e+000 51578 82834,82964,82860
 1.0000e-001 83013 -7.6854e+000  5.7970e+000  4.6957e-001 51578 82860,82938,82886
 1.0000e-001 82990 -7.9557e+000  7.8833e+000 -1.5509e+000 51578 82886,82938,82912
 1.0000e-001 83309 -3.5377e+000  1.0138e+001  7.7401e-001 51138 83332,83162,83136
 1.0000e-001 83286 -4.9257e+000  8.6884e+000  7.6993e-002 51138 83332,83136,83110
 1.0000e-001 83263 -7.4532e+000  6.9277e+000 -2.0117e+000 51138 83404,83214,83188
 1.0000e-001 83240 -8.0984e+000  4.3389e+000  5.6220e-001 51138 83084,83214,83110
 1.0000e-001 83358 -1.8999e+000  9.5597e+000 -2.1742e+000 51138 83188,83162,83332
 1.0000e-001 83381 -6.3942e+000  7.6814e+000 -2.3680e+000 51138 83404,83188,83332
 1.0000e-001 83430 -7.2028e+000  4.7470e+000  6.6945e-001 51138 83110,83214,83404
 1.0000e-001 83453 -4.9812e+000  6.2142e+000  3.5167e-002 51138 83110,83404,83332
 1.0000e-001 83835 -1.1457e+001 -4.5283e+000 -6.5905e-001 50734 83613,83717,83691
 1.0000e-001 83812 -8.1738e+000  3.1906e+000 -4.2091e-001 50734 83561,83717,83613
 1.0000e-001 83789 -1.0920e+001  2.0869e+000  4.5578e-001 50734 83561,83613,83587
 1.0000e-001 83766 -9.4682e+000 -2.5309e-001  5.0246e-001 50734 83613,83691,83639
 1.0000e-001 83743 -8.3402e+000  2.5094e+000  8.0190e-001 50734 83639,83691,83665
 1.0000e-001 84034 -5.8388e+000  1.0288e+001 -2.3078e+000 50230 84057,83884,83858
 1.0000e-001 84011 -6.8730e+000  9.2477e+000 -6.1498e-002 50230 84129,84057,83858
 1.0000e-001 83988 -8.7239e+000  9.0141e+000  4.8994e-001 50230 84129,83858,83962
 1.0000e-001 84083 -9.4668e+000  8.6024e+000 -1.8160e+000 50230 83910,83884,84057
 1.0000e-001 84106 -8.1634e+000  9.7406e+000 -5.5926e-001 50230 83910,84057,83936
 1.0000e-001 84155 -9.4746e+000  9.0885e+000 -2.8565e-001 50230 83936,84057,84129
 1.0000e-001 84178 -1.0290e+001  9.5995e+000  3.7466e-001 50230 83936,84129,83962
 1.0000e-001 84558 -7.8073e+000  2.1512e+000  3.1487e-001 49768 84581,84388,84362
 1.0000e-001 84535 -3.9268e+000  1.8332e+000 -1.2143e+000 49768 84581,84362,84310
 1.0000e-001 84512 -1.0506e+001  8.2082e-001  4.7330e-001 49768 84653,84440,84414
 1.0000e-001 84489 -4.8063e+000  5.2274e+000 -2.7756e+000 49768 84310,84362,84336
 1.0000e-001 84466 -7.5261e+000  5.8773e-001  4.2376e+000 49768 84284,84440,84310
 1.0000e-001 84607 -9.2520e+000  1.1490e+000  9.7764e-001 49768 84414,84388,84581
 1.0000e-001 84630 -9.0466e+000  2.4863e+000 -1.5186e-001 49768 84653,84414,84581
 1.0000e-001 84679 -8.5541e+000 -1.3335e+000  1.0171e+000 49768 84310,84440,84653
 1.0000e-001 84702 -7.5401e+000 -4.5098e-001  6.2790e-001 49768 84310,84653,84581
 1.0000e-001 85159  8.4738e+000  2.5204e+001  7.9729e+000 49192 84885,84937,84911
 1.0000e-001 85136  9.3022e+000  2.0653e+001  5.3489e+000 49192 84885,85041,84937
 1.0000e-001 85113  6.3992e+000  2.2303e+001 -2.7973e+000 49192 84963,85041,84989
 1.0000e-001 85090  2.4010e+000  1.5387e+001  2.0312e+000 49192 84937,85041,84963
 1.0000e-001 85067  3.9811e+000  2.2917e+001 -4.0634e+000 49192 84989,85041,85015
 1.0000e-001 85714 -9.8579e+000 -1.6559e-001  1.5427e+000 48638 85368,85498,85394
 1.0000e-001 85691 -5.9599e+000  1.5138e+000 -1.9208e-001 48638 85368,85524,85498
 1.0000e-001 85668 -3.5104e+000  4.4490e+000 -2.5095e+000 48638 85737,85420,85394
 1.0000e-001 85645 -6.3189e+000  2.7428e+000 -5.7449e-001 48638 85737,85394,85498
 1.0000e-001 85622 -8.2103e+000  3.6319e+000 -2.5826e-002 48638 85446,85498,85472
 1.0000e-001 85599 -1.5831e+001 -3.7925e+000  3.1088e+000 48638 85342,85524,85368
 1.0000e-001 85576 -1.3407e+001  4.1960e+000 -2.0488e+000 48638 85342,85550,85524
 1.0000e-001 85763 -7.1736e+000  3.1863e+000 -1.4855e+000 48638 85446,85420,85737
 1.0000e-001 85786 -7.7002e+000  3.3548e+000  2.3636e-001 48638 85446,85737,85498
 1.0000e-001 86371 -8.6131e+000  9.7152e-001  2.0992e-001 48084 86100,86230,86178
 1.0000e-001 86348 -9.8825e+000 -6.7544e-001 -3.5516e-001 48084 86048,86230,86100
 1.0000e-001 86325 -1.2241e+001 -6.7039e-001 -2.3716e-001 48084 86100,86178,86126
 1.0000e-001 86302 -6.8739e+000  6.2619e+000  2.1210e+000 48084 86048,86100,86074
 1.0000e-001 86279 -6.0708e+000  4.3129e+000 -9.7380e-001 48084 86178,86230,86204
 1.0000e-001 86256 -1.0969e+001  3.0891e+000  7.1397e-001 48084 86126,86178,86152
 1.0000e-001 86619 -6.5058e+000  6.4971e+000 -1.3808e+000 47630 86642,86446,86420
 1.0000e-001 86596 -7.1626e+000  7.2726e+000  1.5397e+000 47630 86642,86420,86394
 1.0000e-001 86573 -4.7886e+000  1.4069e+001 -1.4794e-001 47630 86394,86524,86498
 1.0000e-001 86550 -5.1915e+000  9.1290e+000 -2.0725e+000 47630 86446,86498,86472
 1.0000e-001 86668 -5.1272e+000  9.7933e+000 -1.9257e+000 47630 86498,86446,86642
 1.0000e-001 86691 -6.0949e+000  9.6434e+000  9.8498e-001 47630 86498,86642,86394
 1.0000e-001 87022 -9.4892e+000  1.2133e+000  5.4004e-001 47226 87045,86875,86849
 1.0000e-001 86999 -9.4238e+000  2.5783e+000  4.9848e-001 47226 87045,86849,86797
 1.0000e-001 86976 -1.1437e+001  6.6036e-001  2.9825e+000 47226 86797,86849,86823
 1.0000e-001 86953 -6.3372e+000  9.2031e+000  1.3024e+000 47226 86875,86927,86901
 1.0000e-001 87071 -9.3150e+000  2.4703e+000  4.2344e-001 47226 86927,86875,87045
 1.0000e-001 87094 -9.6024e+000  3.3719e+000  4.1730e-001 47226 86927,87045,86797
 1.0000e-001 87244 -8.4503e+000  7.7903e+000  2.5292e-001 46814 87267,87169,87143
 1.0000e-001 87221 -1.0801e+001  5.3572e+000 -1.0332e+000 46814 87267,87143,87117
 1.0000e-001 87293 -1.4229e+001  1.6660e-001 -2.0505e+000 46814 87339,87267,87195
 1.0000e-001 87316 -3.3858e+000  8.4785e+000 -3.8385e+000 46814 87469,87267,87117
 1.0000e-001 87365 -5.8153e+000  4.7782e+000  4.1666e-001 46814 87169,87267,87339
 1.0000e-001 87495 -1.3221e+001 -3.6181e+000  4.0930e-001 46814 87195,87267,87469
 1.0000e-001 88001 -3.1377e+000  1.8591e+001  9.4283e-001 46310 88024,87834,87808
 1.0000e-001 87978 -3.3411e+000  1.8798e+001 -7.8383e-001 46310 88024,87808,87756
 1.0000e-001 87955 -1.6864e-001  1.7928e+001 -6.3704e-001 46310 88096,87730,87860
 1.0000e-001 87932 -3.1140e+000  1.9466e+001 -6.4415e-001 46310 87756,87808,87782
 1.0000e-001 87909  2.4366e-001  2.8593e+001 -2.3015e+000 46310 87678,87860,87730
 1.0000e-001 87886 -4.7106e+000  2.7450e+001  2.9444e+000 46310 87678,87730,87704
 1.0000e-001 88050 -6.2129e+000  1.1767e+001  3.2367e+000 46310 87860,87834,88024
 1.0000e-001 88073 -1.2601e+000  1.8372e+001  5.0337e-001 46310 88096,87860,88024
 1.0000e-001 88122 -2.2634e+000  1.7738e+001 -2.8806e-001 46310 87756,87730,88096
 1.0000e-001 88145 -4.2243e+000  1.7938e+001  3.3278e-001 46310 87756,88096,88024
 1.0000e-001 88572 -1.1067e+001  1.0114e-001 -1.2294e+000 45856 88249,88405,88275
 1.0000e-001 88549 -1.6006e+001  6.9196e+000 -3.6166e+000 45856 88249,88431,88405
 1.0000e-001 88526 -7.6968e+000  4.1525e+000  1.1774e+000 45856 88327,88405,88353
 1.0000e-001 88503 -7.6363e+000  4.4546e+000  1.2273e+000 45856 88275,88405,88327
 1.0000e-001 88480 -6.9080e+000  6.6257e+000  1.8163e+000 45856 88353,88405,88379
 1.0000e-001 88457 -7.1027e+000  1.6808e+001  1.6670e+000 45856 88275,88327,88301
 1.0000e-001 88950 -1.0885e+000  1.6630e+001  7.6142e-002 45658 88973,88754,88728
 1.0000e-001 88927 -2.6705e+000  1.2976e+001 -8.6542e-001 45658 88973,88728,88676
 1.0000e-001 88904 -7.0926e+000  1.2661e+001 -1.0804e+001 45658 88676,88832,88806
 1.0000e-001 88881 -9.1678e-001  1.8945e+001  1.7329e+000 45658 88676,88728,88702
 1.0000e-001 88858 -1.5678e+000  7.2845e+000  1.4223e+000 45658 88754,88806,88780
 1.0000e-001 88999 -5.5448e-001  1.2807e+001 -4.1648e-001 45658 88806,88754,88973
 1.0000e-001 89022 -8.6193e-001  1.0746e+001 -1.1331e+000 45658 88806,88973,88676
 1.0000e-001 89351 -7.2233e+000  2.6970e+000 -2.8400e-001 45254 89152,89230,89204
 1.0000e-001 89328 -6.5079e+000  3.2585e+000  6.1073e-001 45254 89152,89256,89230
 1.0000e-001 89305 -8.5633e+000  1.9791e+000  5.8713e-002 45254 89126,89256,89152
 1.0000e-001 89282 -7.0106e+000  4.3005e+000 -3.8203e-001 45254 89152,89204,89178
 1.0000e-001 89523  1.7113e+000  1.9701e+001 -1.7910e-002 45006 89422,89474,89448
 1.0000e-001 89500 -2.9935e+000  1.7683e+001 -3.7902e+000 45006 89396,89474,89422
 1.0000e-001 89673 -8.6706e+000  1.8799e+000 -7.1098e-003 44495 89572,89624,89598
 1.0000e-001 89650 -9.2537e+000  2.3970e+000 -1.7955e+000 44495 89546,89624,89572
 1.0000e-001 90104 -8.5316e+000  6.7872e+000 -3.6753e-001 44005 90199,90127,89937
 1.0000e-001 90081 -6.2888e+000  8.7091e+000 -5.9036e-001 44005 90271,90127,89859
 1.0000e-001 90058 -9.0651e+000  7.0200e+000 -3.4715e-001 44005 90199,89937,89885
 1.0000e-001 90035 -5.7798e+000  1.0123e+001 -7.7075e-001 44005 90271,89859,89807
 1.0000e-001 90012 -1.0185e+001  1.1914e+001 -2.1534e+000 44005 89885,89937,89911
 1.0000e-001 89989 -7.7527e+000  9.3008e+000 -5.8067e-001 44005 89807,89859,89833
 1.0000e-001 90153 -6.9753e+000  7.0157e+000 -1.5503e+000 44005 89963,89937,90127
 1.0000e-001 90176 -6.9506e+000  7.1075e+000 -1.5989e+000 44005 89963,90127,89781
 1.0000e-001 90225 -7.1389e+000  6.7486e+000 -7.0450e-001 44005 89859,90127,90199
 1.0000e-001 90248 -8.3069e+000  6.5691e+000 -9.2427e-001 44005 89859,90199,89885
 1.0000e-001 90297 -5.3275e+000  7.5005e+000 -1.7455e+000 44005 89781,90127,90271
 1.0000e-001 90320 -4.9097e+000  8.7291e+000 -1.8039e+000 44005 89781,90271,89807
 1.0000e-001 90470  2.0235e+000  2.2834e+001  6.2444e-001 43601 90493,90369,90343
 1.0000e-001 90447  1.4017e+000  2.3717e+001  1.1220e+000 43601 90493,90343,90421
 1.0000e-001 90519  1.0920e+000  2.1222e+001  4.5392e-002 43601 90395,90369,90493
 1.0000e-001 90542  1.3067e+000  2.3060e+001  6.9221e-001 43601 90395,90493,90421
 1.0000e-001 90922  4.3529e-001  2.0306e+001 -1.8057e+000 43154 90945,90700,90674
 1.0000e-001 90899  2.3951e+000  2.1238e+001 -1.3227e+000 43154 90945,90674,90648
 1.0000e-001 90876  4.6490e+000  1.9687e+001 -1.0854e+000 43154 90648,90778,90752
 1.0000e-001 90853 -1.4334e-001  2.2309e+001 -6.6133e-001 43154 90700,90752,90726
 1.0000e-001 90830 -1.6124e+000  1.8558e+001 -1.9469e+000 43154 90648,90804,90778
 1.0000e-001 90971  1.1040e+000  2.0752e+001 -6.6638e-001 43154 90752,90700,90945
 1.0000e-001 90994  2.4678e+000  2.1290e+001 -2.4622e-001 43154 90752,90945,90648
 1.0000e-001 91451 -6.5648e+000  8.6510e+000  3.8170e+000 42650 91203,91255,91229
 1.0000e-001 91428 -6.8534e+000  8.5226e+000  2.8249e-001 42650 91203,91333,91255
 1.0000e-001 91405 -1.8347e+000  1.1746e+001  1.8255e+000 42650 91177,91333,91203
 1.0000e-001 91382 -2.7593e+000  1.3433e+001 -1.8665e+000 42650 91255,91333,91281
 1.0000e-001 91359 -9.8800e+000  9.9505e+000 -7.4813e-001 42650 91281,91333,91307
 1.0000e-001 91721 -6.3655e+000  3.5356e+000 -7.8573e-002 42288 91496,91600,91522
 1.0000e-001 91698 -6.2754e+000  4.0695e+000  3.6045e-001 42288 91496,91626,91600
 1.0000e-001 91675 -7.9796e+000  3.9720e+000  8.1735e-003 42288 91522,91574,91548
 1.0000e-001 91652 -6.6150e+000  3.4157e+000 -1.1402e-001 42288 91522,91600,91574
 1.0000e-001 92199 -5.8995e+000  4.9728e+000 -3.5305e-001 41898 92222,91983,91879
 1.0000e-001 92176 -5.1062e+000  6.0701e+000  1.0412e-001 41898 92294,92222,91879
 1.0000e-001 92153 -3.8831e+000  5.5314e+000  1.0057e+000 41898 92294,91879,91853
 1.0000e-001 92130 -8.1052e+000  2.6491e+000 -5.8796e-001 41898 91879,91957,91931
 1.0000e-001 92107 -1.0491e+001  2.7961e+000  1.3487e+000 41898 91879,91983,91957
 1.0000e-001 92084 -2.8790e+000  2.8871e+000 -5.3261e+000 41898 91879,91931,91905
 1.0000e-001 92061 -1.1328e+001  5.9556e+000  7.6152e-001 41898 91827,92035,91853
 1.0000e-001 92248 -5.1331e+000  6.1995e+000 -7.6100e-001 41898 92009,91983,92222
 1.0000e-001 92271 -6.7496e+000  5.7277e+000 -1.2915e-001 41898 92009,92222,92035
 1.0000e-001 92320 -7.1348e+000  5.2008e+000  3.0353e-001 41898 92035,92222,92294
 1.0000e-001 92343 -6.2214e+000  4.5186e+000  1.1567e+000 41898 92035,92294,91853
 1.0000e-001 92770  2.0747e+000  1.8399e+001 -5.9801e-001 41437 92865,92793,92525
 1.0000e-001 92747  2.2114e+000  1.7329e+001 -8.1474e-001 41437 92793,92473,92629
 1.0000e-001 92724  2.9192e+000  1.8205e+001 -1.0490e+000 41437 92865,92525,92499
 1.0000e-001 92701  3.6964e-001  1.6442e+001 -6.5868e-001 41437 92525,92603,92577
 1.0000e-001 92678 -1.9345e+000  1.8747e+001 -1.3921e-001 41437 92447,92629,92473
 1.0000e-001 92655 -4.9370e+000  1.5987e+001 -5.0014e-001 41437 92525,92577,92551
 1.0000e-001 92819  1.5786e+000  1.7240e+001 -2.2791e-001 41437 92603,92525,92793
 1.0000e-001 92842  1.9974e+000  1.7544e+001 -1.1345e+000 41437 92603,92793,92629
 1.0000e-001 92891  3.7240e+000  1.7663e+001 -7.7381e-001 41437 92473,92793,92865
 1.0000e-001 92914  4.9799e+000  1.8021e+001 -1.4425e+000 41437 92473,92865,92499
 1.0000e-001 93243 -4.4592e+000  1.1001e+001 -5.0150e+000 41097 93044,93096,93070
 1.0000e-001 93220 -2.3913e+000  9.1403e+000 -1.3350e+000 41097 93044,93122,93096
 1.0000e-001 93197 -1.0206e+001  2.8203e+000  1.3918e+000 41097 93044,93148,93122
 1.0000e-001 93174 -1.5135e+001  1.7579e+000  1.2952e+000 41097 93018,93148,93044
 1.0000e-001 93393 -8.8000e+000  5.2520e+000 -1.0744e+000 40643 93416,93292,93344
 1.0000e-001 93370 -6.1459e+000  5.9530e+000 -3.6442e-001 40643 93266,93344,93292
 1.0000e-001 93442 -6.7084e+000  7.2978e+000  7.9083e-001 40643 93318,93292,93416
 1.0000e-001 93901  3.4496e-001  1.4218e+001  1.0988e-001 40132 93924,93731,93705
 1.0000e-001 93878  1.6225e+000  1.5837e+001  6.6502e-001 40132 93996,93924,93705
 1.0000e-001 93855  1.0959e+000  1.4441e+001  2.0328e+000 40132 93996,93705,93653
 1.0000e-001 93832  5.3573e+000  1.8996e+001  2.0810e-001 40132 93653,93705,93679
 1.0000e-001 93809  9.1252e-001  1.9562e+001 -8.8749e-001 40132 93627,93783,93757
 1.0000e-001 93950  5.0521e-001  1.5093e+001  9.8078e-002 40132 93757,93731,93924
 1.0000e-001 93973 -2.4878e-001  1.6395e+001  7.8847e-001 40132 93757,93924,93627
 1.0000e-001 94022 -1.3983e+000  1.4273e+001  1.3976e+000 40132 93627,93924,93996
 1.0000e-001 94045 -3.1232e-002  1.4020e+001  2.5070e+000 40132 93627,93996,93653
 1.0000e-001 94423 -5.4148e+000  5.5012e+000  5.3905e-001 39514 94149,94227,94175
 1.0000e-001 94400 -6.2155e+000  2.9864e+000 -3.7786e-001 39514 94149,94305,94227
 1.0000e-001 94377 -9.1924e+000  5.8555e+000  1.4504e+000 39514 94175,94227,94201
 1.0000e-001 94354 -6.2714e+000  3.1002e+000 -3.8982e-001 39514 94227,94305,94279
 1.0000e-001 94331 -6.5180e+000  2.7827e+000 -1.6198e+000 39514 94227,94279,94253
 1.0000e-001 94573  5.5565e+000  1.8200e+001  4.3454e-003 38822 94596,94498,94472
 1.0000e-001 94550  3.5998e+000  1.7026e+001 -1.8807e+000 38822 94596,94472,94446
 1.0000e-001 94622  7.6431e+000  1.8969e+001  1.8399e+000 38822 94524,94498,94596
 1.0000e-001 94645  6.3059e+000  1.7267e+001 -1.9944e-001 38822 94524,94596,94446
 1.0000e-001 95025 -3.2527e+000  1.3932e+001  7.3768e-001 38418 95048,94829,94777
 1.0000e-001 95002 -4.3661e+000  1.2528e+001 -4.4949e-001 38418 95120,95048,94777
 1.0000e-001 94979 -4.2822e+000  1.2911e+001 -3.7814e-001 38418 95120,94777,94751
 1.0000e-001 94956 -2.9645e+000  1.3086e+001 -9.0176e-001 38418 95192,94881,94855
 1.0000e-001 94933 -2.2935e+000  1.9315e+001 -5.1582e-001 38418 94777,94829,94803
 1.0000e-001 95074 -5.0976e+000  8.9144e+000  1.1088e+000 38418 94855,94829,95048
 1.0000e-001 95097 -3.3198e+000  1.2823e+001 -6.1423e-001 38418 95192,94855,95048
 1.0000e-001 95146 -4.9230e+000  1.3011e+001 -3.0106e-001 38418 94907,95048,95120
 1.0000e-001 95169 -4.5293e+000  1.3658e+001 -9.9010e-002 38418 94907,95120,94751
 1.0000e-001 95218 -3.7455e+000  1.4688e+001 -9.4184e-001 38418 94907,94881,95192
 1.0000e-001 95241 -4.7491e+000  1.3635e+001 -4.2432e-001 38418 94907,95192,95048
 1.0000e-001 95511  8.8229e-001  1.8574e+001  1.4219e+000 38049 95312,95390,95364
 1.0000e-001 95488  5.1198e+000  2.0557e+001  7.7104e-001 38049 95312,95416,95390
 1.0000e-001 95465  4.0250e+000  1.9623e+001 -1.8013e-001 38049 95312,95364,95338
 1.0000e-001 95442  1.9725e+000  2.0861e+001  1.9294e-001 38049 95286,95416,95312
 1.0000e-001 95808 -4.4030e+000  1.1542e+001  1.2426e-001 37437 95831,95586,95560
 1.0000e-001 95785 -6.3823e+000  9.7424e+000 -6.5571e-001 37437 95831,95560,95534
 1.0000e-001 95762 -2.2375e+000  1.0934e+001 -9.2842e-001 37437 95586,95664,95638
 1.0000e-001 95739 -5.8528e+000  8.7753e+000 -2.8861e+000 37437 95534,95690,95664
 1.0000e-001 95716 -1.7614e+000  1.2841e+001 -8.2723e-001 37437 95586,95638,95612
 1.0000e-001 95857 -2.8501e+000  9.5403e+000 -1.0219e+000 37437 95664,95586,95831
 1.0000e-001 95880 -5.0185e+000  7.5979e+000 -1.8612e+000 37437 95664,95831,95534
 1.0000e-001 96390 -5.4825e+000  6.0946e+000  1.0691e+000 36883 96413,96145,96093
 1.0000e-001 96367 -4.0013e+000  5.7553e+000 -2.7253e+000 36883 96413,96093,96067
 1.0000e-001 96344 -5.1035e+000  2.6519e+000 -1.8079e-001 36883 96067,96249,96171
 1.0000e-001 96321 -7.8064e+000  9.4439e+000  3.9099e-001 36883 96093,96145,96119
 1.0000e-001 96298 -2.6244e+000  8.9655e+000 -1.6202e+000 36883 96171,96249,96197
 1.0000e-001 96275 -5.5439e+000  6.8055e+000 -5.9258e-001 36883 96197,96249,96223
 1.0000e-001 96439 -7.8036e+000 -2.1170e-001  3.5846e+000 36883 96171,96145,96413
 1.0000e-001 96462 -4.8484e+000  3.1923e+000 -2.9707e-001 36883 96171,96413,96067
 1.0000e-001 96781 -6.5220e+000  3.6591e+000  7.7376e-001 36215 96559,96663,96637
 1.0000e-001 96758 -7.8859e+000  2.5458e+000  2.9296e-001 36215 96507,96663,96559
 1.0000e-001 96735 -5.8164e+000  5.4924e+000  9.2234e-002 36215 96585,96637,96611
 1.0000e-001 96712 -5.3029e+000  4.5020e+000  3.8748e-001 36215 96559,96637,96585
 1.0000e-001 96689 -7.6061e+000  1.1620e+000  5.3480e-001 36215 96507,96559,96533
 1.0000e-001 97161 -5.7811e+000  5.2544e+000  5.2838e-001 35818 97184,96965,96939
 1.0000e-001 97138 -4.9180e+000  5.6305e+000  1.1101e+000 35818 97184,96939,96887
 1.0000e-001 97115 -4.5404e+000  7.4407e+000 -1.4357e+000 35818 96965,97043,97017
 1.0000e-001 97092 -5.5090e+000  7.7243e+000  1.7803e+000 35818 96887,96939,96913
 1.0000e-001 97069 -9.4849e-001  1.4292e+001  8.9765e-001 35818 96965,97017,96991
 1.0000e-001 97210 -6.7810e+000  5.6416e+000  2.1134e-001 35818 97043,96965,97184
 1.0000e-001 97233 -5.9797e+000  5.8432e+000  7.1968e-001 35818 97043,97184,96887
 1.0000e-001 97739  7.8656e+000  2.0958e+001  1.9447e+000 35214 97416,97468,97442
 1.0000e-001 97716  6.2558e+000  1.4469e+001  1.3309e+000 35214 97416,97598,97468
 1.0000e-001 97693 -3.8163e-001  1.1818e+001 -3.2844e+000 35214 97762,97520,97468
 1.0000e-001 97670  1.8637e+000  1.3888e+001 -8.6227e-001 35214 97762,97468,97598
 1.0000e-001 97647  2.3111e+000  1.6793e+001  8.3332e-001 35214 97546,97598,97572
 1.0000e-001 97624 -8.8375e+000  1.3390e+001 -2.6173e+000 35214 97468,97520,97494
 1.0000e-001 97788  4.5724e-001  1.4951e+001 -1.2339e+000 35214 97546,97520,97762
 1.0000e-001 97811  1.4898e+000  1.6441e+001  9.7748e-001 35214 97546,97762,97598
 1.0000e-001 98189 -9.2837e-002  1.3181e+001 -2.8430e+000 34760 98356,98212,97967
 1.0000e-001 98166  4.8216e+000  2.0241e+001 -1.5505e+000 34760 98284,98212,97941
 1.0000e-001 98143  6.7104e+000  1.9355e+001 -2.2996e+000 34760 98284,97941,97915
 1.0000e-001 98120  1.6365e+000  1.6333e+001 -1.2672e-001 34760 98484,97993,97967
 1.0000e-001 98097  6.9478e+000  1.8500e+001 -1.5647e+000 34760 98556,98045,98019
 1.0000e-001 98238  2.3125e+000  1.6053e+001 -5.7289e-004 34760 98484,97967,98212
 1.0000e-001 98261  4.8720e+000  1.8203e+001 -5.5129e-001 34760 98556,98019,98212
 1.0000e-001 98310  2.9266e+000  1.8785e+001 -5.7334e-001 34760 98071,98212,98284
 1.0000e-001 98333  4.4810e+000  1.6652e+001 -8.8160e-001 34760 98071,98284,97915
 1.0000e-001 98382  8.3943e+000  2.0859e+001  3.8607e-001 34760 97941,98212,98356
 1.0000e-001 98510  2.1002e-001  1.6308e+001  2.1901e-001 34760 98019,97993,98484
 1.0000e-001 98533  1.4186e+000  1.6434e+001  3.7879e-001 34760 98019,98484,98212
 1.0000e-001 98582  4.1350e+000  1.8463e+001 -1.4210e+000 34760 98071,98045,98556
 1.0000e-001 98605  3.1774e+000  1.9013e+001 -3.7735e-001 34760 98071,98556,98212
 1.0000e-001 99032 -3.6949e+000  4.0621e+000  8.9160e-001 34156 98735,98891,98839
 1.0000e-001 99009 -4.4610e+000  7.1953e+000  5.6032e+000 34156 98709,98891,98735
 1.0000e-001 98986 -3.6779e+000  7.4038e+000 -7.5466e-001 34156 98735,98813,98787
 1.0000e-001 98963 -3.2584e+000  8.5330e+000 -6.3516e-001 34156 98735,98839,98813
 1.0000e-001 98940 -4.0573e+000  1.0373e+001 -6.0635e-001 34156 98735,98787,98761
 1.0000e-001 98917 -1.3117e+000  1.0677e+001 -4.6073e+000 34156 98839,98891,98865
 1.0000e-001 99231 -1.4594e+000  1.0529e+001 -1.1608e+000 33766 99055,99133,99107
 1.0000e-001 99208 -1.2036e+000  1.0431e+001 -1.2217e+000 33766 99055,99159,99133
 1.0000e-001 99185  7.8951e-001  1.6357e+001 -7.2044e-001 33766 99055,99107,99081
 1.0000e-001 99818  4.7589e+000  1.5762e+001 -1.3176e-001 33248 99521,99651,99573
 1.0000e-001 99795 -1.1032e+000  1.2148e+001 -2.3544e+000 33248 99521,99677,99651
 1.0000e-001 99772  6.8978e+000  1.9899e+001  6.5541e-001 33248 99573,99651,99599
 1.0000e-001 99749  1.8061e+000  1.9441e+001 -1.3168e+000 33248 99495,99677,99521
 1.0000e-001 99726  3.4445e+000  1.8980e+001  3.1890e+000 33248 99599,99651,99625
 1.0000e-001 99703  7.0377e+000  1.9710e+001 -1.2573e+000 33248 99521,99573,99547
 1.0000e-001 100196 -1.1208e+000  1.3264e+001  2.2899e+000 32794 100219,99948,99922
 1.0000e-001 100173 -1.7082e+000  1.1170e+001 -1.9883e+000 32794 100219,99922,100052
 1.0000e-001 100150  3.4423e-002  1.0499e+001 -5.2464e-001 32794 99974,100052,100026
 1.0000e-001 100127 -5.5507e+000  9.7645e+000 -1.1934e+000 32794 99922,100078,100052
 1.0000e-001 100104 -9.5773e-001  1.5457e+001 -4.8450e+000 32794 99974,100026,100000
 1.0000e-001 100245  3.8396e+000  1.6709e+001  4.8484e+000 32794 99974,99948,100219
 1.0000e-001 100268  7.8282e-001  1.2659e+001  2.5590e-001 32794 99974,100219,100052
 1.0000e-001 100418 -4.8039e+000  7.0611e+000 -4.4126e-001 32504 100571,100343,100317
 1.0000e-001 100395 -1.6163e+000  8.5333e+000 -3.2813e+000 32504 100571,100317,100441
 1.0000e-001 100467 -7.9722e+000  8.5866e-001  1.1304e+000 32504 100291,100369,100441
 1.0000e-001 100597 -6.5965e+000  4.4817e+000  1.8643e+000 32504 100369,100343,100571
 1.0000e-001 100620 -5.2797e+000  3.4585e+000 -6.3404e-001 32504 100369,100571,100441
 1.0000e-001 101020  1.3493e+000  1.6037e+001 -1.7492e+000 32142 100772,100902,100876
 1.0000e-001 100997  4.9045e+000  2.1212e+001 -1.9935e-001 32142 100746,100902,100772
 1.0000e-001 100974  4.7512e+000  2.0154e+001  7.7107e-002 32142 101043,100824,100798
 1.0000e-001 100951  2.8823e+000  1.9522e+001 -1.7030e-001 32142 101043,100798,100772
 1.0000e-001 100928  1.1353e+001  2.1567e+001  3.7701e+000 32142 101115,100876,100850
 1.0000e-001 101069  2.4905e+000  1.9242e+001  2.1072e+000 32142 100850,100824,101043
 1.0000e-001 101092  7.5908e+000  2.1379e+001  2.4314e+000 32142 101115,100850,101043
 1.0000e-001 101141  6.7682e+000  2.0388e+001  1.0257e+000 32142 100772,100876,101115
 1.0000e-001 101164  4.1200e+000  2.0352e+001 -5.7122e-001 32142 100772,101115,101043
 1.0000e-001 101719 -3.2881e+000  6.8314e+000 -3.5385e-001 31538 101742,101477,101399
 1.0000e-001 101696 -2.4379e+000  7.7697e+000  7.6402e-002 31538 101814,101742,101399
 1.0000e-001 101673 -1.3729e+000  5.8874e+000  1.5358e+000 31538 101814,101399,101373
 1.0000e-001 101650 -6.4774e+000  7.1440e+000  2.3943e+000 31538 101425,101477,101451
 1.0000e-001 101627 -7.5754e+000  4.0734e+000  8.6031e-001 31538 101399,101477,101425
 1.0000e-001 101604 -2.3207e+000  1.1254e+001 -1.1753e+000 31538 101477,101529,101503
 1.0000e-001 101581 -1.2229e+001  3.2456e+000  2.3805e+000 31538 101347,101555,101373
 1.0000e-001 101768 -2.3163e+000  7.5855e+000 -9.5308e-001 31538 101529,101477,101742
 1.0000e-001 101791 -4.0296e+000  7.1117e+000 -2.2563e-001 31538 101529,101742,101555
 1.0000e-001 101840 -4.9995e+000  5.9509e+000  8.7481e-001 31538 101555,101742,101814
 1.0000e-001 101863 -3.5470e+000  4.3809e+000  2.2072e+000 31538 101555,101814,101373
 1.0000e-001 102111 -4.8796e+000  6.3496e+000 -8.4047e-001 31112 101886,101990,101912
 1.0000e-001 102088 -6.4653e+000  3.6276e+000 -1.1816e-001 31112 101886,102016,101990
 1.0000e-001 102065 -7.3007e+000  3.6930e+000  1.5873e+000 31112 101912,101990,101964
 1.0000e-001 102042 -5.5237e+000  1.0101e+001  1.2593e+000 31112 101912,101964,101938
 1.0000e-001 102408 -7.8108e-001  9.0457e+000  6.9622e-002 30658 102431,102186,102160
 1.0000e-001 102385 -1.6944e+000  8.2028e+000  6.5064e-001 30658 102431,102160,102264
 1.0000e-001 102362 -2.1529e+000  1.0097e+001  2.2380e-001 30658 102186,102238,102212
 1.0000e-001 102339 -3.8895e+000  6.5613e+000 -3.8807e-001 30658 102134,102264,102160
 1.0000e-001 102316 -4.2155e+000  5.2784e+000  1.8262e+000 30658 102134,102290,102264
 1.0000e-001 102457 -2.0723e+000  9.9748e+000  5.0754e-002 30658 102238,102186,102431
 1.0000e-001 102480 -2.9176e+000  9.2337e+000  6.2608e-001 30658 102238,102431,102264
 1.0000e-001 102681 -1.6301e+000  1.2060e+001  3.0491e-001 30004 102704,102557,102505
 1.0000e-001 102658 -2.1556e+000  1.3888e+001 -5.1777e-001 30004 102704,102505,102609
 1.0000e-001 102635 -2.3256e+000  1.1523e+001  1.0561e+000 30004 102505,102557,102531
 1.0000e-001 102730 -1.6060e+000  1.0500e+001  4.7555e-001 30004 102583,102557,102704
 1.0000e-001 102753 -2.2354e+000  1.1774e+001 -8.7583e-001 30004 102583,102704,102609
 1.0000e-001 103003 -2.5173e+000  9.2005e+000  2.7909e-001 29564 103026,102804,102778
 1.0000e-001 102980 -2.7395e+000  8.3695e+000  1.6324e-001 29564 103026,102778,102908
 1.0000e-001 102957 -4.6094e+000  8.9074e+000 -7.5397e-002 29564 102856,102908,102882
 1.0000e-001 102934 -3.0472e+000  1.1568e+001  2.9985e-001 29564 102804,102856,102830
 1.0000e-001 103052 -2.5479e+000  9.5758e+000  8.4135e-001 29564 102856,102804,103026
 1.0000e-001 103075 -2.7900e+000  8.9211e+000  6.4924e-001 29564 102856,103026,102908
 1.0000e-001 103634  1.9753e+000  1.4870e+001  8.0036e-001 29160 103657,103418,103392
 1.0000e-001 103611  1.3922e+000  1.3684e+001 -3.7216e-001 29160 103657,103392,103314
 1.0000e-001 103588  1.8106e+000  1.3387e+001 -4.5399e-001 29160 103314,103392,103366
 1.0000e-001 103565  1.4286e+000  1.5385e+001 -2.8064e-001 29160 103314,103366,103340
 1.0000e-001 103542  8.7056e-001  8.9691e+000 -7.6541e-001 29160 103262,103444,103314
 1.0000e-001 103519  6.3677e+000  1.7567e+001  5.0344e+000 29160 103262,103314,103288
 1.0000e-001 103496 -4.0215e+000  1.6044e+001 -5.5808e+000 29160 103262,103470,103444
 1.0000e-001 103683  3.9112e+000  1.6708e+001  2.8354e+000 29160 103444,103418,103657
 1.0000e-001 103706  1.9379e+000  1.3301e+001  1.4419e+000 29160 103444,103657,103314
 1.0000e-001 104035 -2.3801e+000  8.5040e+000  6.3646e-001 28770 103836,103914,103862
 1.0000e-001 104012 -2.1256e+000  7.6809e+000 -1.2226e-002 28770 103810,103914,103836
 1.0000e-001 103989 -8.1836e+000  5.3400e+000  2.2929e-001 28770 103810,103940,103914
 1.0000e-001 103966 -2.5304e+000  1.0298e+001  5.2289e-001 28770 103862,103914,103888
 1.0000e-001 104185  2.1596e+000  1.7060e+001 -9.8041e-001 28366 104208,104110,104084
 1.0000e-001 104162 -1.6278e+000  1.2522e+001 -3.3633e+000 28366 104280,104208,104084
 1.0000e-001 104234 -4.1703e-001  1.4757e+001 -1.0270e+000 28366 104610,104208,104136
 1.0000e-001 104257  4.4473e+000  1.6983e+001 -1.7052e+000 28366 104538,104410,104208
 1.0000e-001 104306  6.7034e+000  1.6959e+001 -1.5119e+000 28366 104538,104208,104280
 1.0000e-001 104436  2.0314e+000  1.6439e+001 -1.5005e-002 28366 104136,104208,104410
 1.0000e-001 104564  6.7869e+000  1.7237e+001 -5.1839e-001 28366 104058,104410,104538
 1.0000e-001 104587  8.2213e+000  1.6726e+001 -2.0355e-001 28366 104058,104538,104280
 1.0000e-001 104636  2.1477e+000  1.5918e+001 -6.9616e-001 28366 104110,104208,104610
 1.0000e-001 105349 -3.5060e+000  6.3483e+000  2.8122e-001 27976 105516,105372,105107
 1.0000e-001 105326 -1.5252e+000  7.7685e+000 -7.0543e-001 27976 105588,105372,105055
 1.0000e-001 105303  2.0045e+000  8.1230e+000  1.3280e+000 27976 105444,105159,105133
 1.0000e-001 105280 -5.6414e+000  7.2313e+000 -5.9847e-001 27976 105516,105107,105081
 1.0000e-001 105257 -1.1873e+000  9.3959e+000 -9.3192e-001 27976 105588,105055,105029
 1.0000e-001 105234 -5.8228e+000  3.1274e+000  1.7976e+000 27976 105003,105185,105159
 1.0000e-001 105211 -6.3132e+000  4.7638e+000  2.9100e+000 27976 104977,105185,105003
 1.0000e-001 105398 -4.3896e+000  7.7480e+000  8.4586e-001 27976 105133,105107,105372
 1.0000e-001 105421 -1.5566e+000  8.9078e+000  7.3431e-001 27976 105444,105133,105372
 1.0000e-001 105470 -2.1038e+000  5.7071e+000  1.9966e-001 27976 105003,105159,105444
 1.0000e-001 105493 -3.8751e+000  7.6098e+000 -2.4134e-001 27976 105003,105444,105372
 1.0000e-001 105542 -4.9847e+000  5.8733e+000 -1.4390e+000 27976 105055,105372,105516
 1.0000e-001 105565 -8.1345e+000  6.3821e+000 -2.1231e+000 27976 105055,105516,105081
 1.0000e-001 105614 -1.7897e+000  9.4532e+000 -1.5995e+000 27976 105003,105372,105588
 1.0000e-001 105637 -1.5166e+000  1.0798e+001 -1.9350e+000 27976 105003,105588,105029
 1.0000e-001 106143  5.2666e+000  2.0181e+001  1.0958e+000 27664 106166,105846,105820
 1.0000e-001 106120  7.0266e+000  1.8496e+001  8.1051e-003 27664 106310,106166,105820
 1.0000e-001 106097  8.3698e+000  1.6656e+001  2.0260e+000 27664 106382,106238,105950
 1.0000e-001 106074  4.4471e+000  1.9992e+001 -1.3957e+000 27664 106310,105820,106002
 1.0000e-001 106051  8.0736e+000  1.6817e+001  2.3302e+000 27664 106382,105950,105924
 1.0000e-001 106028  6.1493e+000  2.8081e+001  2.1975e+000 27664 105846,105898,105872
 1.0000e-001 106192  8.1028e+000  2.3009e+001  3.8598e+000 27664 105898,105846,106166
 1.0000e-001 106215  5.1509e+000  1.7738e+001  1.7219e+000 27664 106238,105898,106166
 1.0000e-001 106264  1.0627e+001  1.7402e+001  2.1492e+000 27664 105976,105950,106238
 1.0000e-001 106287  8.7019e+000  1.9488e+001  8.3159e-001 27664 105976,106238,106166
 1.0000e-001 106336  4.5959e+000  1.6361e+001 -1.4468e+000 27664 105976,106166,106310
 1.0000e-001 106359  1.8755e+000  1.7856e+001 -2.8271e+000 27664 105976,106310,106002
 1.0000e-001 106408  8.7901e+000  1.7246e+001  1.7445e+000 27664 105898,106238,106382
 1.0000e-001 106431  8.4586e+000  1.7216e+001  2.0802e+000 27664 105898,106382,105924
 1.0000e-001 106728 -1.0470e+000  1.0155e+001 -5.7178e-001 27153 106751,106506,106454
 1.0000e-001 106705 -1.0410e+000  1.0541e+001 -1.8400e-001 27153 106751,106454,106610
 1.0000e-001 106682 -2.6888e-001  1.0943e+001 -1.0342e-001 27153 106454,106506,106480
 1.0000e-001 106659 -1.4672e+000  1.0618e+001 -4.7092e-001 27153 106532,106610,106584
 1.0000e-001 106636 -7.1848e-001  9.4298e+000 -7.6013e-001 27153 106532,106584,106558
 1.0000e-001 106777 -1.4637e+000  9.5631e+000 -7.9348e-001 27153 106532,106506,106751
 1.0000e-001 106800 -1.2513e+000  1.0197e+001 -3.6076e-001 27153 106532,106751,106610
 1.0000e-001 107180  1.1557e+000  1.3203e+001  1.3771e+000 26642 107203,106984,106958
 1.0000e-001 107157  8.3528e-001  1.2648e+001 -2.0457e-001 26642 107203,106958,106932
 1.0000e-001 107134  5.1011e+000  1.3274e+001 -1.2386e+000 26642 107275,107036,107010
 1.0000e-001 107111 -9.0030e-001  1.0748e+001  2.1800e-002 26642 106932,107062,107036
 1.0000e-001 107088 -5.6826e+000  8.5538e+000 -5.9028e-001 26642 106906,107062,106932
 1.0000e-001 107229 -1.7259e+000  7.8018e+000  3.0752e+000 26642 107010,106984,107203
 1.0000e-001 107252  3.4780e+000  1.3266e+001  3.3610e-001 26642 107275,107010,107203
 1.0000e-001 107301  2.5635e+000  1.2452e+001 -6.9273e-001 26642 106932,107036,107275
 1.0000e-001 107324  9.7884e-001  1.3164e+001  1.3189e-001 26642 106932,107275,107203
 1.0000e-001 107675 -3.1736e+000  7.8407e+000  1.2074e-001 26045 107450,107554,107476
 1.0000e-001 107652 -4.6808e+000  9.2589e+000 -9.9703e-001 26045 107450,107580,107554
 1.0000e-001 107629 -1.1269e+001  6.1590e+000 -1.6767e+000 26045 107476,107528,107502
 1.0000e-001 107606 -6.6337e+000  5.2173e+000 -1.5791e+000 26045 107476,107554,107528
 1.0000e-001 107874 -1.9884e+000  1.1738e+001 -7.0128e-001 25641 107750,107802,107776
 1.0000e-001 107851 -1.2816e+000  9.5538e+000  4.9406e-001 25641 107724,107802,107750
 1.0000e-001 107828 -2.4179e+000  8.6199e+000 -1.6405e-001 25641 107698,107802,107724
 1.0000e-001 108431 -4.2743e+000  7.4078e+000 -8.4382e-001 25023 108526,108267,108241
 1.0000e-001 108408 -4.3357e+000  6.2360e+000  3.4040e+000 25023 108059,108267,108085
 1.0000e-001 108385 -1.8987e+000  9.1229e+000  4.8714e-001 25023 108454,108163,108111
 1.0000e-001 108362 -1.1631e+000  8.3677e+000 -6.4411e-001 25023 108454,108111,108085
 1.0000e-001 108339 -3.0378e+000  9.5374e+000  3.2789e-001 25023 108111,108163,108137
 1.0000e-001 108316  1.7333e+000  7.3777e+000  9.7970e-001 25023 108163,108241,108215
 1.0000e-001 108293 -3.2710e+000  4.6306e+000 -2.1862e+000 25023 108163,108215,108189
 1.0000e-001 108480 -1.9332e+000  8.3066e+000 -2.5554e-001 25023 108241,108163,108454
 1.0000e-001 108503 -3.3193e+000  7.7459e+000 -1.0173e+000 25023 108526,108241,108454
 1.0000e-001 108552 -2.9557e+000  6.4255e+000 -1.8956e-001 25023 108085,108267,108526
 1.0000e-001 108575 -1.9782e+000  6.7764e+000 -3.5095e-001 25023 108085,108526,108454
 1.0000e-001 108823  1.2551e+000  1.1253e+001 -2.0886e+000 24461 108624,108728,108650
 1.0000e-001 108800  3.5500e+000  2.2313e+001  1.0435e+000 24461 108598,108728,108624
 1.0000e-001 108777  4.8831e+000  1.8879e+001 -1.5611e-001 24461 108650,108728,108676
 1.0000e-001 108754  1.7614e+000  2.8003e+001 -6.1639e+000 24461 108676,108728,108702
 1.0000e-001 109022 -1.9470e+000  8.8111e+000 -4.7583e-002 24121 108872,108924,108898
 1.0000e-001 108999 -1.1253e+000  9.2348e+000  1.7787e-001 24121 108846,108924,108872
 1.0000e-001 108976 -3.6686e+000  8.5818e+000 -8.3675e-001 24121 108846,108950,108924
 1.0000e-001 109483 -2.8616e+000  8.6820e+000  1.3520e+000 23717 109209,109339,109235
 1.0000e-001 109460  3.3127e-001  1.3407e+001 -5.8113e-002 23717 109209,109365,109339
 1.0000e-001 109437 -1.4640e+000  1.1820e+001  1.1009e+000 23717 109287,109339,109313
 1.0000e-001 109414  3.1046e+000  1.2010e+001  3.4482e-002 23717 109235,109339,109287
 1.0000e-001 109391 -1.3613e+000  1.5159e+001 -3.8008e+000 23717 109235,109287,109261
 1.0000e-001 109910 -4.3485e-001  1.0393e+001  1.4008e-001 23305 109613,109743,109717
 1.0000e-001 109887 -1.8402e+000  9.8758e+000 -2.7616e-001 23305 109613,109769,109743
 1.0000e-001 109864  2.0917e+000  9.1261e+000 -4.0985e-001 23305 109613,109717,109639
 1.0000e-001 109841 -1.5068e+000  1.1445e+001 -2.3988e-001 23305 109587,109769,109613
 1.0000e-001 109818 -3.0843e+000  6.8810e+000  9.6552e-001 23305 109639,109717,109691
 1.0000e-001 109795 -3.0266e+000  8.9196e+000 -1.3456e+000 23305 109639,109691,109665
 1.0000e-001 110180 -6.1937e+000  2.6713e+000  2.7766e-001 22851 110007,110059,110033
 1.0000e-001 110157 -3.2550e+000  9.3171e+000  7.9013e-001 22851 109981,110059,110007
 1.0000e-001 110134 -4.2866e+000  8.4571e+000  3.6541e-001 22851 109955,110059,109981
 1.0000e-001 110111 -5.1348e+000  7.4721e+000  7.3722e-001 22851 109955,110085,110059
 1.0000e-001 110737  6.0156e+000  1.2139e+001 -2.5331e-002 22333 110760,110469,110391
 1.0000e-001 110714  1.9888e+000  1.2014e+001  1.2959e-001 22333 110760,110391,110365
 1.0000e-001 110691  1.4278e+000  1.0095e+001 -1.2608e+000 22333 110832,110521,110469
 1.0000e-001 110668  1.0524e+001  8.5837e+000  1.3687e+000 22333 110417,110469,110443
 1.0000e-001 110645  4.7217e+000  9.8958e+000  1.2606e+000 22333 110391,110469,110417
 1.0000e-001 110622 -2.8728e+000  9.2391e+000 -3.7049e+000 22333 110469,110521,110495
 1.0000e-001 110599  3.9080e+000  1.2700e+001 -1.2974e+000 22333 110365,110573,110547
 1.0000e-001 110786  2.3750e+000  1.0284e+001 -1.3438e+000 22333 110832,110469,110760
 1.0000e-001 110809  2.4979e+000  1.3447e+001  2.4540e-001 22333 110547,110760,110365
 1.0000e-001 110858 -2.4485e+000  1.1054e+001 -1.4538e-001 22333 110547,110521,110832
 1.0000e-001 110881  1.0337e+000  1.2740e+001  4.6190e-001 22333 110547,110832,110760
 1.0000e-001 111308  2.0001e+000  1.2372e+001 -2.2240e-001 21829 111331,111063,111011
 1.0000e-001 111285  4.5324e-002  1.0922e+001  7.4474e-001 21829 111331,111011,111167
 1.0000e-001 111262  1.9505e+000  1.2311e+001 -8.8705e-001 21829 111403,111089,111063
 1.0000e-001 111239  5.1495e+000  1.5533e+001 -2.2068e+000 21829 111011,111063,111037
 1.0000e-001 111216 -1.0305e+000  1.4074e+001  9.6153e-003 21829 110985,111167,111011
 1.0000e-001 111193  5.9829e+000  2.2898e+001 -4.3196e+000 21829 111089,111141,111115
 1.0000e-001 111357  1.5183e+000  1.2786e+001 -8.5266e-001 21829 111403,111063,111331
 1.0000e-001 111380  1.2904e+000  1.1662e+001 -6.0264e-001 21829 111141,111331,111167
 1.0000e-001 111429  4.8251e+000  1.3056e+001 -4.6002e-001 21829 111141,111089,111403
 1.0000e-001 111452  2.7039e+000  1.2172e+001 -8.9556e-001 21829 111141,111403,111331
 1.0000e-001 112056 -4.1468e+000  1.4242e+001  1.0671e+000 21489 111687,111765,111739
 1.0000e-001 112033  2.8641e+000  1.4051e+001  2.3235e-001 21489 112151,112079,111687
 1.0000e-001 112010  8.1318e+000  1.2452e+001  2.7958e+000 21489 111791,111843,111817
 1.0000e-001 111987  5.2289e+000  1.4097e+001  1.6522e+000 21489 112079,111843,111791
 1.0000e-001 111964  1.2672e+000  1.4622e+001 -9.2193e-001 21489 112151,111687,111661
 1.0000e-001 111941  4.2279e+000  9.9737e+000 -2.9425e+000 21489 111661,111869,111843
 1.0000e-001 111918 -1.3914e+000  1.6429e+001 -6.4547e-001 21489 111687,111739,111713
 1.0000e-001 111895  6.1417e+000  1.4596e+001  3.1410e+000 21489 111635,111869,111661
 1.0000e-001 112105  3.9361e+000  1.7392e+001  1.5103e+000 21489 111765,111687,112079
 1.0000e-001 112128  1.5471e+000  1.3970e+001  2.5777e+000 21489 111765,112079,111791
 1.0000e-001 112177  5.8238e+000  1.5012e+001  3.6804e-001 21489 111843,112079,112151
 1.0000e-001 112200  4.0893e+000  1.5608e+001 -6.3708e-001 21489 111843,112151,111661
 1.0000e-001 112578  4.9465e+000  1.8976e+001 -5.2905e-002 21177 112382,112434,112408
 1.0000e-001 112555  4.8236e+000  1.7530e+001  2.4546e-001 21177 112330,112434,112382
 1.0000e-001 112532  3.4304e+000  1.5479e+001 -1.6222e+000 21177 112304,112434,112330
 1.0000e-001 112509  5.3034e+000  1.9058e+001  0.0000e+000 21177 112330,112382,112356
 1.0000e-001 112486  1.1635e+000  1.8317e+001 -2.4972e+000 21177 112304,112460,112434
 1.0000e-001 112679  7.9045e+000  2.8893e+001  1.6583e+000 20666 112601,112653,112627
 1.0000e-001 112927 -1.2745e+000  9.7900e+000 -2.2744e-001 19762 112702,112754,112728
 1.0000e-001 112904 -1.5319e+000  7.8947e+000  2.2074e-001 19762 112702,112832,112754
 1.0000e-001 112881 -3.5685e-001  9.8681e+000 -4.1146e-001 19762 112754,112832,112806
 1.0000e-001 112858  3.8198e-001  1.3092e+001 -1.1767e+000 19762 112754,112806,112780
 1.0000e-001 113297 -2.2873e+000  9.4879e+000 -6.7800e-001 19308 112974,113052,113026
 1.0000e-001 113274 -4.0616e+000  8.7196e+000 -1.0733e-001 19308 112974,113156,113052
 1.0000e-001 113251 -4.4680e+000  1.1053e+001  1.3504e+000 19308 113052,113130,113104
 1.0000e-001 113228 -5.2868e+000  6.6070e+000 -7.3648e-001 19308 113052,113156,113130
 1.0000e-001 113205 -3.9004e+000  9.5323e+000  0.0000e+000 19308 113052,113104,113078
 1.0000e-001 113182 -1.8907e+000  9.0241e+000 -2.5922e-001 19308 112974,113026,113000
 1.0000e-001 113547  1.1602e+000  1.2350e+001  9.0547e-002 18711 113570,113374,113348
 1.0000e-001 113524  7.1337e-001  1.2044e+001 -4.5832e-002 18711 113570,113348,113452
 1.0000e-001 113501 -4.1839e-001  5.8796e+000  3.2431e+000 18711 113322,113452,113348
 1.0000e-001 113478  2.9982e+000  1.3694e+001 -2.0806e-002 18711 113374,113426,113400
 1.0000e-001 113596  2.2213e+000  1.1769e+001  3.0548e-002 18711 113426,113374,113570
 1.0000e-001 113619  1.3354e+000  1.1177e+001 -2.2687e-001 18711 113426,113570,113452
 1.0000e-001 113771 -3.3817e-001  1.1037e+001  4.9068e-001 18307 113670,113722,113696
 1.0000e-001 113748 -1.8207e+000  1.2289e+001  5.2277e-001 18307 113644,113722,113670
 1.0000e-001 113972 -1.2590e+000  9.8817e+000  2.0961e-002 17945 113822,113874,113848
 1.0000e-001 113949 -1.0645e+000  9.7590e+000 -9.1534e-002 17945 113822,113900,113874
 1.0000e-001 113926  8.7343e-001  1.2075e+001 -2.3337e+000 17945 113796,113900,113822
 1.0000e-001 114075 -7.7236e+000  1.2652e+001 -1.9696e+000 17482 113997,114049,114023
 1.0000e-001 114479 -1.6091e+000  9.3028e+000  3.6248e-001 17042 114257,114361,114335
 1.0000e-001 114456 -3.6443e+000  6.6526e+000  1.3539e+000 17042 114205,114361,114257
 1.0000e-001 114433 -2.3165e+000  9.4744e+000  1.0381e-001 17042 114205,114257,114231
 1.0000e-001 114410 -2.5211e+000  1.3610e+001  1.0425e+000 17042 114283,114335,114309
 1.0000e-001 114387 -4.4599e-001  9.9181e+000  1.0734e+000 17042 114257,114335,114283
 1.0000e-001 114879  1.5747e+001  1.9982e+001  8.5696e-001 16638 114631,114683,114657
 1.0000e-001 114856  1.2486e+001  1.8679e+001  5.2876e-001 16638 114605,114683,114631
 1.0000e-001 114833  9.9754e+000  1.6729e+001  2.4445e+000 16638 114605,114761,114683
 1.0000e-001 114810  8.0948e+000  2.1265e+001  4.3498e-001 16638 114683,114735,114709
 1.0000e-001 114787  1.1758e+001  2.3902e+001  1.6512e+000 16638 114683,114761,114735
 1.0000e-001 115078  5.5922e-001  1.2980e+001 -6.7341e-001 16232 114954,115006,114980
 1.0000e-001 115055  1.9048e+000  1.7280e+001 -1.8559e+000 16232 114928,115006,114954
 1.0000e-001 115032 -5.6786e+000  2.3555e+001 -3.6321e+000 16232 114902,115006,114928
 1.0000e-001 115228  2.2319e+000  1.4770e+001 -5.3234e-001 15482 115101,115153,115127
 1.0000e-001 115205  1.5778e+000  1.4293e+001 -2.7790e-001 15482 115101,115179,115153
 1.0000e-001 115331  5.7980e+000  1.9029e+001  2.9145e+000 15163 115253,115305,115279
 1.0000e-001 115434  1.0430e+001  2.1701e+001 -3.8148e+000 421 115356,115408,115382
 2.0000e-001 68213 -3.2310e+001  1.4004e+001  4.1906e+000 67888 68112,68164,68138
 2.0000e-001 68190  1.2973e+001  2.8116e+001  6.0470e+000 67888 68086,68164,68112
 2.0000e-001 68314 -3.7752e+001  2.7043e+001 -7.1709e+000 67576 68236,68288,68262
 2.0000e-001 68584 -3.6906e+001 -1.1321e+001  4.7379e-001 67378 68385,68489,68463
 2.0000e-001 68561 -2.0964e+001 -4.3187e+000 -6.2380e-001 67378 68359,68489,68385
 2.0000e-001 68538 -3.5630e+001 -5.2696e+000  1.0103e+000 67378 68385,68463,68411
 2.0000e-001 68515 -4.1121e+001  4.0164e+000  3.9400e+000 67378 68411,68463,68437
 2.0000e-001 68964 -2.0559e+001 -2.1353e+000 -2.4769e+000 67130 68690,68820,68716
 2.0000e-001 68941 -2.2430e+001  5.3767e+000 -2.2226e+000 67130 68690,68846,68820
 2.0000e-001 68918 -3.8655e+001 -9.9670e+000  6.7202e+000 67130 68742,68820,68794
 2.0000e-001 68895 -3.6603e+001 -6.1663e+000  3.9674e+000 67130 68716,68820,68742
 2.0000e-001 68872 -3.6353e+001 -2.2004e+000  9.2295e+000 67130 68742,68794,68768
 2.0000e-001 69065 -1.9747e+001  1.9983e+001 -8.0968e-001 66926 68987,69039,69013
 2.0000e-001 69445 -2.5828e+001  1.7957e+001  4.0889e+000 66614 69223,69301,69275
 2.0000e-001 69422 -1.5516e+001  2.3388e+001  1.8711e+000 66614 69171,69301,69223
 2.0000e-001 69399 -1.3229e+001  2.2322e+001  7.0163e-001 66614 69171,69327,69301
 2.0000e-001 69376 -2.3226e+001  5.1632e+000 -3.6722e+000 66614 69223,69275,69249
 2.0000e-001 69353 -1.7540e+001  2.4892e+001  1.5949e+000 66614 69171,69223,69197
 2.0000e-001 69546 -3.2708e+001  2.8456e+000 -8.3089e+000 66416 69468,69520,69494
 2.0000e-001 69997 -1.4227e+001  8.2404e+000  5.8161e-001 66104 69700,69830,69726
 2.0000e-001 69974 -1.4014e+001  3.0073e+000 -1.2361e+000 66104 69700,69856,69830
 2.0000e-001 69951 -8.3730e+000  1.4340e+000  3.3510e+000 66104 69726,69804,69778
 2.0000e-001 69928 -1.7207e+001  2.4416e+000  1.6527e+000 66104 69726,69830,69804
 2.0000e-001 69905 -9.8605e+000 -1.8977e+000  1.1730e+000 66104 69726,69778,69752
 2.0000e-001 69882 -7.8111e+000  9.0439e-001 -4.9533e+000 66104 69674,69856,69700
 2.0000e-001 70326 -1.2377e+001  1.0771e+001 -1.3979e+000 65814 70349,70153,70127
 2.0000e-001 70303 -1.3079e+001  1.4092e+001 -4.5008e+000 65814 70349,70127,70101
 2.0000e-001 70280 -8.4818e+000  3.9995e+000 -1.2378e+001 65814 70101,70231,70205
 2.0000e-001 70257 -9.7808e+000  1.1011e+001  2.2896e+000 65814 70153,70205,70179
 2.0000e-001 70375 -1.3297e+001  5.5623e+000  4.4319e-003 65814 70205,70153,70349
 2.0000e-001 70398 -1.2461e+001  1.0177e+001 -3.4782e+000 65814 70205,70349,70101
 2.0000e-001 70904 -2.3336e+001 -4.3748e+000 -1.8061e+000 65502 70607,70737,70685
 2.0000e-001 70881 -2.5910e+001 -1.1432e+001  1.4900e+000 65502 70581,70737,70607
 2.0000e-001 70858 -2.3683e+001 -7.1545e+000  6.1055e-001 65502 70581,70763,70737
 2.0000e-001 70835 -3.2394e+001 -7.0007e+000  2.9869e+000 65502 70685,70737,70711
 2.0000e-001 70812  3.1846e+000  2.5321e-001  1.9044e+000 65502 70607,70659,70633
 2.0000e-001 70789 -1.9625e+001  5.6600e+000  2.8733e+000 65502 70607,70685,70659
 2.0000e-001 71103 -2.3969e+001  1.8661e+001  1.4149e+000 65304 71126,70979,70953
 2.0000e-001 71080 -2.2445e+001  1.8149e+001  1.2865e+000 65304 71126,70953,70927
 2.0000e-001 71057 -1.5764e+001  2.5219e+001  5.3204e+000 65304 70927,71031,71005
 2.0000e-001 71152 -2.2373e+001  1.8570e+001  1.9292e+000 65304 71005,70979,71126
 2.0000e-001 71175 -2.0847e+001  1.8025e+001  1.4664e+000 65304 71005,71126,70927
 2.0000e-001 71374 -1.8824e+001  8.8050e+000  3.1070e+000 65106 71198,71276,71224
 2.0000e-001 71351 -3.7672e+001  1.7041e+000  4.0171e-001 65106 71198,71302,71276
 2.0000e-001 71328 -1.9403e+001  6.7259e+000 -3.4824e-001 65106 71224,71276,71250
 2.0000e-001 71756 -2.0622e+001  1.6987e+001  3.1359e+000 64652 71508,71638,71534
 2.0000e-001 71733 -5.3332e+001  3.0052e+000  5.2071e+000 64652 71482,71638,71508
 2.0000e-001 71710 -1.5155e+001  9.8428e+000 -1.5459e+000 64652 71534,71586,71560
 2.0000e-001 71687 -1.5368e+001  1.1472e+001 -7.4541e-001 64652 71534,71612,71586
 2.0000e-001 71664 -3.2960e+001  6.4710e+000 -1.8101e+000 64652 71534,71638,71612
 2.0000e-001 72085 -2.4551e+001  8.1923e+000  4.3183e+000 64248 71886,71964,71912
 2.0000e-001 72062 -2.8657e+001  6.5301e+000  4.6392e+000 64248 71860,71964,71886
 2.0000e-001 72039 -3.6070e+001  1.1484e+001  2.2852e+000 64248 71912,71964,71938
 2.0000e-001 72016 -2.1078e+001  1.7730e+001  1.2188e+000 64248 71860,71990,71964
 2.0000e-001 72235 -2.6899e+001  1.6854e+000  3.4241e+000 63858 72588,72258,72134
 2.0000e-001 72212 -2.2139e+001 -4.0645e+000 -2.8108e+000 63858 72330,72258,72108
 2.0000e-001 72284 -1.9305e+001  4.5713e+000  5.4599e+000 63858 72160,72134,72258
 2.0000e-001 72307 -1.5223e+001  1.1101e+000  2.7857e+000 63858 72460,72258,72186
 2.0000e-001 72356 -1.3117e+001  2.5905e+000  3.5901e+000 63858 72186,72258,72330
 2.0000e-001 72486 -2.4407e+001 -6.6514e+000  6.6171e+000 63858 72160,72258,72460
 2.0000e-001 72614 -2.8180e+001  2.8639e+000 -1.3129e+000 63858 72108,72258,72588
 2.0000e-001 73248  1.1759e-003  3.2611e+000  5.6795e+000 63404 72902,72954,72928
 2.0000e-001 73225 -1.3957e+001  9.8374e-001 -6.0541e-001 63404 73271,72954,72902
 2.0000e-001 73202 -1.5272e+001  8.7008e-001  1.1227e-001 63404 73271,72902,73032
 2.0000e-001 73179 -2.8258e+001 -4.8968e+000  1.4972e+000 63404 72902,73058,73032
 2.0000e-001 73156 -1.4755e+001  8.8226e+000 -1.5257e+000 63404 72980,73032,73006
 2.0000e-001 73133 -3.2373e+001  5.2448e+000  5.6076e+000 63404 72876,73058,72902
 2.0000e-001 73110 -1.2425e+002 -2.2113e+001  1.1349e+001 63404 72876,73084,73058
 2.0000e-001 73297 -1.5244e+001  6.2807e-001 -2.5667e-001 63404 72980,72954,73271
 2.0000e-001 73320 -1.6367e+001  8.1727e-001  3.2621e-001 63404 72980,73271,73032
 2.0000e-001 73470 -2.7396e+001  1.6992e+000  2.4338e+000 63014 73343,73395,73369
 2.0000e-001 73447 -3.4318e+001 -2.5924e+000 -3.3881e-001 63014 73343,73421,73395
 2.0000e-001 73929 -2.9931e+001  1.7922e+001 -1.5203e+000 62702 73759,73811,73785
 2.0000e-001 73906 -3.2139e+001  1.6753e+001 -2.1912e+000 62702 73655,73811,73759
 2.0000e-001 73883 -2.5907e+001  2.0926e+001  7.1109e-001 62702 73655,73759,73681
 2.0000e-001 73860 -3.0996e+001  1.1015e+001  8.7839e+000 62702 73681,73759,73707
 2.0000e-001 73837 -5.2291e+000  1.9488e+001 -1.6522e+000 62702 73707,73759,73733
 2.0000e-001 74209 -2.6130e+000  1.6147e+001  3.2206e-001 62404 74059,74137,74085
 2.0000e-001 74186  4.7188e-001  2.9146e+001 -5.9102e+000 62404 74033,74137,74059
 2.0000e-001 74163 -2.1026e+001  1.9051e+001 -5.3768e+000 62404 74085,74137,74111
 2.0000e-001 74408 -2.5912e+001  9.2359e+000  1.0670e+000 62000 74258,74336,74284
 2.0000e-001 74385 -2.2488e+001  9.8658e+000 -9.8060e-001 62000 74232,74336,74258
 2.0000e-001 74362 -2.4052e+001  8.5044e+000  1.6608e+000 62000 74284,74336,74310
 2.0000e-001 74509 -1.5921e+001  4.5663e+001 -9.9718e+000 61802 74431,74483,74457
 2.0000e-001 74759 -2.2274e+001  9.9337e+000 -1.9587e+000 61554 74782,74586,74560
 2.0000e-001 74736 -2.9294e+001  1.0642e+001  1.8594e-001 61554 74782,74560,74664
 2.0000e-001 74713 -1.9640e+001  1.3601e+001 -1.2078e+001 61554 74854,74612,74586
 2.0000e-001 74690 -2.5842e+001  1.8308e+001  1.0671e+000 61554 74534,74664,74560
 2.0000e-001 74808 -1.8066e+001  1.3219e+001 -4.2849e+000 61554 74854,74586,74782
 2.0000e-001 74831 -2.5577e+001  2.0992e+001 -1.6900e+000 61554 74638,74782,74664
 2.0000e-001 74880 -2.9634e+001  1.2071e+001 -1.0479e+001 61554 74638,74612,74854
 2.0000e-001 74903 -3.0262e+001  9.3503e+000 -3.8851e+000 61554 74638,74854,74782
 2.0000e-001 75285 -2.2681e+001  2.6712e+001  9.3258e-001 61356 75063,75167,75115
 2.0000e-001 75262 -1.9852e+001  3.1594e+001  3.2019e+000 61356 75037,75167,75063
 2.0000e-001 75239 -2.5825e+001  2.7293e+001  1.1573e+000 61356 75115,75167,75141
 2.0000e-001 75216 -1.6441e+001  3.1032e+001  2.8909e+000 61356 75063,75115,75089
 2.0000e-001 75193 -9.1141e+000  1.6121e+001 -5.1968e+000 61356 75011,75167,75037
 2.0000e-001 75631 -1.7353e+001  3.0143e+001 -3.8403e-001 60952 75654,75412,75360
 2.0000e-001 75608 -1.6575e+001  3.2832e+001  6.2969e-001 60952 75654,75360,75334
 2.0000e-001 75585 -1.0071e+001  4.7849e+001 -2.4478e+000 60952 75726,75438,75412
 2.0000e-001 75562 -2.4074e+001  2.4861e+001  8.0583e+000 60952 75308,75490,75334
 2.0000e-001 75539 -1.6671e+001  2.9953e+001  7.6117e-001 60952 75360,75412,75386
 2.0000e-001 75516 -1.0214e+001  5.1936e+001  6.7115e+000 60952 75438,75490,75464
 2.0000e-001 75680 -1.5432e+001  3.5681e+001 -1.2519e+000 60952 75726,75412,75654
 2.0000e-001 75703 -1.6629e+001  2.9065e+001  1.4152e+000 60952 75490,75654,75334
 2.0000e-001 75752 -1.3672e+001  3.3936e+001  1.2810e+000 60952 75490,75438,75726
 2.0000e-001 75775 -1.3551e+001  3.3065e+001  2.7670e+000 60952 75490,75726,75654
 2.0000e-001 76155 -2.6612e+001  8.9656e+000 -6.9381e+000 60754 75933,75985,75959
 2.0000e-001 76132 -1.6676e+001  1.2805e+001 -4.5331e+000 60754 75933,76037,75985
 2.0000e-001 76109 -2.4629e+001  1.3359e+001 -2.7428e+000 60754 75985,76037,76011
 2.0000e-001 76086 -1.5145e+001  7.3270e+000 -3.4701e+000 60754 75881,76037,75933
 2.0000e-001 76063 -9.6566e+000  1.2083e+001 -7.3978e+000 60754 75881,75933,75907
 2.0000e-001 76612 -2.0692e+001  4.2586e+000 -9.8223e-001 60350 76635,76442,76390
 2.0000e-001 76589 -1.8529e+001  2.7020e+000 -4.9401e-001 60350 76635,76390,76364
 2.0000e-001 76566 -1.4825e+001  6.3384e+000  3.0852e+000 60350 76364,76494,76468
 2.0000e-001 76543 -1.3211e+001  5.7493e+000 -6.4820e+000 60350 76390,76442,76416
 2.0000e-001 76520 -9.5877e+000  4.4214e-001  4.6512e+000 60350 76338,76494,76364
 2.0000e-001 76661 -2.1958e+001  3.1900e+000 -5.1140e-001 60350 76468,76442,76635
 2.0000e-001 76684 -2.0393e+001  1.4056e+000  1.2179e-001 60350 76468,76635,76364
 2.0000e-001 76932 -1.4112e+001  3.0565e+001 -2.7505e-001 59946 76955,76733,76707
 2.0000e-001 76909 -1.6403e+001  2.6370e+001  4.7936e+000 59946 77027,76955,76707
 2.0000e-001 76886 -1.0179e+001  2.6749e+001  2.5584e+000 59946 77027,76707,76837
 2.0000e-001 76863 -2.2175e+001  3.7958e+001  6.6740e+000 59946 76733,76785,76759
 2.0000e-001 76981 -1.5590e+001  2.7081e+001  4.1446e+000 59946 76785,76733,76955
 2.0000e-001 77004 -1.6687e+001  1.1305e+001  9.6064e+000 59946 76785,76955,76811
 2.0000e-001 77053 -7.6083e+000  2.5697e+001  2.5597e+000 59946 76811,76955,77027
 2.0000e-001 77076 -2.2914e+000  2.7014e+001 -7.5008e-001 59946 76811,77027,76837
 2.0000e-001 77226 -2.3922e+001  1.5034e+001 -1.0252e+000 59542 77099,77151,77125
 2.0000e-001 77203 -2.4790e+001  6.4630e+000 -4.4353e+000 59542 77099,77177,77151
 2.0000e-001 77427 -1.4533e+001  7.9030e+000 -1.9657e+000 59030 77450,77277,77251
 2.0000e-001 77404 -1.8689e+001 -1.7147e+000 -1.4203e+000 59030 77450,77251,77355
 2.0000e-001 77381 -1.8714e+001  1.3237e+001 -1.0623e+000 59030 77277,77329,77303
 2.0000e-001 77476 -1.7727e+001  1.0330e+001  1.6849e+000 59030 77329,77277,77450
 2.0000e-001 77499 -1.9726e+001  5.0259e+000  1.9487e+000 59030 77329,77450,77355
 2.0000e-001 77749 -3.0314e+001  3.0523e+000  4.9120e+000 58426 77772,77628,77602
 2.0000e-001 77726 -2.8192e+001  4.8924e-001  7.8226e+000 58426 77524,77654,77628
 2.0000e-001 77703 -2.3638e+001  2.5234e+000  2.5528e+000 58426 77772,77602,77550
 2.0000e-001 77680 -2.1040e+001  3.6256e+000  2.6032e+000 58426 77550,77602,77576
 2.0000e-001 77798 -2.2948e+001  4.4563e+000  5.6397e+000 58426 77524,77628,77772
 2.0000e-001 77821 -1.9976e+001  1.6633e+000  2.2700e+000 58426 77524,77772,77550
 2.0000e-001 78071 -2.2838e+000  3.5997e+001 -1.9908e+000 57922 78094,77924,77898
 2.0000e-001 78048 -5.7661e+000  2.9506e+001 -3.4083e+000 57922 78094,77898,77872
 2.0000e-001 78025 -6.3965e+000  1.9496e+001 -8.6090e+000 57922 78166,77846,77950
 2.0000e-001 78002 -5.3660e+000  1.8731e+001 -7.9642e+000 57922 77846,77976,77950
 2.0000e-001 78120  4.1359e+000  2.6788e+001 -4.5475e+000 57922 77950,77924,78094
 2.0000e-001 78143 -3.1573e+000  2.1606e+001 -7.0363e+000 57922 78166,77950,78094
 2.0000e-001 78192 -1.1090e+001  2.3940e+001 -3.9170e+000 57922 77872,77846,78166
 2.0000e-001 78215 -5.1860e+000  2.8399e+001 -1.7331e+000 57922 77872,78166,78094
 2.0000e-001 78416 -2.2884e+001  9.5729e+000  1.3758e+000 57468 78439,78292,78240
 2.0000e-001 78393 -2.4634e+001  9.7310e+000  1.9840e+000 57468 78439,78240,78344
 2.0000e-001 78370 -3.3752e+001  1.3778e+001 -7.0374e+000 57468 78240,78292,78266
 2.0000e-001 78465 -2.4466e+001  8.8917e+000  1.2994e+000 57468 78318,78292,78439
 2.0000e-001 78488 -2.5207e+001  9.5790e+000  1.9937e+000 57468 78318,78439,78344
 2.0000e-001 78689 -2.6795e+001  2.5890e+001  2.6088e+000 57014 78712,78539,78513
 2.0000e-001 78666 -2.3699e+001  2.4000e+001  3.8493e-001 57014 78712,78513,78617
 2.0000e-001 78643 -1.7535e+001  2.2233e+001  1.3861e+000 57014 78565,78617,78591
 2.0000e-001 78738 -2.2683e+001  2.5756e+001  3.3291e+000 57014 78565,78539,78712
 2.0000e-001 78761 -1.9371e+001  2.4639e+001  1.4471e-001 57014 78565,78712,78617
 2.0000e-001 79241 -2.2572e+001  6.7185e+000  1.1578e+000 56652 79264,78895,78869
 2.0000e-001 79218 -1.8575e+001  7.0712e+000 -1.3130e+000 56652 79264,78869,79051
 2.0000e-001 79195 -2.4844e+001  5.9621e+000 -2.1873e+000 56652 78869,79077,79051
 2.0000e-001 79172 -2.5958e+001 -6.5835e-001  6.0545e+000 56652 78895,78973,78947
 2.0000e-001 79149 -1.9190e+001  6.3972e+000 -5.5404e+000 56652 78973,79051,78999
 2.0000e-001 79126 -2.1419e+001  1.0566e+001  3.4784e+000 56652 78895,78947,78921
 2.0000e-001 79103 -5.5933e+000  3.3145e+001 -1.2521e+001 56652 78999,79051,79025
 2.0000e-001 79290 -1.8716e+001  5.5245e+000 -2.4414e-001 56652 78973,78895,79264
 2.0000e-001 79313 -1.3695e+001  7.0901e+000 -3.0108e+000 56652 78973,79264,79051
 2.0000e-001 79512 -4.2793e+001 -1.3957e+001 -2.2107e+000 56062 79388,79440,79414
 2.0000e-001 79489 -3.4196e+001 -1.7879e+001 -1.5795e+000 56062 79336,79440,79388
 2.0000e-001 79466 -2.2916e+001 -1.7791e+001  1.0145e+000 56062 79336,79388,79362
 2.0000e-001 79941 -1.1369e+001  2.4130e+001 -1.2594e+000 55658 79964,79670,79644
 2.0000e-001 79918 -1.8484e+001  2.7070e+001 -9.1188e-001 55658 79964,79644,79800
 2.0000e-001 79895 -1.4249e+001  2.5832e+001 -6.0789e+000 55658 80036,79696,79670
 2.0000e-001 79872 -1.1078e+001  2.1851e+001 -2.9783e+000 55658 80108,79722,79696
 2.0000e-001 79849 -3.0959e+000  2.7931e+001 -1.9475e+000 55658 79722,79774,79748
 2.0000e-001 79826 -2.3171e+001  2.5402e+001  9.1715e-001 55658 79618,79800,79644
 2.0000e-001 79990 -1.9399e+001  2.4287e+001 -2.7956e+000 55658 80036,79670,79964
 2.0000e-001 80013 -3.6627e+001  2.1394e+001 -1.0270e+001 55658 79774,79964,79800
 2.0000e-001 80062 -1.4875e+001  2.4129e+001 -6.4930e+000 55658 80108,79696,80036
 2.0000e-001 80085 -1.2380e+001  3.1409e+001 -7.8652e+000 55658 79774,80036,79964
 2.0000e-001 80134 -3.8691e+000  2.3918e+001 -4.3022e+000 55658 79774,79722,80108
 2.0000e-001 80157 -5.9558e+000  2.7318e+001 -7.7335e+000 55658 79774,80108,80036
 2.0000e-001 80307  3.7692e+000  1.7743e+001 -2.8460e+000 55254 80402,80330,80206
 2.0000e-001 80284  1.1026e+001  5.4357e+001  1.0454e+000 55254 80330,80180,80258
 2.0000e-001 80356  1.2775e+001  3.8753e+001 -2.9428e+000 55254 80232,80206,80330
 2.0000e-001 80379 -3.2516e+000  3.1603e+001 -5.6547e+000 55254 80232,80330,80258
 2.0000e-001 80428  2.1818e+001  4.4591e+001  7.6707e+000 55254 80180,80330,80402
 2.0000e-001 80659 -8.6100e+000  1.4700e+001  4.3269e+000 54850 80558,80610,80584
 2.0000e-001 80636 -2.9640e+000  1.4351e+001  1.9734e+000 54850 80532,80610,80558
 2.0000e-001 80760 -1.0818e+001  3.4212e+001  2.0588e-001 54652 80682,80734,80708
 2.0000e-001 81164 -1.1716e+001  3.1107e+001 -5.2230e-001 54248 81187,80942,80890
 2.0000e-001 81141 -1.2106e+001  3.4983e+001 -6.3838e-001 54248 81187,80890,81046
 2.0000e-001 81118 -2.4159e+000  3.3537e+001 -6.7353e+000 54248 80942,81020,80994
 2.0000e-001 81095 -9.4315e+000  3.6091e+001  2.1357e-002 54248 80890,80942,80916
 2.0000e-001 81072 -1.3560e+001  1.5278e+001  8.2804e-001 54248 80942,80994,80968
 2.0000e-001 81213 -1.1178e+001  2.8458e+001 -1.2985e+000 54248 81020,80942,81187
 2.0000e-001 81236 -1.2393e+001  3.1242e+001 -1.3320e+000 54248 81020,81187,81046
 2.0000e-001 81663 -1.7897e+001  3.7281e+000  7.3424e+000 53594 81340,81444,81366
 2.0000e-001 81640 -1.2813e+001  3.0580e+000  4.4703e+000 53594 81340,81470,81444
 2.0000e-001 81617 -1.6911e+001  1.7317e+000  3.6893e+000 53594 81340,81522,81470
 2.0000e-001 81594 -3.2329e+001  1.1293e+001  7.5925e+000 53594 81392,81444,81418
 2.0000e-001 81571 -2.7011e+001  5.4609e-002  7.0199e+000 53594 81366,81444,81392
 2.0000e-001 81548 -2.8081e+000  4.6647e+000  3.5427e+000 53594 81470,81522,81496
 2.0000e-001 81943 -1.7587e+000  1.4749e+001  6.0163e+000 53104 81966,81845,81819
 2.0000e-001 81920 -5.4349e+000  1.5202e+001  4.6227e+000 53104 81966,81819,81767
 2.0000e-001 81897 -6.6072e+000  7.9474e+000  1.0383e+001 53104 81767,81819,81793
 2.0000e-001 81992  6.1060e-001  1.3154e+001  4.1572e+000 53104 81871,81845,81966
 2.0000e-001 82015 -2.7058e+000  1.3985e+001  2.1171e+000 53104 81871,81966,81767
 2.0000e-001 82491 -3.3330e+001  2.6553e+000  9.7642e-002 52650 82145,82249,82171
 2.0000e-001 82468 -2.0214e+001  7.5022e+000 -1.0946e-001 52650 82145,82301,82249
 2.0000e-001 82445 -2.0035e+001  1.2371e+001  1.2478e+000 52650 82249,82301,82275
 2.0000e-001 82422 -2.1000e+001 -1.0640e-001 -2.2463e+000 52650 82119,82301,82145
 2.0000e-001 82399 -2.5154e+001  3.0783e+000 -1.4216e+000 52650 82171,82249,82223
 2.0000e-001 82376 -1.9962e+001 -6.4000e-002  3.6831e+000 52650 82119,82327,82301
 2.0000e-001 82353 -4.0199e+001  1.3800e+001 -1.3557e+001 52650 82171,82223,82197
 2.0000e-001 82739 -2.3383e+001  1.0234e+001  3.5581e+000 52246 82762,82540,82514
 2.0000e-001 82716 -2.1562e+001  9.6183e+000  3.1234e+000 52246 82762,82514,82644
 2.0000e-001 82693 -2.7174e+001  1.0320e+001  6.1999e+000 52246 82540,82618,82592
 2.0000e-001 82670 -4.8108e+001  4.8597e-002  9.9063e+000 52246 82540,82592,82566
 2.0000e-001 82788 -2.1727e+001  9.3469e+000  4.4335e+000 52246 82618,82540,82762
 2.0000e-001 82811 -1.9095e+001  9.7682e+000  4.6647e+000 52246 82618,82762,82644
 2.0000e-001 83059 -2.0417e+001  1.2901e+001  4.2509e+000 51578 82860,82964,82938
 2.0000e-001 83036 -2.1647e+001  9.3932e+000  8.2421e+000 51578 82834,82964,82860
 2.0000e-001 83013 -1.5230e+001  1.0624e+001  3.0568e+000 51578 82860,82938,82886
 2.0000e-001 82990 -1.3381e+001  1.7274e+001  1.5841e+000 51578 82886,82938,82912
 2.0000e-001 83309 -4.5017e+000  2.1350e+001  2.7919e-001 51138 83332,83162,83136
 2.0000e-001 83286 -5.2892e+000  1.9936e+001 -4.5066e-001 51138 83332,83136,83110
 2.0000e-001 83263 -1.2134e+001  1.7050e+001 -4.3878e+000 51138 83404,83214,83188
 2.0000e-001 83240 -1.5840e+001  1.1730e+001  3.5322e+000 51138 83084,83214,83110
 2.0000e-001 83358 -1.2046e+000  2.1621e+001 -4.7773e+000 51138 83188,83162,83332
 2.0000e-001 83381 -9.6144e+000  1.8301e+001 -4.8240e+000 51138 83404,83188,83332
 2.0000e-001 83430 -1.1509e+001  1.2833e+001  1.1168e+000 51138 83110,83214,83404
 2.0000e-001 83453 -6.6912e+000  1.5385e+001  8.9290e-002 51138 83110,83404,83332
 2.0000e-001 83835 -1.8151e+001 -3.2402e+000 -1.8553e+000 50734 83613,83717,83691
 2.0000e-001 83812 -1.1939e+001  1.1668e+001  1.8234e-001 50734 83561,83717,83613
 2.0000e-001 83789 -1.5054e+001  1.2509e+001  8.8396e-001 50734 83561,83613,83587
 2.0000e-001 83766 -1.1704e+001  7.0921e+000  1.3486e+000 50734 83613,83691,83639
 2.0000e-001 83743 -8.5327e+000  1.4638e+001  1.6118e+000 50734 83639,83691,83665
 2.0000e-001 84034 -1.2796e+001  1.7645e+001 -2.9791e+000 50230 84057,83884,83858
 2.0000e-001 84011 -1.3514e+001  1.7459e+001 -5.6181e-001 50230 84129,84057,83858
 2.0000e-001 83988 -1.7445e+001  1.7226e+001  5.7852e-001 50230 84129,83858,83962
 2.0000e-001 84083 -1.7958e+001  1.5769e+001 -3.7192e+000 50230 83910,83884,84057
 2.0000e-001 84106 -1.5417e+001  2.0941e+001 -2.9021e+000 50230 83910,84057,83936
 2.0000e-001 84155 -1.8919e+001  1.6935e+001 -1.0944e+000 50230 83936,84057,84129
 2.0000e-001 84178 -2.0604e+001  1.8333e+001  3.2987e-001 50230 83936,84129,83962
 2.0000e-001 84558 -9.7584e+000  1.3074e+001  7.3674e-001 49768 84581,84388,84362
 2.0000e-001 84535 -7.4546e-001  1.2472e+001 -2.6827e+000 49768 84581,84362,84310
 2.0000e-001 84512 -1.5943e+001  1.0508e+001  1.2547e+000 49768 84653,84440,84414
 2.0000e-001 84489 -2.9692e+000  2.1374e+001 -6.7106e+000 49768 84310,84362,84336
 2.0000e-001 84466 -6.5380e+000  1.1653e+001  1.0770e+001 49768 84284,84440,84310
 2.0000e-001 84607 -1.3684e+001  1.0725e+001  2.5487e+000 49768 84414,84388,84581
 2.0000e-001 84630 -1.2679e+001  1.4064e+001 -1.3685e-001 49768 84653,84414,84581
 2.0000e-001 84679 -1.1504e+001  5.7747e+000  2.5001e+000 49768 84310,84440,84653
 2.0000e-001 84702 -9.1746e+000  7.6772e+000  1.6639e+000 49768 84310,84653,84581
 2.0000e-001 85159  1.0622e+001  3.6836e+001  1.3384e+001 49192 84885,84937,84911
 2.0000e-001 85136  9.6566e+000  2.3869e+001  9.5142e+000 49192 84885,85041,84937
 2.0000e-001 85113  3.4179e+000  1.7998e+001  4.8097e+000 49192 84963,85041,84989
 2.0000e-001 85090  3.0258e+000  1.7889e+001  6.3880e+000 49192 84937,85041,84963
 2.0000e-001 85067  9.7938e+000  2.0128e+001  4.6991e+000 49192 84989,85041,85015
 2.0000e-001 85714 -1.8047e+001  5.5679e+000  3.4020e+000 48638 85368,85498,85394
 2.0000e-001 85691 -8.4160e+000  9.2745e+000 -8.8768e-001 48638 85368,85524,85498
 2.0000e-001 85668 -3.2583e+000  1.5712e+001 -5.7324e+000 48638 85737,85420,85394
 2.0000e-001 85645 -9.8804e+000  1.1990e+001 -1.0933e+000 48638 85737,85394,85498
 2.0000e-001 85622 -1.3916e+001  1.1715e+001  3.8997e-001 48638 85446,85498,85472
 2.0000e-001 85599 -3.1985e+001 -3.6993e+000  7.8508e+000 48638 85342,85524,85368
 2.0000e-001 85576 -2.9089e+001  1.5539e+001 -5.0722e+000 48638 85342,85550,85524
 2.0000e-001 85763 -1.1995e+001  1.2647e+001 -3.4903e+000 48638 85446,85420,85737
 2.0000e-001 85786 -1.3192e+001  1.3250e+001  6.8579e-001 48638 85446,85737,85498
 2.0000e-001 86371 -1.4545e+001  7.3733e+000  5.7959e-001 48084 86100,86230,86178
 2.0000e-001 86348 -1.6388e+001  3.7109e+000 -4.2235e-001 48084 86048,86230,86100
 2.0000e-001 86325 -2.4540e+001  3.0956e+000  3.6512e-001 48084 86100,86178,86126
 2.0000e-001 86302 -8.7234e+000  2.1497e+001  2.4682e+000 48084 86048,86100,86074
 2.0000e-001 86279 -9.3466e+000  1.4926e+001 -1.7400e+000 48084 86178,86230,86204
 2.0000e-001 86256 -2.5668e+001  1.1473e+001  1.5993e+000 48084 86126,86178,86152
 2.0000e-001 86619 -8.9704e+000  1.3121e+001 -4.0403e+000 47630 86642,86446,86420
 2.0000e-001 86596 -7.2617e+000  1.5638e+001  9.9872e-001 47630 86642,86420,86394
 2.0000e-001 86573 -9.0241e+000  2.1210e+001  2.9400e+000 47630 86394,86524,86498
 2.0000e-001 86550 -9.7227e+000  1.7621e+001 -3.3358e+000 47630 86446,86498,86472
 2.0000e-001 86668 -6.3590e+000  1.8983e+001 -2.3954e+000 47630 86498,86446,86642
 2.0000e-001 86691 -5.6642e+000  1.9723e+001  2.5436e+000 47630 86498,86642,86394
 2.0000e-001 87022 -1.5575e+001  6.7327e+000  3.2310e+000 47226 87045,86875,86849
 2.0000e-001 86999 -1.7314e+001  8.7429e+000  2.2258e+000 47226 87045,86849,86797
 2.0000e-001 86976 -2.0763e+001  3.1657e+000  4.6276e+000 47226 86797,86849,86823
 2.0000e-001 86953 -7.5918e+000  2.1602e+001  1.3646e+000 47226 86875,86927,86901
 2.0000e-001 87071 -1.3441e+001  7.6368e+000  2.3761e+000 47226 86927,86875,87045
 2.0000e-001 87094 -1.5728e+001  9.0575e+000  1.7886e+000 47226 86927,87045,86797
 2.0000e-001 87244 -8.7676e+000  2.2033e+001  1.2356e+000 46814 87267,87169,87143
 2.0000e-001 87221 -1.5790e+001  1.5771e+001 -2.8076e+000 46814 87267,87143,87117
 2.0000e-001 87293 -1.4839e+001  6.2874e+000 -3.4880e+000 46814 87339,87267,87195
 2.0000e-001 87316 -2.2272e+000  2.1494e+001 -7.3692e+000 46814 87469,87267,87117
 2.0000e-001 87365 -2.6015e+000  1.3854e+001  1.8610e+000 46814 87169,87267,87339
 2.0000e-001 87495 -1.4826e+001  1.5596e+000 -1.7432e+000 46814 87195,87267,87469
 2.0000e-001 88001 -9.3639e+000  2.4865e+001  4.2511e-001 46310 88024,87834,87808
 2.0000e-001 87978 -8.5029e+000  2.5679e+001 -2.2049e+000 46310 88024,87808,87756
 2.0000e-001 87955 -5.5521e+000  2.3884e+001 -9.6357e-001 46310 88096,87730,87860
 2.0000e-001 87932 -4.1047e+000  2.8085e+001 -6.2509e-001 46310 87756,87808,87782
 2.0000e-001 87909 -4.1925e+000  4.1517e+001 -3.2239e+000 46310 87678,87860,87730
 2.0000e-001 87886 -1.2845e+001  4.0396e+001  6.3012e+000 46310 87678,87730,87704
 2.0000e-001 88050 -1.3475e+001  1.5836e+001  4.1022e+000 46310 87860,87834,88024
 2.0000e-001 88073 -6.7352e+000  2.4788e+001  3.9780e-001 46310 88096,87860,88024
 2.0000e-001 88122 -7.9222e+000  2.3517e+001 -6.9447e-001 46310 87756,87730,88096
 2.0000e-001 88145 -1.0288e+001  2.3925e+001  4.0730e-002 46310 87756,88096,88024
 2.0000e-001 88572 -1.9906e+001  4.3180e+000 -5.3451e+000 45856 88249,88405,88275
 2.0000e-001 88549 -3.1496e+001  2.3330e+001 -1.2076e+001 45856 88249,88431,88405
 2.0000e-001 88526 -1.5874e+001  6.2705e+000  2.4936e+000 45856 88327,88405,88353
 2.0000e-001 88503 -1.4583e+001  1.9385e+001  4.2435e+000 45856 88275,88405,88327
 2.0000e-001 88480 -1.1911e+001  1.8000e+001  4.9218e+000 45856 88353,88405,88379
 2.0000e-001 88457 -3.0532e+001 -1.8980e+001  1.0332e+001 45856 88275,88327,88301
 2.0000e-001 88950 -8.6615e+000  1.9447e+001  3.8967e-001 45658 88973,88754,88728
 2.0000e-001 88927 -1.0090e+001  1.3521e+001 -8.4753e-001 45658 88973,88728,88676
 2.0000e-001 88904 -1.5166e+001  1.4390e+001 -1.6467e+001 45658 88676,88832,88806
 2.0000e-001 88881 -6.0769e+000  2.6017e+001  3.4233e+000 45658 88676,88728,88702
 2.0000e-001 88858 -1.0365e+001  1.1896e-001  5.7304e+000 45658 88754,88806,88780
 2.0000e-001 88999 -8.6686e+000  1.3505e+001  5.7892e-002 45658 88806,88754,88973
 2.0000e-001 89022 -8.1138e+000  1.0138e+001 -1.0311e+000 45658 88806,88973,88676
 2.0000e-001 89351 -9.9966e+000  1.2128e+001 -1.0402e+000 45254 89152,89230,89204
 2.0000e-001 89328 -8.6319e+000  1.3359e+001  1.2146e+000 45254 89152,89256,89230
 2.0000e-001 89305 -1.3541e+001  1.0546e+001  7.9887e-002 45254 89126,89256,89152
 2.0000e-001 89282 -1.0330e+001  1.4859e+001 -9.0717e-001 45254 89152,89204,89178
 2.0000e-001 89523 -7.6485e-001  2.7777e+001  3.1800e-001 45006 89422,89474,89448
 2.0000e-001 89500 -8.3314e+000  2.4528e+001 -5.7500e+000 45006 89396,89474,89422
 2.0000e-001 89673 -1.3489e+001  1.0820e+001 -5.1878e-001 44495 89572,89624,89598
 2.0000e-001 89650 -1.4267e+001  1.2290e+001 -3.6262e+000 44495 89546,89624,89572
 2.0000e-001 90104 -1.6158e+001  1.3694e+001 -9.7218e-001 44005 90199,90127,89937
 2.0000e-001 90081 -1.1501e+001  1.6903e+001 -1.2888e+000 44005 90271,90127,89859
 2.0000e-001 90058 -1.7111e+001  1.4042e+001 -9.5640e-001 44005 90199,89937,89885
 2.0000e-001 90035 -1.1293e+001  1.9232e+001 -1.2544e+000 44005 90271,89859,89807
 2.0000e-001 90012 -1.9119e+001  2.1003e+001 -3.8330e+000 44005 89885,89937,89911
 2.0000e-001 89989 -1.5111e+001  1.6205e+001  3.7337e-001 44005 89807,89859,89833
 2.0000e-001 90153 -1.3718e+001  1.3864e+001 -3.3637e+000 44005 89963,89937,90127
 2.0000e-001 90176 -1.2874e+001  1.6093e+001 -3.6872e+000 44005 89963,90127,89781
 2.0000e-001 90225 -1.3179e+001  1.3166e+001 -1.6247e+000 44005 89859,90127,90199
 2.0000e-001 90248 -1.5653e+001  1.2420e+001 -2.1824e+000 44005 89859,90199,89885
 2.0000e-001 90297 -1.0843e+001  1.4836e+001 -3.0515e+000 44005 89781,90127,90271
 2.0000e-001 90320 -1.0545e+001  1.7025e+001 -2.8026e+000 44005 89781,90271,89807
 2.0000e-001 90470 -1.9390e-001  3.3698e+001  9.3323e-001 43601 90493,90369,90343
 2.0000e-001 90447 -2.0264e+000  3.5425e+001  2.2911e+000 43601 90493,90343,90421
 2.0000e-001 90519 -2.8087e+000  3.0594e+001 -2.7399e-001 43601 90395,90369,90493
 2.0000e-001 90542 -2.8147e+000  3.4145e+001  1.5481e+000 43601 90395,90493,90421
 2.0000e-001 90922 -5.8463e+000  2.8934e+001 -2.8304e+000 43154 90945,90700,90674
 2.0000e-001 90899 -1.4067e+000  3.0937e+001 -2.2605e+000 43154 90945,90674,90648
 2.0000e-001 90876  1.2144e+000  2.6532e+001 -7.4065e-001 43154 90648,90778,90752
 2.0000e-001 90853 -7.6476e+000  3.4590e+001 -2.7024e-003 43154 90700,90752,90726
 2.0000e-001 90830 -5.6353e+000  2.5573e+001 -1.9454e+000 43154 90648,90804,90778
 2.0000e-001 90971 -4.5379e+000  2.9434e+001 -2.4572e-001 43154 90752,90700,90945
 2.0000e-001 90994 -1.3746e+000  3.0738e+001  2.0022e-001 43154 90752,90945,90648
 2.0000e-001 91451 -1.8189e+001  1.2621e+001  1.1314e+001 42650 91203,91255,91229
 2.0000e-001 91428 -8.7799e+000  1.6645e+001  3.4137e-001 42650 91203,91333,91255
 2.0000e-001 91405 -3.1546e+000  2.2498e+001  2.6731e+000 42650 91177,91333,91203
 2.0000e-001 91382 -9.2783e+000  1.2420e+001 -2.0297e-001 42650 91255,91333,91281
 2.0000e-001 91359 -1.3018e+001  3.1815e+001 -1.9706e+001 42650 91281,91333,91307
 2.0000e-001 91721 -1.0268e+001  1.3670e+001 -8.8216e-001 42288 91496,91600,91522
 2.0000e-001 91698 -9.9852e+000  1.5669e+001  9.4003e-001 42288 91496,91626,91600
 2.0000e-001 91675 -1.1390e+001  1.9240e+001 -2.5678e+000 42288 91522,91574,91548
 2.0000e-001 91652 -1.1948e+001  1.2901e+001 -1.0682e+000 42288 91522,91600,91574
 2.0000e-001 92199 -1.1555e+001  1.2627e+001 -2.8886e+000 41898 92222,91983,91879
 2.0000e-001 92176 -1.0956e+001  1.5841e+001 -1.6039e+000 41898 92294,92222,91879
 2.0000e-001 92153 -9.2886e+000  1.4202e+001 -2.3709e-001 41898 92294,91879,91853
 2.0000e-001 92130 -1.6360e+001  6.5265e+000 -2.1064e+000 41898 91879,91957,91931
 2.0000e-001 92107 -1.9978e+001  8.5070e+000  1.2251e+000 41898 91879,91983,91957
 2.0000e-001 92084 -7.2037e+000  5.4192e+000 -1.0834e+001 41898 91879,91931,91905
 2.0000e-001 92061 -1.9763e+001  1.9624e+001  1.6403e+000 41898 91827,92035,91853
 2.0000e-001 92248 -1.0413e+001  1.6658e+001 -3.9803e+000 41898 92009,91983,92222
 2.0000e-001 92271 -1.2603e+001  1.6839e+001 -5.8567e-001 41898 92009,92222,92035
 2.0000e-001 92320 -1.3906e+001  1.3752e+001 -5.1816e-001 41898 92035,92222,92294
 2.0000e-001 92343 -1.2533e+001  1.2285e+001  8.5846e-001 41898 92035,92294,91853
 2.0000e-001 92770 -4.0842e+000  3.0970e+001 -6.9337e-001 41437 92865,92793,92525
 2.0000e-001 92747 -4.4686e+000  2.9560e+001 -4.5202e-001 41437 92793,92473,92629
 2.0000e-001 92724 -1.5044e+000  2.9598e+001 -2.1163e+000 41437 92865,92525,92499
 2.0000e-001 92701 -2.1958e+000  2.8105e+001 -1.1167e+000 41437 92525,92603,92577
 2.0000e-001 92678 -8.7236e+000  3.3148e+001  1.2007e+000 41437 92447,92629,92473
 2.0000e-001 92655 -1.2932e+001  2.7560e+001 -5.8808e-001 41437 92525,92577,92551
 2.0000e-001 92819 -4.2176e+000  3.0661e+001 -1.3013e+000 41437 92603,92525,92793
 2.0000e-001 92842 -6.3767e+000  2.9933e+001 -2.7060e+000 41437 92603,92793,92629
 2.0000e-001 92891  3.2732e-001  3.0852e+001 -4.9279e-001 41437 92473,92793,92865
 2.0000e-001 92914  3.6074e+000  3.0284e+001 -2.3618e+000 41437 92473,92865,92499
 2.0000e-001 93243 -7.8200e+000  2.7676e+001 -1.2555e+001 41097 93044,93096,93070
 2.0000e-001 93220 -2.3119e+000  2.3569e+001 -3.1666e+000 41097 93044,93122,93096
 2.0000e-001 93197 -1.3278e+001  1.3262e+001  1.1362e+000 41097 93044,93148,93122
 2.0000e-001 93174 -2.6717e+001  1.1722e+001  1.6852e+000 41097 93018,93148,93044
 2.0000e-001 93393 -1.6299e+001  1.3671e+001 -2.6119e+000 40643 93416,93292,93344
 2.0000e-001 93370 -1.3765e+001  1.6118e+001 -1.6135e+000 40643 93266,93344,93292
 2.0000e-001 93442 -1.2708e+001  1.7529e+001  1.1105e+000 40643 93318,93292,93416
 2.0000e-001 93901 -9.4846e-001  2.6617e+001  9.8497e-001 40132 93924,93731,93705
 2.0000e-001 93878  4.9727e-001  2.6152e+001  1.4047e+000 40132 93996,93924,93705
 2.0000e-001 93855 -5.5332e-001  2.3502e+001  3.0228e+000 40132 93996,93705,93653
 2.0000e-001 93832  6.7605e+000  3.2753e+001 -5.3988e-001 40132 93653,93705,93679
 2.0000e-001 93809 -1.2445e+000  3.2007e+001 -2.6723e-002 40132 93627,93783,93757
 2.0000e-001 93950 -2.0674e+000  2.5644e+001  1.5349e+000 40132 93757,93731,93924
 2.0000e-001 93973 -1.3857e+000  2.7546e+001  2.4598e+000 40132 93757,93924,93627
 2.0000e-001 94022 -3.1448e+000  2.3918e+001  3.0627e+000 40132 93627,93924,93996
 2.0000e-001 94045 -1.7019e+000  2.3178e+001  4.3338e+000 40132 93627,93996,93653
 2.0000e-001 94423 -8.0226e+000  1.8787e+001  7.2836e-001 39514 94149,94227,94175
 2.0000e-001 94400 -1.0079e+001  1.3065e+001 -5.2196e-001 39514 94149,94305,94227
 2.0000e-001 94377 -1.6065e+001  2.3522e+001  2.0871e+000 39514 94175,94227,94201
 2.0000e-001 94354 -8.7563e+000  1.3744e+001 -1.4753e-002 39514 94227,94305,94279
 2.0000e-001 94331 -3.6474e-001  1.7125e+001 -1.1185e+000 39514 94227,94279,94253
 2.0000e-001 94573  8.3254e+000  3.2704e+001 -2.7169e-001 38822 94596,94498,94472
 2.0000e-001 94550  5.5326e+000  3.4503e+001 -4.5289e+000 38822 94596,94472,94446
 2.0000e-001 94622  1.1634e+001  3.4203e+001 -1.4858e+000 38822 94524,94498,94596
 2.0000e-001 94645  1.1720e+001  3.7826e+001 -6.1649e+000 38822 94524,94596,94446
 2.0000e-001 95025 -8.3284e+000  2.4566e+001  2.7696e+000 38418 95048,94829,94777
 2.0000e-001 95002 -9.2625e+000  2.2421e+001  6.3057e-001 38418 95120,95048,94777
 2.0000e-001 94979 -9.1433e+000  2.3686e+001  8.2177e-001 38418 95120,94777,94751
 2.0000e-001 94956 -6.2417e+000  2.3592e+001 -4.3448e-001 38418 95192,94881,94855
 2.0000e-001 94933 -9.6308e+000  2.9611e+001  2.0416e+000 38418 94777,94829,94803
 2.0000e-001 95074 -1.1542e+001  1.4388e+001  4.5920e+000 38418 94855,94829,95048
 2.0000e-001 95097 -7.3403e+000  2.3315e+001  6.5830e-001 38418 95192,94855,95048
 2.0000e-001 95146 -1.1022e+001  2.4745e+001  1.0370e+000 38418 94907,95048,95120
 2.0000e-001 95169 -9.7371e+000  2.7085e+001  1.7365e+000 38418 94907,95120,94751
 2.0000e-001 95218 -8.3203e+000  2.6871e+001 -6.5526e-001 38418 94907,94881,95192
 2.0000e-001 95241 -1.1105e+001  2.4730e+001  9.0632e-001 38418 94907,95192,95048
 2.0000e-001 95511 -2.4554e+000  2.9383e+001  1.6589e+000 38049 95312,95390,95364
 2.0000e-001 95488  4.3313e+000  3.2428e+001  1.0203e+000 38049 95312,95416,95390
 2.0000e-001 95465  2.0704e+000  2.8346e+001 -8.1618e-001 38049 95312,95364,95338
 2.0000e-001 95442 -4.3178e-001  3.3293e+001  2.2557e-001 38049 95286,95416,95312
 2.0000e-001 95808 -9.6917e+000  2.2355e+001  7.9737e-001 37437 95831,95586,95560
 2.0000e-001 95785 -1.2133e+001  1.9239e+001 -5.4265e-001 37437 95831,95560,95534
 2.0000e-001 95762 -5.8521e+000  2.5135e+001 -2.4988e+000 37437 95586,95664,95638
 2.0000e-001 95739 -1.3109e+001  1.7100e+001 -3.6995e+000 37437 95534,95690,95664
 2.0000e-001 95716 -4.3188e+000  2.8014e+001 -1.8848e+000 37437 95586,95638,95612
 2.0000e-001 95857 -7.6910e+000  1.9071e+001 -7.5559e-001 37437 95664,95586,95831
 2.0000e-001 95880 -1.0411e+001  1.5733e+001 -2.1806e+000 37437 95664,95831,95534
 2.0000e-001 96390 -1.3333e+001  1.1932e+001  4.7080e+000 36883 96413,96145,96093
 2.0000e-001 96367 -9.4386e+000  1.0774e+001 -6.2725e+000 36883 96413,96093,96067
 2.0000e-001 96344 -8.9037e+000 -3.1151e+000 -7.3329e-001 36883 96067,96249,96171
 2.0000e-001 96321 -1.3307e+001  2.3023e+001  1.5303e+000 36883 96093,96145,96119
 2.0000e-001 96298 -7.6666e+000  2.3785e-001 -2.0336e+000 36883 96171,96249,96197
 2.0000e-001 96275  1.2719e+000  1.3158e-002 -2.2160e-001 36883 96197,96249,96223
 2.0000e-001 96439 -2.0081e+001 -6.2018e+000  1.1503e+001 36883 96171,96145,96413
 2.0000e-001 96462 -1.1867e+001  3.5085e+000  2.9104e-001 36883 96171,96413,96067
 2.0000e-001 96781 -1.7950e+001  1.2885e+000  2.1801e-001 36215 96559,96663,96637
 2.0000e-001 96758 -1.6771e+001 -8.4120e-001 -5.5189e-001 36215 96507,96663,96559
 2.0000e-001 96735 -1.6915e+001  9.6074e+000  6.8751e-001 36215 96585,96637,96611
 2.0000e-001 96712 -2.0313e+001  1.9239e+000 -6.7813e-001 36215 96559,96637,96585
 2.0000e-001 96689 -7.1143e+000 -3.0937e+000  4.7369e+000 36215 96507,96559,96533
 2.0000e-001 97161 -1.1046e+001  1.1100e+001  2.0769e+000 35818 97184,96965,96939
 2.0000e-001 97138 -9.6864e+000  1.2972e+001  2.7289e+000 35818 97184,96939,96887
 2.0000e-001 97115 -7.6100e+000  1.7685e+001 -2.1597e+000 35818 96965,97043,97017
 2.0000e-001 97092 -1.0051e+001  1.9933e+001  3.9229e+000 35818 96887,96939,96913
 2.0000e-001 97069  6.3091e-001  3.0898e+001  2.5136e+000 35818 96965,97017,96991
 2.0000e-001 97210 -1.2482e+001  1.2656e+001  1.0459e+000 35818 97043,96965,97184
 2.0000e-001 97233 -1.1394e+001  1.3996e+001  1.5722e+000 35818 97043,97184,96887
 2.0000e-001 97739  1.1136e+001  3.8312e+001  4.6299e+000 35214 97416,97468,97442
 2.0000e-001 97716  7.5077e+000  2.3092e+001  3.0365e+000 35214 97416,97598,97468
 2.0000e-001 97693 -4.2347e+000  1.8258e+001 -6.0883e+000 35214 97762,97520,97468
 2.0000e-001 97670 -6.7321e-002  2.2497e+001 -7.6840e-001 35214 97762,97468,97598
 2.0000e-001 97647  8.4476e-001  2.6180e+001  3.6556e+000 35214 97546,97598,97572
 2.0000e-001 97624 -2.1446e+001  2.2956e+001 -5.1352e+000 35214 97468,97520,97494
 2.0000e-001 97788 -2.3680e+000  2.4886e+001 -2.1337e+000 35214 97546,97520,97762
 2.0000e-001 97811 -5.5736e-001  2.7987e+001  2.7510e+000 35214 97546,97762,97598
 2.0000e-001 98189 -1.0299e+001  2.2071e+001 -8.3106e+000 34760 98356,98212,97967
 2.0000e-001 98166  3.0883e+000  3.4611e+001 -4.4787e+000 34760 98284,98212,97941
 2.0000e-001 98143  7.9304e+000  3.2378e+001 -6.3764e+000 34760 98284,97941,97915
 2.0000e-001 98120 -5.8211e+000  2.8539e+001 -8.8109e-001 34760 98484,97993,97967
 2.0000e-001 98097  5.3963e+000  3.2319e+001 -3.3541e+000 34760 98556,98045,98019
 2.0000e-001 98238 -4.6602e+000  2.7813e+001 -7.0191e-001 34760 98484,97967,98212
 2.0000e-001 98261  1.6826e+000  3.1955e+001 -1.5338e+000 34760 98556,98019,98212
 2.0000e-001 98310 -2.1357e+000  3.1255e+001 -1.7130e+000 34760 98071,98212,98284
 2.0000e-001 98333  2.1175e+000  2.6041e+001 -2.4011e+000 34760 98071,98284,97915
 2.0000e-001 98382  1.0345e+001  3.6445e+001 -1.8671e+000 34760 97941,98212,98356
 2.0000e-001 98510 -8.1049e+000  2.8264e+001 -2.8939e-001 34760 98019,97993,98484
 2.0000e-001 98533 -6.0726e+000  2.8217e+001 -1.0089e-001 34760 98019,98484,98212
 2.0000e-001 98582  5.7715e-001  3.1983e+001 -3.2501e+000 34760 98071,98045,98556
 2.0000e-001 98605 -1.1626e+000  3.3058e+001 -1.3315e+000 34760 98071,98556,98212
 2.0000e-001 99032 -9.5443e+000  7.6936e+000  3.4854e+000 34156 98735,98891,98839
 2.0000e-001 99009 -9.7444e+000  1.4519e+001  1.2968e+001 34156 98709,98891,98735
 2.0000e-001 98986 -7.7521e+000  1.6189e+001 -6.4668e-001 34156 98735,98813,98787
 2.0000e-001 98963 -6.8452e+000  1.8637e+001 -3.8076e-001 34156 98735,98839,98813
 2.0000e-001 98940 -9.9016e+000  2.1617e+001 -8.4102e-001 34156 98735,98787,98761
 2.0000e-001 98917 -3.5499e+000  2.3843e+001 -7.9850e+000 34156 98839,98891,98865
 2.0000e-001 99231 -6.4770e+000  1.8326e+001 -5.0216e-001 33766 99055,99133,99107
 2.0000e-001 99208 -4.8386e+000  1.9713e+001 -1.1358e+000 33766 99055,99159,99133
 2.0000e-001 99185 -1.3962e+000  2.9265e+001  1.0454e+000 33766 99055,99107,99081
 2.0000e-001 99818  2.4808e+000  2.6212e+001 -4.4640e-001 33248 99521,99651,99573
 2.0000e-001 99795 -8.6236e+000  1.9485e+001 -4.4548e+000 33248 99521,99677,99651
 2.0000e-001 99772  8.0362e+000  3.4613e+001  2.0345e+000 33248 99573,99651,99599
 2.0000e-001 99749 -2.7520e+000  3.2665e+001 -2.2428e+000 33248 99495,99677,99521
 2.0000e-001 99726  1.2172e+000  3.1477e+001  6.7456e+000 33248 99599,99651,99625
 2.0000e-001 99703  7.3384e+000  3.4710e+001 -2.8556e+000 33248 99521,99573,99547
 2.0000e-001 100196 -4.2404e+000  2.4240e+001  5.6539e+000 32794 100219,99948,99922
 2.0000e-001 100173 -5.3642e+000  2.0345e+001 -1.8731e+000 32794 100219,99922,100052
 2.0000e-001 100150 -1.3466e+000  1.7148e+001  3.0083e-001 32794 99974,100052,100026
 2.0000e-001 100127 -1.3917e+001  1.7304e+001 -1.3181e-001 32794 99922,100078,100052
 2.0000e-001 100104 -1.1299e+000  2.4501e+001 -5.7021e+000 32794 99974,100026,100000
 2.0000e-001 100245  4.5332e+000  3.0448e+001  1.0376e+001 32794 99974,99948,100219
 2.0000e-001 100268 -9.7249e-001  2.3013e+001  2.2883e+000 32794 99974,100219,100052
 2.0000e-001 100418 -5.6316e+000  2.2519e+001 -2.1499e+000 32504 100571,100343,100317
 2.0000e-001 100395  2.7516e+000  2.6411e+001 -1.0300e+001 32504 100571,100317,100441
 2.0000e-001 100467  6.2725e-001  1.0129e+001  9.3615e-001 32504 100291,100369,100441
 2.0000e-001 100597 -1.0624e+001  1.4851e+001  3.5937e+000 32504 100369,100343,100571
 2.0000e-001 100620 -7.2244e+000  1.1757e+001 -3.5943e+000 32504 100369,100571,100441
 2.0000e-001 101020 -1.3491e+000  2.8138e+001 -2.9223e+000 32142 100772,100902,100876
 2.0000e-001 100997  3.4385e+000  3.4488e+001 -7.9437e-001 32142 100746,100902,100772
 2.0000e-001 100974  1.1998e+001  5.6369e+001  1.1514e+001 32142 101043,100824,100798
 2.0000e-001 100951 -6.4672e+000  4.0880e+001  4.6562e+000 32142 101043,100798,100772
 2.0000e-001 100928  1.5780e+001  3.9123e+001  6.0037e+000 32142 101115,100876,100850
 2.0000e-001 101069  1.0116e+001  3.9699e+001  7.5729e+000 32142 100850,100824,101043
 2.0000e-001 101092  1.2585e+001  3.8714e+001  5.1549e+000 32142 101115,100850,101043
 2.0000e-001 101141  1.1868e+001  3.8542e+001  3.6044e+000 32142 100772,100876,101115
 2.0000e-001 101164  9.7310e+000  3.8383e+001  2.5216e+000 32142 100772,101115,101043
 2.0000e-001 101719 -6.5782e+000  1.5272e+001 -1.1229e+000 31538 101742,101477,101399
 2.0000e-001 101696 -4.5079e+000  1.8697e+001  4.9043e-001 31538 101814,101742,101399
 2.0000e-001 101673 -1.6761e+000  1.4777e+001  4.0790e+000 31538 101814,101399,101373
 2.0000e-001 101650 -1.4461e+001  1.5367e+001  4.3472e+000 31538 101425,101477,101451
 2.0000e-001 101627 -1.6544e+001  9.3472e+000  1.3391e+000 31538 101399,101477,101425
 2.0000e-001 101604 -1.9307e+000  2.6383e+001 -3.0811e+000 31538 101477,101529,101503
 2.0000e-001 101581 -2.5983e+001  1.0043e+001  6.0617e+000 31538 101347,101555,101373
 2.0000e-001 101768 -3.0322e+000  1.8579e+001 -3.1858e+000 31538 101529,101477,101742
 2.0000e-001 101791 -8.8484e+000  1.6826e+001 -1.1627e+000 31538 101529,101742,101555
 2.0000e-001 101840 -1.1003e+001  1.5053e+001  2.0014e+000 31538 101555,101742,101814
 2.0000e-001 101863 -7.3122e+000  1.1743e+001  5.2667e+000 31538 101555,101814,101373
 2.0000e-001 102111 -9.4592e+000  1.5814e+001 -1.4324e+000 31112 101886,101990,101912
 2.0000e-001 102088 -1.0550e+001  1.9292e+001  1.3887e+000 31112 101886,102016,101990
 2.0000e-001 102065 -1.3157e+001  1.1168e+001  3.1020e+000 31112 101912,101990,101964
 2.0000e-001 102042 -9.3544e+000  2.4843e+001  2.3929e+000 31112 101912,101964,101938
 2.0000e-001 102408 -4.9206e+000  1.7413e+001  2.5138e-001 30658 102431,102186,102160
 2.0000e-001 102385 -6.2301e+000  1.5771e+001  1.5663e+000 30658 102431,102160,102264
 2.0000e-001 102362 -6.9087e+000  2.0013e+001  9.6338e-001 30658 102186,102238,102212
 2.0000e-001 102339 -1.0184e+001  1.3406e+001  4.2772e-001 30658 102134,102264,102160
 2.0000e-001 102316 -9.7630e+000  1.1640e+001  4.1495e+000 30658 102134,102290,102264
 2.0000e-001 102457 -7.0453e+000  1.9407e+001  3.2480e-001 30658 102238,102186,102431
 2.0000e-001 102480 -8.1945e+000  1.8003e+001  1.6455e+000 30658 102238,102431,102264
 2.0000e-001 102681 -5.7000e+000  2.2604e+001  6.3758e-001 30004 102704,102557,102505
 2.0000e-001 102658 -7.1698e+000  2.5718e+001 -7.6864e-001 30004 102704,102505,102609
 2.0000e-001 102635 -6.6540e+000  2.1572e+001  1.4909e+000 30004 102505,102557,102531
 2.0000e-001 102730 -6.1006e+000  2.0395e+001  6.2498e-001 30004 102583,102557,102704
 2.0000e-001 102753 -8.4013e+000  2.2135e+001 -1.6397e+000 30004 102583,102704,102609
 2.0000e-001 103003 -6.6670e+000  1.8671e+001  1.4708e+000 29564 103026,102804,102778
 2.0000e-001 102980 -7.2512e+000  1.7018e+001  1.4281e+000 29564 103026,102778,102908
 2.0000e-001 102957 -1.2028e+001  1.7655e+001  5.5967e-001 29564 102856,102908,102882
 2.0000e-001 102934 -1.0014e+001  2.2683e+001  1.9035e+000 29564 102804,102856,102830
 2.0000e-001 103052 -6.9650e+000  1.9320e+001  2.5788e+000 29564 102856,102804,103026
 2.0000e-001 103075 -7.4565e+000  1.8081e+001  2.3923e+000 29564 102856,103026,102908
 2.0000e-001 103634 -2.6239e+000  2.4847e+001  5.3535e+000 29160 103657,103418,103392
 2.0000e-001 103611 -3.6522e+000  2.3109e+001  9.1489e-001 29160 103657,103392,103314
 2.0000e-001 103588 -2.0062e+000  2.3578e+001  3.9257e-001 29160 103314,103392,103366
 2.0000e-001 103565 -2.8486e+000  2.4929e+001  7.6625e-001 29160 103314,103366,103340
 2.0000e-001 103542 -1.4114e+000  1.5665e+001 -2.6457e-002 29160 103262,103444,103314
 2.0000e-001 103519  9.4017e+000  3.1762e+001  1.2394e+001 29160 103262,103314,103288
 2.0000e-001 103496 -1.2017e+001  2.9031e+001 -9.2639e+000 29160 103262,103470,103444
 2.0000e-001 103683  3.6850e+000  2.9254e+001  8.9470e+000 29160 103444,103418,103657
 2.0000e-001 103706 -8.2657e-001  2.3278e+001  3.9284e+000 29160 103444,103657,103314
 2.0000e-001 104035 -5.1575e+000  1.8587e+001  1.3464e+000 28770 103836,103914,103862
 2.0000e-001 104012 -5.5603e+000  1.7171e+001  3.8867e-001 28770 103810,103914,103836
 2.0000e-001 103989 -1.9138e+001  1.1837e+001  1.0264e+000 28770 103810,103940,103914
 2.0000e-001 103966 -5.3329e+000  2.2356e+001  1.1727e+000 28770 103862,103914,103888
 2.0000e-001 104185 -3.3535e+000  2.6159e+001 -1.4997e+000 28366 104208,104110,104084
 2.0000e-001 104162 -1.0235e+001  1.4835e+001 -4.6886e+000 28366 104280,104208,104084
 2.0000e-001 104234 -1.2001e+001  1.8685e+001 -1.5526e+000 28366 104610,104208,104136
 2.0000e-001 104257  9.0293e-001  2.3265e+001 -1.9982e+000 28366 104538,104410,104208
 2.0000e-001 104306  4.4929e+000  2.2694e+001 -1.3944e+000 28366 104538,104208,104280
 2.0000e-001 104436 -4.2342e+000  2.2078e+001  1.5897e+000 28366 104136,104208,104410
 2.0000e-001 104564  4.5386e+000  2.4335e+001 -1.8944e-001 28366 104058,104410,104538
 2.0000e-001 104587  6.9484e+000  2.3071e+001  5.4210e-001 28366 104058,104538,104280
 2.0000e-001 104636 -5.6346e+000  2.1726e+001 -5.0499e-002 28366 104110,104208,104610
 2.0000e-001 105349 -7.3635e+000  1.3045e+001  4.9975e-001 27976 105516,105372,105107
 2.0000e-001 105326 -3.8533e+000  1.6886e+001 -1.3622e+000 27976 105588,105372,105055
 2.0000e-001 105303  5.7941e+000  1.8030e+001  2.4916e+000 27976 105444,105159,105133
 2.0000e-001 105280 -1.2274e+001  1.4997e+001 -1.4717e+000 27976 105516,105107,105081
 2.0000e-001 105257 -3.0493e+000  2.0984e+001 -1.9841e+000 27976 105588,105055,105029
 2.0000e-001 105234 -1.1257e+001  8.2508e+000  3.1469e+000 27976 105003,105185,105159
 2.0000e-001 105211 -1.1089e+001  1.2092e+001  5.5770e+000 27976 104977,105185,105003
 2.0000e-001 105398 -8.7631e+000  1.6683e+001  1.4889e+000 27976 105133,105107,105372
 2.0000e-001 105421 -2.8870e+000  1.9144e+001  1.4540e+000 27976 105444,105133,105372
 2.0000e-001 105470 -4.5390e+000  1.3078e+001  3.0527e-002 27976 105003,105159,105444
 2.0000e-001 105493 -8.5554e+000  1.7192e+001 -9.0772e-001 27976 105003,105444,105372
 2.0000e-001 105542 -1.0745e+001  1.2165e+001 -3.5397e+000 27976 105055,105372,105516
 2.0000e-001 105565 -1.8069e+001  1.3199e+001 -5.0412e+000 27976 105055,105516,105081
 2.0000e-001 105614 -4.3284e+000  2.1126e+001 -3.6039e+000 27976 105003,105372,105588
 2.0000e-001 105637 -3.6625e+000  2.4537e+001 -4.4945e+000 27976 105003,105588,105029
 2.0000e-001 106143 -1.8311e+000  2.2546e+001  7.4144e+000 27664 106166,105846,105820
 2.0000e-001 106120  6.2886e+000  2.8729e+001  3.4496e+000 27664 106310,106166,105820
 2.0000e-001 106097  8.6582e+000  2.1892e+001  2.4220e+000 27664 106382,106238,105950
 2.0000e-001 106074 -6.7582e-001  3.5047e+001 -1.8821e+000 27664 106310,105820,106002
 2.0000e-001 106051  8.2243e+000  2.0590e+001  1.1113e+000 27664 106382,105950,105924
 2.0000e-001 106028  1.3905e+001  1.6711e+001  9.9272e+000 27664 105846,105898,105872
 2.0000e-001 106192  7.5801e+000  2.5993e+001  7.0492e+000 27664 105898,105846,106166
 2.0000e-001 106215  4.0000e+000  2.1272e+001  2.4891e+000 27664 106238,105898,106166
 2.0000e-001 106264  1.2292e+001  2.2143e+001  3.8706e+000 27664 105976,105950,106238
 2.0000e-001 106287  8.3918e+000  2.3004e+001  1.5236e+000 27664 105976,106238,106166
 2.0000e-001 106336 -1.9336e-001  1.8999e+001  4.7321e-001 27664 105976,106166,106310
 2.0000e-001 106359 -7.2643e+000  2.5549e+001 -4.8760e+000 27664 105976,106310,106002
 2.0000e-001 106408  7.9071e+000  1.8836e+001  1.8228e+000 27664 105898,106238,106382
 2.0000e-001 106431  8.1244e+000  1.8506e+001  5.2714e-001 27664 105898,106382,105924
 2.0000e-001 106728 -5.8929e+000  1.9799e+001 -7.0342e-001 27153 106751,106506,106454
 2.0000e-001 106705 -6.0337e+000  1.9785e+001 -3.6131e-001 27153 106751,106454,106610
 2.0000e-001 106682 -6.2548e+000  1.8920e+001 -7.8533e-001 27153 106454,106506,106480
 2.0000e-001 106659 -6.0783e+000  2.0649e+001 -1.1396e-001 27153 106532,106610,106584
 2.0000e-001 106636 -4.7706e+000  1.9620e+001 -2.9720e-001 27153 106532,106584,106558
 2.0000e-001 106777 -6.3798e+000  1.9968e+001 -7.0643e-001 27153 106532,106506,106751
 2.0000e-001 106800 -6.4905e+000  1.9841e+001 -2.8879e-001 27153 106532,106751,106610
 2.0000e-001 107180  9.8994e+000  2.8693e+001  4.7419e+000 26642 107203,106984,106958
 2.0000e-001 107157  3.3297e+000  2.5185e+001  1.9510e+000 26642 107203,106958,106932
 2.0000e-001 107134  1.3581e+001  2.8870e+001 -4.8588e+000 26642 107275,107036,107010
 2.0000e-001 107111 -2.5825e+000  2.0676e+001  3.9173e-001 26642 106932,107062,107036
 2.0000e-001 107088 -9.7701e+000  1.7550e+001  2.8775e-002 26642 106906,107062,106932
 2.0000e-001 107229  5.4388e+000  1.6633e+001  3.3247e+000 26642 107010,106984,107203
 2.0000e-001 107252  9.4703e+000  2.5816e+001 -1.8357e+000 26642 107275,107010,107203
 2.0000e-001 107301  7.9725e+000  2.7498e+001 -2.5598e+000 26642 106932,107036,107275
 2.0000e-001 107324  5.3826e+000  2.8361e+001 -1.2260e+000 26642 106932,107275,107203
 2.0000e-001 107675 -6.1390e+000  1.8384e+001  3.3290e-001 26045 107450,107554,107476
 2.0000e-001 107652 -8.2444e+000  2.2694e+001 -2.7305e+000 26045 107450,107580,107554
 2.0000e-001 107629 -2.3633e+001  1.3601e+001 -3.4488e+000 26045 107476,107528,107502
 2.0000e-001 107606 -1.2355e+001  1.2834e+001 -3.7681e+000 26045 107476,107554,107528
 2.0000e-001 107874 -8.3837e+000  2.0033e+001 -4.6769e-001 25641 107750,107802,107776
 2.0000e-001 107851 -5.2454e+000  1.7042e+001  3.0616e+000 25641 107724,107802,107750
 2.0000e-001 107828 -1.0904e+001  1.3596e+001  1.3263e+000 25641 107698,107802,107724
 2.0000e-001 108431 -1.1259e+001  1.5086e+001 -1.1440e+000 25023 108526,108267,108241
 2.0000e-001 108408 -1.0812e+001  1.3201e+001  9.3282e+000 25023 108059,108267,108085
 2.0000e-001 108385 -6.1258e+000  1.7548e+001  1.0419e+000 25023 108454,108163,108111
 2.0000e-001 108362 -4.7197e+000  1.6634e+001 -5.2732e-001 25023 108454,108111,108085
 2.0000e-001 108339 -9.1946e+000  1.9262e+001  3.6114e-001 25023 108111,108163,108137
 2.0000e-001 108316  2.6846e+000  1.4679e+001  2.1135e+000 25023 108163,108241,108215
 2.0000e-001 108293 -7.9920e+000  8.7526e+000 -4.9811e+000 25023 108163,108215,108189
 2.0000e-001 108480 -5.6085e+000  1.7116e+001 -6.6271e-001 25023 108241,108163,108454
 2.0000e-001 108503 -9.1409e+000  1.5636e+001 -1.4547e+000 25023 108526,108241,108454
 2.0000e-001 108552 -8.3582e+000  1.3228e+001  2.8903e-001 25023 108085,108267,108526
 2.0000e-001 108575 -6.1831e+000  1.3820e+001  8.3631e-003 25023 108085,108526,108454
 2.0000e-001 108823 -9.9433e+000 -4.9204e+000 -2.7923e+000 24461 108624,108728,108650
 2.0000e-001 108800 -1.2520e+001  3.3644e+000 -1.0932e+000 24461 108598,108728,108624
 2.0000e-001 108777  2.5410e+000  8.7323e+000  2.4121e+000 24461 108650,108728,108676
 2.0000e-001 108754 -5.1061e-001  3.5935e+000  1.0867e+000 24461 108676,108728,108702
 2.0000e-001 109022 -6.5822e+000  1.6273e+001  9.0837e-001 24121 108872,108924,108898
 2.0000e-001 108999 -5.2008e+000  1.7514e+001  1.4282e+000 24121 108846,108924,108872
 2.0000e-001 108976 -1.0383e+001  1.6387e+001 -1.1629e+000 24121 108846,108950,108924
 2.0000e-001 109483 -1.5428e+001  9.5741e+000  7.3677e+000 23717 109209,109339,109235
 2.0000e-001 109460 -2.6849e+000  2.1880e+001  8.5133e-001 23717 109209,109365,109339
 2.0000e-001 109437 -1.4197e+000  1.1185e+001  4.6151e+000 23717 109287,109339,109313
 2.0000e-001 109414 -1.4924e+000  1.4099e+001  7.1977e+000 23717 109235,109339,109287
 2.0000e-001 109391 -1.1199e+000  7.7041e+000  8.6559e+000 23717 109235,109287,109261
 2.0000e-001 109910 -7.8944e+000  1.3718e+001  5.0315e-001 23305 109613,109743,109717
 2.0000e-001 109887 -1.0823e+001  1.2294e+001  1.4422e+000 23305 109613,109769,109743
 2.0000e-001 109864 -6.0309e+000  9.4495e+000  5.1301e-001 23305 109613,109717,109639
 2.0000e-001 109841 -9.0474e+000  1.8735e+001  1.8294e+000 23305 109587,109769,109613
 2.0000e-001 109818 -7.5015e+000  8.7750e+000  2.8099e+000 23305 109639,109717,109691
 2.0000e-001 109795 -7.5362e+000  8.5633e+000  3.0363e+000 23305 109639,109691,109665
 2.0000e-001 110180 -1.2350e+001  5.6209e+000  6.0880e-001 22851 110007,110059,110033
 2.0000e-001 110157 -6.3058e+000  1.9418e+001  1.4632e+000 22851 109981,110059,110007
 2.0000e-001 110134 -8.2101e+000  1.7980e+001  7.8227e-001 22851 109955,110059,109981
 2.0000e-001 110111 -9.6618e+000  1.6900e+001  1.4240e+000 22851 109955,110085,110059
 2.0000e-001 110737  2.7342e+000  1.4192e+001 -2.4984e+000 22333 110760,110469,110391
 2.0000e-001 110714 -5.0982e+000  1.4439e+001 -2.3941e+000 22333 110760,110391,110365
 2.0000e-001 110691 -6.5671e+000  1.0260e+001 -4.5790e+000 22333 110832,110521,110469
 2.0000e-001 110668  1.1689e+001  8.6428e+000 -6.8710e-001 22333 110417,110469,110443
 2.0000e-001 110645  7.1556e-001  1.0563e+001 -6.9455e-001 22333 110391,110469,110417
 2.0000e-001 110622 -1.8578e+001  7.5705e+000 -1.0620e+001 22333 110469,110521,110495
 2.0000e-001 110599  2.0325e+000  2.2848e+001 -5.6912e+000 22333 110365,110573,110547
 2.0000e-001 110786 -4.2125e+000  1.0435e+001 -5.0356e+000 22333 110832,110469,110760
 2.0000e-001 110809 -3.9667e+000  1.6564e+001 -1.9621e+000 22333 110547,110760,110365
 2.0000e-001 110858 -1.4897e+001  1.1661e+001 -2.1194e+000 22333 110547,110521,110832
 2.0000e-001 110881 -7.3688e+000  1.4738e+001 -1.1747e+000 22333 110547,110832,110760
 2.0000e-001 111308 -8.2217e+000  1.2560e+001  6.8942e-001 21829 111331,111063,111011
 2.0000e-001 111285 -7.9589e+000  1.3173e+001 -2.9498e-003 21829 111331,111011,111167
 2.0000e-001 111262 -6.0961e+000  1.1436e+001  2.1182e-001 21829 111403,111089,111063
 2.0000e-001 111239  1.0333e+000  2.1265e+001 -5.3169e+000 21829 111011,111063,111037
 2.0000e-001 111216 -1.1058e+001  2.3620e+001 -2.1935e+000 21829 110985,111167,111011
 2.0000e-001 111193  1.0689e+001  1.5895e+001  8.1176e+000 21829 111089,111141,111115
 2.0000e-001 111357 -8.1617e+000  1.3675e+001  3.7084e-001 21829 111403,111063,111331
 2.0000e-001 111380 -7.9149e+000  9.2619e+000 -2.1376e+000 21829 111141,111331,111167
 2.0000e-001 111429  5.8020e+000  1.4867e+001  1.5196e+000 21829 111141,111089,111403
 2.0000e-001 111452 -3.0581e+000  1.1910e+001 -2.7207e-002 21829 111141,111403,111331
 2.0000e-001 112056 -1.0654e+001  2.3046e+001 -8.5069e-002 21489 111687,111765,111739
 2.0000e-001 112033  2.4305e+000  2.1452e+001  1.4474e+000 21489 112151,112079,111687
 2.0000e-001 112010  1.0352e+001  1.8926e+001  7.5894e+000 21489 111791,111843,111817
 2.0000e-001 111987  6.9176e+000  2.2646e+001  5.2513e+000 21489 112079,111843,111791
 2.0000e-001 111964 -2.1818e-001  2.1098e+001 -2.7113e-001 21489 112151,111687,111661
 2.0000e-001 111941  8.5666e+000  1.6211e+001 -8.8128e-001 21489 111661,111869,111843
 2.0000e-001 111918 -5.3866e+000  2.6682e+001 -2.5189e+000 21489 111687,111739,111713
 2.0000e-001 111895  8.7261e+000  1.6682e+001  2.6747e+000 21489 111635,111869,111661
 2.0000e-001 112105  4.4095e+000  2.7652e+001  3.8171e+000 21489 111765,111687,112079
 2.0000e-001 112128 -2.3339e-001  2.1137e+001  5.9087e+000 21489 111765,112079,111791
 2.0000e-001 112177  6.9924e+000  2.1927e+001  2.8780e+000 21489 111843,112079,112151
 2.0000e-001 112200  4.4024e+000  2.2072e+001  1.4345e+000 21489 111843,112151,111661
 2.0000e-001 112578 -4.5422e-001  2.9918e+001 -4.7410e-001 21177 112382,112434,112408
 2.0000e-001 112555 -1.4594e+000  2.9094e+001 -1.1498e+000 21177 112330,112434,112382
 2.0000e-001 112532 -7.8983e+000  2.3395e+001 -5.2145e+000 21177 112304,112434,112330
 2.0000e-001 112509 -4.6046e+000  3.0337e+001  0.0000e+000 21177 112330,112382,112356
 2.0000e-001 112486 -3.4682e+000  2.5477e+001 -6.2244e+000 21177 112304,112460,112434
 2.0000e-001 112679 -5.5651e+000  4.4579e+001  2.3180e-001 20666 112601,112653,112627
 2.0000e-001 112927 -5.3631e+000  1.7558e+001 -1.2098e+000 19762 112702,112754,112728
 2.0000e-001 112904 -6.3599e+000  1.3178e+001 -9.7541e-002 19762 112702,112832,112754
 2.0000e-001 112881 -3.2637e+000  1.9363e+001 -1.1760e+000 19762 112754,112832,112806
 2.0000e-001 112858 -1.3906e+000  2.6968e+001 -2.7865e+000 19762 112754,112806,112780
 2.0000e-001 113297 -5.7671e+000  1.9426e+001 -1.2480e+000 19308 112974,113052,113026
 2.0000e-001 113274 -8.4892e+000  1.8291e+001 -3.7862e-001 19308 112974,113156,113052
 2.0000e-001 113251 -9.0486e+000  2.2781e+001  2.8205e+000 19308 113052,113130,113104
 2.0000e-001 113228 -1.0959e+001  1.3690e+001 -1.4400e+000 19308 113052,113156,113130
 2.0000e-001 113205 -8.0577e+000  1.9548e+001  0.0000e+000 19308 113052,113104,113078
 2.0000e-001 113182 -5.3443e+000  1.8599e+001 -7.2716e-001 19308 112974,113026,113000
 2.0000e-001 113547  2.1568e+000  2.4948e+001  1.8712e+000 18711 113570,113374,113348
 2.0000e-001 113524  7.9698e+000  2.1357e+001  9.7966e-001 18711 113570,113348,113452
 2.0000e-001 113501  7.2922e+000  1.4918e+001  5.5883e+000 18711 113322,113452,113348
 2.0000e-001 113478 -3.8715e+000  2.5985e+001  5.9941e+000 18711 113374,113426,113400
 2.0000e-001 113596 -6.2944e+000  2.1954e+001  4.0422e+000 18711 113426,113374,113570
 2.0000e-001 113619  3.1829e+000  2.1307e+001  2.7351e+000 18711 113426,113570,113452
 2.0000e-001 113771  2.1456e+000  2.9470e+001  9.8282e-001 18307 113670,113722,113696
 2.0000e-001 113748  7.9746e-001  2.7727e+001  3.5247e-001 18307 113644,113722,113670
 2.0000e-001 113972 -5.3238e+000  2.2071e+001 -3.4891e-001 17945 113822,113874,113848
 2.0000e-001 113949 -8.7244e+000  1.9001e+001 -1.8913e+000 17945 113822,113900,113874
 2.0000e-001 113926 -3.2343e+000  2.5286e+001 -8.4949e+000 17945 113796,113900,113822
 2.0000e-001 114075 -1.5717e+001  2.6151e+001 -4.0615e+000 17482 113997,114049,114023
 2.0000e-001 114479 -5.5965e+000  1.8814e+001  4.4794e-001 17042 114257,114361,114335
 2.0000e-001 114456 -1.0408e+001  1.2563e+001  2.7940e+000 17042 114205,114361,114257
 2.0000e-001 114433 -8.0553e+000  1.9585e+001 -3.2449e-001 17042 114205,114257,114231
 2.0000e-001 114410 -6.3075e+000  2.8024e+001  2.1374e+000 17042 114283,114335,114309
 2.0000e-001 114387 -2.5315e+000  2.0354e+001  2.3363e+000 17042 114257,114335,114283
 2.0000e-001 114879  2.2480e+001  3.3503e+001  3.8408e-001 16638 114631,114683,114657
 2.0000e-001 114856  1.6940e+001  3.0611e+001  2.9419e+000 16638 114605,114683,114631
 2.0000e-001 114833  1.3756e+001  2.9755e+001  5.9386e+000 16638 114605,114761,114683
 2.0000e-001 114810  1.0607e+001  3.7647e+001  1.3700e+000 16638 114683,114735,114709
 2.0000e-001 114787  1.7911e+001  4.4462e+001  4.8598e+000 16638 114683,114761,114735
 2.0000e-001 115078 -1.4312e+001  2.0616e+001 -3.4343e-001 16232 114954,115006,114980
 2.0000e-001 115055 -6.5235e+000  2.8355e+001 -3.4497e+000 16232 114928,115006,114954
 2.0000e-001 115032 -2.9050e+001  3.9434e+001 -9.4650e+000 16232 114902,115006,114928
 2.0000e-001 115228 -5.2150e+000  2.5964e+001 -1.5680e+000 15482 115101,115153,115127
 2.0000e-001 115205 -8.6916e+000  2.4471e+001 -1.2227e+000 15482 115101,115179,115153
 2.0000e-001 115331  3.6200e+000  2.9456e+001  2.2603e+000 15163 115253,115305,115279
 2.0000e-001 115434  1.4067e+001  3.6953e+001 -7.7300e+000 421 115356,115408,115382
 3.0000e-001 68213 -5.4678e+001  2.3223e+001  7.2440e+000 67888 68112,68164,68138
 3.0000e-001 68190  2.3014e+001  4.6461e+001  1.1524e+001 67888 68086,68164,68112
 3.0000e-001 68314 -6.2130e+001  4.6701e+001 -1.0631e+001 67576 68236,68288,68262
 3.0000e-001 68584 -5.0907e+001 -1.2709e+001  1.6726e+000 67378 68385,68489,68463
 3.0000e-001 68561 -2.7374e+001 -2.0478e+000 -6.6203e-001 67378 68359,68489,68385
 3.0000e-001 68538 -5.0221e+001 -6.6018e+000  1.9471e+000 67378 68385,68463,68411
 3.0000e-001 68515 -5.6442e+001  1.1364e+001  5.5036e+000 67378 68411,68463,68437
 3.0000e-001 68964 -2.5958e+001  4.3580e+000 -4.0111e+000 67130 68690,68820,68716
 3.0000e-001 68941 -2.9017e+001  1.6955e+001 -3.5611e+000 67130 68690,68846,68820
 3.0000e-001 68918 -5.5489e+001 -9.0994e+000  1.1212e+001 67130 68742,68820,68794
 3.0000e-001 68895 -5.1843e+001 -2.4364e+000  6.4065e+000 67130 68716,68820,68742
 3.0000e-001 68872 -5.1862e+001  2.6434e+000  1.4626e+001 67130 68742,68794,68768
 3.0000e-001 69065 -1.2807e+001  3.2255e+001 -9.0256e+000 66926 68987,69039,69013
 3.0000e-001 69445 -1.5891e+001  3.2708e+001  5.3764e+000 66614 69223,69301,69275
 3.0000e-001 69422  5.7507e-001  4.0018e+001  3.9435e+000 66614 69171,69301,69223
 3.0000e-001 69399  6.0950e+000  3.9137e+001  1.1871e+000 66614 69171,69327,69301
 3.0000e-001 69376 -1.4513e+001  1.0974e+001 -4.4799e+000 66614 69223,69275,69249
 3.0000e-001 69353 -7.8263e+000  3.9453e+001  1.7620e+000 66614 69171,69223,69197
 3.0000e-001 69546 -4.6606e+001  1.2003e+001 -1.2810e+001 66416 69468,69520,69494
 3.0000e-001 69997 -1.5125e+001  1.8698e+001  8.2851e-001 66104 69700,69830,69726
 3.0000e-001 69974 -1.2957e+001  1.2549e+001 -1.1803e+000 66104 69700,69856,69830
 3.0000e-001 69951 -7.4016e+000  9.7230e+000  4.8339e+000 66104 69726,69804,69778
 3.0000e-001 69928 -1.9229e+001  1.1379e+001  2.6173e+000 66104 69726,69830,69804
 3.0000e-001 69905 -9.0931e+000  4.9416e+000  1.6214e+000 66104 69726,69778,69752
 3.0000e-001 69882 -9.4045e-001  6.9992e+000 -8.5026e+000 66104 69674,69856,69700
 3.0000e-001 70326 -1.2440e+001  2.1814e+001 -1.6391e+000 65814 70349,70153,70127
 3.0000e-001 70303 -1.4056e+001  2.6555e+001 -6.2336e+000 65814 70349,70127,70101
 3.0000e-001 70280 -1.0073e+001  8.8687e+000 -1.7482e+001 65814 70101,70231,70205
 3.0000e-001 70257 -1.0909e+001  2.2197e+001  2.8372e+000 65814 70153,70205,70179
 3.0000e-001 70375 -1.4215e+001  1.4529e+001 -3.3870e-001 65814 70205,70153,70349
 3.0000e-001 70398 -1.4097e+001  2.0913e+001 -5.3895e+000 65814 70205,70349,70101
 3.0000e-001 70904 -3.0032e+001  8.9572e-001 -3.6083e+000 65502 70607,70737,70685
 3.0000e-001 70881 -3.7129e+001 -1.1375e+001  2.0452e+000 65502 70581,70737,70607
 3.0000e-001 70858 -3.2617e+001 -3.0229e+000  8.1276e-002 65502 70581,70763,70737
 3.0000e-001 70835 -5.0609e+001 -6.0198e+000  3.4848e+000 65502 70685,70737,70711
 3.0000e-001 70812  1.4860e+001  7.1233e+000  2.6830e+000 65502 70607,70659,70633
 3.0000e-001 70789 -2.4108e+001  1.7131e+001  4.6837e+000 65502 70607,70685,70659
 3.0000e-001 71103 -1.9584e+001  2.8725e+001  1.1746e+000 65304 71126,70979,70953
 3.0000e-001 71080 -1.8982e+001  2.6738e+001  1.5472e+000 65304 71126,70953,70927
 3.0000e-001 71057 -1.0659e+001  3.8469e+001  1.0658e+001 65304 70927,71031,71005
 3.0000e-001 71152 -1.9335e+001  3.1706e+001  1.5076e+000 65304 71005,70979,71126
 3.0000e-001 71175 -1.9721e+001  2.8414e+001  1.9010e+000 65304 71005,71126,70927
 3.0000e-001 71374 -1.9373e+001  1.4494e+001  4.7305e+000 65106 71198,71276,71224
 3.0000e-001 71351 -4.8132e+001  1.9472e+000 -2.5346e-001 65106 71198,71302,71276
 3.0000e-001 71328 -1.8169e+001  1.5355e+001 -4.4016e+000 65106 71224,71276,71250
 3.0000e-001 71756 -2.7026e+001  3.0795e+001  6.1014e+000 64652 71508,71638,71534
 3.0000e-001 71733 -6.6941e+001  1.3730e+001  8.6601e+000 64652 71482,71638,71508
 3.0000e-001 71710 -2.0355e+001  1.3908e+001  1.3508e+000 64652 71534,71586,71560
 3.0000e-001 71687 -1.7376e+001  1.9403e+001  1.9684e-001 64652 71534,71612,71586
 3.0000e-001 71664 -4.6140e+001  1.1473e+001 -1.8011e+000 64652 71534,71638,71612
 3.0000e-001 72085 -2.8189e+001  1.5662e+001  7.2647e+000 64248 71886,71964,71912
 3.0000e-001 72062 -3.4742e+001  1.3024e+001  7.7633e+000 64248 71860,71964,71886
 3.0000e-001 72039 -4.4227e+001  1.8803e+001  4.1811e+000 64248 71912,71964,71938
 3.0000e-001 72016 -2.5468e+001  3.0027e+001  3.3081e+000 64248 71860,71990,71964
 3.0000e-001 72235 -3.7235e+001  7.9691e+000  5.8506e+000 63858 72588,72258,72134
 3.0000e-001 72212 -2.7843e+001  8.0146e-001 -3.5077e+000 63858 72330,72258,72108
 3.0000e-001 72284 -2.4013e+001  1.1968e+001  9.1756e+000 63858 72160,72134,72258
 3.0000e-001 72307 -1.5917e+001  8.0408e+000  3.8251e+000 63858 72460,72258,72186
 3.0000e-001 72356 -1.5054e+001  1.0028e+001  5.6262e+000 63858 72186,72258,72330
 3.0000e-001 72486 -3.1585e+001 -5.2277e+000  1.0378e+001 63858 72160,72258,72460
 3.0000e-001 72614 -3.6682e+001  1.0785e+001 -1.3031e+000 63858 72108,72258,72588
 3.0000e-001 73248  5.9659e+000  8.9151e+000  9.2807e+000 63404 72902,72954,72928
 3.0000e-001 73225 -1.7151e+001  6.3858e+000 -1.1332e+000 63404 73271,72954,72902
 3.0000e-001 73202 -1.8970e+001  6.8364e+000 -9.3162e-002 63404 73271,72902,73032
 3.0000e-001 73179 -3.8593e+001 -1.5843e+000  1.6886e+000 63404 72902,73058,73032
 3.0000e-001 73156 -1.9602e+001  1.8887e+001 -4.9622e+000 63404 72980,73032,73006
 3.0000e-001 73133 -4.4797e+001  1.5438e+001  8.5965e+000 63404 72876,73058,72902
 3.0000e-001 73110 -1.9738e+002 -3.4012e+001  2.0643e+001 63404 72876,73084,73058
 3.0000e-001 73297 -1.9000e+001  5.7064e+000 -9.8436e-001 63404 72980,72954,73271
 3.0000e-001 73320 -2.0668e+001  6.3379e+000 -1.0038e-001 63404 72980,73271,73032
 3.0000e-001 73470 -3.9686e+001  8.7115e+000  2.7929e+000 63014 73343,73395,73369
 3.0000e-001 73447 -4.7299e+001  4.5567e+000 -2.2796e-001 63014 73343,73421,73395
 3.0000e-001 73929 -1.8239e+001  3.0353e+001 -2.2605e+000 62702 73759,73811,73785
 3.0000e-001 73906 -2.4956e+001  2.8030e+001 -1.1262e+000 62702 73655,73811,73759
 3.0000e-001 73883 -2.2331e+001  2.8166e+001  1.5903e-001 62702 73655,73759,73681
 3.0000e-001 73860 -2.9551e+001  1.4481e+001  1.3245e+001 62702 73681,73759,73707
 3.0000e-001 73837 -5.0738e+000  2.8644e+001  3.1295e+000 62702 73707,73759,73733
 3.0000e-001 74209 -6.1199e+000  2.5734e+001 -5.8031e-001 62404 74059,74137,74085
 3.0000e-001 74186  6.7510e+000  4.0450e+001 -7.2911e+000 62404 74033,74137,74059
 3.0000e-001 74163 -3.0983e+000  2.4118e+001  2.6162e-001 62404 74085,74137,74111
 3.0000e-001 74408 -3.1117e+001  1.3253e+001  1.3496e+000 62000 74258,74336,74284
 3.0000e-001 74385 -2.6305e+001  1.4106e+001 -1.6040e+000 62000 74232,74336,74258
 3.0000e-001 74362 -2.7629e+001  1.3265e+001  2.5595e+000 62000 74284,74336,74310
 3.0000e-001 74509 -2.7920e+001  4.9178e+001 -2.8849e+001 61802 74431,74483,74457
 3.0000e-001 74759 -2.2009e+001  1.6900e+001 -1.1801e+000 61554 74782,74586,74560
 3.0000e-001 74736 -3.8459e+001  1.9457e+001  4.5835e+000 61554 74782,74560,74664
 3.0000e-001 74713 -1.2151e+001  3.3527e+001 -1.3826e+001 61554 74854,74612,74586
 3.0000e-001 74690 -3.9182e+001  2.3543e+001  2.4081e+000 61554 74534,74664,74560
 3.0000e-001 74808 -1.4026e+001  2.4601e+001 -5.3753e+000 61554 74854,74586,74782
 3.0000e-001 74831 -2.5056e+001  3.2638e+001 -1.0463e+000 61554 74638,74782,74664
 3.0000e-001 74880 -2.2765e+001  2.2029e+001 -9.2612e+000 61554 74638,74612,74854
 3.0000e-001 74903 -2.4495e+001  1.6447e+001 -1.2864e+000 61554 74638,74854,74782
 3.0000e-001 75285 -3.4507e+001  4.2838e+001 -1.8752e-001 61356 75063,75167,75115
 3.0000e-001 75262 -2.9272e+001  5.1310e+001  4.6761e+000 61356 75037,75167,75063
 3.0000e-001 75239 -3.9887e+001  4.3550e+001  2.7673e-001 61356 75115,75167,75141
 3.0000e-001 75216 -2.9700e+001  4.5051e+001  5.4961e-001 61356 75063,75115,75089
 3.0000e-001 75193 -1.7234e+001  2.4840e+001 -9.4110e+000 61356 75011,75167,75037
 3.0000e-001 75631 -3.4856e+001  2.3958e+001 -1.5565e+000 60952 75654,75412,75360
 3.0000e-001 75608 -2.5752e+001  1.8946e+001 -2.8271e+000 60952 75654,75360,75334
 3.0000e-001 75585 -5.1558e+000  7.7618e+001 -1.1056e+001 60952 75726,75438,75412
 3.0000e-001 75562 -5.2109e+001 -2.2423e+001 -1.0516e+000 60952 75308,75490,75334
 3.0000e-001 75539 -2.2932e+001  2.8547e+001 -7.5670e-001 60952 75360,75412,75386
 3.0000e-001 75516 -3.2940e+001 -8.9592e+000  2.9829e+000 60952 75438,75490,75464
 3.0000e-001 75680 -2.5721e+001  3.1331e+001 -5.4840e+000 60952 75726,75412,75654
 3.0000e-001 75703 -2.7431e+001 -1.2674e+001  4.0370e+000 60952 75490,75654,75334
 3.0000e-001 75752 -2.0376e+001  2.4547e+001  3.5432e+000 60952 75490,75438,75726
 3.0000e-001 75775 -1.9864e+001  2.1034e+001  9.8110e+000 60952 75490,75726,75654
 3.0000e-001 76155 -8.2155e+000  2.6147e+001  8.5669e+000 60754 75933,75985,75959
 3.0000e-001 76132 -8.8427e+000  2.7376e+001 -5.7314e-001 60754 75933,76037,75985
 3.0000e-001 76109 -1.0618e+001  1.9382e+001  1.1594e+000 60754 75985,76037,76011
 3.0000e-001 76086 -4.9904e+000  2.0323e+001  1.7443e+000 60754 75881,76037,75933
 3.0000e-001 76063  3.3001e-001  2.8974e+001 -7.0497e-001 60754 75881,75933,75907
 3.0000e-001 76612 -2.8168e+001  1.3446e+001 -2.9913e+000 60350 76635,76442,76390
 3.0000e-001 76589 -2.2960e+001  1.1369e+001 -1.6369e+000 60350 76635,76390,76364
 3.0000e-001 76566 -1.9036e+001  1.7749e+001  4.4011e+000 60350 76364,76494,76468
 3.0000e-001 76543 -1.6351e+001  1.4916e+001 -1.4623e+001 60350 76390,76442,76416
 3.0000e-001 76520 -8.8909e+000  7.5853e+000  7.5066e+000 60350 76338,76494,76364
 3.0000e-001 76661 -3.1273e+001  1.2240e+001 -2.4933e+000 60350 76468,76442,76635
 3.0000e-001 76684 -2.7632e+001  9.2510e+000 -1.0044e+000 60350 76468,76635,76364
 3.0000e-001 76932 -2.0093e+001  5.6746e+000  1.0851e+001 59946 76955,76733,76707
 3.0000e-001 76909 -9.7947e+000  2.9508e+001  9.7541e+000 59946 77027,76955,76707
 3.0000e-001 76886  1.1781e+000  3.3091e+001  5.6286e+000 59946 77027,76707,76837
 3.0000e-001 76863 -1.2507e+001  6.2064e+001 -1.4547e+001 59946 76733,76785,76759
 3.0000e-001 76981 -2.3975e+001  1.7545e+001 -9.1644e+000 59946 76785,76733,76955
 3.0000e-001 77004 -1.3685e+001  3.0241e+001 -2.4386e+000 59946 76785,76955,76811
 3.0000e-001 77053  6.6917e+000  2.3812e+001  2.2157e+000 59946 76811,76955,77027
 3.0000e-001 77076  1.7730e+001  3.1595e+001 -3.9408e+000 59946 76811,77027,76837
 3.0000e-001 77226 -3.4452e+001  3.4672e+001 -2.2004e+000 59542 77099,77151,77125
 3.0000e-001 77203 -3.6382e+001  1.8244e+001 -8.3497e+000 59542 77099,77177,77151
 3.0000e-001 77427 -2.1552e+001  9.7425e+000 -6.3006e-001 59030 77450,77277,77251
 3.0000e-001 77404 -2.4820e+001  3.9980e-001 -1.6302e+000 59030 77450,77251,77355
 3.0000e-001 77381 -2.1724e+001  1.9296e+001 -3.1142e+000 59030 77277,77329,77303
 3.0000e-001 77476 -2.3672e+001  1.2089e+001  2.5581e+000 59030 77329,77277,77450
 3.0000e-001 77499 -2.4307e+001  6.8884e+000  1.5506e+000 59030 77329,77450,77355
 3.0000e-001 77749 -4.5501e+001  6.6775e+000  7.9140e+000 58426 77772,77628,77602
 3.0000e-001 77726 -4.1670e+001  2.5289e+000  1.2419e+001 58426 77524,77654,77628
 3.0000e-001 77703 -3.3382e+001  5.9321e+000  3.6210e+000 58426 77772,77602,77550
 3.0000e-001 77680 -3.0849e+001  7.4821e+000  8.2257e-002 58426 77550,77602,77576
 3.0000e-001 77798 -3.2078e+001  9.0353e+000  9.1568e+000 58426 77524,77628,77772
 3.0000e-001 77821 -2.6623e+001  4.2483e+000  3.0616e+000 58426 77524,77772,77550
 3.0000e-001 78071  3.4239e+000  2.5705e+001 -5.6353e+000 57922 78094,77924,77898
 3.0000e-001 78048  1.0395e+001  2.5477e+001  3.9045e+000 57922 78094,77898,77872
 3.0000e-001 78025 -1.3627e+001  9.9045e+000 -6.9237e+000 57922 78166,77846,77950
 3.0000e-001 78002 -2.2794e+001  1.2137e+001 -9.6713e+000 57922 77846,77976,77950
 3.0000e-001 78120  1.2022e+001  2.0287e+001 -9.1716e+000 57922 77950,77924,78094
 3.0000e-001 78143  3.6743e+000  1.4264e+001 -1.2037e+001 57922 78166,77950,78094
 3.0000e-001 78192 -3.2468e+001  1.2829e+001  8.6546e+000 57922 77872,77846,78166
 3.0000e-001 78215 -1.1248e+001  1.5583e+001  6.3508e+000 57922 77872,78166,78094
 3.0000e-001 78416 -2.4191e+001 -1.2779e-001  5.9091e+000 57468 78439,78292,78240
 3.0000e-001 78393 -2.2849e+001  1.1616e+001  4.6853e+000 57468 78439,78240,78344
 3.0000e-001 78370 -1.3682e+001  2.6439e+000  1.2862e+001 57468 78240,78292,78266
 3.0000e-001 78465 -2.1640e+001 -2.6224e+000 -2.0173e+000 57468 78318,78292,78439
 3.0000e-001 78488 -2.0969e+001  5.1665e+000 -9.6317e-001 57468 78318,78439,78344
 3.0000e-001 78689 -3.6192e+001  5.2976e+000 -8.7122e-001 57014 78712,78539,78513
 3.0000e-001 78666 -2.9475e+001 -7.8639e+000 -6.9192e+000 57014 78712,78513,78617
 3.0000e-001 78643 -1.4086e+001 -2.4567e+000  6.5234e+000 57014 78565,78617,78591
 3.0000e-001 78738 -2.7640e+001  2.4110e+001  4.7960e+000 57014 78565,78539,78712
 3.0000e-001 78761 -2.7663e+001  7.3917e-001 -1.3956e+000 57014 78565,78712,78617
 3.0000e-001 79241 -3.2522e+001  1.6105e+000  3.8619e+000 56652 79264,78895,78869
 3.0000e-001 79218 -2.4868e+001  6.4138e+000 -3.4262e-001 56652 79264,78869,79051
 3.0000e-001 79195 -3.2215e+001  4.0704e+000 -3.7599e-001 56652 78869,79077,79051
 3.0000e-001 79172 -3.1502e+001 -5.2846e+000 -2.8320e+000 56652 78895,78973,78947
 3.0000e-001 79149 -1.9899e+001  1.1038e+001 -8.4289e+000 56652 78973,79051,78999
 3.0000e-001 79126 -2.2833e+001  4.0617e+001 -1.0337e+001 56652 78895,78947,78921
 3.0000e-001 79103 -4.2678e+000  4.2553e+001 -1.5568e+001 56652 78999,79051,79025
 3.0000e-001 79290 -2.4739e+001 -3.5977e+000 -8.6162e-001 56652 78973,78895,79264
 3.0000e-001 79313 -1.4706e+001  4.5006e+000 -5.9082e+000 56652 78973,79264,79051
 3.0000e-001 79512 -7.5292e+001 -2.4356e+001 -5.5049e+000 56062 79388,79440,79414
 3.0000e-001 79489 -5.6212e+001 -2.9004e+001 -3.1922e+000 56062 79336,79440,79388
 3.0000e-001 79466 -4.2389e+001 -3.1989e+001 -5.5246e-001 56062 79336,79388,79362
 3.0000e-001 79941 -2.0068e+001 -2.5448e+000  2.8076e+000 55658 79964,79670,79644
 3.0000e-001 79918 -3.3338e+001 -1.4481e+001  7.8062e+000 55658 79964,79644,79800
 3.0000e-001 79895 -3.0304e+001  1.4360e+001 -2.2237e-001 55658 80036,79696,79670
 3.0000e-001 79872 -2.4688e+001  2.1816e+001 -2.1883e+000 55658 80108,79722,79696
 3.0000e-001 79849 -7.4642e+000  2.7197e+001 -1.6685e+001 55658 79722,79774,79748
 3.0000e-001 79826 -4.8924e+000 -6.3425e+000 -1.4616e+001 55658 79618,79800,79644
 3.0000e-001 79990 -3.4622e+001  1.3203e+001  3.1658e+000 55658 80036,79670,79964
 3.0000e-001 80013 -5.7267e+001 -4.4362e+000 -5.8246e+000 55658 79774,79964,79800
 3.0000e-001 80062 -2.8257e+001  1.7130e+001 -3.9792e+000 55658 80108,79696,80036
 3.0000e-001 80085 -3.0525e+001  6.7314e+000 -3.9551e+000 55658 79774,80036,79964
 3.0000e-001 80134 -1.9426e+001  1.3834e+001 -1.0965e-001 55658 79774,79722,80108
 3.0000e-001 80157 -2.1084e+001  1.1884e+001 -1.1596e+000 55658 79774,80108,80036
 3.0000e-001 80307  2.3445e+001  5.2285e+000  9.9937e+000 55254 80402,80330,80206
 3.0000e-001 80284  9.2948e+000 -1.0233e+000  1.4881e+001 55254 80330,80180,80258
 3.0000e-001 80356  3.0362e+001  2.0349e+001 -1.2673e+001 55254 80232,80206,80330
 3.0000e-001 80379 -1.0172e+001  3.7133e+000 -5.9839e+000 55254 80232,80330,80258
 3.0000e-001 80428  1.8306e+001  7.9285e+000  1.0609e+001 55254 80180,80330,80402
 3.0000e-001 80659 -6.5065e+000  2.7021e+001  6.2700e+000 54850 80558,80610,80584
 3.0000e-001 80636 -4.2565e-001  2.5279e+001  2.3199e+000 54850 80532,80610,80558
 3.0000e-001 80760 -2.9201e+001  2.1152e+001 -9.5661e+000 54652 80682,80734,80708
 3.0000e-001 81164 -2.1617e+001  2.2080e+001 -2.4749e+000 54248 81187,80942,80890
 3.0000e-001 81141 -1.4620e+001  2.0679e+001 -4.8314e+000 54248 81187,80890,81046
 3.0000e-001 81118 -7.1456e+000  2.5871e+001 -6.2107e+000 54248 80942,81020,80994
 3.0000e-001 81095 -2.1816e+001  1.7753e+001  2.8317e-001 54248 80890,80942,80916
 3.0000e-001 81072 -1.9583e+001  9.9748e+000  4.5744e-001 54248 80942,80994,80968
 3.0000e-001 81213 -1.4688e+001  2.1609e+001 -1.9514e+000 54248 81020,80942,81187
 3.0000e-001 81236 -8.1587e+000  1.9707e+001 -3.4794e+000 54248 81020,81187,81046
 3.0000e-001 81663 -2.4526e+001  6.9750e+000  1.0954e+001 53594 81340,81444,81366
 3.0000e-001 81640 -1.4087e+001  7.2539e+000  5.1959e+000 53594 81340,81470,81444
 3.0000e-001 81617 -2.2999e+001  3.9675e+000  4.3912e+000 53594 81340,81522,81470
 3.0000e-001 81594 -2.9830e+001  1.4206e+001  1.0523e+001 53594 81392,81444,81418
 3.0000e-001 81571 -3.1748e+001  4.8420e+000  8.5342e+000 53594 81366,81444,81392
 3.0000e-001 81548  3.1737e+000  9.1359e+000  4.3024e+000 53594 81470,81522,81496
 3.0000e-001 81943 -5.5980e+000  2.3764e+001  2.2329e+000 53104 81966,81845,81819
 3.0000e-001 81920 -6.7924e+000  1.1360e+001  1.2785e+000 53104 81966,81819,81767
 3.0000e-001 81897 -1.8883e+000  2.4092e+001 -5.8681e-003 53104 81767,81819,81793
 3.0000e-001 81992 -4.8475e+000  1.1797e+001 -1.6585e-001 53104 81871,81845,81966
 3.0000e-001 82015 -8.9698e+000 -5.2031e+000 -8.5259e-001 53104 81871,81966,81767
 3.0000e-001 82491 -3.9480e+001  1.0425e+001 -1.9715e+000 52650 82145,82249,82171
 3.0000e-001 82468 -2.5567e+001  1.4746e+001 -1.2477e+000 52650 82145,82301,82249
 3.0000e-001 82445 -2.6111e+001  2.3558e+001  2.0466e+000 52650 82249,82301,82275
 3.0000e-001 82422 -2.3739e+001  4.5907e+000 -3.7081e+000 52650 82119,82301,82145
 3.0000e-001 82399 -3.8119e+001  7.5924e+000 -4.5496e+000 52650 82171,82249,82223
 3.0000e-001 82376 -2.2422e+001  4.5661e+000  4.9410e+000 52650 82119,82327,82301
 3.0000e-001 82353 -6.4334e+001  2.4881e+001 -2.4513e+001 52650 82171,82223,82197
 3.0000e-001 82739 -2.7338e+001  6.0119e+000  1.5848e+000 52246 82762,82540,82514
 3.0000e-001 82716 -3.0370e+001  2.3192e+000  2.8941e+000 52246 82762,82514,82644
 3.0000e-001 82693 -3.5704e+001  1.1676e+001  2.9056e+000 52246 82540,82618,82592
 3.0000e-001 82670 -3.8720e+001  3.1630e+000  8.0910e+000 52246 82540,82592,82566
 3.0000e-001 82788 -3.0122e+001  9.2354e+000  3.1982e-002 52246 82618,82540,82762
 3.0000e-001 82811 -3.2272e+001  7.3400e+000  1.0418e+000 52246 82618,82762,82644
 3.0000e-001 83059 -1.2104e+001  9.6472e+000  7.6272e+000 51578 82860,82964,82938
 3.0000e-001 83036 -1.0904e+001  1.2609e+001  6.5995e+000 51578 82834,82964,82860
 3.0000e-001 83013 -1.6295e+001  2.4375e+001  1.4622e+001 51578 82860,82938,82886
 3.0000e-001 82990 -2.7573e+000  6.1065e+001  1.2521e+001 51578 82886,82938,82912
 3.0000e-001 83309 -3.6657e+000  3.1821e+001  2.4424e+000 51138 83332,83162,83136
 3.0000e-001 83286 -1.3576e+000  3.2089e+001  2.3918e+000 51138 83332,83136,83110
 3.0000e-001 83263 -1.2112e+001  2.8417e+001 -9.1765e-001 51138 83404,83214,83188
 3.0000e-001 83240  6.0176e+000  2.9518e+001  1.6558e+001 51138 83084,83214,83110
 3.0000e-001 83358  1.4299e+000  3.5177e+001 -3.5658e+000 51138 83188,83162,83332
 3.0000e-001 83381 -9.5438e+000  3.1427e+001 -2.6795e+000 51138 83404,83188,83332
 3.0000e-001 83430 -1.2566e+001  1.8919e+001  7.1295e+000 51138 83110,83214,83404
 3.0000e-001 83453 -6.2076e+000  2.4609e+001  4.4902e+000 51138 83110,83404,83332
 3.0000e-001 83835 -2.7256e+001 -2.5754e+000 -2.8993e+000 50734 83613,83717,83691
 3.0000e-001 83812 -1.7241e+001  2.1289e+001 -5.1356e-001 50734 83561,83717,83613
 3.0000e-001 83789 -2.5264e+001  2.3010e+001  1.3563e+000 50734 83561,83613,83587
 3.0000e-001 83766 -1.3092e+001  1.3314e+001  3.0596e+000 50734 83613,83691,83639
 3.0000e-001 83743 -9.3988e+000  2.3725e+001  7.6267e+000 50734 83639,83691,83665
 3.0000e-001 84034 -1.6713e+001  2.4592e+001 -8.6689e+000 50230 84057,83884,83858
 3.0000e-001 84011 -1.8402e+001  2.2898e+001 -4.9947e+000 50230 84129,84057,83858
 3.0000e-001 83988 -2.2576e+001  2.0777e+001 -3.5554e+000 50230 84129,83858,83962
 3.0000e-001 84083 -2.8031e+001  2.1141e+001 -1.2127e+001 50230 83910,83884,84057
 3.0000e-001 84106 -2.0771e+001  3.5717e+001 -9.6797e+000 50230 83910,84057,83936
 3.0000e-001 84155 -2.4630e+001  2.4964e+001 -4.6717e+000 50230 83936,84057,84129
 3.0000e-001 84178 -2.6649e+001  2.4450e+001 -3.3428e+000 50230 83936,84129,83962
 3.0000e-001 84558 -1.6092e+001  1.1605e+001  3.6372e+000 49768 84581,84388,84362
 3.0000e-001 84535 -7.0621e+000  1.1972e+001  1.1436e+000 49768 84581,84362,84310
 3.0000e-001 84512 -2.3813e+001  1.1141e+001  4.4125e+000 49768 84653,84440,84414
 3.0000e-001 84489  1.0652e+000  1.0547e+001  8.2329e+000 49768 84310,84362,84336
 3.0000e-001 84466 -1.2608e+001  1.6408e+001  2.0705e+001 49768 84284,84440,84310
 3.0000e-001 84607 -1.7360e+001  1.2409e+001  4.2713e+000 49768 84414,84388,84581
 3.0000e-001 84630 -2.0042e+001  1.3141e+001  2.8884e+000 49768 84653,84414,84581
 3.0000e-001 84679 -1.8685e+001  7.0475e+000  5.9378e+000 49768 84310,84440,84653
 3.0000e-001 84702 -1.5039e+001  8.4622e+000  5.3496e+000 49768 84310,84653,84581
 3.0000e-001 85159  2.0301e+001  1.4102e+001 -9.7571e+000 49192 84885,84937,84911
 3.0000e-001 85136  6.3097e+000  9.2412e+000  3.5853e+000 49192 84885,85041,84937
 3.0000e-001 85113 -3.9493e+000  8.4213e+000  4.6784e+000 49192 84963,85041,84989
 3.0000e-001 85090 -2.6884e+000  8.3668e+000 -1.1328e+000 49192 84937,85041,84963
 3.0000e-001 85067  1.8211e+000  1.1254e+001  3.7474e+000 49192 84989,85041,85015
 3.0000e-001 85714 -2.9964e+001  7.3446e+000  7.8946e+000 48638 85368,85498,85394
 3.0000e-001 85691 -2.7839e+001  1.3247e+001  6.9940e+000 48638 85368,85524,85498
 3.0000e-001 85668 -8.8241e+000  2.0966e+001 -7.4316e+000 48638 85737,85420,85394
 3.0000e-001 85645 -1.9062e+001  1.7165e+001  2.2809e-001 48638 85737,85394,85498
 3.0000e-001 85622 -3.1604e+001  1.6675e+001 -1.4614e+000 48638 85446,85498,85472
 3.0000e-001 85599 -4.2498e+001  5.2157e-001  2.5219e+001 48638 85342,85524,85368
 3.0000e-001 85576 -5.2462e+001  7.6803e+000  1.8524e+001 48638 85342,85550,85524
 3.0000e-001 85763 -2.2812e+001  1.5693e+001 -5.1781e+000 48638 85446,85420,85737
 3.0000e-001 85786 -2.4402e+001  1.7882e+001  2.0378e+000 48638 85446,85737,85498
 3.0000e-001 86371 -2.2576e+001  7.3060e+000  3.5411e+000 48084 86100,86230,86178
 3.0000e-001 86348 -2.7207e+001  5.7943e+000  2.1212e+000 48084 86048,86230,86100
 3.0000e-001 86325 -3.3747e+001  2.4645e+000  3.0511e+000 48084 86100,86178,86126
 3.0000e-001 86302 -1.5000e+001  3.4147e+001  6.0028e+000 48084 86048,86100,86074
 3.0000e-001 86279 -1.4487e+001  1.8284e+001 -1.7679e-001 48084 86178,86230,86204
 3.0000e-001 86256 -3.7998e+001  1.2782e+001  3.9325e+000 48084 86126,86178,86152
 3.0000e-001 86619 -1.6158e+001  1.9027e+001 -1.7617e+001 47630 86642,86446,86420
 3.0000e-001 86596 -6.1787e+000  2.4323e+001 -1.4446e+001 47630 86642,86420,86394
 3.0000e-001 86573 -1.3277e+001  2.6794e+001 -4.4100e+000 47630 86394,86524,86498
 3.0000e-001 86550 -2.0808e+001  2.2078e+001 -1.0337e+001 47630 86446,86498,86472
 3.0000e-001 86668 -1.3876e+001  2.3140e+001 -8.7478e+000 47630 86498,86446,86642
 3.0000e-001 86691 -5.9715e+000  2.6781e+001 -5.8992e+000 47630 86498,86642,86394
 3.0000e-001 87022 -1.6343e+001  2.0704e+001  6.2913e+000 47226 87045,86875,86849
 3.0000e-001 86999 -2.1310e+001  2.2696e+001  3.6247e+000 47226 87045,86849,86797
 3.0000e-001 86976 -2.8413e+001  1.2576e+001  9.6831e+000 47226 86797,86849,86823
 3.0000e-001 86953 -5.2914e+000  3.3887e+001  1.0681e+000 47226 86875,86927,86901
 3.0000e-001 87071 -1.0861e+001  2.0004e+001  4.2141e+000 47226 86927,86875,87045
 3.0000e-001 87094 -1.6419e+001  2.1571e+001  2.6064e+000 47226 86927,87045,86797
 3.0000e-001 87244 -1.5646e+001  2.8696e+001 -1.8778e+000 46814 87267,87169,87143
 3.0000e-001 87221 -1.8249e+001  2.9160e+001 -3.9391e+000 46814 87267,87143,87117
 3.0000e-001 87293 -1.9388e+001  1.2695e+001 -7.9724e+000 46814 87339,87267,87195
 3.0000e-001 87316 -6.2352e+000  3.4125e+001 -1.3801e+001 46814 87469,87267,87117
 3.0000e-001 87365 -8.3135e+000  2.0370e+001 -1.4354e+000 46814 87169,87267,87339
 3.0000e-001 87495 -2.1928e+001  1.1822e+000 -6.4612e+000 46814 87195,87267,87469
 3.0000e-001 88001 -1.5234e+001  3.2051e+001  8.6194e+000 46310 88024,87834,87808
 3.0000e-001 87978 -1.9201e+001  3.2062e+001 -1.4604e+000 46310 88024,87808,87756
 3.0000e-001 87955 -1.3623e+001  2.4670e+001 -5.9801e-001 46310 88096,87730,87860
 3.0000e-001 87932 -2.0526e+001  3.7100e+001 -1.3230e+000 46310 87756,87808,87782
 3.0000e-001 87909 -1.2767e+001  3.5175e+001 -1.9155e+000 46310 87678,87860,87730
 3.0000e-001 87886 -1.4162e+001  5.3084e+001  7.0538e+000 46310 87678,87730,87704
 3.0000e-001 88050 -2.6705e+001  5.7892e+000  1.1904e+001 46310 87860,87834,88024
 3.0000e-001 88073 -1.5381e+001  2.9329e+001  2.3965e+000 46310 88096,87860,88024
 3.0000e-001 88122 -1.7557e+001  2.2637e+001 -1.3289e+000 46310 87756,87730,88096
 3.0000e-001 88145 -2.3106e+001  2.4533e+001  3.1199e-001 46310 87756,88096,88024
 3.0000e-001 88572 -4.2464e+001 -2.1103e+000 -1.0757e+000 45856 88249,88405,88275
 3.0000e-001 88549 -5.0790e+001  3.3487e+001 -1.4237e+001 45856 88249,88431,88405
 3.0000e-001 88526 -2.7784e+001  8.9903e-001  4.4294e+000 45856 88327,88405,88353
 3.0000e-001 88503 -2.3430e+001  1.4282e+001  7.1415e+000 45856 88275,88405,88327
 3.0000e-001 88480 -2.1479e+001  1.8707e+001  7.3466e+000 45856 88353,88405,88379
 3.0000e-001 88457 -3.0524e+001 -1.9291e+001  8.9140e+000 45856 88275,88327,88301
 3.0000e-001 88950 -3.0305e+000  5.5844e+001  6.6285e+000 45658 88973,88754,88728
 3.0000e-001 88927 -9.3956e+000  3.2615e+001  1.5865e+000 45658 88973,88728,88676
 3.0000e-001 88904  7.7112e+000  2.8318e+001 -1.1088e+001 45658 88676,88832,88806
 3.0000e-001 88881 -8.2884e+000  3.7438e+001  4.7599e+000 45658 88676,88728,88702
 3.0000e-001 88858  2.1437e+000  1.9529e+001  2.0764e+001 45658 88754,88806,88780
 3.0000e-001 88999 -2.4910e+000  3.2581e+001  5.0601e+000 45658 88806,88754,88973
 3.0000e-001 89022 -1.1091e+000  1.9306e+001  7.2236e-001 45658 88806,88973,88676
 3.0000e-001 89351 -8.0574e+000  2.4352e+001 -1.9466e-001 45254 89152,89230,89204
 3.0000e-001 89328 -1.0296e+001  2.4864e+001  4.7815e+000 45254 89152,89256,89230
 3.0000e-001 89305 -2.5313e+000  2.5702e+001  3.8421e+000 45254 89126,89256,89152
 3.0000e-001 89282 -3.6751e-001  2.8325e+001 -3.5243e+000 45254 89152,89204,89178
 3.0000e-001 89523 -1.1761e+001  2.7766e+001 -2.5836e-002 45006 89422,89474,89448
 3.0000e-001 89500 -1.9840e+001  2.4296e+001 -6.5052e+000 45006 89396,89474,89422
 3.0000e-001 89673 -1.7173e+001  2.3706e+001 -1.2026e+000 44495 89572,89624,89598
 3.0000e-001 89650 -1.9838e+001  2.4268e+001 -7.7356e+000 44495 89546,89624,89572
 3.0000e-001 90104 -2.6488e+001  8.4081e+000 -4.5493e+000 44005 90199,90127,89937
 3.0000e-001 90081 -1.9355e+001  1.0646e+001 -4.5020e+000 44005 90271,90127,89859
 3.0000e-001 90058 -2.9755e+001  1.0689e+001 -4.1563e+000 44005 90199,89937,89885
 3.0000e-001 90035 -2.0906e+001  1.1240e+001 -3.6487e+000 44005 90271,89859,89807
 3.0000e-001 90012 -3.0501e+001  1.8702e+001 -6.2962e+000 44005 89885,89937,89911
 3.0000e-001 89989 -1.0364e+001  2.7515e+001 -1.5066e+001 44005 89807,89859,89833
 3.0000e-001 90153 -2.5442e+001  7.7268e+000 -7.7148e+000 44005 89963,89937,90127
 3.0000e-001 90176 -2.1996e+001  1.5794e+001 -7.5249e+000 44005 89963,90127,89781
 3.0000e-001 90225 -2.0569e+001  9.6980e+000 -6.2092e+000 44005 89859,90127,90199
 3.0000e-001 90248 -2.5928e+001  1.1032e+001 -6.6713e+000 44005 89859,90199,89885
 3.0000e-001 90297 -2.1556e+001  9.7834e+000 -4.6988e+000 44005 89781,90127,90271
 3.0000e-001 90320 -2.2486e+001  1.0736e+001 -3.7527e+000 44005 89781,90271,89807
 3.0000e-001 90470 -1.2909e+001  3.3665e+001 -7.7087e-001 43601 90493,90369,90343
 3.0000e-001 90447 -1.3708e+001  3.7863e+001  2.4825e-001 43601 90493,90343,90421
 3.0000e-001 90519 -1.4189e+001  2.5040e+001 -3.4547e+000 43601 90395,90369,90493
 3.0000e-001 90542 -1.1406e+001  3.4420e+001 -2.4428e+000 43601 90395,90493,90421
 3.0000e-001 90922 -1.3320e+001  2.7022e+001 -5.4440e+000 43154 90945,90700,90674
 3.0000e-001 90899 -1.2320e+001  2.7307e+001 -6.1182e+000 43154 90945,90674,90648
 3.0000e-001 90876 -8.8050e-001  3.5429e+001 -1.0389e+001 43154 90648,90778,90752
 3.0000e-001 90853 -1.7443e+001  2.7155e+001 -5.5750e+000 43154 90700,90752,90726
 3.0000e-001 90830 -2.6850e+001  2.3985e+001 -7.5080e+000 43154 90648,90804,90778
 3.0000e-001 90971 -1.3323e+001  2.6358e+001 -4.8113e+000 43154 90752,90700,90945
 3.0000e-001 90994 -1.2517e+001  2.6775e+001 -5.4843e+000 43154 90752,90945,90648
 3.0000e-001 91451 -3.8689e+001  7.5771e+000  1.6116e+001 42650 91203,91255,91229
 3.0000e-001 91428 -1.3512e+001  1.8367e+001  5.0718e+000 42650 91203,91333,91255
 3.0000e-001 91405 -1.1909e+001  1.4984e+001  4.3743e+000 42650 91177,91333,91203
 3.0000e-001 91382 -1.9165e+001  1.0781e+000  5.7042e+000 42650 91255,91333,91281
 3.0000e-001 91359 -1.8653e+001  7.8134e+000 -5.3716e-001 42650 91281,91333,91307
 3.0000e-001 91721 -1.4491e+001  2.3030e+001 -4.9768e-002 42288 91496,91600,91522
 3.0000e-001 91698 -1.2026e+001  2.9517e+001  7.8461e-001 42288 91496,91626,91600
 3.0000e-001 91675 -8.8491e+000  3.2832e+001 -3.3377e+000 42288 91522,91574,91548
 3.0000e-001 91652 -1.4154e+001  2.3033e+001 -2.2228e-001 42288 91522,91600,91574
 3.0000e-001 92199 -1.9298e+001  1.9255e+001 -5.4580e+000 41898 92222,91983,91879
 3.0000e-001 92176 -1.8877e+001  2.3998e+001 -3.5765e+000 41898 92294,92222,91879
 3.0000e-001 92153 -1.7147e+001  2.0991e+001 -1.9605e+000 41898 92294,91879,91853
 3.0000e-001 92130 -2.8797e+001  1.0439e+001 -2.9730e+000 41898 91879,91957,91931
 3.0000e-001 92107 -3.4179e+001  1.1996e+001  1.6655e+000 41898 91879,91983,91957
 3.0000e-001 92084 -1.1268e+001  1.0875e+001 -1.8895e+001 41898 91879,91931,91905
 3.0000e-001 92061 -2.5746e+001  2.2152e+001  6.2394e-001 41898 91827,92035,91853
 3.0000e-001 92248 -1.9298e+001  2.5109e+001 -6.7423e+000 41898 92009,91983,92222
 3.0000e-001 92271 -1.9910e+001  2.6827e+001 -6.2045e-001 41898 92009,92222,92035
 3.0000e-001 92320 -2.2219e+001  2.0581e+001 -1.3333e+000 41898 92035,92222,92294
 3.0000e-001 92343 -2.0627e+001  1.8252e+001  3.9710e-001 41898 92035,92294,91853
 3.0000e-001 92770 -1.9912e+001  2.1374e+001 -7.1010e+000 41437 92865,92793,92525
 3.0000e-001 92747 -2.3622e+001  2.2205e+001 -6.5866e+000 41437 92793,92473,92629
 3.0000e-001 92724 -1.4581e+001  1.7298e+001 -1.0117e+001 41437 92865,92525,92499
 3.0000e-001 92701 -1.0653e+001  5.9708e+000 -1.3283e+001 41437 92525,92603,92577
 3.0000e-001 92678 -3.2850e+001  2.6963e+001 -4.3510e+000 41437 92447,92629,92473
 3.0000e-001 92655 -4.8316e+001 -2.3994e-001 -1.3766e+001 41437 92525,92577,92551
 3.0000e-001 92819 -1.8144e+001  2.5523e+001 -1.2566e+001 41437 92603,92525,92793
 3.0000e-001 92842 -3.2491e+001  1.9797e+001 -1.5446e+001 41437 92603,92793,92629
 3.0000e-001 92891 -1.1183e+001  2.4097e+001 -5.6316e+000 41437 92473,92793,92865
 3.0000e-001 92914 -5.0917e+000  2.0549e+001 -9.3086e+000 41437 92473,92865,92499
 3.0000e-001 93243 -7.0826e+000 -5.8853e+000 -6.2895e+000 41097 93044,93096,93070
 3.0000e-001 93220  6.9988e+000  3.7533e+001 -9.0878e+000 41097 93044,93122,93096
 3.0000e-001 93197 -1.6421e+001  8.4132e+000  2.4494e+000 41097 93044,93148,93122
 3.0000e-001 93174 -2.5784e+001  1.3741e+001  6.6741e+000 41097 93018,93148,93044
 3.0000e-001 93393 -2.7503e+001  1.9904e+001 -3.7261e+000 40643 93416,93292,93344
 3.0000e-001 93370 -1.9122e+001  2.5387e+001 -8.9531e-001 40643 93266,93344,93292
 3.0000e-001 93442 -2.1960e+001  2.6185e+001  2.5118e+000 40643 93318,93292,93416
 3.0000e-001 93901 -2.1263e-001  2.1115e+001 -3.1136e-001 40132 93924,93731,93705
 3.0000e-001 93878  3.2778e+000  3.2453e+001  1.8210e+000 40132 93996,93924,93705
 3.0000e-001 93855 -3.2151e+000  1.6426e+001  9.6595e+000 40132 93996,93705,93653
 3.0000e-001 93832  3.4522e+001  1.3117e+001  6.7298e+000 40132 93653,93705,93679
 3.0000e-001 93809 -2.3742e+001  2.9232e+001  1.9805e+001 40132 93627,93783,93757
 3.0000e-001 93950 -9.7233e-002  2.8123e+001  2.4988e-001 40132 93757,93731,93924
 3.0000e-001 93973 -1.8587e+000  4.8798e+001  1.0666e+001 40132 93757,93924,93627
 3.0000e-001 94022 -1.4109e+001  2.0656e+001  1.2390e+001 40132 93627,93924,93996
 3.0000e-001 94045 -7.6944e+000  1.5669e+001  1.8457e+001 40132 93627,93996,93653
 3.0000e-001 94423 -9.7818e+000  3.2557e+001 -1.6704e+000 39514 94149,94227,94175
 3.0000e-001 94400 -1.5878e+001  1.7142e+001 -3.0595e+000 39514 94149,94305,94227
 3.0000e-001 94377 -2.3633e+001  3.8260e+001  1.0339e+000 39514 94175,94227,94201
 3.0000e-001 94354 -1.1948e+001  2.0767e+001 -1.4465e+000 39514 94227,94305,94279
 3.0000e-001 94331  1.9539e+000  2.6390e+001 -3.1514e+000 39514 94227,94279,94253
 3.0000e-001 94573  3.9024e+001  6.3841e+001 -3.8093e+000 38822 94596,94498,94472
 3.0000e-001 94550  4.7668e+001  6.1852e+001  7.7903e+000 38822 94596,94472,94446
 3.0000e-001 94622  2.9154e+001  5.9620e+001 -3.8863e+000 38822 94524,94498,94596
 3.0000e-001 94645  3.0899e+001  5.4567e+001  8.8217e+000 38822 94524,94596,94446
 3.0000e-001 95025 -1.7623e+001  2.4446e+001  3.0565e+000 38418 95048,94829,94777
 3.0000e-001 95002 -1.2251e+001  2.4864e+001  1.2795e+000 38418 95120,95048,94777
 3.0000e-001 94979 -1.0351e+001  2.6579e+001  2.0257e+000 38418 95120,94777,94751
 3.0000e-001 94956 -1.2182e+001  2.5795e+001  7.7494e-001 38418 95192,94881,94855
 3.0000e-001 94933 -1.9130e+001  3.7894e+001  7.0169e-001 38418 94777,94829,94803
 3.0000e-001 95074 -1.9585e+001  1.2407e+001  8.9668e+000 38418 94855,94829,95048
 3.0000e-001 95097 -1.4090e+001  2.6045e+001  2.9454e+000 38418 95192,94855,95048
 3.0000e-001 95146 -1.9579e+001  3.0112e+001  3.3073e+000 38418 94907,95048,95120
 3.0000e-001 95169 -1.3655e+001  3.5281e+001  5.5482e+000 38418 94907,95120,94751
 3.0000e-001 95218 -1.5906e+001  3.0374e+001  2.2297e-001 38418 94907,94881,95192
 3.0000e-001 95241 -2.0704e+001  2.7627e+001  3.0607e+000 38418 94907,95192,95048
 3.0000e-001 95511 -7.3746e+000  2.4826e+001  9.6043e-001 38049 95312,95390,95364
 3.0000e-001 95488 -3.3089e+000  2.7106e+001 -8.1783e-001 38049 95312,95416,95390
 3.0000e-001 95465 -3.2989e+000  2.3910e+001 -1.2668e+000 38049 95312,95364,95338
 3.0000e-001 95442 -6.3876e+000  3.2060e+001 -4.6443e-001 38049 95286,95416,95312
 3.0000e-001 95808 -2.7613e+001  2.8766e+001  8.0032e+000 37437 95831,95586,95560
 3.0000e-001 95785 -2.3517e+001  1.5589e+001  2.5100e+000 37437 95831,95560,95534
 3.0000e-001 95762 -1.8531e+001  5.9964e+001 -1.1664e+001 37437 95586,95664,95638
 3.0000e-001 95739 -2.0855e+001  1.6066e+001 -5.9488e+000 37437 95534,95690,95664
 3.0000e-001 95716 -3.4898e+000  3.3462e+001 -6.4978e-001 37437 95586,95638,95612
 3.0000e-001 95857 -2.8674e+001  1.8072e+001  7.4934e+000 37437 95664,95586,95831
 3.0000e-001 95880 -2.5060e+001  4.3122e+000  1.8998e+000 37437 95664,95831,95534
 3.0000e-001 96390 -2.0155e+001  1.9623e+001  6.6244e+000 36883 96413,96145,96093
 3.0000e-001 96367 -1.4818e+001  1.7420e+001 -1.0770e+001 36883 96413,96093,96067
 3.0000e-001 96344 -1.4257e+001 -6.3243e+000 -2.6111e+000 36883 96067,96249,96171
 3.0000e-001 96321 -2.0743e+001  3.3988e+001  2.5734e+000 36883 96093,96145,96119
 3.0000e-001 96298 -1.1473e+001  5.3913e-001 -3.5798e+000 36883 96171,96249,96197
 3.0000e-001 96275  3.6041e+000  3.5386e-001 -6.5937e-001 36883 96197,96249,96223
 3.0000e-001 96439 -3.0965e+001 -9.0716e+000  1.6579e+001 36883 96171,96145,96413
 3.0000e-001 96462 -1.8707e+001  5.9814e+000 -1.1294e+000 36883 96171,96413,96067
 3.0000e-001 96781 -2.4525e+001  2.2111e+000 -1.4066e-001 36215 96559,96663,96637
 3.0000e-001 96758 -2.2112e+001 -3.0211e+000 -2.0522e+000 36215 96507,96663,96559
 3.0000e-001 96735 -2.3397e+001  1.4057e+001  1.0127e+000 36215 96585,96637,96611
 3.0000e-001 96712 -2.9012e+001  2.6668e+000 -1.2978e+000 36215 96559,96637,96585
 3.0000e-001 96689 -1.0574e+001 -4.7896e+000  4.2001e+000 36215 96507,96559,96533
 3.0000e-001 97161 -1.6936e+001  1.2612e+001  6.4875e+000 35818 97184,96965,96939
 3.0000e-001 97138 -1.4234e+001  2.0611e+001  6.8961e+000 35818 97184,96939,96887
 3.0000e-001 97115 -1.2239e+001  2.6925e+001 -1.8827e+000 35818 96965,97043,97017
 3.0000e-001 97092 -1.0980e+001  2.4433e+001  5.3226e+000 35818 96887,96939,96913
 3.0000e-001 97069 -2.5619e+000  4.6848e+001  4.7945e+000 35818 96965,97017,96991
 3.0000e-001 97210 -1.9374e+001  1.8948e+001  2.6057e+000 35818 97043,96965,97184
 3.0000e-001 97233 -1.7809e+001  2.5001e+001  2.7258e+000 35818 97043,97184,96887
 3.0000e-001 97739  1.7364e+001  1.6220e+001 -1.2323e+001 35214 97416,97468,97442
 3.0000e-001 97716  9.5310e+000  2.0071e+001 -2.9457e+000 35214 97416,97598,97468
 3.0000e-001 97693 -4.0953e+000  1.7607e+001 -1.5310e+001 35214 97762,97520,97468
 3.0000e-001 97670  3.9418e+000  2.5340e+001 -6.0544e+000 35214 97762,97468,97598
 3.0000e-001 97647  4.0592e+000  3.3305e+001  1.6118e+000 35214 97546,97598,97572
 3.0000e-001 97624 -2.2375e+001  2.7231e+001 -1.5599e+001 35214 97468,97520,97494
 3.0000e-001 97788 -8.0340e-001  2.9659e+001 -7.7944e+000 35214 97546,97520,97762
 3.0000e-001 97811  2.7479e+000  3.5219e+001  6.5385e-001 35214 97546,97762,97598
 3.0000e-001 98189 -2.4077e+001  1.9532e+001 -1.0027e+001 34760 98356,98212,97967
 3.0000e-001 98166 -4.0499e+000  3.2924e+001 -6.1256e+000 34760 98284,98212,97941
 3.0000e-001 98143  2.7115e+000  2.9568e+001 -8.9146e+000 34760 98284,97941,97915
 3.0000e-001 98120 -1.7890e+001  3.0132e+001  1.6023e+000 34760 98484,97993,97967
 3.0000e-001 98097 -4.1909e+000  2.6197e+001 -2.7582e+000 34760 98556,98045,98019
 3.0000e-001 98238 -1.6274e+001  2.6527e+001  1.4597e+000 34760 98484,97967,98212
 3.0000e-001 98261 -7.5955e+000  2.8540e+001 -9.8523e-001 34760 98556,98019,98212
 3.0000e-001 98310 -1.0662e+001  2.7107e+001 -2.7990e+000 34760 98071,98212,98284
 3.0000e-001 98333 -5.3832e+000  1.8953e+001 -4.0753e+000 34760 98071,98284,97915
 3.0000e-001 98382  4.7562e+000  3.4975e+001 -2.5403e+000 34760 97941,98212,98356
 3.0000e-001 98510 -1.9808e+001  2.6345e+001  2.6752e+000 34760 98019,97993,98484
 3.0000e-001 98533 -1.7474e+001  2.3368e+001  1.9940e+000 34760 98019,98484,98212
 3.0000e-001 98582 -8.4012e+000  2.3419e+001 -3.9585e+000 34760 98071,98045,98556
 3.0000e-001 98605 -9.7520e+000  2.6953e+001 -1.6826e+000 34760 98071,98556,98212
 3.0000e-001 99032 -1.7367e+001  9.6326e+000  6.5279e+000 34156 98735,98891,98839
 3.0000e-001 99009 -1.9633e+001  1.9437e+001  2.1137e+001 34156 98709,98891,98735
 3.0000e-001 98986 -1.4254e+001  2.0073e+001  2.4058e-001 34156 98735,98813,98787
 3.0000e-001 98963 -1.2794e+001  2.4519e+001  1.1955e+000 34156 98735,98839,98813
 3.0000e-001 98940 -1.6559e+001  3.0331e+001  4.3085e-001 34156 98735,98787,98761
 3.0000e-001 98917 -9.0816e+000  3.2298e+001 -1.1568e+001 34156 98839,98891,98865
 3.0000e-001 99231 -1.7736e+001  2.1570e+001  1.4969e+000 33766 99055,99133,99107
 3.0000e-001 99208 -1.2412e+001  3.1505e+001 -1.2227e+000 33766 99055,99159,99133
 3.0000e-001 99185 -1.0064e+001  3.3602e+001  4.9513e+000 33766 99055,99107,99081
 3.0000e-001 99818  9.1157e+000  2.8833e+001 -5.8437e+000 33248 99521,99651,99573
 3.0000e-001 99795 -1.5531e+001  1.6262e+001 -1.0681e+001 33248 99521,99677,99651
 3.0000e-001 99772  5.9697e+000  2.3267e+001 -7.0981e+000 33248 99573,99651,99599
 3.0000e-001 99749 -4.8420e-001  2.8780e+001 -3.3847e+000 33248 99495,99677,99521
 3.0000e-001 99726  1.1989e+001  1.6167e+001 -1.3408e+001 33248 99599,99651,99625
 3.0000e-001 99703  9.3752e+000  3.2856e+001 -6.4088e+000 33248 99521,99573,99547
 3.0000e-001 100196 -1.4464e+001  2.4551e+001  7.2067e+000 32794 100219,99948,99922
 3.0000e-001 100173 -1.5514e+001  2.0577e+001 -1.4096e+000 32794 100219,99922,100052
 3.0000e-001 100150 -1.1785e+001  1.2597e+001 -1.0152e+000 32794 99974,100052,100026
 3.0000e-001 100127 -2.8078e+001  1.6536e+001  1.0026e+000 32794 99922,100078,100052
 3.0000e-001 100104 -1.2147e+001  2.4380e+001 -1.0828e+001 32794 99974,100026,100000
 3.0000e-001 100245 -4.4381e+000  3.1301e+001  1.1987e+001 32794 99974,99948,100219
 3.0000e-001 100268 -1.0375e+001  2.3576e+001  2.7482e+000 32794 99974,100219,100052
 3.0000e-001 100418 -8.8747e+000  3.2379e+001 -3.3614e+000 32504 100571,100343,100317
 3.0000e-001 100395  3.4773e+000  3.8106e+001 -1.5419e+001 32504 100571,100317,100441
 3.0000e-001 100467  1.0098e+000  1.4819e+001  5.8695e-001 32504 100291,100369,100441
 3.0000e-001 100597 -1.6266e+001  2.1029e+001  5.1222e+000 32504 100369,100343,100571
 3.0000e-001 100620 -1.1262e+001  1.6437e+001 -5.5187e+000 32504 100369,100571,100441
 3.0000e-001 101020 -3.2873e+000  3.7766e+001 -2.6612e+000 32142 100772,100902,100876
 3.0000e-001 100997 -1.7600e-001  3.9547e+001 -1.1239e+000 32142 100746,100902,100772
 3.0000e-001 100974  1.1616e+001  9.2382e+001  2.2930e+001 32142 101043,100824,100798
 3.0000e-001 100951 -2.0664e+001  6.1180e+001  8.9695e+000 32142 101043,100798,100772
 3.0000e-001 100928  2.2603e+001  5.8113e+001  1.5252e+001 32142 101115,100876,100850
 3.0000e-001 101069  5.7906e+000  5.9266e+001  1.7282e+001 32142 100850,100824,101043
 3.0000e-001 101092  1.4989e+001  5.8357e+001  1.1806e+001 32142 101115,100850,101043
 3.0000e-001 101141  1.3070e+001  5.4404e+001  9.6940e+000 32142 100772,100876,101115
 3.0000e-001 101164  7.4910e+000  5.4667e+001  5.7646e+000 32142 100772,101115,101043
 3.0000e-001 101719 -1.1632e+001  1.9021e+001 -1.3119e+000 31538 101742,101477,101399
 3.0000e-001 101696 -8.5038e+000  2.4606e+001  1.3267e+000 31538 101814,101742,101399
 3.0000e-001 101673 -4.3305e+000  1.9620e+001  6.4070e+000 31538 101814,101399,101373
 3.0000e-001 101650 -2.1963e+001  1.7642e+001  5.7978e+000 31538 101425,101477,101451
 3.0000e-001 101627 -2.5977e+001  1.0425e+001  2.2823e+000 31538 101399,101477,101425
 3.0000e-001 101604 -4.4225e+000  3.4106e+001 -3.9645e+000 31538 101477,101529,101503
 3.0000e-001 101581 -4.0257e+001  1.3957e+001  9.3047e+000 31538 101347,101555,101373
 3.0000e-001 101768 -6.2076e+000  2.4707e+001 -4.3272e+000 31538 101529,101477,101742
 3.0000e-001 101791 -1.5039e+001  2.2011e+001 -1.3781e+000 31538 101529,101742,101555
 3.0000e-001 101840 -1.7889e+001  2.0042e+001  3.1354e+000 31538 101555,101742,101814
 3.0000e-001 101863 -1.2572e+001  1.5803e+001  7.7504e+000 31538 101555,101814,101373
 3.0000e-001 102111 -1.3723e+001  2.1320e+001 -2.0555e+000 31112 101886,101990,101912
 3.0000e-001 102088 -1.4970e+001  2.7264e+001  2.0233e+000 31112 101886,102016,101990
 3.0000e-001 102065 -2.0346e+001  1.3932e+001  4.7689e+000 31112 101912,101990,101964
 3.0000e-001 102042 -1.4111e+001  3.1783e+001  3.0571e+000 31112 101912,101964,101938
 3.0000e-001 102408 -1.4624e+001  2.0921e+001  2.3698e-001 30658 102431,102186,102160
 3.0000e-001 102385 -1.3703e+001  1.9728e+001  1.9293e+000 30658 102431,102160,102264
 3.0000e-001 102362 -1.5128e+001  2.2790e+001  9.9127e-001 30658 102186,102238,102212
 3.0000e-001 102339 -2.0925e+001  1.5340e+001 -2.3081e-001 30658 102134,102264,102160
 3.0000e-001 102316 -1.0226e+001  1.5664e+001  7.4712e+000 30658 102134,102290,102264
 3.0000e-001 102457 -1.4388e+001  2.2796e+001  6.9810e-001 30658 102238,102186,102431
 3.0000e-001 102480 -1.3254e+001  2.1925e+001  2.4679e+000 30658 102238,102431,102264
 3.0000e-001 102681 -1.4796e+001  2.6525e+001 -4.1682e-001 30004 102704,102557,102505
 3.0000e-001 102658 -1.5707e+001  2.9879e+001 -1.9311e+000 30004 102704,102505,102609
 3.0000e-001 102635 -1.6350e+001  2.2974e+001 -1.4069e-001 30004 102505,102557,102531
 3.0000e-001 102730 -1.4660e+001  2.3693e+001 -4.9866e-002 30004 102583,102557,102704
 3.0000e-001 102753 -1.5688e+001  2.6067e+001 -2.5343e+000 30004 102583,102704,102609
 3.0000e-001 103003 -1.3029e+001  2.1981e+001  3.1463e+000 29564 103026,102804,102778
 3.0000e-001 102980 -1.4015e+001  2.0617e+001  3.7765e+000 29564 103026,102778,102908
 3.0000e-001 102957 -2.0444e+001  2.0404e+001  2.2583e+000 29564 102856,102908,102882
 3.0000e-001 102934 -2.0978e+001  2.7114e+001  3.2956e+000 29564 102804,102856,102830
 3.0000e-001 103052 -1.4237e+001  2.2145e+001  4.0539e+000 29564 102856,102804,103026
 3.0000e-001 103075 -1.4668e+001  2.1368e+001  4.5877e+000 29564 102856,103026,102908
 3.0000e-001 103634 -2.3511e+001  2.7328e+001  6.3691e+000 29160 103657,103418,103392
 3.0000e-001 103611 -2.4147e+001  2.7235e+001 -3.2554e+000 29160 103657,103392,103314
 3.0000e-001 103588 -1.6846e+001  3.2630e+001 -5.9760e+000 29160 103314,103392,103366
 3.0000e-001 103565 -2.8950e+001  2.6702e+001 -6.7724e-001 29160 103314,103366,103340
 3.0000e-001 103542 -2.6001e+001  8.8463e+000 -1.2136e+001 29160 103262,103444,103314
 3.0000e-001 103519 -1.0738e+001  3.8700e+001 -3.6221e+000 29160 103262,103314,103288
 3.0000e-001 103496 -2.4973e+001  2.0373e+001 -1.8984e+001 29160 103262,103470,103444
 3.0000e-001 103683 -1.1322e+001  3.3468e+001  8.7515e+000 29160 103444,103418,103657
 3.0000e-001 103706 -1.7177e+001  2.9654e+001 -1.7787e+000 29160 103444,103657,103314
 3.0000e-001 104035 -9.5891e+000  2.2040e+001  3.0675e+000 28770 103836,103914,103862
 3.0000e-001 104012 -1.1309e+001  2.0456e+001  2.2337e+000 28770 103810,103914,103836
 3.0000e-001 103989 -3.1664e+001  1.2673e+001  2.9500e+000 28770 103810,103940,103914
 3.0000e-001 103966 -1.0232e+001  2.7872e+001  2.6219e+000 28770 103862,103914,103888
 3.0000e-001 104185  8.2534e+000  4.1941e+001 -1.4741e-001 28366 104208,104110,104084
 3.0000e-001 104162 -6.1212e+000  2.8723e+001 -1.0699e+001 28366 104280,104208,104084
 3.0000e-001 104234  1.4583e+001  3.0290e+001 -5.7855e+000 28366 104610,104208,104136
 3.0000e-001 104257  7.9351e+000  4.0198e+001 -5.1883e+000 28366 104538,104410,104208
 3.0000e-001 104306  1.0929e+001  3.9406e+001 -4.5044e+000 28366 104538,104208,104280
 3.0000e-001 104436  1.1601e+001  4.8327e+001 -6.3322e+000 28366 104136,104208,104410
 3.0000e-001 104564  1.0899e+001  4.1568e+001 -3.7360e+000 28366 104058,104410,104538
 3.0000e-001 104587  1.3004e+001  4.0263e+001 -2.9919e+000 28366 104058,104538,104280
 3.0000e-001 104636  1.3267e+001  3.1462e+001  1.6819e+000 28366 104110,104208,104610
 3.0000e-001 105349 -1.2187e+001  1.4117e+001  7.7529e-001 27976 105516,105372,105107
 3.0000e-001 105326 -7.8394e+000  1.9852e+001 -1.5009e+000 27976 105588,105372,105055
 3.0000e-001 105303  6.2081e+000  2.1772e+001  3.5877e+000 27976 105444,105159,105133
 3.0000e-001 105280 -1.8919e+001  1.6672e+001 -1.8489e+000 27976 105516,105107,105081
 3.0000e-001 105257 -6.8293e+000  2.5463e+001 -2.4499e+000 27976 105588,105055,105029
 3.0000e-001 105234 -1.7652e+001  8.6865e+000  4.5348e+000 27976 105003,105185,105159
 3.0000e-001 105211 -1.7141e+001  1.4840e+001  8.3898e+000 27976 104977,105185,105003
 3.0000e-001 105398 -1.3888e+001  1.9510e+001  2.0421e+000 27976 105133,105107,105372
 3.0000e-001 105421 -5.9263e+000  2.2942e+001  2.3344e+000 27976 105444,105133,105372
 3.0000e-001 105470 -8.3905e+000  1.5303e+001  2.8612e-001 27976 105003,105159,105444
 3.0000e-001 105493 -1.3860e+001  2.0798e+001 -9.6033e-001 27976 105003,105444,105372
 3.0000e-001 105542 -1.6797e+001  1.3075e+001 -4.8145e+000 27976 105055,105372,105516
 3.0000e-001 105565 -2.6894e+001  1.4328e+001 -6.7812e+000 27976 105055,105516,105081
 3.0000e-001 105614 -8.3380e+000  2.5652e+001 -4.5608e+000 27976 105003,105372,105588
 3.0000e-001 105637 -7.4820e+000  3.0347e+001 -5.8754e+000 27976 105003,105588,105029
 3.0000e-001 106143 -5.9898e+000  3.7985e+001  1.3082e+001 27664 106166,105846,105820
 3.0000e-001 106120  8.5847e+000  4.6153e+001  5.7585e+000 27664 106310,106166,105820
 3.0000e-001 106097  1.7036e+001  3.7614e+001  2.8007e+000 27664 106382,106238,105950
 3.0000e-001 106074 -1.8268e+000  5.4648e+001 -1.5966e+000 27664 106310,105820,106002
 3.0000e-001 106051  1.7535e+001  3.5148e+001 -2.1074e-001 27664 106382,105950,105924
 3.0000e-001 106028  2.1167e+001  2.7333e+001  1.7901e+001 27664 105846,105898,105872
 3.0000e-001 106192  1.1464e+001  4.4409e+001  1.2460e+001 27664 105898,105846,106166
 3.0000e-001 106215  4.9235e+000  3.5761e+001  4.1121e+000 27664 106238,105898,106166
 3.0000e-001 106264  2.2270e+001  3.7259e+001  5.8371e+000 27664 105976,105950,106238
 3.0000e-001 106287  1.5622e+001  4.0274e+001  1.6738e+000 27664 105976,106238,106166
 3.0000e-001 106336 -1.1706e+000  3.3297e+001  8.6912e-001 27664 105976,106166,106310
 3.0000e-001 106359 -1.1876e+001  4.2034e+001 -6.4801e+000 27664 105976,106310,106002
 3.0000e-001 106408  1.4442e+001  3.1110e+001  2.9630e+000 27664 105898,106238,106382
 3.0000e-001 106431  1.6016e+001  3.0755e+001 -1.4801e-001 27664 105898,106382,105924
 3.0000e-001 106728 -1.4522e+001  2.2739e+001 -1.5724e+000 27153 106751,106506,106454
 3.0000e-001 106705 -1.4564e+001  2.3792e+001 -3.6990e-001 27153 106751,106454,106610
 3.0000e-001 106682 -1.7348e+001  1.9673e+001 -3.2223e+000 27153 106454,106506,106480
 3.0000e-001 106659 -1.3887e+001  2.4083e+001 -2.0021e-001 27153 106532,106610,106584
 3.0000e-001 106636 -1.3381e+001  2.1297e+001 -1.0033e+000 27153 106532,106584,106558
 3.0000e-001 106777 -1.5875e+001  2.1122e+001 -2.2013e+000 27153 106532,106506,106751
 3.0000e-001 106800 -1.5328e+001  2.2833e+001 -8.4642e-001 27153 106532,106751,106610
 3.0000e-001 107180  3.2038e+000  4.2056e+001  5.2063e+000 26642 107203,106984,106958
 3.0000e-001 107157 -3.1298e+000  3.7140e+001 -3.2191e+000 26642 107203,106958,106932
 3.0000e-001 107134  1.1003e+001  3.9396e+001 -9.5626e+000 26642 107275,107036,107010
 3.0000e-001 107111 -9.0008e+000  2.3304e+001 -1.4610e+000 26642 106932,107062,107036
 3.0000e-001 107088 -2.5669e+001  1.5797e+001 -3.1329e+000 26642 106906,107062,106932
 3.0000e-001 107229 -7.7831e+000  1.7196e+001  7.0178e+000 26642 107010,106984,107203
 3.0000e-001 107252  5.7324e+000  3.8774e+001 -4.6408e+000 26642 107275,107010,107203
 3.0000e-001 107301  2.9508e+000  3.6888e+001 -7.5890e+000 26642 106932,107036,107275
 3.0000e-001 107324 -1.9112e+000  3.9044e+001 -5.0642e+000 26642 106932,107275,107203
 3.0000e-001 107675 -1.0745e+001  2.3215e+001  8.0510e-001 26045 107450,107554,107476
 3.0000e-001 107652 -1.3695e+001  2.9903e+001 -3.9094e+000 26045 107450,107580,107554
 3.0000e-001 107629 -3.4897e+001  1.5140e+001 -4.4592e+000 26045 107476,107528,107502
 3.0000e-001 107606 -1.8962e+001  1.5283e+001 -5.3575e+000 26045 107476,107554,107528
 3.0000e-001 107874 -1.7345e+001  1.9624e+001  2.9248e-001 25641 107750,107802,107776
 3.0000e-001 107851 -1.2226e+001  1.8677e+001  5.0101e+000 25641 107724,107802,107750
 3.0000e-001 107828 -2.1651e+001  1.3611e+001  2.9827e+000 25641 107698,107802,107724
 3.0000e-001 108431 -1.8252e+001  1.6439e+001 -9.5707e-001 25023 108526,108267,108241
 3.0000e-001 108408 -1.8294e+001  1.3514e+001  1.2673e+001 25023 108059,108267,108085
 3.0000e-001 108385 -1.1745e+001  1.8851e+001  1.1790e+000 25023 108454,108163,108111
 3.0000e-001 108362 -9.5226e+000  1.8244e+001 -3.6565e-001 25023 108454,108111,108085
 3.0000e-001 108339 -1.6345e+001  2.1997e+001 -8.5353e-002 25023 108111,108163,108137
 3.0000e-001 108316  6.6262e-001  1.6168e+001  2.9029e+000 25023 108163,108241,108215
 3.0000e-001 108293 -1.3584e+001  8.1589e+000 -7.0808e+000 25023 108163,108215,108189
 3.0000e-001 108480 -1.0699e+001  1.9311e+001 -9.1695e-001 25023 108241,108163,108454
 3.0000e-001 108503 -1.5501e+001  1.7273e+001 -1.4041e+000 25023 108526,108241,108454
 3.0000e-001 108552 -1.4457e+001  1.3812e+001  9.2638e-001 25023 108085,108267,108526
 3.0000e-001 108575 -1.1637e+001  1.4692e+001  5.1638e-001 25023 108085,108526,108454
 3.0000e-001 108823 -2.7870e+001 -2.2815e+001 -6.0130e+000 24461 108624,108728,108650
 3.0000e-001 108800 -3.4321e+001 -8.7829e+000 -3.4478e+000 24461 108598,108728,108624
 3.0000e-001 108777 -1.0188e+001 -4.7797e+000  1.2083e+000 24461 108650,108728,108676
 3.0000e-001 108754 -1.8366e+001 -1.1465e+001 -4.6314e+000 24461 108676,108728,108702
 3.0000e-001 109022 -1.3064e+001  1.5875e+001  1.7133e+000 24121 108872,108924,108898
 3.0000e-001 108999 -1.0358e+001  1.9128e+001  2.9494e+000 24121 108846,108924,108872
 3.0000e-001 108976 -1.7923e+001  1.7359e+001 -5.2394e-001 24121 108846,108950,108924
 3.0000e-001 109483 -3.3999e+001  5.7223e+000  1.1131e+001 23717 109209,109339,109235
 3.0000e-001 109460 -1.2939e+001  2.5162e+001  2.4610e-001 23717 109209,109365,109339
 3.0000e-001 109437 -1.0498e+001  7.4292e+000  5.9094e+000 23717 109287,109339,109313
 3.0000e-001 109414 -1.1751e+001  1.2814e+001  1.0981e+001 23717 109235,109339,109287
 3.0000e-001 109391 -1.5591e+001  2.0577e-001  1.0534e+001 23717 109235,109287,109261
 3.0000e-001 109910 -1.9345e+001  1.1557e+001  3.2129e-001 23305 109613,109743,109717
 3.0000e-001 109887 -2.4838e+001  8.8915e+000  2.0506e+000 23305 109613,109769,109743
 3.0000e-001 109864 -1.7120e+001  5.9675e+000  3.9583e-001 23305 109613,109717,109639
 3.0000e-001 109841 -2.3720e+001  2.0707e+001  1.4996e+000 23305 109587,109769,109613
 3.0000e-001 109818 -1.4389e+001  7.0950e+000  2.7013e+000 23305 109639,109717,109691
 3.0000e-001 109795 -1.6835e+001  6.1045e+000  2.8377e+000 23305 109639,109691,109665
 3.0000e-001 110180 -1.8610e+001  4.4245e+000  7.3053e-001 22851 110007,110059,110033
 3.0000e-001 110157 -1.0810e+001  2.2261e+001  1.7828e+000 22851 109981,110059,110007
 3.0000e-001 110134 -1.3582e+001  2.0617e+001  1.1027e+000 22851 109955,110059,109981
 3.0000e-001 110111 -1.4858e+001  2.0657e+001  1.6754e+000 22851 109955,110085,110059
 3.0000e-001 110737  1.1116e+001  2.4335e+001 -2.5164e+000 22333 110760,110469,110391
 3.0000e-001 110714  4.4111e-001  2.0608e+001 -7.4364e-001 22333 110760,110391,110365
 3.0000e-001 110691  1.4671e+000  1.9878e+001 -7.5717e+000 22333 110832,110521,110469
 3.0000e-001 110668  1.9462e+001  1.4395e+001 -5.5129e-003 22333 110417,110469,110443
 3.0000e-001 110645  7.3076e+000  1.6834e+001 -1.2337e-001 22333 110391,110469,110417
 3.0000e-001 110622  2.6967e+000  2.6681e+001 -2.4105e+001 22333 110469,110521,110495
 3.0000e-001 110599  1.8070e+001  4.8997e+001 -1.3439e+001 22333 110365,110573,110547
 3.0000e-001 110786  8.4422e-001  2.1520e+001 -6.0055e+000 22333 110832,110469,110760
 3.0000e-001 110809 -3.9760e-001  2.7853e+001 -2.5183e+000 22333 110547,110760,110365
 3.0000e-001 110858 -2.8209e+000  2.4251e+001 -6.6601e+000 22333 110547,110521,110832
 3.0000e-001 110881  7.8546e-001  2.9220e+001 -3.9364e+000 22333 110547,110832,110760
 3.0000e-001 111308 -2.4480e+001  1.6890e+001  1.0176e+001 21829 111331,111063,111011
 3.0000e-001 111285 -3.5231e+001  1.5458e+001  6.6704e+000 21829 111331,111011,111167
 3.0000e-001 111262 -2.3965e+001  9.5455e+000  5.2796e+000 21829 111403,111089,111063
 3.0000e-001 111239 -2.1924e+001  3.8157e+001  1.4090e+001 21829 111011,111063,111037
 3.0000e-001 111216 -5.0207e+001  4.9050e+001 -3.0282e+000 21829 110985,111167,111011
 3.0000e-001 111193  1.1764e+001  2.9772e+001  1.6940e+001 21829 111089,111141,111115
 3.0000e-001 111357 -2.9638e+001  1.5053e+001  5.5609e+000 21829 111403,111063,111331
 3.0000e-001 111380 -3.1985e+001  7.6021e+000 -2.0170e+000 21829 111141,111331,111167
 3.0000e-001 111429 -2.8776e-001  1.7884e+001  5.9106e+000 21829 111141,111089,111403
 3.0000e-001 111452 -1.8674e+001  1.4897e+001  3.8442e+000 21829 111141,111403,111331
 3.0000e-001 112056  7.4734e-001  2.1994e+001  9.9507e-001 21489 111687,111765,111739
 3.0000e-001 112033  2.7395e+000  1.8939e+001 -2.7596e-001 21489 112151,112079,111687
 3.0000e-001 112010  1.5378e+001  1.7083e+001  1.0300e+000 21489 111791,111843,111817
 3.0000e-001 111987  9.0368e+000  1.8027e+001 -3.2443e-003 21489 112079,111843,111791
 3.0000e-001 111964 -1.4585e+000  2.0294e+001 -3.2923e+000 21489 112151,111687,111661
 3.0000e-001 111941  3.3444e+000  1.1626e+001 -7.0480e+000 21489 111661,111869,111843
 3.0000e-001 111918 -6.8773e+000  2.0462e+001 -1.1545e+000 21489 111687,111739,111713
 3.0000e-001 111895  5.2359e+000  1.6162e+001 -2.8406e+000 21489 111635,111869,111661
 3.0000e-001 112105  7.4963e+000  2.4394e+001  1.9712e+000 21489 111765,111687,112079
 3.0000e-001 112128  7.6255e+000  1.8899e+001  1.1806e+000 21489 111765,112079,111791
 3.0000e-001 112177  1.0414e+001  2.1335e+001  1.9652e-001 21489 111843,112079,112151
 3.0000e-001 112200  5.8813e+000  2.2798e+001 -2.4273e+000 21489 111843,112151,111661
 3.0000e-001 112578 -1.1348e+001  2.7622e+001 -2.1075e+000 21177 112382,112434,112408
 3.0000e-001 112555 -9.9318e+000  3.2508e+001 -2.2112e+000 21177 112330,112434,112382
 3.0000e-001 112532 -2.2032e+001  2.2977e+001 -8.4263e+000 21177 112304,112434,112330
 3.0000e-001 112509 -1.5599e+001  3.1331e+001  0.0000e+000 21177 112330,112382,112356
 3.0000e-001 112486 -1.0219e+001  3.0144e+001 -1.1696e+001 21177 112304,112460,112434
 3.0000e-001 112679 -1.8423e+001  5.9248e+001 -4.7991e-001 20666 112601,112653,112627
 3.0000e-001 112927 -1.0958e+001  1.8601e+001 -2.6021e+000 19762 112702,112754,112728
 3.0000e-001 112904 -1.2870e+001  1.2846e+001 -1.0264e+000 19762 112702,112832,112754
 3.0000e-001 112881 -8.9643e+000  2.1083e+001 -2.1272e+000 19762 112754,112832,112806
 3.0000e-001 112858 -6.2296e+000  3.2188e+001 -4.4824e+000 19762 112754,112806,112780
 3.0000e-001 113297 -1.0675e+001  2.2472e+001 -1.5665e+000 19308 112974,113052,113026
 3.0000e-001 113274 -1.3684e+001  2.0988e+001 -5.7275e-001 19308 112974,113156,113052
 3.0000e-001 113251 -1.4224e+001  2.6630e+001  3.6703e+000 19308 113052,113130,113104
 3.0000e-001 113228 -1.6807e+001  1.4965e+001 -1.7926e+000 19308 113052,113156,113130
 3.0000e-001 113205 -1.2875e+001  2.2440e+001  0.0000e+000 19308 113052,113104,113078
 3.0000e-001 113182 -1.0582e+001  2.1259e+001 -1.2215e+000 19308 112974,113026,113000
 3.0000e-001 113547 -4.3346e+000  2.4723e+001  4.8803e+000 18711 113570,113374,113348
 3.0000e-001 113524  2.5260e+000  2.2415e+001  4.5107e+000 18711 113570,113348,113452
 3.0000e-001 113501  3.0041e-001  7.7682e+000  1.3394e+001 18711 113322,113452,113348
 3.0000e-001 113478 -1.0867e+001  2.9130e+001  1.3162e+001 18711 113374,113426,113400
 3.0000e-001 113596 -1.5513e+001  2.3550e+001  7.1307e+000 18711 113426,113374,113570
 3.0000e-001 113619 -3.9032e+000  2.4827e+001  6.7346e+000 18711 113426,113570,113452
 3.0000e-001 113771  1.6736e+000  3.8655e+001  1.9269e+000 18307 113670,113722,113696
 3.0000e-001 113748 -1.5136e+000  3.7331e+001  1.0764e+000 18307 113644,113722,113670
 3.0000e-001 113972 -1.1875e+001  2.8221e+001 -1.2372e+000 17945 113822,113874,113848
 3.0000e-001 113949 -1.9735e+001  2.2151e+001 -4.1121e+000 17945 113822,113900,113874
 3.0000e-001 113926 -1.1960e+001  2.9458e+001 -1.4934e+001 17945 113796,113900,113822
 3.0000e-001 114075 -2.2692e+001  3.1254e+001 -5.3091e+000 17482 113997,114049,114023
 3.0000e-001 114479 -1.1706e+001  2.1538e+001  2.4144e-001 17042 114257,114361,114335
 3.0000e-001 114456 -1.8107e+001  1.3224e+001  3.3621e+000 17042 114205,114361,114257
 3.0000e-001 114433 -1.6460e+001  2.3591e+001 -1.2552e+000 17042 114205,114257,114231
 3.0000e-001 114410 -1.1158e+001  3.4151e+001  2.6263e+000 17042 114283,114335,114309
 3.0000e-001 114387 -7.0323e+000  2.3668e+001  3.1591e+000 17042 114257,114335,114283
 3.0000e-001 114879  1.9916e+001  2.0434e+001  1.2166e-001 16638 114631,114683,114657
 3.0000e-001 114856  2.0656e+001  2.0475e+001  1.5136e+000 16638 114605,114683,114631
 3.0000e-001 114833  2.2266e+001  2.0617e+001 -1.0217e-001 16638 114605,114761,114683
 3.0000e-001 114810  4.4496e+001  1.8301e+001 -7.5797e+000 16638 114683,114735,114709
 3.0000e-001 114787  1.9870e+001  1.9955e+001 -2.4855e+000 16638 114683,114761,114735
 3.0000e-001 115078 -6.4440e+001 -2.5405e+001  6.9504e+000 16232 114954,115006,114980
 3.0000e-001 115055 -3.9643e+001 -9.6876e+000 -9.9634e-001 16232 114928,115006,114954
 3.0000e-001 115032 -4.9036e+001 -1.3049e+001 -4.2608e+000 16232 114902,115006,114928
 3.0000e-001 115228  1.0370e+001  2.1953e+001  3.6606e+000 15482 115101,115153,115127
 3.0000e-001 115205 -2.3259e+001  9.7310e+000  4.8446e+000 15482 115101,115179,115153
 3.0000e-001 115331  2.9245e-001  2.8495e+001 -1.9702e+000 15163 115253,115305,115279
 3.0000e-001 115434  1.5598e+001  2.4693e+001 -5.5780e+000 421 115356,115408,115382
 4.0000e-001 68213  2.5761e+001  1.3572e+001 -2.4908e+000 67888 68112,68164,68138
 4.0000e-001 68190 -1.0524e+000  5.5089e+000 -4.0316e+000 67888 68086,68164,68112
 4.0000e-001 68314  1.8134e+001 -3.5791e+000  3.4039e+000 67576 68236,68288,68262
 4.0000e-001 68584 -5.3588e+001 -1.7185e+001  1.6409e+000 67378 68385,68489,68463
 4.0000e-001 68561 -2.8668e+001 -5.9997e+000 -6.0146e-001 67378 68359,68489,68385
 4.0000e-001 68538 -5.2775e+001 -1.0503e+001  1.9692e+000 67378 68385,68463,68411
 4.0000e-001 68515 -5.7498e+001  6.5493e+000  4.7746e+000 67378 68411,68463,68437
 4.0000e-001 68964 -3.3145e+001  8.6821e+000 -5.6603e+000 67130 68690,68820,68716
 4.0000e-001 68941 -3.7335e+001  2.6560e+001 -4.9765e+000 67130 68690,68846,68820
 4.0000e-001 68918 -6.5843e+001 -9.1218e+000  1.2174e+001 67130 68742,68820,68794
 4.0000e-001 68895 -6.3320e+001 -1.8746e+000  6.5730e+000 67130 68716,68820,68742
 4.0000e-001 68872 -6.1653e+001  4.8851e+000  1.6625e+001 67130 68742,68794,68768
 4.0000e-001 69065 -1.0531e+001  8.6947e+000 -2.4962e+001 66926 68987,69039,69013
 4.0000e-001 69445  1.4770e+000  3.0123e+001 -2.3378e+001 66614 69223,69301,69275
 4.0000e-001 69422  2.2053e+000  1.4225e+001  1.3194e+000 66614 69171,69301,69223
 4.0000e-001 69399  1.2024e+001  1.5656e+001 -3.4777e+000 66614 69171,69327,69301
 4.0000e-001 69376 -4.7083e+000  5.6671e+001 -5.9088e+000 66614 69223,69275,69249
 4.0000e-001 69353 -1.9532e+001  5.0593e+000 -5.4851e+000 66614 69171,69223,69197
 4.0000e-001 69546 -5.3907e+001  1.6123e+001 -1.5784e+001 66416 69468,69520,69494
 4.0000e-001 69997 -1.8124e+001  2.4648e+001  1.0119e+000 66104 69700,69830,69726
 4.0000e-001 69974 -1.4441e+001  1.6478e+001 -1.6038e+000 66104 69700,69856,69830
 4.0000e-001 69951 -8.1344e+000  1.2434e+001  6.0540e+000 66104 69726,69804,69778
 4.0000e-001 69928 -2.3246e+001  1.6076e+001  3.5076e+000 66104 69726,69830,69804
 4.0000e-001 69905 -1.1430e+001  6.4129e+000  2.2321e+000 66104 69726,69778,69752
 4.0000e-001 69882  1.6660e+000  1.0771e+001 -1.1260e+001 66104 69674,69856,69700
 4.0000e-001 70326 -1.4825e+001  2.2310e+001 -2.4904e+000 65814 70349,70153,70127
 4.0000e-001 70303 -1.6459e+001  2.7740e+001 -7.6965e+000 65814 70349,70127,70101
 4.0000e-001 70280 -1.0256e+001  8.9786e+000 -2.1525e+001 65814 70101,70231,70205
 4.0000e-001 70257 -1.3384e+001  2.3035e+001  2.9263e+000 65814 70153,70205,70179
 4.0000e-001 70375 -1.6690e+001  1.4013e+001 -7.9491e-001 65814 70205,70153,70349
 4.0000e-001 70398 -1.6209e+001  2.1377e+001 -6.5441e+000 65814 70205,70349,70101
 4.0000e-001 70904 -3.7400e+001 -1.2241e+000 -3.7179e+000 65502 70607,70737,70685
 4.0000e-001 70881 -4.9566e+001 -1.7716e+001  3.8018e+000 65502 70581,70737,70607
 4.0000e-001 70858 -4.3028e+001 -5.6652e+000  9.2534e-001 65502 70581,70763,70737
 4.0000e-001 70835 -6.7441e+001 -1.1876e+001  4.4324e+000 65502 70685,70737,70711
 4.0000e-001 70812  1.3732e+001  4.8859e+000  4.8861e+000 65502 70607,70659,70633
 4.0000e-001 70789 -3.2557e+001  1.2812e+001  5.7965e+000 65502 70607,70685,70659
 4.0000e-001 71103 -2.7839e+001  2.0950e+001  1.3371e+000 65304 71126,70979,70953
 4.0000e-001 71080 -2.4475e+001  1.8432e+001  1.3824e+000 65304 71126,70953,70927
 4.0000e-001 71057 -1.3404e+001  3.1399e+001  1.0236e+001 65304 70927,71031,71005
 4.0000e-001 71152 -2.5109e+001  2.3705e+001  2.4627e+000 65304 71005,70979,71126
 4.0000e-001 71175 -2.2762e+001  1.9847e+001  1.9936e+000 65304 71005,71126,70927
 4.0000e-001 71374 -2.2793e+001  9.7308e+000  4.3726e+000 65106 71198,71276,71224
 4.0000e-001 71351 -4.8755e+001 -3.0999e+000 -8.8049e-001 65106 71198,71302,71276
 4.0000e-001 71328 -2.2290e+001  9.1719e+000 -3.8264e+000 65106 71224,71276,71250
 4.0000e-001 71756 -3.1508e+001  2.7949e+001  5.9946e+000 64652 71508,71638,71534
 4.0000e-001 71733 -7.2964e+001  1.0253e+001  9.8130e+000 64652 71482,71638,71508
 4.0000e-001 71710 -2.4624e+001  1.1541e+001  3.1626e-001 64652 71534,71586,71560
 4.0000e-001 71687 -2.0296e+001  1.7773e+001 -1.9802e+000 64652 71534,71612,71586
 4.0000e-001 71664 -5.2250e+001  7.3887e+000 -2.5492e+000 64652 71534,71638,71612
 4.0000e-001 72085 -3.2422e+001  1.1416e+001  5.9922e+000 64248 71886,71964,71912
 4.0000e-001 72062 -3.8323e+001  8.0723e+000  7.3522e+000 64248 71860,71964,71886
 4.0000e-001 72039 -4.7765e+001  1.4041e+001  2.9773e+000 64248 71912,71964,71938
 4.0000e-001 72016 -2.8946e+001  2.4962e+001  2.8719e+000 64248 71860,71990,71964
 4.0000e-001 72235 -4.3992e+001  7.2049e+000  6.1113e+000 63858 72588,72258,72134
 4.0000e-001 72212 -3.4288e+001 -6.5271e-002 -4.7989e+000 63858 72330,72258,72108
 4.0000e-001 72284 -2.9216e+001  1.0850e+001  9.6532e+000 63858 72160,72134,72258
 4.0000e-001 72307 -2.2253e+001  6.8473e+000  4.2589e+000 63858 72460,72258,72186
 4.0000e-001 72356 -1.8188e+001  1.0756e+001  6.9337e+000 63858 72186,72258,72330
 4.0000e-001 72486 -3.8101e+001 -8.2864e+000  1.2054e+001 63858 72160,72258,72460
 4.0000e-001 72614 -4.4256e+001  1.0108e+001 -2.2311e+000 63858 72108,72258,72588
 4.0000e-001 73248  3.2183e+000  1.0427e+001  1.0691e+001 63404 72902,72954,72928
 4.0000e-001 73225 -2.4652e+001  6.1365e+000 -1.8566e+000 63404 73271,72954,72902
 4.0000e-001 73202 -2.6898e+001  8.8552e+000 -4.0212e-001 63404 73271,72902,73032
 4.0000e-001 73179 -5.3100e+001 -2.9127e+000  2.5320e+000 63404 72902,73058,73032
 4.0000e-001 73156 -2.8881e+001  2.1617e+001 -8.1835e+000 63404 72980,73032,73006
 4.0000e-001 73133 -5.7712e+001  1.7707e+001  1.0945e+001 63404 72876,73058,72902
 4.0000e-001 73110 -2.3699e+002 -4.0584e+001  2.5220e+001 63404 72876,73084,73058
 4.0000e-001 73297 -2.6785e+001  4.8437e+000 -2.7484e+000 63404 72980,72954,73271
 4.0000e-001 73320 -2.9273e+001  6.9843e+000 -1.3686e+000 63404 72980,73271,73032
 4.0000e-001 73470 -5.1009e+001  1.6163e+001  5.2656e+000 63014 73343,73395,73369
 4.0000e-001 73447 -6.5775e+001  7.3781e+000 -6.2881e-001 63014 73343,73421,73395
 4.0000e-001 73929 -2.1303e+001  2.1329e+001 -1.9851e+000 62702 73759,73811,73785
 4.0000e-001 73906 -2.8336e+001  1.8648e+001 -1.4370e+000 62702 73655,73811,73759
 4.0000e-001 73883 -2.5157e+001  2.0461e+001  5.5236e-002 62702 73655,73759,73681
 4.0000e-001 73860 -3.2090e+001  7.1775e+000  1.2020e+001 62702 73681,73759,73707
 4.0000e-001 73837 -9.7839e+000  2.0612e+001  2.7869e+000 62702 73707,73759,73733
 4.0000e-001 74209 -7.8076e+000  1.5808e+001 -2.6163e+000 62404 74059,74137,74085
 4.0000e-001 74186  7.4645e-001  2.7052e+001 -7.7894e+000 62404 74033,74137,74059
 4.0000e-001 74163 -1.4861e+001  1.2036e+001 -5.2109e+000 62404 74085,74137,74111
 4.0000e-001 74408 -3.1319e+001  7.8866e+000  2.2967e+000 62000 74258,74336,74284
 4.0000e-001 74385 -2.8294e+001  7.9038e+000 -9.1659e-001 62000 74232,74336,74258
 4.0000e-001 74362 -3.1977e+001  8.3821e+000  2.1026e+000 62000 74284,74336,74310
 4.0000e-001 74509 -8.6341e+001 -1.8123e+001 -2.1413e+001 61802 74431,74483,74457
 4.0000e-001 74759 -2.6047e+001  1.3757e+001  2.1574e+000 61554 74782,74586,74560
 4.0000e-001 74736 -4.5922e+001  9.1586e+000  2.9892e+000 61554 74782,74560,74664
 4.0000e-001 74713 -1.7692e+001  1.2409e+001 -1.1592e+001 61554 74854,74612,74586
 4.0000e-001 74690 -5.5584e+001 -5.5967e+000 -1.8120e+000 61554 74534,74664,74560
 4.0000e-001 74808 -1.7103e+001  1.0017e+001 -4.4637e+000 61554 74854,74586,74782
 4.0000e-001 74831 -2.9072e+001  1.5195e+001 -3.6029e+000 61554 74638,74782,74664
 4.0000e-001 74880 -2.6704e+001  8.8177e+000 -9.5048e+000 61554 74638,74612,74854
 4.0000e-001 74903 -2.7558e+001  5.6154e+000 -3.2763e+000 61554 74638,74854,74782
 4.0000e-001 75285 -3.8083e+001  1.0005e+001  2.5291e+001 61356 75063,75167,75115
 4.0000e-001 75262 -1.4563e+001  6.1893e+001  3.0857e+001 61356 75037,75167,75063
 4.0000e-001 75239 -8.4826e+001  3.0477e+001  2.5011e+001 61356 75115,75167,75141
 4.0000e-001 75216 -2.9928e+001  3.5594e+001  4.1336e+001 61356 75063,75115,75089
 4.0000e-001 75193  1.4822e+001  2.7820e+000 -1.7326e-001 61356 75011,75167,75037
 4.0000e-001 75631 -3.6347e+001  1.7336e+000 -9.7565e+000 60952 75654,75412,75360
 4.0000e-001 75608 -6.0003e+001 -1.3071e+000 -1.2231e+001 60952 75654,75360,75334
 4.0000e-001 75585 -2.5611e+001  1.5714e+000 -3.4662e+000 60952 75726,75438,75412
 4.0000e-001 75562 -7.8346e+001 -2.8698e+001 -5.0191e+000 60952 75308,75490,75334
 4.0000e-001 75539 -3.5881e+001 -1.9393e+000 -2.6685e-001 60952 75360,75412,75386
 4.0000e-001 75516 -1.0670e+001 -3.4051e-001 -3.3147e+000 60952 75438,75490,75464
 4.0000e-001 75680 -2.8009e+001 -7.3956e+000 -1.3165e+001 60952 75726,75412,75654
 4.0000e-001 75703 -3.4171e+001 -8.2885e+000 -1.5742e+001 60952 75490,75654,75334
 4.0000e-001 75752 -1.2989e+001 -7.1305e+000 -3.7702e+000 60952 75490,75438,75726
 4.0000e-001 75775 -1.4071e+001 -5.4553e+000 -9.3137e+000 60952 75490,75726,75654
 4.0000e-001 76155 -1.7709e+001  1.8967e+001  8.4934e+000 60754 75933,75985,75959
 4.0000e-001 76132 -1.5333e+001  2.1815e+001 -2.6876e+000 60754 75933,76037,75985
 4.0000e-001 76109 -1.7700e+001  1.0633e+001 -2.9354e-001 60754 75985,76037,76011
 4.0000e-001 76086 -1.6257e+001  5.5130e+000 -2.3386e+000 60754 75881,76037,75933
 4.0000e-001 76063 -1.0664e+001  8.4217e+000 -7.0165e+000 60754 75881,75933,75907
 4.0000e-001 76612 -3.4905e+001  1.9326e+001 -3.7528e+000 60350 76635,76442,76390
 4.0000e-001 76589 -2.5255e+001  1.6731e+001 -1.1086e+000 60350 76635,76390,76364
 4.0000e-001 76566 -2.1665e+001  2.6438e+001  7.7604e+000 60350 76364,76494,76468
 4.0000e-001 76543 -2.0566e+001  2.0475e+001 -1.9969e+001 60350 76390,76442,76416
 4.0000e-001 76520 -7.4936e+000  1.6184e+001  1.2321e+001 60350 76338,76494,76364
 4.0000e-001 76661 -4.0910e+001  1.8110e+001 -3.3082e+000 60350 76468,76442,76635
 4.0000e-001 76684 -3.4299e+001  1.3513e+001 -5.9317e-001 60350 76468,76635,76364
 4.0000e-001 76932 -3.5913e+001 -5.4437e-001  1.1569e+001 59946 76955,76733,76707
 4.0000e-001 76909 -3.2318e+001  7.2109e+000  8.5721e+000 59946 77027,76955,76707
 4.0000e-001 76886 -1.6372e+001  6.6880e+000  2.9125e+000 59946 77027,76707,76837
 4.0000e-001 76863 -6.2513e+000 -2.2021e+000 -4.1919e+000 59946 76733,76785,76759
 4.0000e-001 76981 -2.9899e+001  5.8219e+000  5.5107e+000 59946 76785,76733,76955
 4.0000e-001 77004 -2.9703e+001 -7.7909e-001  8.5219e+000 59946 76785,76955,76811
 4.0000e-001 77053 -1.0298e+001  8.2626e+000  4.9715e+000 59946 76811,76955,77027
 4.0000e-001 77076  2.3136e+000  8.6228e+000 -3.3261e+000 59946 76811,77027,76837
 4.0000e-001 77226 -4.6548e+001  4.7837e+001 -3.3756e+000 59542 77099,77151,77125
 4.0000e-001 77203 -4.7742e+001  2.6772e+001 -1.3069e+001 59542 77099,77177,77151
 4.0000e-001 77427 -2.7962e+001  4.8124e+000 -1.4726e+000 59030 77450,77277,77251
 4.0000e-001 77404 -3.0813e+001 -3.7200e+000 -2.6502e+000 59030 77450,77251,77355
 4.0000e-001 77381 -2.6031e+001  1.4498e+001 -4.1483e+000 59030 77277,77329,77303
 4.0000e-001 77476 -2.9684e+001  6.9612e+000  1.3682e+000 59030 77329,77277,77450
 4.0000e-001 77499 -3.0047e+001  2.1898e+000  2.3432e-001 59030 77329,77450,77355
 4.0000e-001 77749 -5.7535e+001  5.5852e+000  7.7874e+000 58426 77772,77628,77602
 4.0000e-001 77726 -5.1129e+001 -1.3028e+000  1.3233e+001 58426 77524,77654,77628
 4.0000e-001 77703 -4.1355e+001  5.8725e+000  1.9863e+000 58426 77772,77602,77550
 4.0000e-001 77680 -3.9636e+001  7.4060e+000 -4.0924e+000 58426 77550,77602,77576
 4.0000e-001 77798 -3.9400e+001  7.1160e+000  8.7933e+000 58426 77524,77628,77772
 4.0000e-001 77821 -3.1717e+001  2.4397e+000  7.7017e-001 58426 77524,77772,77550
 4.0000e-001 78071  6.7144e+000  2.8086e+001 -1.1603e+001 57922 78094,77924,77898
 4.0000e-001 78048  2.1746e+000  1.1909e+001 -9.5500e+000 57922 78094,77898,77872
 4.0000e-001 78025 -8.3091e+000  4.6286e+000 -1.0731e+001 57922 78166,77846,77950
 4.0000e-001 78002 -1.7259e+001  2.0960e+000 -1.0343e+001 57922 77846,77976,77950
 4.0000e-001 78120  1.4847e+001  1.0553e+001 -1.4821e+001 57922 77950,77924,78094
 4.0000e-001 78143  6.4921e+000  7.3455e+000 -1.7110e+001 57922 78166,77950,78094
 4.0000e-001 78192 -2.3480e+001  4.0373e+000  1.1637e+000 57922 77872,77846,78166
 4.0000e-001 78215 -6.8862e+000  3.2653e+000 -2.8786e+000 57922 77872,78166,78094
 4.0000e-001 78416 -2.8855e+001 -3.8919e+000  4.7929e+000 57468 78439,78292,78240
 4.0000e-001 78393 -2.7981e+001  6.9970e+000  3.7904e+000 57468 78439,78240,78344
 4.0000e-001 78370 -1.9071e+001 -4.0772e+000  1.1743e+001 57468 78240,78292,78266
 4.0000e-001 78465 -2.6846e+001 -6.3432e+000 -2.5462e+000 57468 78318,78292,78439
 4.0000e-001 78488 -2.6378e+001  1.0046e+000 -1.4272e+000 57468 78318,78439,78344
 4.0000e-001 78689 -5.0837e+001 -2.1319e+000 -3.4215e+000 57014 78712,78539,78513
 4.0000e-001 78666 -4.1937e+001 -1.7514e+001 -1.1182e+001 57014 78712,78513,78617
 4.0000e-001 78643 -2.2876e+001 -1.1228e+001  3.5617e+000 57014 78565,78617,78591
 4.0000e-001 78738 -3.9482e+001  1.8549e+001  3.1706e+000 57014 78565,78539,78712
 4.0000e-001 78761 -3.7929e+001 -7.7349e+000 -5.1981e+000 57014 78565,78712,78617
 4.0000e-001 79241 -3.8365e+001 -1.0029e+000  4.5811e+000 56652 79264,78895,78869
 4.0000e-001 79218 -2.9423e+001  3.6027e+000 -4.5950e-001 56652 79264,78869,79051
 4.0000e-001 79195 -3.5983e+001  1.3362e+000 -3.2435e-001 56652 78869,79077,79051
 4.0000e-001 79172 -3.6996e+001 -8.2165e+000 -2.5912e+000 56652 78895,78973,78947
 4.0000e-001 79149 -2.2484e+001  9.4104e+000 -8.6245e+000 56652 78973,79051,78999
 4.0000e-001 79126 -2.9377e+001  4.4749e+001 -1.0517e+001 56652 78895,78947,78921
 4.0000e-001 79103 -6.1214e+000  4.2289e+001 -1.6233e+001 56652 78999,79051,79025
 4.0000e-001 79290 -2.9456e+001 -6.3333e+000 -4.0275e-001 56652 78973,78895,79264
 4.0000e-001 79313 -1.7864e+001  1.8511e+000 -6.3506e+000 56652 78973,79264,79051
 4.0000e-001 79512 -9.9912e+001 -3.3953e+001 -7.4802e+000 56062 79388,79440,79414
 4.0000e-001 79489 -7.4420e+001 -3.7641e+001 -3.8223e+000 56062 79336,79440,79388
 4.0000e-001 79466 -5.7466e+001 -4.2075e+001 -7.2207e-001 56062 79336,79388,79362
 4.0000e-001 79941 -1.8794e+001  2.0363e-001  2.7193e+000 55658 79964,79670,79644
 4.0000e-001 79918 -3.1781e+001 -1.0963e+001  7.4821e+000 55658 79964,79644,79800
 4.0000e-001 79895 -2.8631e+001  2.2263e+001 -1.0065e+000 55658 80036,79696,79670
 4.0000e-001 79872 -2.0976e+001  4.4280e+001 -8.6228e+000 55658 80108,79722,79696
 4.0000e-001 79849 -2.0826e-001  4.8878e+001 -2.8650e+001 55658 79722,79774,79748
 4.0000e-001 79826 -2.2574e+000 -1.0179e+000 -6.9939e+000 55658 79618,79800,79644
 4.0000e-001 79990 -3.2703e+001  2.1614e+001  4.3254e+000 55658 80036,79670,79964
 4.0000e-001 80013 -6.1052e+001 -4.6072e+000 -8.8190e+000 55658 79774,79964,79800
 4.0000e-001 80062 -2.2976e+001  3.2043e+001 -7.4449e+000 55658 80108,79696,80036
 4.0000e-001 80085 -3.0100e+001  7.9718e+000 -3.8935e+000 55658 79774,80036,79964
 4.0000e-001 80134 -2.0120e+001  2.5577e+001 -2.6734e+000 55658 79774,79722,80108
 4.0000e-001 80157 -2.0609e+001  1.7294e+001 -1.2998e-001 55658 79774,80108,80036
 4.0000e-001 80307  2.7402e+001 -1.0436e+000 -9.1187e-001 55254 80402,80330,80206
 4.0000e-001 80284  7.6760e+000 -9.6616e-001  4.3847e+000 55254 80330,80180,80258
 4.0000e-001 80356  3.7326e+001  2.1321e+001 -2.7657e+001 55254 80232,80206,80330
 4.0000e-001 80379 -6.6780e+000  4.1092e+000 -1.1475e+001 55254 80232,80330,80258
 4.0000e-001 80428 -1.6037e-002  5.9266e+000 -1.7744e-001 55254 80180,80330,80402
 4.0000e-001 80659 -8.0673e+000  3.2477e+001  6.2809e+000 54850 80558,80610,80584
 4.0000e-001 80636 -2.8343e+000  3.0098e+001  1.9735e+000 54850 80532,80610,80558
 4.0000e-001 80760 -3.9575e+001  1.0418e+001 -3.7937e+000 54652 80682,80734,80708
 4.0000e-001 81164 -3.1041e+001  2.0314e+001 -2.8967e+000 54248 81187,80942,80890
 4.0000e-001 81141 -2.7117e+001  1.3413e+001 -3.8141e+000 54248 81187,80890,81046
 4.0000e-001 81118 -1.5007e+001  3.1610e+001 -9.2930e+000 54248 80942,81020,80994
 4.0000e-001 81095 -3.1918e+001  1.4188e+001 -6.5261e-002 54248 80890,80942,80916
 4.0000e-001 81072 -3.2554e+001  1.2074e+001 -1.0293e+000 54248 80942,80994,80968
 4.0000e-001 81213 -2.8334e+001  2.4012e+001 -1.4799e+000 54248 81020,80942,81187
 4.0000e-001 81236 -2.3403e+001  1.8518e+001 -2.0939e+000 54248 81020,81187,81046
 4.0000e-001 81663 -3.3706e+001  5.6816e+000  1.2695e+001 53594 81340,81444,81366
 4.0000e-001 81640 -1.9999e+001  7.0989e+000  5.2246e+000 53594 81340,81470,81444
 4.0000e-001 81617 -2.9144e+001  4.1476e+000  3.4478e+000 53594 81340,81522,81470
 4.0000e-001 81594 -4.0786e+001  1.4286e+001  1.1915e+001 53594 81392,81444,81418
 4.0000e-001 81571 -4.2899e+001  2.9833e+000  9.5643e+000 53594 81366,81444,81392
 4.0000e-001 81548  3.2108e+000  8.9736e+000  4.3093e+000 53594 81470,81522,81496
 4.0000e-001 81943 -1.6718e+001  3.0757e+001 -1.1435e+000 53104 81966,81845,81819
 4.0000e-001 81920 -1.6972e+001  1.2131e+001 -2.0054e+000 53104 81966,81819,81767
 4.0000e-001 81897 -6.8634e+000  3.8736e+001 -5.0706e+000 53104 81767,81819,81793
 4.0000e-001 81992 -1.6793e+001  1.3630e+001 -3.8104e+000 53104 81871,81845,81966
 4.0000e-001 82015 -2.1535e+001 -1.1988e+001 -3.9972e+000 53104 81871,81966,81767
 4.0000e-001 82491 -4.1888e+001  1.4436e+001 -6.6679e+000 52650 82145,82249,82171
 4.0000e-001 82468 -3.3336e+001  1.4388e+001 -3.1118e+000 52650 82145,82301,82249
 4.0000e-001 82445 -3.2485e+001  2.8377e+001  4.6285e-001 52650 82249,82301,82275
 4.0000e-001 82422 -2.7815e+001  4.3842e+000 -5.0264e+000 52650 82119,82301,82145
 4.0000e-001 82399 -5.0172e+001  7.9520e+000 -9.9784e+000 52650 82171,82249,82223
 4.0000e-001 82376 -2.7380e+001  3.8491e+000  5.6235e+000 52650 82119,82327,82301
 4.0000e-001 82353 -8.2847e+001  3.5139e+001 -3.9335e+001 52650 82171,82223,82197
 4.0000e-001 82739 -2.9454e+001  7.7963e+000 -1.1415e+000 52246 82762,82540,82514
 4.0000e-001 82716 -3.5136e+001  2.9025e+000  1.0624e+000 52246 82762,82514,82644
 4.0000e-001 82693 -3.5848e+001  1.2677e+001 -4.0293e+000 52246 82540,82618,82592
 4.0000e-001 82670 -2.7303e+001  5.2536e-001  5.2615e+000 52246 82540,82592,82566
 4.0000e-001 82788 -3.4585e+001  1.3093e+001 -3.9655e+000 52246 82618,82540,82762
 4.0000e-001 82811 -3.9594e+001  1.0044e+001 -2.6696e+000 52246 82618,82762,82644
 4.0000e-001 83059 -2.1653e+001  6.6464e+000  4.2228e+000 51578 82860,82964,82938
 4.0000e-001 83036 -2.0672e+001  9.5805e+000  1.4867e-001 51578 82834,82964,82860
 4.0000e-001 83013 -2.4764e+001  2.7187e+001  1.3926e+001 51578 82860,82938,82886
 4.0000e-001 82990 -9.4630e+000  6.5416e+001  1.3959e+001 51578 82886,82938,82912
 4.0000e-001 83309 -8.9076e+000  4.7033e+001  9.9331e+000 51138 83332,83162,83136
 4.0000e-001 83286 -1.0569e+001  3.8296e+001  5.1302e+000 51138 83332,83136,83110
 4.0000e-001 83263 -1.6358e+001  3.2338e+001  1.9545e+000 51138 83404,83214,83188
 4.0000e-001 83240 -4.0089e+000  2.9058e+001  1.8259e+001 51138 83084,83214,83110
 4.0000e-001 83358 -6.3488e+000  4.1484e+001  2.4346e+000 51138 83188,83162,83332
 4.0000e-001 83381 -1.4871e+001  3.6226e+001 -6.9148e-001 51138 83404,83188,83332
 4.0000e-001 83430 -1.8050e+001  2.0517e+001  9.3089e+000 51138 83110,83214,83404
 4.0000e-001 83453 -1.2709e+001  2.7568e+001  5.8406e+000 51138 83110,83404,83332
 4.0000e-001 83835 -3.6694e+001 -5.6901e+000 -3.6737e+000 50734 83613,83717,83691
 4.0000e-001 83812 -2.4121e+001  2.3953e+001 -2.3485e+000 50734 83561,83717,83613
 4.0000e-001 83789 -3.6095e+001  2.7926e+001  2.4298e-001 50734 83561,83613,83587
 4.0000e-001 83766 -1.9524e+001  1.3018e+001  3.4622e+000 50734 83613,83691,83639
 4.0000e-001 83743 -1.5165e+001  2.5076e+001  8.2273e+000 50734 83639,83691,83665
 4.0000e-001 84034 -2.7666e+001  2.6296e+001 -1.3269e+001 50230 84057,83884,83858
 4.0000e-001 84011 -2.7862e+001  2.7748e+001 -1.0210e+001 50230 84129,84057,83858
 4.0000e-001 83988 -3.7291e+001  2.4330e+001 -7.1245e+000 50230 84129,83858,83962
 4.0000e-001 84083 -4.5214e+001  2.2775e+001 -2.3620e+001 50230 83910,83884,84057
 4.0000e-001 84106 -3.1308e+001  5.7176e+001 -2.2491e+001 50230 83910,84057,83936
 4.0000e-001 84155 -4.1500e+001  3.0540e+001 -1.0111e+001 50230 83936,84057,84129
 4.0000e-001 84178 -4.5902e+001  3.0839e+001 -6.9702e+000 50230 83936,84129,83962
 4.0000e-001 84558 -2.4978e+001  1.0120e+001  4.2336e+000 49768 84581,84388,84362
 4.0000e-001 84535 -1.3441e+001  1.0742e+001  1.1951e+000 49768 84581,84362,84310
 4.0000e-001 84512 -3.5232e+001  1.0173e+001  5.2619e+000 49768 84653,84440,84414
 4.0000e-001 84489 -3.0976e+000  9.6195e+000  1.0046e+001 49768 84310,84362,84336
 4.0000e-001 84466 -1.8985e+001  1.8210e+001  2.6417e+001 49768 84284,84440,84310
 4.0000e-001 84607 -2.6900e+001  1.1050e+001  5.1859e+000 49768 84414,84388,84581
 4.0000e-001 84630 -3.0362e+001  1.2087e+001  3.3200e+000 49768 84653,84414,84581
 4.0000e-001 84679 -2.8621e+001  5.3513e+000  7.2563e+000 49768 84310,84440,84653
 4.0000e-001 84702 -2.3606e+001  6.9328e+000  6.6146e+000 49768 84310,84653,84581
 4.0000e-001 85159  2.5379e+001  2.1696e+001 -1.8596e+001 49192 84885,84937,84911
 4.0000e-001 85136 -2.9567e+000  8.8824e-002  3.9628e+000 49192 84885,85041,84937
 4.0000e-001 85113 -1.6900e+001 -7.7109e-002  7.7839e+000 49192 84963,85041,84989
 4.0000e-001 85090 -1.2078e+001  6.5435e+000 -1.3045e+000 49192 84937,85041,84963
 4.0000e-001 85067 -1.3286e+001  4.4652e+000  4.6619e+000 49192 84989,85041,85015
 4.0000e-001 85714 -4.0790e+001  3.0653e+000  9.3265e+000 48638 85368,85498,85394
 4.0000e-001 85691 -3.7486e+001  1.0821e+001  7.9130e+000 48638 85368,85524,85498
 4.0000e-001 85668 -1.6941e+001  1.2847e+001 -1.0476e+001 48638 85737,85420,85394
 4.0000e-001 85645 -2.8233e+001  1.5073e+001 -4.3676e-001 48638 85737,85394,85498
 4.0000e-001 85622 -4.4404e+001  2.0210e+001 -6.5759e+000 48638 85446,85498,85472
 4.0000e-001 85599 -5.7349e+001 -5.5166e+000  3.0189e+001 48638 85342,85524,85368
 4.0000e-001 85576 -6.8878e+001  4.5808e+000  2.1160e+001 48638 85342,85550,85524
 4.0000e-001 85763 -3.3973e+001  5.2608e+000 -1.1985e+001 48638 85446,85420,85737
 4.0000e-001 85786 -3.4861e+001  1.1805e+001 -1.5451e+000 48638 85446,85737,85498
 4.0000e-001 86371 -3.1840e+001  1.3788e+000  4.6374e+000 48084 86100,86230,86178
 4.0000e-001 86348 -3.8566e+001  1.9835e+000  2.9724e+000 48084 86048,86230,86100
 4.0000e-001 86325 -3.8529e+001 -1.0873e+000  6.1316e+000 48084 86100,86178,86126
 4.0000e-001 86302 -2.1346e+001  4.1994e+001  8.4082e+000 48084 86048,86100,86074
 4.0000e-001 86279 -2.0694e+001  1.7149e+001 -3.9534e-001 48084 86178,86230,86204
 4.0000e-001 86256 -4.2572e+001 -2.5460e+000  4.9716e+000 48084 86126,86178,86152
 4.0000e-001 86619 -2.3173e+001  1.6920e+001 -3.1537e+001 47630 86642,86446,86420
 4.0000e-001 86596 -4.3688e+000  2.6335e+001 -2.7128e+001 47630 86642,86420,86394
 4.0000e-001 86573 -1.3141e+001  3.0210e+001 -9.3855e+000 47630 86394,86524,86498
 4.0000e-001 86550 -1.0124e+001  1.7659e+001 -1.4061e+001 47630 86446,86498,86472
 4.0000e-001 86668 -1.9620e+001  2.2925e+001 -1.4868e+001 47630 86498,86446,86642
 4.0000e-001 86691 -4.5014e+000  2.9734e+001 -1.1061e+001 47630 86498,86642,86394
 4.0000e-001 87022 -1.0418e+001  3.1472e+001  5.8469e+000 47226 87045,86875,86849
 4.0000e-001 86999 -1.4895e+001  3.3628e+001  3.4244e+000 47226 87045,86849,86797
 4.0000e-001 86976 -2.3038e+001  2.1532e+001  9.9739e+000 47226 86797,86849,86823
 4.0000e-001 86953 -1.0283e+000  4.3547e+001 -4.1044e+000 47226 86875,86927,86901
 4.0000e-001 87071 -5.3979e+000  3.1165e+001  3.9310e+000 47226 86927,86875,87045
 4.0000e-001 87094 -1.0498e+001  3.2818e+001  2.4768e+000 47226 86927,87045,86797
 4.0000e-001 87244 -1.9146e+001  2.3567e+001 -1.7294e+000 46814 87267,87169,87143
 4.0000e-001 87221 -1.8976e+001  2.9912e+001 -2.8822e+000 46814 87267,87143,87117
 4.0000e-001 87293 -2.1523e+001  1.1706e+001 -7.4255e+000 46814 87339,87267,87195
 4.0000e-001 87316 -9.4621e+000  3.3786e+001 -1.4041e+001 46814 87469,87267,87117
 4.0000e-001 87365 -1.0691e+001  1.8627e+001 -2.2268e+000 46814 87169,87267,87339
 4.0000e-001 87495 -2.5382e+001 -2.0510e+000 -6.4982e+000 46814 87195,87267,87469
 4.0000e-001 88001 -2.2837e+001  3.7274e+001  4.6198e+000 46310 88024,87834,87808
 4.0000e-001 87978 -2.5191e+001  3.7626e+001 -3.4867e+000 46310 88024,87808,87756
 4.0000e-001 87955 -1.9502e+001  3.3751e+001 -2.1344e+000 46310 88096,87730,87860
 4.0000e-001 87932 -5.8004e+000  5.8004e+001  4.5213e+000 46310 87756,87808,87782
 4.0000e-001 87909 -1.7363e+001  5.2559e+001 -4.0590e+000 46310 87678,87860,87730
 4.0000e-001 87886 -2.3167e+001  7.7391e+001  1.2852e+001 46310 87678,87730,87704
 4.0000e-001 88050 -3.4722e+001  1.0436e+001  1.0232e+001 46310 87860,87834,88024
 4.0000e-001 88073 -2.1876e+001  3.4769e+001  3.5674e-001 46310 88096,87860,88024
 4.0000e-001 88122 -2.4128e+001  3.3412e+001 -1.3024e+000 46310 87756,87730,88096
 4.0000e-001 88145 -2.8379e+001  3.3933e+001  3.2922e-002 46310 87756,88096,88024
 4.0000e-001 88572 -6.5286e+001 -1.0577e+001 -6.8063e-001 45856 88249,88405,88275
 4.0000e-001 88549 -6.9440e+001  3.8562e+001 -1.9156e+001 45856 88249,88431,88405
 4.0000e-001 88526 -4.1949e+001 -7.1496e+000  1.1796e+001 45856 88327,88405,88353
 4.0000e-001 88503 -3.9231e+001  1.8674e+001  1.5285e+001 45856 88275,88405,88327
 4.0000e-001 88480 -3.7373e+001  7.0758e+000  1.5351e+001 45856 88353,88405,88379
 4.0000e-001 88457 -5.3066e+001 -3.5193e+001  1.9447e+001 45856 88275,88327,88301
 4.0000e-001 88950 -8.4939e+000  5.1740e+001  1.1623e+001 45658 88973,88754,88728
 4.0000e-001 88927 -2.2000e+001  3.3460e+001  5.4902e+000 45658 88973,88728,88676
 4.0000e-001 88904  1.9522e+001  4.0110e+001 -1.4812e+001 45658 88676,88832,88806
 4.0000e-001 88881 -8.6208e-002  7.7561e+001 -6.0174e+000 45658 88676,88728,88702
 4.0000e-001 88858  5.5555e+000  2.3418e+001  2.3275e+001 45658 88754,88806,88780
 4.0000e-001 88999 -1.6506e+000  3.0756e+001  6.9503e+000 45658 88806,88754,88973
 4.0000e-001 89022 -8.3227e+000  2.0624e+001  3.0426e+000 45658 88806,88973,88676
 4.0000e-001 89351 -1.4753e+001  2.3228e+001 -5.6433e-001 45254 89152,89230,89204
 4.0000e-001 89328 -1.7137e+001  2.4009e+001  5.5370e+000 45254 89152,89256,89230
 4.0000e-001 89305 -9.1608e+000  2.5097e+001  4.7453e+000 45254 89126,89256,89152
 4.0000e-001 89282 -6.8374e+000  3.3023e+001 -4.0146e+000 45254 89152,89204,89178
 4.0000e-001 89523 -1.6665e+001  3.4026e+001  2.5917e-001 45006 89422,89474,89448
 4.0000e-001 89500 -3.1476e+001  2.7655e+001 -1.1627e+001 45006 89396,89474,89422
 4.0000e-001 89673 -2.6322e+001  2.2287e+001 -9.9323e-001 44495 89572,89624,89598
 4.0000e-001 89650 -2.8966e+001  2.4562e+001 -9.0657e+000 44495 89546,89624,89572
 4.0000e-001 90104 -5.3306e+001 -5.0004e+000 -1.2058e+001 44005 90199,90127,89937
 4.0000e-001 90081 -3.4284e+001 -1.0279e+000 -6.8610e+000 44005 90271,90127,89859
 4.0000e-001 90058 -5.7551e+001 -3.7657e+000 -1.2084e+001 44005 90199,89937,89885
 4.0000e-001 90035 -4.0816e+001  3.3057e+000 -3.1440e+000 44005 90271,89859,89807
 4.0000e-001 90012 -5.3642e+001  1.4881e+001 -1.2838e+001 44005 89885,89937,89911
 4.0000e-001 89989 -3.0055e+001  5.6882e+000 -2.3552e+000 44005 89807,89859,89833
 4.0000e-001 90153 -5.1127e+001 -5.3377e+000 -1.5597e+001 44005 89963,89937,90127
 4.0000e-001 90176 -4.7612e+001  8.0592e-001 -1.2367e+001 44005 89963,90127,89781
 4.0000e-001 90225 -4.0758e+001 -7.5141e+000 -1.4764e+001 44005 89859,90127,90199
 4.0000e-001 90248 -5.1496e+001 -1.1016e+001 -1.7253e+001 44005 89859,90199,89885
 4.0000e-001 90297 -4.3040e+001 -6.1848e+000 -8.9968e+000 44005 89781,90127,90271
 4.0000e-001 90320 -4.6824e+001 -4.0179e-001 -4.7119e+000 44005 89781,90271,89807
 4.0000e-001 90470 -2.0377e+001  4.1111e+001 -1.7475e+000 43601 90493,90369,90343
 4.0000e-001 90447 -1.9135e+001  4.7479e+001 -1.7328e+000 43601 90493,90343,90421
 4.0000e-001 90519 -1.9020e+001  2.6858e+001 -5.7951e+000 43601 90395,90369,90493
 4.0000e-001 90542 -1.2834e+001  4.1781e+001 -6.5755e+000 43601 90395,90493,90421
 4.0000e-001 90922 -2.0862e+001  2.6377e+001 -5.7286e+000 43154 90945,90700,90674
 4.0000e-001 90899 -1.7689e+001  2.7401e+001 -7.2891e+000 43154 90945,90674,90648
 4.0000e-001 90876 -1.6315e+001  1.8153e+001 -5.9196e+000 43154 90648,90778,90752
 4.0000e-001 90853 -3.7073e+001  2.6856e+001 -7.0491e+000 43154 90700,90752,90726
 4.0000e-001 90830  4.6304e-001  4.7185e+001 -2.8311e+001 43154 90648,90804,90778
 4.0000e-001 90971 -2.0647e+001  2.4877e+001 -3.7911e+000 43154 90752,90700,90945
 4.0000e-001 90994 -1.8142e+001  2.6122e+001 -5.3713e+000 43154 90752,90945,90648
 4.0000e-001 91451 -3.0717e+001  1.1588e+001  1.3931e+001 42650 91203,91255,91229
 4.0000e-001 91428 -7.4699e+000  2.1548e+001 -9.3825e-001 42650 91203,91333,91255
 4.0000e-001 91405  1.8804e-001  8.7472e+000 -3.3770e+000 42650 91177,91333,91203
 4.0000e-001 91382 -1.7046e+001  1.9064e+000  2.2777e+000 42650 91255,91333,91281
 4.0000e-001 91359 -1.6242e+001  8.3283e+000 -3.5684e+000 42650 91281,91333,91307
 4.0000e-001 91721 -2.4491e+001  1.6847e+001  1.8627e+000 42288 91496,91600,91522
 4.0000e-001 91698 -1.8908e+001  2.9598e+001  1.0837e+000 42288 91496,91626,91600
 4.0000e-001 91675 -1.1718e+001  2.2478e+001 -3.1560e-001 42288 91522,91574,91548
 4.0000e-001 91652 -1.9286e+001  1.8807e+001  1.8537e+000 42288 91522,91600,91574
 4.0000e-001 92199 -1.1897e+001  1.7549e+001 -4.8979e+000 41898 92222,91983,91879
 4.0000e-001 92176 -1.1239e+001  2.7712e+001 -8.7763e-001 41898 92294,92222,91879
 4.0000e-001 92153 -8.3992e+000  2.6491e+001  1.2144e+000 41898 92294,91879,91853
 4.0000e-001 92130 -2.1955e+001  5.8834e+000 -1.0413e+000 41898 91879,91957,91931
 4.0000e-001 92107 -1.8715e+001  1.4233e+001 -1.7199e+000 41898 91879,91983,91957
 4.0000e-001 92084 -4.9325e+000  8.5258e+000 -1.5882e+001 41898 91879,91931,91905
 4.0000e-001 92061 -1.5243e+001  2.0457e+001  3.1720e-001 41898 91827,92035,91853
 4.0000e-001 92248 -1.2275e+001  3.0546e+001 -7.6802e+000 41898 92009,91983,92222
 4.0000e-001 92271 -1.3861e+001  3.2852e+001  1.5329e+000 41898 92009,92222,92035
 4.0000e-001 92320 -1.5996e+001  2.5778e+001 -5.1164e-001 41898 92035,92222,92294
 4.0000e-001 92343 -1.3899e+001  2.4173e+001  1.4580e+000 41898 92035,92294,91853
 4.0000e-001 92770 -1.6888e+001  2.7269e+001 -9.5758e+000 41437 92865,92793,92525
 4.0000e-001 92747 -1.9641e+001  2.6428e+001 -8.1806e+000 41437 92793,92473,92629
 4.0000e-001 92724 -8.8158e+000  2.1729e+001 -1.4102e+001 41437 92865,92525,92499
 4.0000e-001 92701 -6.4138e+000  7.9403e+000 -1.5026e+001 41437 92525,92603,92577
 4.0000e-001 92678 -2.7414e+001  3.6273e+001 -3.6660e+000 41437 92447,92629,92473
 4.0000e-001 92655 -4.3701e+001  2.9939e+000 -1.4833e+001 41437 92525,92577,92551
 4.0000e-001 92819 -1.5421e+001  3.0715e+001 -1.4259e+001 41437 92603,92525,92793
 4.0000e-001 92842 -2.8677e+001  2.5547e+001 -1.7807e+001 41437 92603,92793,92629
 4.0000e-001 92891 -3.3468e+000  3.0098e+001 -7.8048e+000 41437 92473,92793,92865
 4.0000e-001 92914  6.1945e+000  2.5877e+001 -1.3457e+001 41437 92473,92865,92499
 4.0000e-001 93243 -2.0611e+001 -1.6501e+000  4.3147e+000 41097 93044,93096,93070
 4.0000e-001 93220 -1.3226e+001  1.9169e+001  3.7937e+000 41097 93044,93122,93096
 4.0000e-001 93197 -3.6389e+001  1.3358e+000  1.1579e+001 41097 93044,93148,93122
 4.0000e-001 93174 -4.8313e+001  1.3811e+001  2.0359e+001 41097 93018,93148,93044
 4.0000e-001 93393 -4.3135e+001  1.6523e+001  6.4024e-001 40643 93416,93292,93344
 4.0000e-001 93370 -2.8479e+001  3.0189e+001  6.3278e+000 40643 93266,93344,93292
 4.0000e-001 93442 -3.1705e+001  2.1084e+001  8.7225e-001 40643 93318,93292,93416
 4.0000e-001 93901 -6.2234e+000  3.0691e+001  6.1386e+000 40132 93924,93731,93705
 4.0000e-001 93878 -2.3566e+000  2.9965e+001  7.3139e+000 40132 93996,93924,93705
 4.0000e-001 93855 -8.6330e+000  1.4593e+001  1.3493e+001 40132 93996,93705,93653
 4.0000e-001 93832  3.0126e+001  1.5013e+001  9.2943e+000 40132 93653,93705,93679
 4.0000e-001 93809 -1.7673e+001  3.8198e+001  2.0220e+001 40132 93627,93783,93757
 4.0000e-001 93950 -1.2631e+001  2.7998e+001  9.5407e+000 40132 93757,93731,93924
 4.0000e-001 93973 -5.9048e+000  4.4675e+001  1.7592e+001 40132 93757,93924,93627
 4.0000e-001 94022 -1.6181e+001  1.9634e+001  1.7807e+001 40132 93627,93924,93996
 4.0000e-001 94045 -1.1581e+001  1.4495e+001  2.2478e+001 40132 93627,93996,93653
 4.0000e-001 94423 -2.0796e+001  2.5414e+001 -1.9912e+000 39514 94149,94227,94175
 4.0000e-001 94400 -2.9093e+001  4.5285e+000 -3.7392e+000 39514 94149,94305,94227
 4.0000e-001 94377 -4.4482e+001  2.9587e+001  3.4574e+000 39514 94175,94227,94201
 4.0000e-001 94354 -2.5254e+001  8.8244e+000 -2.1130e+000 39514 94227,94305,94279
 4.0000e-001 94331 -1.2704e+001  1.3858e+001 -3.8956e+000 39514 94227,94279,94253
 4.0000e-001 94573  4.4214e+001  7.8895e+001 -6.2501e+000 38822 94596,94498,94472
 4.0000e-001 94550  4.6953e+001  7.0203e+001  1.0579e+000 38822 94596,94472,94446
 4.0000e-001 94622  4.0589e+001  7.6756e+001  2.9240e+000 38822 94524,94498,94596
 4.0000e-001 94645  3.6386e+001  6.0890e+001  1.1048e+001 38822 94524,94596,94446
 4.0000e-001 95025 -1.8928e+001  2.3526e+001  4.0955e+000 38418 95048,94829,94777
 4.0000e-001 95002 -1.8421e+001  2.4083e+001  4.5367e+000 38418 95120,95048,94777
 4.0000e-001 94979 -1.7918e+001  3.2605e+001  5.7318e+000 38418 95120,94777,94751
 4.0000e-001 94956  6.7716e-001  2.9968e+001 -6.7427e+000 38418 95192,94881,94855
 4.0000e-001 94933 -1.6819e+001  3.3364e+001  1.7256e+000 38418 94777,94829,94803
 4.0000e-001 95074 -2.3564e+001  8.0081e-002  1.3888e+001 38418 94855,94829,95048
 4.0000e-001 95097 -6.6490e+000  2.9339e+001  1.0282e+000 38418 95192,94855,95048
 4.0000e-001 95146 -2.7639e+001  3.9525e+001  6.4002e+000 38418 94907,95048,95120
 4.0000e-001 95169 -2.0348e+001  5.4520e+001  1.0669e+001 38418 94907,95120,94751
 4.0000e-001 95218 -1.3384e+001  4.8366e+001 -8.6888e+000 38418 94907,94881,95192
 4.0000e-001 95241 -3.1614e+001  3.6259e+001  1.8251e+000 38418 94907,95192,95048
 4.0000e-001 95511 -1.1500e+001  2.2997e+001  1.8280e+000 38049 95312,95390,95364
 4.0000e-001 95488 -6.6749e+000  2.5853e+001 -7.3805e-001 38049 95312,95416,95390
 4.0000e-001 95465 -6.5165e+000  2.1777e+001 -9.0280e-001 38049 95312,95364,95338
 4.0000e-001 95442 -1.0869e+001  3.2926e+001 -1.9125e-001 38049 95286,95416,95312
 4.0000e-001 95808 -4.7590e+001  8.9072e+000  6.3285e+000 37437 95831,95586,95560
 4.0000e-001 95785 -5.9453e+001 -2.5312e+000  1.3750e+000 37437 95831,95560,95534
 4.0000e-001 95762 -3.6478e+001  1.2861e+000 -1.4358e+000 37437 95586,95664,95638
 4.0000e-001 95739 -3.8187e+001  1.3773e+001 -2.5405e+001 37437 95534,95690,95664
 4.0000e-001 95716 -2.2227e+001 -4.8280e+000  7.1751e+000 37437 95586,95638,95612
 4.0000e-001 95857 -3.8251e+001 -3.7471e+000 -6.3366e-001 37437 95664,95586,95831
 4.0000e-001 95880 -5.1285e+001 -1.6102e+001 -5.9578e+000 37437 95664,95831,95534
 4.0000e-001 96390 -3.0011e+001 -3.1611e+000  1.2715e+001 36883 96413,96145,96093
 4.0000e-001 96367 -2.9224e+001 -5.1480e+000  3.5766e+000 36883 96413,96093,96067
 4.0000e-001 96344 -2.2383e+001 -1.4144e+001  3.2408e+000 36883 96067,96249,96171
 4.0000e-001 96321 -2.3996e+001  7.0631e+000  9.0708e+000 36883 96093,96145,96119
 4.0000e-001 96298 -2.1296e+001 -1.0117e+001 -1.0475e+000 36883 96171,96249,96197
 4.0000e-001 96275 -7.3135e+000 -7.4030e+000 -4.2934e-001 36883 96197,96249,96223
 4.0000e-001 96439 -3.5871e+001 -1.7998e+001  1.5910e+001 36883 96171,96145,96413
 4.0000e-001 96462 -3.1373e+001 -1.0953e+001  6.7740e+000 36883 96171,96413,96067
 4.0000e-001 96781 -2.6634e+001 -3.7389e-001 -2.9886e-001 36215 96559,96663,96637
 4.0000e-001 96758 -2.5032e+001 -9.6991e+000 -3.8135e+000 36215 96507,96663,96559
 4.0000e-001 96735 -2.4422e+001  2.9318e+001  2.7501e+000 36215 96585,96637,96611
 4.0000e-001 96712 -3.8707e+001  4.7549e-001 -3.1358e+000 36215 96559,96637,96585
 4.0000e-001 96689 -1.8310e+001 -1.3884e+001  3.6343e-002 36215 96507,96559,96533
 4.0000e-001 97161 -2.4074e+001  1.2584e+001 -8.8373e+000 35818 97184,96965,96939
 4.0000e-001 97138 -2.0478e+001 -9.5950e-001 -3.3261e+000 35818 97184,96939,96887
 4.0000e-001 97115 -2.3637e+001  1.4258e+001 -5.7594e+000 35818 96965,97043,97017
 4.0000e-001 97092 -1.4902e+001 -3.8063e+000 -7.3414e+000 35818 96887,96939,96913
 4.0000e-001 97069 -1.3487e+001  2.9287e+001 -3.3788e-001 35818 96965,97017,96991
 4.0000e-001 97210 -2.9670e+001  2.5894e+000 -3.6162e+000 35818 97043,96965,97184
 4.0000e-001 97233 -2.4237e+001 -8.5624e+000  1.7438e+000 35818 97043,97184,96887
 4.0000e-001 97739  1.3686e+001  1.3633e+001 -9.9012e+000 35214 97416,97468,97442
 4.0000e-001 97716  4.6599e+000  1.5236e+001 -4.9794e-002 35214 97416,97598,97468
 4.0000e-001 97693 -1.2894e+001  1.1522e+001 -1.2111e+001 35214 97762,97520,97468
 4.0000e-001 97670 -4.1718e+000  1.8630e+001 -4.7009e+000 35214 97762,97468,97598
 4.0000e-001 97647 -2.9754e+000  2.2736e+001  4.2099e+000 35214 97546,97598,97572
 4.0000e-001 97624 -2.8949e+001  2.4005e+001 -1.3462e+001 35214 97468,97520,97494
 4.0000e-001 97788 -1.0401e+001  2.1732e+001 -4.4685e+000 35214 97546,97520,97762
 4.0000e-001 97811 -6.1884e+000  2.6691e+001  2.2191e+000 35214 97546,97762,97598
 4.0000e-001 98189 -3.2521e+001  1.9454e+001 -1.2296e+001 34760 98356,98212,97967
 4.0000e-001 98166 -8.6473e+000  3.1219e+001 -8.7489e+000 34760 98284,98212,97941
 4.0000e-001 98143 -2.5404e+000  2.8712e+001 -1.0951e+001 34760 98284,97941,97915
 4.0000e-001 98120 -2.3044e+001  2.3778e+001  3.5207e+000 34760 98484,97993,97967
 4.0000e-001 98097 -3.6118e+000  2.3192e+001 -6.9489e+000 34760 98556,98045,98019
 4.0000e-001 98238 -2.4304e+001  2.3334e+001  3.1381e+000 34760 98484,97967,98212
 4.0000e-001 98261 -1.1044e+001  2.7493e+001 -3.1100e+000 34760 98556,98019,98212
 4.0000e-001 98310 -1.5459e+001  2.7699e+001 -5.0518e+000 34760 98071,98212,98284
 4.0000e-001 98333 -9.7094e+000  2.1906e+001 -5.6617e+000 34760 98071,98284,97915
 4.0000e-001 98382  6.6231e-001  3.3378e+001 -4.9368e+000 34760 97941,98212,98356
 4.0000e-001 98510 -1.9816e+001  2.2261e+001  2.9944e+000 34760 98019,97993,98484
 4.0000e-001 98533 -2.2328e+001  2.0864e+001  2.3118e+000 34760 98019,98484,98212
 4.0000e-001 98582 -1.2910e+001  1.7821e+001 -9.2036e+000 34760 98071,98045,98556
 4.0000e-001 98605 -1.5938e+001  2.4751e+001 -4.3911e+000 34760 98071,98556,98212
 4.0000e-001 99032 -2.6910e+001 -9.0092e+000  7.0889e+000 34156 98735,98891,98839
 4.0000e-001 99009 -2.0838e+001 -1.9327e+000  1.3738e+001 34156 98709,98891,98735
 4.0000e-001 98986 -2.9308e+001  1.1264e+001 -3.0683e+000 34156 98735,98813,98787
 4.0000e-001 98963 -3.2948e+001  7.3676e+000  2.1129e+000 34156 98735,98839,98813
 4.0000e-001 98940 -4.0713e+001  8.4725e+000 -6.9621e+000 34156 98735,98787,98761
 4.0000e-001 98917 -1.8280e+001  1.1429e+001  5.7179e+000 34156 98839,98891,98865
 4.0000e-001 99231 -2.5926e+001  1.2054e+001  1.6126e+001 33766 99055,99133,99107
 4.0000e-001 99208 -2.9825e+001 -2.0106e+000  1.8945e+001 33766 99055,99159,99133
 4.0000e-001 99185 -1.9535e+001  2.5398e+001  1.8173e+001 33766 99055,99107,99081
 4.0000e-001 99818  5.0314e+000  2.1717e+001 -4.1940e+000 33248 99521,99651,99573
 4.0000e-001 99795 -1.7708e+001  9.6416e+000 -9.4755e+000 33248 99521,99677,99651
 4.0000e-001 99772  6.3193e-001  1.7840e+001 -6.6803e+000 33248 99573,99651,99599
 4.0000e-001 99749 -5.3828e+000  2.3837e+001 -3.8040e+000 33248 99495,99677,99521
 4.0000e-001 99726  3.8469e+000  1.0229e+001 -1.0898e+001 33248 99599,99651,99625
 4.0000e-001 99703  2.3805e+000  2.4729e+001 -3.8097e+000 33248 99521,99573,99547
 4.0000e-001 100196 -1.9914e+001  2.6571e+001  9.8580e+000 32794 100219,99948,99922
 4.0000e-001 100173 -2.2417e+001  1.9455e+001  2.6282e+000 32794 100219,99922,100052
 4.0000e-001 100150 -2.5405e+001  9.6896e+000  5.1641e+000 32794 99974,100052,100026
 4.0000e-001 100127 -3.6435e+001  9.8689e+000  6.9569e+000 32794 99922,100078,100052
 4.0000e-001 100104 -1.8981e+001  2.7751e+001 -8.2032e+000 32794 99974,100026,100000
 4.0000e-001 100245 -1.1456e+001  3.4552e+001  1.7810e+001 32794 99974,99948,100219
 4.0000e-001 100268 -1.8862e+001  2.2393e+001  9.9100e+000 32794 99974,100219,100052
 4.0000e-001 100418 -4.6432e+000  2.5962e+001 -8.9161e+000 32504 100571,100343,100317
 4.0000e-001 100395 -3.4020e+000  2.6711e+001 -1.4577e+001 32504 100571,100317,100441
 4.0000e-001 100467 -7.9316e+000  9.5832e+000 -8.1290e+000 32504 100291,100369,100441
 4.0000e-001 100597 -7.2000e+000  1.9302e+001 -9.6751e+000 32504 100369,100343,100571
 4.0000e-001 100620 -7.4094e+000  1.6080e+001 -1.4774e+001 32504 100369,100571,100441
 4.0000e-001 101020 -5.7493e+000  3.8389e+001 -2.2539e+000 32142 100772,100902,100876
 4.0000e-001 100997 -2.2521e+000  4.2991e+001 -6.9705e-001 32142 100746,100902,100772
 4.0000e-001 100974  7.3703e+000  1.0603e+002  2.8964e+001 32142 101043,100824,100798
 4.0000e-001 100951 -2.9823e+001  6.7438e+001  1.1612e+001 32142 101043,100798,100772
 4.0000e-001 100928  2.2934e+001  6.3993e+001  2.1148e+001 32142 101115,100876,100850
 4.0000e-001 101069 -1.0139e+000  6.5285e+001  2.3282e+001 32142 100850,100824,101043
 4.0000e-001 101092  1.2767e+001  6.4715e+001  1.6086e+001 32142 101115,100850,101043
 4.0000e-001 101141  1.0266e+001  5.8215e+001  1.3869e+001 32142 100772,100876,101115
 4.0000e-001 101164  2.5987e+000  5.8743e+001  8.1951e+000 32142 100772,101115,101043
 4.0000e-001 101719 -1.1644e+001  1.5138e+001  6.5671e+000 31538 101742,101477,101399
 4.0000e-001 101696 -7.6602e+000  1.1122e+001  4.4048e+000 31538 101814,101742,101399
 4.0000e-001 101673 -2.9275e+000  9.9358e+000  8.9254e+000 31538 101814,101399,101373
 4.0000e-001 101650 -3.9092e+001  2.2907e+001  2.7558e+001 31538 101425,101477,101451
 4.0000e-001 101627 -3.8537e+001 -2.4525e+000  1.4403e+001 31538 101399,101477,101425
 4.0000e-001 101604  3.3499e+000  2.2669e+000  1.0503e+001 31538 101477,101529,101503
 4.0000e-001 101581 -2.5175e+001  1.2070e+001  1.0512e+001 31538 101347,101555,101373
 4.0000e-001 101768 -9.3537e+000  9.0333e+000  3.4398e+000 31538 101529,101477,101742
 4.0000e-001 101791 -1.7147e+001  3.5514e+000 -3.2164e+000 31538 101529,101742,101555
 4.0000e-001 101840 -1.7291e+001  1.0993e+001  3.8478e+000 31538 101555,101742,101814
 4.0000e-001 101863 -1.2003e+001  9.7133e+000  7.8855e+000 31538 101555,101814,101373
 4.0000e-001 102111 -3.7032e+001 -1.5239e+001  2.7013e+000 31112 101886,101990,101912
 4.0000e-001 102088 -2.9073e+001 -6.1414e+000 -2.9067e+000 31112 101886,102016,101990
 4.0000e-001 102065 -3.0540e+001 -1.8255e+001  1.0343e+001 31112 101912,101990,101964
 4.0000e-001 102042 -2.2279e+001 -8.3367e+000  6.4355e+000 31112 101912,101964,101938
 4.0000e-001 102408  1.0409e+001  4.2663e+001  4.3143e+000 30658 102431,102186,102160
 4.0000e-001 102385  1.4523e+000  4.1150e+001  2.5131e+000 30658 102431,102160,102264
 4.0000e-001 102362 -2.9576e+000  4.4871e+001  7.2308e+000 30658 102186,102238,102212
 4.0000e-001 102339 -1.5424e+001  1.8473e+001 -1.8079e+001 30658 102134,102264,102160
 4.0000e-001 102316 -1.8763e+000  1.3959e+001  8.0723e-001 30658 102134,102290,102264
 4.0000e-001 102457  1.7003e+000  4.2647e+001  2.7820e+000 30658 102238,102186,102431
 4.0000e-001 102480 -7.5453e+000  4.0718e+001  6.8866e-001 30658 102238,102431,102264
 4.0000e-001 102681 -2.1446e+001  3.4703e+001  6.9817e+000 30004 102704,102557,102505
 4.0000e-001 102658 -3.4122e+001  4.9264e+001  3.5119e-001 30004 102704,102505,102609
 4.0000e-001 102635 -2.1612e+001  2.6817e+001  2.5668e+000 30004 102505,102557,102531
 4.0000e-001 102730 -2.7721e+001  2.9317e+001  3.8435e+000 30004 102583,102557,102704
 4.0000e-001 102753 -5.1040e+001  3.2999e+001 -6.3322e+000 30004 102583,102704,102609
 4.0000e-001 103003 -2.8978e+001  2.6988e+001  1.5966e+001 29564 103026,102804,102778
 4.0000e-001 102980 -2.6397e+001  3.0843e+001  1.4457e+001 29564 103026,102778,102908
 4.0000e-001 102957 -3.5976e+001  2.4646e+001  7.4777e+000 29564 102856,102908,102882
 4.0000e-001 102934 -2.3253e+001  3.4248e+001  1.0686e+001 29564 102804,102856,102830
 4.0000e-001 103052 -2.5837e+001  2.6367e+001  1.3320e+001 29564 102856,102804,103026
 4.0000e-001 103075 -2.4651e+001  2.8618e+001  1.2100e+001 29564 102856,103026,102908
 4.0000e-001 103634 -4.3315e+001  2.8983e+001  1.3802e+001 29160 103657,103418,103392
 4.0000e-001 103611 -4.4455e+001  2.8623e+001 -2.1454e+000 29160 103657,103392,103314
 4.0000e-001 103588 -3.1162e+001  4.0861e+001 -7.3963e+000 29160 103314,103392,103366
 4.0000e-001 103565 -4.8085e+001  3.4098e+001  9.7255e-003 29160 103314,103366,103340
 4.0000e-001 103542 -3.9829e+001  5.9622e+000 -1.3008e+001 29160 103262,103444,103314
 4.0000e-001 103519 -2.2235e+001  4.0180e+001 -2.9469e+000 29160 103262,103314,103288
 4.0000e-001 103496 -4.0181e+001  1.9723e+001 -2.1359e+001 29160 103262,103470,103444
 4.0000e-001 103683 -2.3158e+001  3.9232e+001  1.7926e+001 29160 103444,103418,103657
 4.0000e-001 103706 -3.3003e+001  3.2537e+001  4.7678e-001 29160 103444,103657,103314
 4.0000e-001 104035 -1.7278e+001  2.4693e+001  8.3785e+000 28770 103836,103914,103862
 4.0000e-001 104012 -2.0709e+001  1.8605e+001  4.5818e+000 28770 103810,103914,103836
 4.0000e-001 103989 -4.0482e+001  1.6029e+001 -2.4191e-001 28770 103810,103940,103914
 4.0000e-001 103966 -1.5776e+001  3.5251e+001  8.8246e+000 28770 103862,103914,103888
 4.0000e-001 104185  4.0454e+000  5.1092e+001  1.6926e+000 28366 104208,104110,104084
 4.0000e-001 104162 -1.4212e+001  3.1784e+001 -1.0771e+001 28366 104280,104208,104084
 4.0000e-001 104234  7.1623e+000  3.3856e+001 -5.6459e+000 28366 104610,104208,104136
 4.0000e-001 104257  3.1781e+000  4.9537e+001 -4.1706e+000 28366 104538,104410,104208
 4.0000e-001 104306  1.0492e+001  4.7014e+001 -2.1720e+000 28366 104538,104208,104280
 4.0000e-001 104436  6.0151e+000  5.4034e+001 -5.4023e+000 28366 104136,104208,104410
 4.0000e-001 104564  1.0488e+001  5.3499e+001 -6.2330e-001 28366 104058,104410,104538
 4.0000e-001 104587  1.5688e+001  4.9758e+001  1.4712e+000 28366 104058,104538,104280
 4.0000e-001 104636  1.0700e+001  3.7594e+001  4.0200e+000 28366 104110,104208,104610
 4.0000e-001 105349 -6.7801e+000  2.4213e+001  3.6675e+000 27976 105516,105372,105107
 4.0000e-001 105326  5.9892e-001  3.4524e+001  2.3595e+000 27976 105588,105372,105055
 4.0000e-001 105303  2.5276e+001  3.8683e+001  1.1426e+001 27976 105444,105159,105133
 4.0000e-001 105280 -1.5948e+001  2.7807e+001  1.5955e-002 27976 105516,105107,105081
 4.0000e-001 105257  2.5198e+000  4.5624e+001  3.8865e-001 27976 105588,105055,105029
 4.0000e-001 105234 -7.2543e+000  2.1960e+001  5.8047e+000 27976 105003,105185,105159
 4.0000e-001 105211  2.8122e+000  2.2014e+001  4.5014e+000 27976 104977,105185,105003
 4.0000e-001 105398 -1.0992e+001  3.5645e+001  6.6751e+000 27976 105133,105107,105372
 4.0000e-001 105421  3.8375e+000  4.2364e+001  8.3768e+000 27976 105444,105133,105372
 4.0000e-001 105470  8.5423e-002  2.5321e+001  4.9862e+000 27976 105003,105159,105444
 4.0000e-001 105493 -1.0202e+001  3.6081e+001  2.4985e+000 27976 105003,105444,105372
 4.0000e-001 105542 -1.3087e+001  2.2590e+001 -3.8928e+000 27976 105055,105372,105516
 4.0000e-001 105565 -2.6792e+001  2.4450e+001 -6.6677e+000 27976 105055,105516,105081
 4.0000e-001 105614 -2.4192e-001  4.5964e+001 -3.6772e+000 27976 105003,105372,105588
 4.0000e-001 105637  1.4008e+000  5.5271e+001 -6.3661e+000 27976 105003,105588,105029
 4.0000e-001 106143 -1.1050e+001  4.2401e+001  1.6977e+001 27664 106166,105846,105820
 4.0000e-001 106120  5.1062e+000  5.2105e+001  8.9093e+000 27664 106310,106166,105820
 4.0000e-001 106097  1.4943e+001  4.1808e+001  5.2342e+000 27664 106382,106238,105950
 4.0000e-001 106074 -9.1346e+000  6.3070e+001 -7.0770e-001 27664 106310,105820,106002
 4.0000e-001 106051  1.4934e+001  3.8663e+001  1.6534e+000 27664 106382,105950,105924
 4.0000e-001 106028  2.0028e+001  3.0327e+001  2.2293e+001 27664 105846,105898,105872
 4.0000e-001 106192  8.0583e+000  4.9418e+001  1.6272e+001 27664 105898,105846,106166
 4.0000e-001 106215  5.5202e-001  3.9840e+001  6.2688e+000 27664 106238,105898,106166
 4.0000e-001 106264  2.2836e+001  4.1832e+001  9.0786e+000 27664 105976,105950,106238
 4.0000e-001 106287  1.3581e+001  4.5132e+001  3.3650e+000 27664 105976,106238,106166
 4.0000e-001 106336 -8.2876e+000  3.5760e+001  1.8973e+000 27664 105976,106166,106310
 4.0000e-001 106359 -2.3037e+001  4.6973e+001 -7.6897e+000 27664 105976,106310,106002
 4.0000e-001 106408  1.2234e+001  3.3829e+001  4.7530e+000 27664 105898,106238,106382
 4.0000e-001 106431  1.3692e+001  3.3251e+001  1.1095e+000 27664 105898,106382,105924
 4.0000e-001 106728 -1.8584e+001  2.4464e+001 -4.0563e+000 27153 106751,106506,106454
 4.0000e-001 106705 -2.1307e+001  1.8086e+001 -3.8339e+000 27153 106751,106454,106610
 4.0000e-001 106682 -2.0391e+001  3.4443e+001 -8.2841e+000 27153 106454,106506,106480
 4.0000e-001 106659 -1.6120e+001  3.1899e+001  4.6143e+000 27153 106532,106610,106584
 4.0000e-001 106636 -2.1591e+001  2.6143e+001  2.2932e+000 27153 106532,106584,106558
 4.0000e-001 106777 -2.0588e+001  3.6652e+001 -6.5623e-001 27153 106532,106506,106751
 4.0000e-001 106800 -2.5910e+001  2.4455e+001  1.9977e-001 27153 106532,106751,106610
 4.0000e-001 107180  3.8624e+000  5.8919e+001  9.0529e+000 26642 107203,106984,106958
 4.0000e-001 107157 -5.2196e+000  5.1506e+001 -4.4011e+000 26642 107203,106958,106932
 4.0000e-001 107134  1.1788e+001  5.1245e+001 -1.2180e+001 26642 107275,107036,107010
 4.0000e-001 107111 -1.9524e+001  3.0482e+001 -3.5693e+000 26642 106932,107062,107036
 4.0000e-001 107088 -3.6948e+001  2.4229e+001 -2.3451e-001 26642 106906,107062,106932
 4.0000e-001 107229 -1.0856e+001  2.4524e+001  1.0297e+001 26642 107010,106984,107203
 4.0000e-001 107252  6.1033e+000  5.3967e+001 -5.7912e+000 26642 107275,107010,107203
 4.0000e-001 107301  2.1348e+000  4.7691e+001 -1.1151e+001 26642 106932,107036,107275
 4.0000e-001 107324 -4.7441e+000  5.0964e+001 -7.5683e+000 26642 106932,107275,107203
 4.0000e-001 107675 -2.3973e+001  2.9570e+001 -1.7924e+000 26045 107450,107554,107476
 4.0000e-001 107652 -2.8378e+001  3.3426e+001 -4.8817e+000 26045 107450,107580,107554
 4.0000e-001 107629 -6.9077e+001  1.6530e+001 -3.9033e+000 26045 107476,107528,107502
 4.0000e-001 107606 -3.8317e+001  2.0235e+001 -6.8947e+000 26045 107476,107554,107528
 4.0000e-001 107874 -2.9231e+001  2.6839e+001  3.4688e+000 25641 107750,107802,107776
 4.0000e-001 107851 -2.0299e+001  2.2689e+001  1.2368e+001 25641 107724,107802,107750
 4.0000e-001 107828 -2.3926e+001  1.9771e+001  1.0350e+001 25641 107698,107802,107724
 4.0000e-001 108431 -3.5879e+001  2.4856e+001 -2.7774e-001 25023 108526,108267,108241
 4.0000e-001 108408 -3.4144e+001  1.9226e+001  2.5308e+001 25023 108059,108267,108085
 4.0000e-001 108385 -1.9053e+001  2.7242e+001  3.8386e+000 25023 108454,108163,108111
 4.0000e-001 108362 -1.3819e+001  2.7487e+001  2.0707e+000 25023 108454,108111,108085
 4.0000e-001 108339 -2.4803e+001  3.1039e+001  2.3105e+000 25023 108111,108163,108137
 4.0000e-001 108316 -1.9830e-001  2.2860e+001  3.6547e+000 25023 108163,108241,108215
 4.0000e-001 108293 -1.5713e+001  1.3884e+001 -8.4888e+000 25023 108163,108215,108189
 4.0000e-001 108480 -1.5421e+001  3.1004e+001 -1.2297e+000 25023 108241,108163,108454
 4.0000e-001 108503 -2.8380e+001  2.5438e+001 -8.6686e-001 25023 108526,108241,108454
 4.0000e-001 108552 -2.5958e+001  2.0323e+001  4.5849e+000 25023 108085,108267,108526
 4.0000e-001 108575 -1.8215e+001  2.1141e+001  4.1232e+000 25023 108085,108526,108454
 4.0000e-001 108823 -4.3822e+001 -3.6307e+001 -8.0924e+000 24461 108624,108728,108650
 4.0000e-001 108800 -4.9239e+001 -1.5512e+001 -3.6650e+000 24461 108598,108728,108624
 4.0000e-001 108777 -2.0859e+001 -1.2216e+001  1.3620e+000 24461 108650,108728,108676
 4.0000e-001 108754 -3.2510e+001 -2.0925e+001 -7.2184e+000 24461 108676,108728,108702
 4.0000e-001 109022 -2.4614e+001  2.3439e+001  8.2235e+000 24121 108872,108924,108898
 4.0000e-001 108999 -1.6317e+001  2.7393e+001  1.0417e+001 24121 108846,108924,108872
 4.0000e-001 108976 -3.0706e+001  2.4010e+001  3.8641e+000 24121 108846,108950,108924
 4.0000e-001 109483 -5.0931e+001  7.5779e+000  1.6121e+001 23717 109209,109339,109235
 4.0000e-001 109460 -2.6517e+001  3.0456e+001  3.5536e+000 23717 109209,109365,109339
 4.0000e-001 109437 -2.1455e+001  9.2026e+000  8.3007e+000 23717 109287,109339,109313
 4.0000e-001 109414 -1.8601e+001  1.8309e+001  1.5528e+001 23717 109235,109339,109287
 4.0000e-001 109391 -2.1947e+001  2.3583e+000  1.6065e+001 23717 109235,109287,109261
 4.0000e-001 109910 -2.8524e+001  1.3278e+001  2.9975e+000 23305 109613,109743,109717
 4.0000e-001 109887 -3.3557e+001  1.0720e+001  5.1914e+000 23305 109613,109769,109743
 4.0000e-001 109864 -2.5856e+001  6.6181e+000  3.0823e+000 23305 109613,109717,109639
 4.0000e-001 109841 -3.0248e+001  2.5383e+001  5.6376e+000 23305 109587,109769,109613
 4.0000e-001 109818 -2.7690e+001  5.7850e+000  5.6515e+000 23305 109639,109717,109691
 4.0000e-001 109795 -2.8671e+001  7.0889e+000  3.7527e+000 23305 109639,109691,109665
 4.0000e-001 110180 -2.4498e+001  1.0517e+001  1.3381e+000 22851 110007,110059,110033
 4.0000e-001 110157 -1.3185e+001  3.5676e+001  3.9658e+000 22851 109981,110059,110007
 4.0000e-001 110134 -2.3998e+001  3.4134e+001  4.6847e+000 22851 109955,110059,109981
 4.0000e-001 110111 -2.1959e+001  4.8441e+001  3.8949e+000 22851 109955,110085,110059
 4.0000e-001 110737  6.5717e+000  2.5675e+001 -4.5768e-001 22333 110760,110469,110391
 4.0000e-001 110714 -6.5887e+000  2.1626e+001  1.5102e+000 22333 110760,110391,110365
 4.0000e-001 110691 -4.4945e+000  2.3563e+001 -5.8930e+000 22333 110832,110521,110469
 4.0000e-001 110668  1.7121e+001  1.5831e+001  1.6226e+000 22333 110417,110469,110443
 4.0000e-001 110645  2.7694e+000  1.8050e+001  1.7189e+000 22333 110391,110469,110417
 4.0000e-001 110622 -5.3582e+000  3.1396e+001 -2.7381e+001 22333 110469,110521,110495
 4.0000e-001 110599  1.5023e+001  6.0603e+001 -1.7406e+001 22333 110365,110573,110547
 4.0000e-001 110786 -5.5431e+000  2.5098e+001 -4.3097e+000 22333 110832,110469,110760
 4.0000e-001 110809 -1.0977e+001  2.8667e+001 -2.6848e+000 22333 110547,110760,110365
 4.0000e-001 110858 -6.7763e+000  2.7291e+001 -5.5453e+000 22333 110547,110521,110832
 4.0000e-001 110881 -4.9625e+000  3.1322e+001 -3.1820e+000 22333 110547,110832,110760
 4.0000e-001 111308 -4.5851e+001  7.2425e+000  1.8056e+001 21829 111331,111063,111011
 4.0000e-001 111285 -5.9003e+001  9.9264e+000  7.7821e+000 21829 111331,111011,111167
 4.0000e-001 111262 -3.6707e+001 -2.0666e+001  1.1398e+001 21829 111403,111089,111063
 4.0000e-001 111239 -3.9917e+001  4.2703e+001  2.3020e+001 21829 111011,111063,111037
 4.0000e-001 111216 -7.5065e+001  6.2762e+001 -3.6011e+000 21829 110985,111167,111011
 4.0000e-001 111193  1.1916e+001  4.9998e-001 -2.8314e+000 21829 111089,111141,111115
 4.0000e-001 111357 -5.5375e+001 -3.6253e+000  1.2083e+001 21829 111403,111063,111331
 4.0000e-001 111380 -5.5657e+001 -6.5810e+000 -5.6189e+000 21829 111141,111331,111167
 4.0000e-001 111429  1.9133e+001  4.6706e+000  5.4191e+000 21829 111141,111089,111403
 4.0000e-001 111452 -2.6376e+001  8.6700e+000  4.4855e+000 21829 111141,111403,111331
 4.0000e-001 112056 -7.3900e+000  2.2053e+001  5.5902e-001 21489 111687,111765,111739
 4.0000e-001 112033 -3.8248e+000  1.7453e+001 -9.1574e-001 21489 112151,112079,111687
 4.0000e-001 112010  1.1431e+001  1.4358e+001  1.6698e+000 21489 111791,111843,111817
 4.0000e-001 111987  4.1559e+000  1.6435e+001 -6.7851e-002 21489 112079,111843,111791
 4.0000e-001 111964 -9.1364e+000  1.8922e+001 -4.6952e+000 21489 112151,111687,111661
 4.0000e-001 111941 -3.1973e+000  7.4471e+000 -9.4694e+000 21489 111661,111869,111843
 4.0000e-001 111918 -1.6564e+001  1.9448e+001 -8.5328e-001 21489 111687,111739,111713
 4.0000e-001 111895 -1.1455e+000  1.2387e+001 -4.0819e+000 21489 111635,111869,111661
 4.0000e-001 112105  1.9091e+000  2.5225e+001  2.2296e+000 21489 111765,111687,112079
 4.0000e-001 112128  1.1868e+000  1.7450e+001  1.6835e+000 21489 111765,112079,111791
 4.0000e-001 112177  5.8354e+000  2.0340e+001 -1.6536e-001 21489 111843,112079,112151
 4.0000e-001 112200  1.4530e-001  2.2010e+001 -3.4468e+000 21489 111843,112151,111661
 4.0000e-001 112578 -2.2545e+001  2.5622e+001 -3.2382e+000 21177 112382,112434,112408
 4.0000e-001 112555 -2.0126e+001  3.2999e+001 -3.1404e+000 21177 112330,112434,112382
 4.0000e-001 112532 -3.5523e+001  2.0802e+001 -1.1135e+001 21177 112304,112434,112330
 4.0000e-001 112509 -2.7956e+001  2.9281e+001  0.0000e+000 21177 112330,112382,112356
 4.0000e-001 112486 -2.1573e+001  3.0142e+001 -1.5309e+001 21177 112304,112460,112434
 4.0000e-001 112679 -2.8981e+001  7.2748e+001 -4.0817e-001 20666 112601,112653,112627
 4.0000e-001 112927 -1.8588e+001  2.4033e+001 -2.6034e-001 19762 112702,112754,112728
 4.0000e-001 112904 -2.1669e+001  1.6404e+001  1.9327e+000 19762 112702,112832,112754
 4.0000e-001 112881 -1.5462e+001  2.8755e+001 -2.5730e-001 19762 112754,112832,112806
 4.0000e-001 112858 -1.1657e+001  4.4434e+001 -3.6766e+000 19762 112754,112806,112780
 4.0000e-001 113297 -9.2028e+000  3.1988e+001 -1.4666e+000 19308 112974,113052,113026
 4.0000e-001 113274 -1.4378e+001  2.9123e+001  2.8743e-001 19308 112974,113156,113052
 4.0000e-001 113251 -1.5788e+001  4.0027e+001  6.0829e+000 19308 113052,113130,113104
 4.0000e-001 113228 -1.6976e+001  2.4764e+001 -1.1199e+000 19308 113052,113156,113130
 4.0000e-001 113205 -1.3387e+001  3.3125e+001  0.0000e+000 19308 113052,113104,113078
 4.0000e-001 113182 -9.7865e+000  3.1347e+001 -1.7870e+000 19308 112974,113026,113000
 4.0000e-001 113547 -2.3240e+001  3.4649e+001  1.6666e+000 18711 113570,113374,113348
 4.0000e-001 113524 -1.4609e+001  2.3713e+001 -1.6377e+000 18711 113570,113348,113452
 4.0000e-001 113501 -1.7452e+001  1.2620e+001  2.3572e+000 18711 113322,113452,113348
 4.0000e-001 113478 -2.5082e+001  3.0902e+001  1.6406e+001 18711 113374,113426,113400
 4.0000e-001 113596 -3.2262e+001  2.3533e+001  5.7442e+000 18711 113426,113374,113570
 4.0000e-001 113619 -1.9397e+001  1.6670e+001  4.8813e-001 18711 113426,113570,113452
 4.0000e-001 113771 -9.5247e+000  4.2171e+001  2.0796e+000 18307 113670,113722,113696
 4.0000e-001 113748 -1.0484e+001  4.1162e+001  1.6841e+000 18307 113644,113722,113670
 4.0000e-001 113972 -2.1549e+001  3.3116e+001 -1.8712e-001 17945 113822,113874,113848
 4.0000e-001 113949 -2.7328e+001  2.7129e+001 -3.3261e+000 17945 113822,113900,113874
 4.0000e-001 113926 -1.8294e+001  3.6532e+001 -1.5051e+001 17945 113796,113900,113822
 4.0000e-001 114075 -2.7449e+001  5.1686e+001 -7.3307e+000 17482 113997,114049,114023
 4.0000e-001 114479 -1.6786e+001  3.0056e+001  9.3085e-001 17042 114257,114361,114335
 4.0000e-001 114456 -2.6814e+001  1.7172e+001  5.8446e+000 17042 114205,114361,114257
 4.0000e-001 114433 -2.2427e+001  3.1114e+001 -3.5161e-001 17042 114205,114257,114231
 4.0000e-001 114410 -1.3295e+001  4.6993e+001  3.3856e+000 17042 114283,114335,114309
 4.0000e-001 114387 -1.0574e+001  3.2580e+001  4.8643e+000 17042 114257,114335,114283
 4.0000e-001 114879  1.8332e+001  2.0723e+001 -2.5902e-001 16638 114631,114683,114657
 4.0000e-001 114856  1.7280e+001  1.9855e+001  1.8599e+000 16638 114605,114683,114631
 4.0000e-001 114833  1.8537e+001  1.9327e+001  3.7346e-001 16638 114605,114761,114683
 4.0000e-001 114810  4.4298e+001  1.9135e+001 -8.0289e+000 16638 114683,114735,114709
 4.0000e-001 114787  1.6513e+001  2.0796e+001 -2.4224e+000 16638 114683,114761,114735
 4.0000e-001 115078 -1.0992e+002 -2.0290e+001  1.2851e+001 16232 114954,115006,114980
 4.0000e-001 115055 -5.9645e+001 -8.7868e+000  1.1532e+000 16232 114928,115006,114954
 4.0000e-001 115032 -7.0001e+001 -1.9384e+001 -3.1070e+000 16232 114902,115006,114928
 4.0000e-001 115228  2.4483e+001  3.8841e+001  5.1858e+000 15482 115101,115153,115127
 4.0000e-001 115205 -2.7939e+000  3.7927e+001 -2.5417e+000 15482 115101,115179,115153
 4.0000e-001 115331 -7.2490e+000  2.9025e+001 -1.2217e+000 15163 115253,115305,115279
 4.0000e-001 115434  1.2908e+001  2.6739e+001 -7.9952e+000 421 115356,115408,115382
 5.0000e-001 68213 -2.4848e+001 -6.9827e+000  1.8878e+000 67888 68112,68164,68138
 5.0000e-001 68190 -4.5501e+000 -9.4504e-001  2.9436e+000 67888 68086,68164,68112
 5.0000e-001 68314 -2.5052e+001  5.1584e-001 -2.7848e+000 67576 68236,68288,68262
 5.0000e-001 68584 -5.8713e+001 -2.0899e+001  1.6247e+000 67378 68385,68489,68463
 5.0000e-001 68561 -3.3291e+001 -9.1707e+000 -1.3640e+000 67378 68359,68489,68385
 5.0000e-001 68538 -5.8099e+001 -1.4620e+001  1.8662e+000 67378 68385,68463,68411
 5.0000e-001 68515 -6.2074e+001  3.2320e+000  4.3369e+000 67378 68411,68463,68437
 5.0000e-001 68964 -3.7312e+001  9.1549e+000 -6.7149e+000 67130 68690,68820,68716
 5.0000e-001 68941 -4.1377e+001  3.0334e+001 -5.6350e+000 67130 68690,68846,68820
 5.0000e-001 68918 -7.4431e+001 -1.0901e+001  1.2775e+001 67130 68742,68820,68794
 5.0000e-001 68895 -7.1044e+001 -3.1647e+000  6.9817e+000 67130 68716,68820,68742
 5.0000e-001 68872 -6.9700e+001  4.6859e+000  1.7559e+001 67130 68742,68794,68768
 5.0000e-001 69065 -1.4732e+001  1.6466e+000 -1.3209e+001 66926 68987,69039,69013
 5.0000e-001 69445 -1.0248e+001  8.8815e+000 -8.1095e+000 66614 69223,69301,69275
 5.0000e-001 69422 -6.8079e+000  3.7214e+000  1.8795e+000 66614 69171,69301,69223
 5.0000e-001 69399 -1.1990e+000  5.4475e+000 -8.2000e-001 66614 69171,69327,69301
 5.0000e-001 69376 -1.6401e+001 -5.5059e-001 -4.9613e+000 66614 69223,69275,69249
 5.0000e-001 69353 -1.6903e+001  1.5073e+000 -9.7165e-001 66614 69171,69223,69197
 5.0000e-001 69546 -6.1703e+001  1.6686e+001 -1.7309e+001 66416 69468,69520,69494
 5.0000e-001 69997 -2.2952e+001  2.2623e+001  8.7512e-001 66104 69700,69830,69726
 5.0000e-001 69974 -1.9171e+001  1.4771e+001 -1.6227e+000 66104 69700,69856,69830
 5.0000e-001 69951 -1.2296e+001  1.1035e+001  6.2880e+000 66104 69726,69804,69778
 5.0000e-001 69928 -2.8215e+001  1.3702e+001  3.3872e+000 66104 69726,69830,69804
 5.0000e-001 69905 -1.6894e+001  2.7574e+000  1.0452e+000 66104 69726,69778,69752
 5.0000e-001 69882 -1.8483e+000  7.4231e+000 -1.2115e+001 66104 69674,69856,69700
 5.0000e-001 70326 -2.0437e+001  1.9345e+001 -3.1780e+000 65814 70349,70153,70127
 5.0000e-001 70303 -2.1925e+001  2.4735e+001 -8.3098e+000 65814 70349,70127,70101
 5.0000e-001 70280 -1.4702e+001  6.0129e+000 -2.3346e+001 65814 70101,70231,70205
 5.0000e-001 70257 -1.9003e+001  2.0448e+001  2.4552e+000 65814 70153,70205,70179
 5.0000e-001 70375 -2.2234e+001  1.1075e+001 -1.4058e+000 65814 70205,70153,70349
 5.0000e-001 70398 -2.1565e+001  1.8410e+001 -7.0894e+000 65814 70205,70349,70101
 5.0000e-001 70904 -4.4965e+001 -4.0724e+000 -4.0861e+000 65502 70607,70737,70685
 5.0000e-001 70881 -5.8843e+001 -2.2274e+001  4.1994e+000 65502 70581,70737,70607
 5.0000e-001 70858 -5.0608e+001 -7.9074e+000  9.7099e-002 65502 70581,70763,70737
 5.0000e-001 70835 -7.9636e+001 -1.6542e+001  4.6146e+000 65502 70685,70737,70711
 5.0000e-001 70812  1.3307e+001  3.3541e+000  6.0276e+000 65502 70607,70659,70633
 5.0000e-001 70789 -3.9573e+001  1.1628e+001  6.7970e+000 65502 70607,70685,70659
 5.0000e-001 71103 -3.1566e+001  1.5894e+001  1.4319e+000 65304 71126,70979,70953
 5.0000e-001 71080 -2.9554e+001  1.3976e+001  1.5567e+000 65304 71126,70953,70927
 5.0000e-001 71057 -1.9747e+001  2.5660e+001  1.0766e+001 65304 70927,71031,71005
 5.0000e-001 71152 -3.0083e+001  1.8348e+001  2.1244e+000 65304 71005,70979,71126
 5.0000e-001 71175 -2.8944e+001  1.5290e+001  1.9929e+000 65304 71005,71126,70927
 5.0000e-001 71374 -2.5413e+001  5.6950e+000  4.6166e+000 65106 71198,71276,71224
 5.0000e-001 71351 -5.2461e+001 -6.9770e+000 -5.0788e-001 65106 71198,71302,71276
 5.0000e-001 71328 -2.4670e+001  6.0252e+000 -2.1945e+000 65106 71224,71276,71250
 5.0000e-001 71756 -3.6270e+001  2.3871e+001  5.4681e+000 64652 71508,71638,71534
 5.0000e-001 71733 -7.8699e+001  5.7811e+000  1.0272e+001 64652 71482,71638,71508
 5.0000e-001 71710 -2.9953e+001  4.4321e+000 -9.2939e-001 64652 71534,71586,71560
 5.0000e-001 71687 -2.4500e+001  1.3388e+001 -3.4326e+000 64652 71534,71612,71586
 5.0000e-001 71664 -5.9310e+001  1.9730e+000 -3.9478e+000 64652 71534,71638,71612
 5.0000e-001 72085 -3.7154e+001  5.7555e+000  6.7391e+000 64248 71886,71964,71912
 5.0000e-001 72062 -4.3205e+001  3.3799e+000  7.1428e+000 64248 71860,71964,71886
 5.0000e-001 72039 -5.3962e+001  6.0818e+000  2.9913e+000 64248 71912,71964,71938
 5.0000e-001 72016 -3.4648e+001  1.9819e+001  2.9706e+000 64248 71860,71990,71964
 5.0000e-001 72235 -5.1411e+001  3.8922e+000  6.2406e+000 63858 72588,72258,72134
 5.0000e-001 72212 -4.1315e+001 -3.0772e+000 -4.9313e+000 63858 72330,72258,72108
 5.0000e-001 72284 -3.5223e+001  7.7196e+000  1.0084e+001 63858 72160,72134,72258
 5.0000e-001 72307 -2.7534e+001  4.6097e+000  3.0721e+000 63858 72460,72258,72186
 5.0000e-001 72356 -2.3755e+001  1.0038e+001  7.4750e+000 63858 72186,72258,72330
 5.0000e-001 72486 -4.4937e+001 -1.3367e+001  1.2554e+001 63858 72160,72258,72460
 5.0000e-001 72614 -5.1860e+001  6.7345e+000 -2.1404e+000 63858 72108,72258,72588
 5.0000e-001 73248  7.6493e-001  7.4859e+000  1.0728e+001 63404 72902,72954,72928
 5.0000e-001 73225 -3.0800e+001  2.7564e+000 -3.4799e+000 63404 73271,72954,72902
 5.0000e-001 73202 -3.4318e+001  6.1169e+000 -1.2724e+000 63404 73271,72902,73032
 5.0000e-001 73179 -6.4793e+001 -7.5854e+000  2.1572e+000 63404 72902,73058,73032
 5.0000e-001 73156 -3.7754e+001  2.0385e+001 -1.0563e+001 63404 72980,73032,73006
 5.0000e-001 73133 -6.9711e+001  1.4548e+001  1.1191e+001 63404 72876,73058,72902
 5.0000e-001 73110 -2.6550e+002 -4.8725e+001  2.6569e+001 63404 72876,73084,73058
 5.0000e-001 73297 -3.4169e+001  9.3161e-001 -4.4341e+000 63404 72980,72954,73271
 5.0000e-001 73320 -3.7894e+001  3.7143e+000 -2.3899e+000 63404 72980,73271,73032
 5.0000e-001 73470 -5.9172e+001  1.7703e+001  5.0710e+000 63014 73343,73395,73369
 5.0000e-001 73447 -7.3843e+001  8.1905e+000 -8.2522e-001 63014 73343,73421,73395
 5.0000e-001 73929 -3.1275e+001  1.5065e+001 -1.3706e+000 62702 73759,73811,73785
 5.0000e-001 73906 -3.4463e+001  1.3683e+001 -1.5679e+000 62702 73655,73811,73759
 5.0000e-001 73883 -3.0526e+001  1.4905e+001  3.1997e-001 62702 73655,73759,73681
 5.0000e-001 73860 -3.6826e+001  2.6165e+000  1.0261e+001 62702 73681,73759,73707
 5.0000e-001 73837 -1.4882e+001  1.5029e+001  1.2061e+000 62702 73707,73759,73733
 5.0000e-001 74209 -1.1683e+001  9.6369e+000 -1.9168e+000 62404 74059,74137,74085
 5.0000e-001 74186 -3.1092e+000  2.1481e+001 -7.3826e+000 62404 74033,74137,74059
 5.0000e-001 74163 -1.8662e+001  3.4964e+000 -4.6958e+000 62404 74085,74137,74111
 5.0000e-001 74408 -3.8952e+001  2.3566e+000  2.6682e+000 62000 74258,74336,74284
 5.0000e-001 74385 -3.5116e+001  2.8648e+000 -1.3104e-001 62000 74232,74336,74258
 5.0000e-001 74362 -3.8969e+001  3.7681e-001  2.5263e+000 62000 74284,74336,74310
 5.0000e-001 74509 -8.3997e+001 -1.7549e+001 -2.0927e+001 61802 74431,74483,74457
 5.0000e-001 74759 -2.9269e+001 -2.1826e+000 -3.0165e+000 61554 74782,74586,74560
 5.0000e-001 74736 -3.9302e+001 -1.1066e+000  1.0755e-001 61554 74782,74560,74664
 5.0000e-001 74713 -2.4229e+001  5.4123e+000 -1.3361e+001 61554 74854,74612,74586
 5.0000e-001 74690 -4.1066e+001 -5.9942e+000  4.5991e-004 61554 74534,74664,74560
 5.0000e-001 74808 -2.3948e+001  2.1433e+000 -5.9344e+000 61554 74854,74586,74782
 5.0000e-001 74831 -3.2193e+001  9.4069e+000 -3.0437e+000 61554 74638,74782,74664
 5.0000e-001 74880 -3.3626e+001  7.4454e-001 -1.0918e+001 61554 74638,74612,74854
 5.0000e-001 74903 -3.4612e+001 -2.8216e+000 -4.3559e+000 61554 74638,74854,74782
 5.0000e-001 75285 -5.6598e+001  2.5918e+000  1.4062e+001 61356 75063,75167,75115
 5.0000e-001 75262 -4.1637e+001  3.4207e+001  1.9282e+001 61356 75037,75167,75063
 5.0000e-001 75239 -8.8153e+001  1.6623e+001  1.3894e+001 61356 75115,75167,75141
 5.0000e-001 75216 -5.2805e+001  6.8848e+000  1.6395e+001 61356 75063,75115,75089
 5.0000e-001 75193 -1.5645e+001 -5.5032e+000 -1.9897e+000 61356 75011,75167,75037
 5.0000e-001 75631 -5.3295e+001 -3.9252e+000 -3.8097e+000 60952 75654,75412,75360
 5.0000e-001 75608 -6.8037e+001 -6.5152e+000 -5.5961e+000 60952 75654,75360,75334
 5.0000e-001 75585 -3.9472e+001  8.9697e+000 -7.6053e-002 60952 75726,75438,75412
 5.0000e-001 75562 -8.2329e+001 -3.3095e+001 -6.3990e-001 60952 75308,75490,75334
 5.0000e-001 75539 -5.8659e+001 -7.5331e+000 -4.0338e-001 60952 75360,75412,75386
 5.0000e-001 75516 -2.3096e+001 -1.6220e+000 -6.7875e+000 60952 75438,75490,75464
 5.0000e-001 75680 -4.5793e+001 -8.1965e+000 -6.9276e+000 60952 75726,75412,75654
 5.0000e-001 75703 -4.9926e+001 -1.8382e+001 -6.6315e+000 60952 75490,75654,75334
 5.0000e-001 75752 -3.2349e+001 -9.4500e+000  2.7562e+000 60952 75490,75438,75726
 5.0000e-001 75775 -3.3141e+001 -8.8127e+000 -5.2892e-001 60952 75490,75726,75654
 5.0000e-001 76155 -2.5938e+001  1.0494e+001  8.1070e+000 60754 75933,75985,75959
 5.0000e-001 76132 -2.2917e+001  1.3372e+001 -1.6304e+000 60754 75933,76037,75985
 5.0000e-001 76109 -2.5756e+001  4.6548e+000  4.7340e-001 60754 75985,76037,76011
 5.0000e-001 76086 -2.3100e+001  2.1115e+000 -1.1522e+000 60754 75881,76037,75933
 5.0000e-001 76063 -1.7744e+001  6.6102e+000 -5.0437e+000 60754 75881,75933,75907
 5.0000e-001 76612 -4.3112e+001  1.8339e+001 -5.0509e+000 60350 76635,76442,76390
 5.0000e-001 76589 -3.1613e+001  1.5008e+001 -1.9235e+000 60350 76635,76390,76364
 5.0000e-001 76566 -2.8518e+001  2.5295e+001  8.0981e+000 60350 76364,76494,76468
 5.0000e-001 76543 -2.9062e+001  1.8715e+001 -2.3430e+001 60350 76390,76442,76416
 5.0000e-001 76520 -1.2696e+001  1.2961e+001  1.3140e+001 60350 76338,76494,76364
 5.0000e-001 76661 -5.0200e+001  1.6677e+001 -4.4215e+000 60350 76468,76442,76635
 5.0000e-001 76684 -4.2286e+001  1.1032e+001 -1.1718e+000 60350 76468,76635,76364
 5.0000e-001 76932 -2.7322e+001 -9.1485e+000  6.8584e+000 59946 76955,76733,76707
 5.0000e-001 76909 -2.0557e+001  5.6067e+000  2.1325e+000 59946 77027,76955,76707
 5.0000e-001 76886 -1.5746e+001  7.9396e+000  2.7834e-001 59946 77027,76707,76837
 5.0000e-001 76863 -1.5902e+001 -2.9517e+000 -5.4223e+000 59946 76733,76785,76759
 5.0000e-001 76981 -2.1780e+001 -4.4106e-001 -3.0177e+000 59946 76785,76733,76955
 5.0000e-001 77004 -2.0870e+001  4.1657e+000 -3.8960e+000 59946 76785,76955,76811
 5.0000e-001 77053 -1.3028e+001  1.8438e+000 -2.1649e+000 59946 76811,76955,77027
 5.0000e-001 77076 -7.7112e+000  6.7343e+000 -4.9578e+000 59946 76811,77027,76837
 5.0000e-001 77226 -5.6620e+001  5.0156e+001 -3.6762e+000 59542 77099,77151,77125
 5.0000e-001 77203 -5.8026e+001  2.6230e+001 -1.4611e+001 59542 77099,77177,77151
 5.0000e-001 77427 -3.5855e+001 -2.5947e+000 -2.7764e+000 59030 77450,77277,77251
 5.0000e-001 77404 -3.8752e+001 -1.0026e+001 -2.9791e+000 59030 77450,77251,77355
 5.0000e-001 77381 -3.1775e+001  7.0087e+000 -5.1325e+000 59030 77277,77329,77303
 5.0000e-001 77476 -3.7990e+001 -7.3752e-001 -9.4236e-002 59030 77329,77277,77450
 5.0000e-001 77499 -3.8989e+001 -4.8418e+000 -4.1239e-001 59030 77329,77450,77355
 5.0000e-001 77749 -6.9518e+001  8.2889e-001  7.8648e+000 58426 77772,77628,77602
 5.0000e-001 77726 -5.9680e+001 -6.3119e+000  1.4233e+001 58426 77524,77654,77628
 5.0000e-001 77703 -5.0076e+001  1.0197e+000  9.0533e-001 58426 77772,77602,77550
 5.0000e-001 77680 -4.9024e+001  2.4922e+000 -6.8896e+000 58426 77550,77602,77576
 5.0000e-001 77798 -4.7717e+001  2.8503e+000  9.1462e+000 58426 77524,77628,77772
 5.0000e-001 77821 -3.8541e+001 -2.9813e+000 -5.0402e-001 58426 77524,77772,77550
 5.0000e-001 78071 -9.9147e+000  5.0432e+000 -4.8595e+000 57922 78094,77924,77898
 5.0000e-001 78048 -7.3703e+000  9.5067e+000 -3.6844e+000 57922 78094,77898,77872
 5.0000e-001 78025 -2.0073e+001 -1.2163e+000 -1.0466e+001 57922 78166,77846,77950
 5.0000e-001 78002 -2.7616e+001 -1.2950e+000 -1.1482e+001 57922 77846,77976,77950
 5.0000e-001 78120  4.0402e+000  4.2107e+000 -1.0699e+001 57922 77950,77924,78094
 5.0000e-001 78143 -8.4444e+000  1.8463e+000 -1.3632e+001 57922 78166,77950,78094
 5.0000e-001 78192 -3.2843e+001  1.1591e+000  1.5999e-001 57922 77872,77846,78166
 5.0000e-001 78215 -1.8409e+001  3.4048e+000 -1.1065e+000 57922 77872,78166,78094
 5.0000e-001 78416 -3.5800e+001 -9.7863e+000  5.8789e+000 57468 78439,78292,78240
 5.0000e-001 78393 -3.5774e+001  9.1911e-001  5.1852e+000 57468 78439,78240,78344
 5.0000e-001 78370 -2.9093e+001 -7.8463e+000  1.0292e+001 57468 78240,78292,78266
 5.0000e-001 78465 -3.4663e+001 -1.2529e+001 -1.3055e+000 57468 78318,78292,78439
 5.0000e-001 78488 -3.4542e+001 -5.0111e+000  1.0666e-001 57468 78318,78439,78344
 5.0000e-001 78689 -5.7232e+001 -9.3775e+000 -2.8606e-001 57014 78712,78539,78513
 5.0000e-001 78666 -5.0094e+001 -2.0537e+001 -6.3345e+000 57014 78712,78513,78617
 5.0000e-001 78643 -3.2787e+001 -1.7769e+001  5.6522e+000 57014 78565,78617,78591
 5.0000e-001 78738 -4.8209e+001  5.0151e+000  4.5002e+000 57014 78565,78539,78712
 5.0000e-001 78761 -4.6157e+001 -1.3554e+001 -2.2317e+000 57014 78565,78712,78617
 5.0000e-001 79241 -4.2608e+001 -6.9277e+000  4.1261e+000 56652 79264,78895,78869
 5.0000e-001 79218 -3.4293e+001 -2.1883e+000 -5.0080e-001 56652 79264,78869,79051
 5.0000e-001 79195 -4.3241e+001 -5.2104e+000 -3.8245e-001 56652 78869,79077,79051
 5.0000e-001 79172 -3.7877e+001 -1.2990e+001 -1.9512e+000 56652 78895,78973,78947
 5.0000e-001 79149 -2.7946e+001  3.4592e+000 -8.4306e+000 56652 78973,79051,78999
 5.0000e-001 79126 -3.6886e+001  3.1064e+001 -6.9494e+000 56652 78895,78947,78921
 5.0000e-001 79103 -1.2019e+001  3.6324e+001 -1.4821e+001 56652 78999,79051,79025
 5.0000e-001 79290 -3.4282e+001 -1.2191e+001 -7.1723e-001 56652 78973,78895,79264
 5.0000e-001 79313 -2.3458e+001 -4.0211e+000 -6.2173e+000 56652 78973,79264,79051
 5.0000e-001 79512 -1.1930e+002 -4.3632e+001 -8.8645e+000 56062 79388,79440,79414
 5.0000e-001 79489 -8.8582e+001 -4.6770e+001 -4.1620e+000 56062 79336,79440,79388
 5.0000e-001 79466 -7.2539e+001 -5.2994e+001 -1.5815e+000 56062 79336,79388,79362
 5.0000e-001 79941 -2.1741e+001  3.5737e+000  1.0342e+000 55658 79964,79670,79644
 5.0000e-001 79918 -2.1141e+001  5.6679e+000  4.1982e-001 55658 79964,79644,79800
 5.0000e-001 79895 -1.7941e+001  1.2474e+001  7.5439e+000 55658 80036,79696,79670
 5.0000e-001 79872 -1.8420e+001 -6.9908e+000  1.0625e+001 55658 80108,79722,79696
 5.0000e-001 79849 -8.0462e+000 -2.1305e-001 -1.1086e+000 55658 79722,79774,79748
 5.0000e-001 79826 -6.8812e+000  1.0791e+001 -4.8826e+000 55658 79618,79800,79644
 5.0000e-001 79990 -2.0879e+001  1.0258e+001  2.5750e+000 55658 80036,79670,79964
 5.0000e-001 80013 -3.2882e+001 -1.2401e+000 -5.4063e+000 55658 79774,79964,79800
 5.0000e-001 80062 -2.2473e+001  7.6351e-001  5.6823e+000 55658 80108,79696,80036
 5.0000e-001 80085 -1.9433e+001  3.9609e+000 -1.5614e+000 55658 79774,80036,79964
 5.0000e-001 80134 -9.5897e+000  3.0854e+000  6.6126e+000 55658 79774,79722,80108
 5.0000e-001 80157 -1.2093e+001  1.0670e+001  1.2338e+000 55658 79774,80108,80036
 5.0000e-001 80307 -1.0261e+001 -4.9741e-001 -1.8665e+000 55254 80402,80330,80206
 5.0000e-001 80284 -1.1899e+001 -1.8840e+000 -6.9667e-001 55254 80330,80180,80258
 5.0000e-001 80356 -8.9483e+000  2.2631e+000 -6.7148e+000 55254 80232,80206,80330
 5.0000e-001 80379 -2.0174e+001 -2.7427e+000 -8.6658e+000 55254 80232,80330,80258
 5.0000e-001 80428 -3.0460e+000  2.6058e-001 -1.1130e+000 55254 80180,80330,80402
 5.0000e-001 80659 -1.5798e+001  3.1955e+001  6.2155e+000 54850 80558,80610,80584
 5.0000e-001 80636 -7.9277e+000  2.9850e+001  1.2661e+000 54850 80532,80610,80558
 5.0000e-001 80760 -5.2629e+001  9.0798e+000  1.5755e+000 54652 80682,80734,80708
 5.0000e-001 81164 -5.0401e+001  1.3819e+001 -2.3380e+000 54248 81187,80942,80890
 5.0000e-001 81141 -4.8333e+001  2.0957e+001 -3.5296e+000 54248 81187,80890,81046
 5.0000e-001 81118 -3.7625e+001  1.4478e+001 -1.1473e+001 54248 80942,81020,80994
 5.0000e-001 81095 -4.8524e+001  1.5985e+001 -4.9816e-001 54248 80890,80942,80916
 5.0000e-001 81072 -4.6376e+001 -1.0625e+001 -1.2728e+000 54248 80942,80994,80968
 5.0000e-001 81213 -4.6742e+001  8.6282e+000 -3.6067e+000 54248 81020,80942,81187
 5.0000e-001 81236 -4.6419e+001  1.3492e+001 -4.3324e+000 54248 81020,81187,81046
 5.0000e-001 81663 -4.4472e+001  1.6818e+000  1.3891e+001 53594 81340,81444,81366
 5.0000e-001 81640 -2.8192e+001  3.4875e+000  5.0306e+000 53594 81340,81470,81444
 5.0000e-001 81617 -3.9201e+001 -3.3467e-002  2.8153e+000 53594 81340,81522,81470
 5.0000e-001 81594 -5.3539e+001  1.2084e+001  1.3379e+001 53594 81392,81444,81418
 5.0000e-001 81571 -5.4820e+001 -1.5292e+000  1.0849e+001 53594 81366,81444,81392
 5.0000e-001 81548 -1.9595e+000  5.3366e+000  3.9297e+000 53594 81470,81522,81496
 5.0000e-001 81943 -1.7266e+001 -3.6484e+000 -3.6741e-001 53104 81966,81845,81819
 5.0000e-001 81920 -1.7356e+001 -8.5357e+000 -5.9757e-001 53104 81966,81819,81767
 5.0000e-001 81897 -1.5655e+001 -6.1686e+000  1.5868e+000 53104 81767,81819,81793
 5.0000e-001 81992 -1.7248e+001 -8.1548e+000 -1.0923e+000 53104 81871,81845,81966
 5.0000e-001 82015 -1.8509e+001 -1.4865e+001 -1.1500e+000 53104 81871,81966,81767
 5.0000e-001 82491 -4.6363e+001  1.1809e+001 -9.2317e+000 52650 82145,82249,82171
 5.0000e-001 82468 -4.0490e+001  9.9085e+000 -4.6401e+000 52650 82145,82301,82249
 5.0000e-001 82445 -3.9791e+001  2.7305e+001  1.5249e-001 52650 82249,82301,82275
 5.0000e-001 82422 -3.4404e+001  1.4532e+000 -6.0625e+000 52650 82119,82301,82145
 5.0000e-001 82399 -6.1278e+001  2.0210e+000 -1.3681e+001 52650 82171,82249,82223
 5.0000e-001 82376 -3.5112e+001  3.2808e-001  6.2017e+000 52650 82119,82327,82301
 5.0000e-001 82353 -9.3504e+001  3.6546e+001 -4.8797e+001 52650 82171,82223,82197
 5.0000e-001 82739 -3.8005e+001 -6.5779e+000 -1.9544e+000 52246 82762,82540,82514
 5.0000e-001 82716 -4.4837e+001 -1.0350e+001  4.3470e-001 52246 82762,82514,82644
 5.0000e-001 82693 -4.9179e+001 -5.1426e+000 -7.4537e+000 52246 82540,82618,82592
 5.0000e-001 82670 -1.4869e+001 -6.2645e+000 -1.6395e+000 52246 82540,82592,82566
 5.0000e-001 82788 -4.4206e+001 -9.8345e-001 -5.3387e+000 52246 82618,82540,82762
 5.0000e-001 82811 -5.1224e+001 -4.1118e+000 -4.4064e+000 52246 82618,82762,82644
 5.0000e-001 83059 -3.0715e+001 -6.5825e-001  5.0942e+000 51578 82860,82964,82938
 5.0000e-001 83036 -3.0482e+001  4.7396e-001  1.3354e+000 51578 82834,82964,82860
 5.0000e-001 83013 -3.3455e+001  1.6419e+001  1.3163e+001 51578 82860,82938,82886
 5.0000e-001 82990 -1.9361e+001  4.9008e+001  1.5138e+001 51578 82886,82938,82912
 5.0000e-001 83309 -1.3103e+001  4.2879e+001  1.2608e+001 51138 83332,83162,83136
 5.0000e-001 83286 -1.7038e+001  3.2838e+001  7.2667e+000 51138 83332,83136,83110
 5.0000e-001 83263 -2.0058e+001  2.6753e+001  4.0156e+000 51138 83404,83214,83188
 5.0000e-001 83240 -1.0527e+001  2.2269e+001  1.8537e+001 51138 83084,83214,83110
 5.0000e-001 83358 -1.0739e+001  3.5937e+001  4.5532e+000 51138 83188,83162,83332
 5.0000e-001 83381 -1.9073e+001  3.0650e+001  1.2607e+000 51138 83404,83188,83332
 5.0000e-001 83430 -2.1994e+001  1.5117e+001  1.0627e+001 51138 83110,83214,83404
 5.0000e-001 83453 -1.7407e+001  2.2108e+001  7.1315e+000 51138 83110,83404,83332
 5.0000e-001 83835 -4.7508e+001 -1.1661e+001 -4.8720e+000 50734 83613,83717,83691
 5.0000e-001 83812 -3.2758e+001  2.3026e+001 -3.7771e+000 50734 83561,83717,83613
 5.0000e-001 83789 -4.5336e+001  2.9654e+001 -1.4018e+000 50734 83561,83613,83587
 5.0000e-001 83766 -2.7990e+001  9.9508e+000  3.2938e+000 50734 83613,83691,83639
 5.0000e-001 83743 -2.3002e+001  2.3708e+001  8.6203e+000 50734 83639,83691,83665
 5.0000e-001 84034 -3.6464e+001  1.9945e+001 -1.8818e+001 50230 84057,83884,83858
 5.0000e-001 84011 -3.9236e+001  1.9174e+001 -9.6059e+000 50230 84129,84057,83858
 5.0000e-001 83988 -4.9633e+001  1.6030e+001 -6.2807e+000 50230 84129,83858,83962
 5.0000e-001 84083 -6.4563e+001  1.2059e+001 -2.9296e+001 50230 83910,83884,84057
 5.0000e-001 84106 -4.5904e+001  4.8251e+001 -2.2311e+001 50230 83910,84057,83936
 5.0000e-001 84155 -5.4207e+001  2.1426e+001 -9.7852e+000 50230 83936,84057,84129
 5.0000e-001 84178 -5.8971e+001  2.2443e+001 -6.2688e+000 50230 83936,84129,83962
 5.0000e-001 84558 -3.4399e+001  6.3812e+000  4.5776e+000 49768 84581,84388,84362
 5.0000e-001 84535 -2.0921e+001  7.0961e+000  1.0184e+000 49768 84581,84362,84310
 5.0000e-001 84512 -4.6118e+001  6.6655e+000  5.8283e+000 49768 84653,84440,84414
 5.0000e-001 84489 -9.5975e+000  6.2615e+000  1.0611e+001 49768 84310,84362,84336
 5.0000e-001 84466 -2.7020e+001  1.6115e+001  2.9970e+001 49768 84284,84440,84310
 5.0000e-001 84607 -3.7493e+001  6.9065e+000  6.0800e+000 49768 84414,84388,84581
 5.0000e-001 84630 -4.0582e+001  8.7231e+000  3.6253e+000 49768 84653,84414,84581
 5.0000e-001 84679 -3.8577e+001  1.2141e+000  8.1048e+000 49768 84310,84440,84653
 5.0000e-001 84702 -3.2833e+001  2.9606e+000  7.3992e+000 49768 84310,84653,84581
 5.0000e-001 85159 -1.2563e+001 -5.6221e+000  5.1159e+000 49192 84885,84937,84911
 5.0000e-001 85136 -1.2507e+001 -9.6665e+000  3.5250e+000 49192 84885,85041,84937
 5.0000e-001 85113 -5.7016e+000 -1.2908e+001 -2.2089e+000 49192 84963,85041,84989
 5.0000e-001 85090 -6.6254e+000 -1.0513e+001  6.6880e+000 49192 84937,85041,84963
 5.0000e-001 85067 -1.5264e+001 -1.4071e+001 -3.9159e+000 49192 84989,85041,85015
 5.0000e-001 85714 -5.4709e+001 -2.9758e+000  1.0324e+001 48638 85368,85498,85394
 5.0000e-001 85691 -5.0404e+001  6.6077e+000  8.4764e+000 48638 85368,85524,85498
 5.0000e-001 85668 -2.6989e+001  8.3778e+000 -1.1934e+001 48638 85737,85420,85394
 5.0000e-001 85645 -3.9937e+001  1.0651e+001 -5.0102e-001 48638 85737,85394,85498
 5.0000e-001 85622 -5.8357e+001  1.4532e+001 -7.2758e+000 48638 85446,85498,85472
 5.0000e-001 85599 -7.2873e+001 -1.1951e+001  3.3959e+001 48638 85342,85524,85368
 5.0000e-001 85576 -8.6980e+001 -1.1137e+000  2.3956e+001 48638 85342,85550,85524
 5.0000e-001 85763 -4.6455e+001 -2.4749e-001 -1.3493e+001 48638 85446,85420,85737
 5.0000e-001 85786 -4.7517e+001  7.0738e+000 -1.6394e+000 48638 85446,85737,85498
 5.0000e-001 86371 -4.3208e+001 -4.7450e+000  4.8051e+000 48084 86100,86230,86178
 5.0000e-001 86348 -5.0851e+001 -4.1682e+000  2.8946e+000 48084 86048,86230,86100
 5.0000e-001 86325 -5.3026e+001 -8.5370e+000  6.2819e+000 48084 86100,86178,86126
 5.0000e-001 86302 -3.1132e+001  4.1681e+001  8.4733e+000 48084 86048,86100,86074
 5.0000e-001 86279 -3.1316e+001  1.3646e+001 -3.4441e-001 48084 86178,86230,86204
 5.0000e-001 86256 -5.8241e+001 -8.5879e+000  5.1080e+000 48084 86126,86178,86152
 5.0000e-001 86619 -3.9445e+001  2.9014e+001 -3.2680e+001 47630 86642,86446,86420
 5.0000e-001 86596 -7.3000e+000  3.8162e+001 -4.3955e+001 47630 86642,86420,86394
 5.0000e-001 86573 -2.6512e+001  2.3510e+001 -1.2881e+001 47630 86394,86524,86498
 5.0000e-001 86550 -1.8072e+001 -3.3819e+001 -9.8274e+000 47630 86446,86498,86472
 5.0000e-001 86668 -4.2840e+001  1.7767e+001 -4.3158e+000 47630 86498,86446,86642
 5.0000e-001 86691 -1.4053e+001  2.8936e+001 -1.6485e+001 47630 86498,86642,86394
 5.0000e-001 87022 -1.0093e+001  2.6612e+001  2.7690e+000 47226 87045,86875,86849
 5.0000e-001 86999 -1.4372e+001  3.1848e+001  2.7544e-001 47226 87045,86849,86797
 5.0000e-001 86976 -2.3473e+001  2.0421e+001  9.2818e+000 47226 86797,86849,86823
 5.0000e-001 86953 -2.1129e-001  4.2129e+001 -8.4446e+000 47226 86875,86927,86901
 5.0000e-001 87071 -4.6992e+000  2.9216e+001  5.9697e-001 47226 86927,86875,87045
 5.0000e-001 87094 -1.0400e+001  3.2896e+001 -8.5882e-001 47226 86927,87045,86797
 5.0000e-001 87244 -2.4225e+001  1.3238e+001 -4.3887e+000 46814 87267,87169,87143
 5.0000e-001 87221 -2.0722e+001  2.2077e+001 -3.5269e+000 46814 87267,87143,87117
 5.0000e-001 87293 -2.7136e+001  6.6016e+000 -8.4115e+000 46814 87339,87267,87195
 5.0000e-001 87316 -1.4019e+001  2.4751e+001 -1.3984e+001 46814 87469,87267,87117
 5.0000e-001 87365 -1.8884e+001  1.1598e+001 -5.0205e+000 46814 87169,87267,87339
 5.0000e-001 87495 -3.0191e+001 -7.5303e+000 -6.4879e+000 46814 87195,87267,87469
 5.0000e-001 88001 -4.6358e+001 -1.1359e+001 -4.7389e+000 46310 88024,87834,87808
 5.0000e-001 87978 -4.2160e+001 -9.5970e+000 -4.5885e+000 46310 88024,87808,87756
 5.0000e-001 87955 -3.8188e+001 -1.2003e+001 -2.7518e+000 46310 88096,87730,87860
 5.0000e-001 87932 -2.9834e+001 -4.4047e+000 -3.2884e-001 46310 87756,87808,87782
 5.0000e-001 87909 -3.4835e+001  1.1502e+001 -4.6467e+000 46310 87678,87860,87730
 5.0000e-001 87886 -4.3113e+001  3.1667e+000  1.4679e+000 46310 87678,87730,87704
 5.0000e-001 88050 -4.6539e+001 -1.1049e+001  1.0088e-001 46310 87860,87834,88024
 5.0000e-001 88073 -3.9380e+001 -9.2977e+000 -8.4997e-001 46310 88096,87860,88024
 5.0000e-001 88122 -4.0910e+001 -1.3187e+001 -3.0736e+000 46310 87756,87730,88096
 5.0000e-001 88145 -4.4372e+001 -1.2053e+001 -2.0426e+000 46310 87756,88096,88024
 5.0000e-001 88572 -8.1629e+001 -2.0083e+001 -2.6358e+000 45856 88249,88405,88275
 5.0000e-001 88549 -8.6405e+001  3.6367e+001 -2.3875e+001 45856 88249,88431,88405
 5.0000e-001 88526 -5.6360e+001 -1.6451e+001  1.0669e+001 45856 88327,88405,88353
 5.0000e-001 88503 -5.3659e+001  1.1072e+001  1.4316e+001 45856 88275,88405,88327
 5.0000e-001 88480 -5.0902e+001  1.0573e+000  1.5495e+001 45856 88353,88405,88379
 5.0000e-001 88457 -6.7694e+001 -4.1161e+001  1.8687e+001 45856 88275,88327,88301
 5.0000e-001 88950 -2.1033e+001  6.7906e+000  5.9593e-001 45658 88973,88754,88728
 5.0000e-001 88927 -1.5363e+001 -3.1762e-001  9.7752e-001 45658 88973,88728,88676
 5.0000e-001 88904 -2.0466e+000  3.3496e+000  5.5492e+000 45658 88676,88832,88806
 5.0000e-001 88881 -1.4625e+001  2.7468e-003 -1.1354e+000 45658 88676,88728,88702
 5.0000e-001 88858 -1.2031e+001  1.0538e+001  2.1187e+001 45658 88754,88806,88780
 5.0000e-001 88999 -2.6587e+001  2.2047e+000  3.2183e+000 45658 88806,88754,88973
 5.0000e-001 89022 -1.9206e+001 -2.1318e+000  2.3081e+000 45658 88806,88973,88676
 5.0000e-001 89351 -2.4358e+001  1.9923e+001 -7.6887e-001 45254 89152,89230,89204
 5.0000e-001 89328 -2.6300e+001  2.1160e+001  6.2473e+000 45254 89152,89256,89230
 5.0000e-001 89305 -1.7481e+001  2.2569e+001  5.5295e+000 45254 89126,89256,89152
 5.0000e-001 89282 -1.4412e+001  2.9632e+001 -5.0936e+000 45254 89152,89204,89178
 5.0000e-001 89523 -3.8670e+001  3.6008e+000  6.4742e-001 45006 89422,89474,89448
 5.0000e-001 89500 -3.9857e+001  3.0896e+000 -3.0431e-001 45006 89396,89474,89422
 5.0000e-001 89673 -3.7309e+001  1.8788e+001 -1.0839e+000 44495 89572,89624,89598
 5.0000e-001 89650 -4.0239e+001  2.2265e+001 -1.0918e+001 44495 89546,89624,89572
 5.0000e-001 90104 -6.2382e+001 -1.9175e+001 -1.3057e+001 44005 90199,90127,89937
 5.0000e-001 90081 -5.0787e+001 -2.1628e+001 -7.8821e+000 44005 90271,90127,89859
 5.0000e-001 90058 -6.2908e+001 -2.1148e+001 -1.3724e+001 44005 90199,89937,89885
 5.0000e-001 90035 -5.8744e+001 -2.2888e+001 -3.7626e+000 44005 90271,89859,89807
 5.0000e-001 90012 -5.6749e+001  7.8334e-002 -1.3293e+001 44005 89885,89937,89911
 5.0000e-001 89989 -6.4509e+001 -1.5526e+001 -1.1713e+001 44005 89807,89859,89833
 5.0000e-001 90153 -6.7405e+001 -2.1948e+001 -1.4999e+001 44005 89963,89937,90127
 5.0000e-001 90176 -6.0260e+001 -6.5141e+000 -1.2719e+001 44005 89963,90127,89781
 5.0000e-001 90225 -5.4981e+001 -2.4541e+001 -1.4057e+001 44005 89859,90127,90199
 5.0000e-001 90248 -6.0878e+001 -3.1341e+001 -1.6657e+001 44005 89859,90199,89885
 5.0000e-001 90297 -6.2471e+001 -2.1923e+001 -5.5609e+000 44005 89781,90127,90271
 5.0000e-001 90320 -6.7555e+001 -2.1166e+001 -1.3683e+000 44005 89781,90271,89807
 5.0000e-001 90470 -3.3846e+001  1.4890e+001  2.1452e+000 43601 90493,90369,90343
 5.0000e-001 90447 -3.8568e+001  2.0037e+001  5.7353e+000 43601 90493,90343,90421
 5.0000e-001 90519 -4.0780e+001  6.6154e+000 -1.0692e+000 43601 90395,90369,90493
 5.0000e-001 90542 -4.0555e+001  1.6720e+001  3.7974e+000 43601 90395,90493,90421
 5.0000e-001 90922 -3.7619e+001  1.4488e+001 -5.1868e+000 43154 90945,90700,90674
 5.0000e-001 90899 -3.1404e+001  1.6453e+001 -8.4316e+000 43154 90945,90674,90648
 5.0000e-001 90876 -3.0357e+001  2.0872e+001 -5.5433e+000 43154 90648,90778,90752
 5.0000e-001 90853 -4.8141e+001  1.7163e+000 -5.5489e+000 43154 90700,90752,90726
 5.0000e-001 90830 -2.3526e+001  1.6119e+001  1.0821e+000 43154 90648,90804,90778
 5.0000e-001 90971 -3.7144e+001  1.1642e+001 -1.3410e+000 43154 90752,90700,90945
 5.0000e-001 90994 -3.2222e+001  1.4106e+001 -4.6288e+000 43154 90752,90945,90648
 5.0000e-001 91451 -2.5507e+001  4.3845e+000  5.1523e+000 42650 91203,91255,91229
 5.0000e-001 91428 -5.9166e+000  1.2790e+001 -4.7630e+000 42650 91203,91333,91255
 5.0000e-001 91405 -3.8859e-001 -6.6065e+000 -9.2752e+000 42650 91177,91333,91203
 5.0000e-001 91382 -1.3385e+001 -5.0030e+000 -2.8068e+000 42650 91255,91333,91281
 5.0000e-001 91359 -1.1353e+001 -3.9165e+000 -3.2185e+000 42650 91281,91333,91307
 5.0000e-001 91721 -3.4974e+001  1.2075e+001  1.8351e+000 42288 91496,91600,91522
 5.0000e-001 91698 -2.8324e+001  2.7538e+001  1.2865e+000 42288 91496,91626,91600
 5.0000e-001 91675 -2.1580e+001  1.7981e+001 -5.2572e-001 42288 91522,91574,91548
 5.0000e-001 91652 -2.9525e+001  1.4081e+001  1.7617e+000 42288 91522,91600,91574
 5.0000e-001 92199 -2.4993e+001  1.1420e+001 -5.9553e+000 41898 92222,91983,91879
 5.0000e-001 92176 -2.5046e+001  2.2305e+001 -1.6767e+000 41898 92294,92222,91879
 5.0000e-001 92153 -2.2730e+001  2.1184e+001  5.0722e-002 41898 92294,91879,91853
 5.0000e-001 92130 -3.8387e+001 -2.6882e+000 -3.6577e-001 41898 91879,91957,91931
 5.0000e-001 92107 -3.4951e+001  6.5419e+000 -1.0031e+000 41898 91879,91983,91957
 5.0000e-001 92084 -1.7851e+001  1.8151e-001 -1.8331e+001 41898 91879,91931,91905
 5.0000e-001 92061 -2.7858e+001  1.5776e+001 -5.7429e-001 41898 91827,92035,91853
 5.0000e-001 92248 -2.5086e+001  2.5578e+001 -9.0456e+000 41898 92009,91983,92222
 5.0000e-001 92271 -2.6735e+001  2.8188e+001  1.1802e+000 41898 92009,92222,92035
 5.0000e-001 92320 -2.8937e+001  2.0588e+001 -1.2472e+000 41898 92035,92222,92294
 5.0000e-001 92343 -2.7204e+001  1.9215e+001  3.9283e-001 41898 92035,92294,91853
 5.0000e-001 92770 -2.0959e+001  1.2247e+001 -1.0615e+001 41437 92865,92793,92525
 5.0000e-001 92747 -1.6593e+001  1.8150e+001 -1.1704e+001 41437 92793,92473,92629
 5.0000e-001 92724 -6.0349e+000  1.9741e+000 -1.8997e+001 41437 92865,92525,92499
 5.0000e-001 92701 -2.2717e+001  1.5942e+000 -8.9065e+000 41437 92525,92603,92577
 5.0000e-001 92678 -1.5920e+001  4.1887e+001 -9.6799e-001 41437 92447,92629,92473
 5.0000e-001 92655 -6.4441e+001 -9.5863e+000 -1.1786e+001 41437 92525,92577,92551
 5.0000e-001 92819 -2.1363e+001  1.1265e+001 -7.2036e+000 41437 92603,92525,92793
 5.0000e-001 92842 -2.4396e+001  1.1476e+001 -1.7698e+001 41437 92603,92793,92629
 5.0000e-001 92891  4.0568e+000  1.7458e+001 -7.3656e+000 41437 92473,92793,92865
 5.0000e-001 92914  2.1651e+001  9.6059e+000 -1.7822e+001 41437 92473,92865,92499
 5.0000e-001 93243 -2.8022e+001 -5.0897e+000  2.8017e+000 41097 93044,93096,93070
 5.0000e-001 93220 -1.9768e+001  1.8481e+001  2.0648e+000 41097 93044,93122,93096
 5.0000e-001 93197 -4.4475e+001 -5.4372e+000  1.1991e+001 41097 93044,93148,93122
 5.0000e-001 93174 -5.7012e+001  8.5843e+000  2.1740e+001 41097 93018,93148,93044
 5.0000e-001 93393 -5.7388e+001  1.0734e+001  2.4375e-001 40643 93416,93292,93344
 5.0000e-001 93370 -4.3492e+001  2.8093e+001  6.4301e+000 40643 93266,93344,93292
 5.0000e-001 93442 -4.3908e+001  1.6961e+001  1.7965e+000 40643 93318,93292,93416
 5.0000e-001 93901 -2.4396e+001  1.2596e+001 -4.6376e+000 40132 93924,93731,93705
 5.0000e-001 93878 -1.0535e+001  2.1433e+001  5.8221e-001 40132 93996,93924,93705
 5.0000e-001 93855 -1.1502e+001  1.8087e+001  8.6195e+000 40132 93996,93705,93653
 5.0000e-001 93832  4.0765e+001  1.2281e+001  4.7515e+000 40132 93653,93705,93679
 5.0000e-001 93809 -1.5330e+001  2.1081e+001  7.1837e+000 40132 93627,93783,93757
 5.0000e-001 93950 -3.2484e+001  1.9864e+001  6.7943e-001 40132 93757,93731,93924
 5.0000e-001 93973 -2.3894e+001  2.6357e+001  3.5476e+000 40132 93757,93924,93627
 5.0000e-001 94022 -2.7479e+001  1.4423e+001  7.9118e-001 40132 93627,93924,93996
 5.0000e-001 94045 -1.8578e+001  1.4931e+001  7.5102e+000 40132 93627,93996,93653
 5.0000e-001 94423 -3.1405e+001  2.1704e+001 -2.7305e+000 39514 94149,94227,94175
 5.0000e-001 94400 -4.0711e+001 -1.7486e+000 -4.7277e+000 39514 94149,94305,94227
 5.0000e-001 94377 -5.6920e+001  2.5875e+001  3.1842e+000 39514 94175,94227,94201
 5.0000e-001 94354 -3.5493e+001  2.6615e+000 -2.6119e+000 39514 94227,94305,94279
 5.0000e-001 94331 -2.1850e+001  8.0638e+000 -4.9462e+000 39514 94227,94279,94253
 5.0000e-001 94573  3.4992e+001  5.2006e+000  1.8896e+001 38822 94596,94498,94472
 5.0000e-001 94550  2.6189e+001  3.4984e+001 -4.9241e+000 38822 94596,94472,94446
 5.0000e-001 94622  4.6532e+001  1.2895e+001 -1.2256e+001 38822 94524,94498,94596
 5.0000e-001 94645  6.0148e+001  6.6101e+001 -3.8591e+001 38822 94524,94596,94446
 5.0000e-001 95025 -3.6200e+001  2.8109e+001 -6.0339e+000 38418 95048,94829,94777
 5.0000e-001 95002 -4.1935e+001  2.6877e+001 -5.0391e+000 38418 95120,95048,94777
 5.0000e-001 94979 -4.1024e+001  2.8685e+001 -4.5573e+000 38418 95120,94777,94751
 5.0000e-001 94956 -2.3931e+001  3.1651e+001 -1.5387e+001 38418 95192,94881,94855
 5.0000e-001 94933 -3.8614e+001  3.7023e+001 -7.2733e+000 38418 94777,94829,94803
 5.0000e-001 95074 -4.0905e+001  1.3093e+001 -3.3279e+000 38418 94855,94829,95048
 5.0000e-001 95097 -2.9381e+001  2.9146e+001 -1.0358e+001 38418 95192,94855,95048
 5.0000e-001 95146 -4.6461e+001  3.1213e+001 -3.8485e+000 38418 94907,95048,95120
 5.0000e-001 95169 -4.2841e+001  3.5422e+001 -2.2945e+000 38418 94907,95120,94751
 5.0000e-001 95218 -3.3968e+001  4.7841e+001 -1.6376e+001 38418 94907,94881,95192
 5.0000e-001 95241 -4.7461e+001  3.6368e+001 -8.9699e+000 38418 94907,95192,95048
 5.0000e-001 95511 -5.2938e+001  1.0171e+001  1.0014e+001 38049 95312,95390,95364
 5.0000e-001 95488 -2.6387e+001  2.2894e+001  5.0507e+000 38049 95312,95416,95390
 5.0000e-001 95465 -3.5290e+001  2.9986e+001  1.9312e+000 38049 95312,95364,95338
 5.0000e-001 95442 -3.8371e+001  2.2596e+001  2.5680e+000 38049 95286,95416,95312
 5.0000e-001 95808 -4.5522e+001  3.9866e+001  1.7447e+001 37437 95831,95586,95560
 5.0000e-001 95785 -7.0811e+001  1.1425e+001  5.1383e+000 37437 95831,95560,95534
 5.0000e-001 95762 -3.0517e+001  3.3927e-001 -2.7656e+000 37437 95586,95664,95638
 5.0000e-001 95739 -4.0663e+001  6.4604e+000 -2.9520e+001 37437 95534,95690,95664
 5.0000e-001 95716 -2.2799e+001 -3.7076e+000  1.9658e+000 37437 95586,95638,95612
 5.0000e-001 95857 -2.5091e+001  9.2047e+000  1.7893e+000 37437 95664,95586,95831
 5.0000e-001 95880 -5.3150e+001 -2.1527e+001 -1.1386e+001 37437 95664,95831,95534
 5.0000e-001 96390 -4.2343e+001 -9.9311e+000  1.2556e+001 36883 96413,96145,96093
 5.0000e-001 96367 -4.0685e+001 -1.2067e+001  1.4251e+000 36883 96413,96093,96067
 5.0000e-001 96344 -3.3936e+001 -2.3305e+001  2.3610e+000 36883 96067,96249,96171
 5.0000e-001 96321 -3.3842e+001  2.4406e+000  7.9987e+000 36883 96093,96145,96119
 5.0000e-001 96298 -3.1948e+001 -1.7311e+001 -1.5081e+000 36883 96171,96249,96197
 5.0000e-001 96275 -1.8481e+001 -1.5058e+001 -6.4914e-001 36883 96197,96249,96223
 5.0000e-001 96439 -4.9411e+001 -2.8081e+001  1.7192e+001 36883 96171,96145,96413
 5.0000e-001 96462 -4.3264e+001 -1.9207e+001  6.0053e+000 36883 96171,96413,96067
 5.0000e-001 96781 -3.9009e+001 -8.8264e+000 -4.6085e-001 36215 96559,96663,96637
 5.0000e-001 96758 -3.6948e+001 -1.8168e+001 -3.9635e+000 36215 96507,96663,96559
 5.0000e-001 96735 -3.6760e+001  1.9888e+001  2.7200e+000 36215 96585,96637,96611
 5.0000e-001 96712 -5.0969e+001 -8.1371e+000 -3.1614e+000 36215 96559,96637,96585
 5.0000e-001 96689 -3.1311e+001 -2.2972e+001 -6.4880e-001 36215 96507,96559,96533
 5.0000e-001 97161 -3.6173e+001 -8.9823e-001 -3.7193e+000 35818 97184,96965,96939
 5.0000e-001 97138 -3.1595e+001 -8.8706e+000  1.4184e+000 35818 97184,96939,96887
 5.0000e-001 97115 -3.4358e+001  7.5835e+000 -4.5257e+000 35818 96965,97043,97017
 5.0000e-001 97092 -2.5148e+001 -8.9422e+000 -2.7620e+000 35818 96887,96939,96913
 5.0000e-001 97069 -2.3415e+001  2.4830e+001  1.5977e+000 35818 96965,97017,96991
 5.0000e-001 97210 -4.2473e+001 -6.4836e+000 -1.0971e+000 35818 97043,96965,97184
 5.0000e-001 97233 -3.6837e+001 -1.3321e+001  3.7493e+000 35818 97043,97184,96887
 5.0000e-001 97739  2.0529e+001  2.0828e+001 -1.4225e+001 35214 97416,97468,97442
 5.0000e-001 97716  5.4040e+000  2.1895e+001  1.7861e+000 35214 97416,97598,97468
 5.0000e-001 97693 -1.3093e+001  1.4178e+001 -1.3095e+001 35214 97762,97520,97468
 5.0000e-001 97670 -8.3041e+000  1.9964e+001 -5.0473e+000 35214 97762,97468,97598
 5.0000e-001 97647 -2.5716e+001  3.9769e+001 -6.6219e+000 35214 97546,97598,97572
 5.0000e-001 97624 -2.5245e+001  1.3615e+001 -1.1358e+001 35214 97468,97520,97494
 5.0000e-001 97788 -1.0042e+001  2.4125e+001 -8.1714e+000 35214 97546,97520,97762
 5.0000e-001 97811 -8.2283e+000  2.8444e+001 -7.4553e-001 35214 97546,97762,97598
 5.0000e-001 98189 -1.2426e+001  1.2668e+001  9.2107e-001 34760 98356,98212,97967
 5.0000e-001 98166 -9.6425e+000  4.1914e+001 -5.7160e+000 34760 98284,98212,97941
 5.0000e-001 98143 -5.1390e+000  3.8757e+001 -8.1416e+000 34760 98284,97941,97915
 5.0000e-001 98120 -1.4391e+001  1.7269e+001  9.2215e-001 34760 98484,97993,97967
 5.0000e-001 98097 -5.1952e+000  2.5584e+001 -7.0640e+000 34760 98556,98045,98019
 5.0000e-001 98238 -1.0317e+001  1.6808e+001  1.8730e+000 34760 98484,97967,98212
 5.0000e-001 98261 -1.1044e+001  2.6750e+001 -4.1232e+000 34760 98556,98019,98212
 5.0000e-001 98310 -1.2477e+001  3.5407e+001 -4.7290e+000 34760 98071,98212,98284
 5.0000e-001 98333 -1.0627e+001  2.7287e+001 -6.5139e+000 34760 98071,98284,97915
 5.0000e-001 98382  5.5786e+000  4.0620e+001  1.1586e+001 34760 97941,98212,98356
 5.0000e-001 98510 -2.3602e+001  1.9420e+001  2.7729e+000 34760 98019,97993,98484
 5.0000e-001 98533 -1.5958e+001  2.1706e+001  4.2444e+000 34760 98019,98484,98212
 5.0000e-001 98582 -1.2696e+001  2.3400e+001 -7.7642e+000 34760 98071,98045,98556
 5.0000e-001 98605 -1.5279e+001  2.6740e+001 -4.4001e+000 34760 98071,98556,98212
 5.0000e-001 99032 -4.1509e+001 -2.0124e+001  8.2890e+000 34156 98735,98891,98839
 5.0000e-001 99009 -3.4416e+001 -1.0866e+001  1.7389e+001 34156 98709,98891,98735
 5.0000e-001 98986 -3.8923e+001 -1.2048e+000  5.9922e-001 34156 98735,98813,98787
 5.0000e-001 98963 -4.2550e+001 -6.8093e+000  3.9242e+000 34156 98735,98839,98813
 5.0000e-001 98940 -4.8284e+001  8.0290e-001 -2.2146e+000 34156 98735,98787,98761
 5.0000e-001 98917 -3.1399e+001  4.4407e+000  3.2992e+000 34156 98839,98891,98865
 5.0000e-001 99231 -5.9009e+001 -1.9210e+001  1.3320e+000 33766 99055,99133,99107
 5.0000e-001 99208 -7.2968e+001 -1.8279e+001  5.2272e+000 33766 99055,99159,99133
 5.0000e-001 99185 -4.8061e+001  5.8379e+000  4.3152e+000 33766 99055,99107,99081
 5.0000e-001 99818  2.3119e+000  2.2143e+001 -3.8174e+000 33248 99521,99651,99573
 5.0000e-001 99795 -2.3221e+001  7.8902e+000 -1.0952e+001 33248 99521,99677,99651
 5.0000e-001 99772 -2.9828e+000  1.1565e+001 -5.7033e+000 33248 99573,99651,99599
 5.0000e-001 99749 -7.8797e+000  2.9824e+001 -4.2220e+000 33248 99495,99677,99521
 5.0000e-001 99726 -1.1085e+000  6.4077e+000 -8.3374e+000 33248 99599,99651,99625
 5.0000e-001 99703  2.5761e-001  1.6289e+001 -2.5242e+000 33248 99521,99573,99547
 5.0000e-001 100196 -3.5143e+001  3.0519e+000  8.5061e+000 32794 100219,99948,99922
 5.0000e-001 100173 -4.0589e+001 -1.1215e+001 -9.0774e-001 32794 100219,99922,100052
 5.0000e-001 100150 -2.6755e+001 -1.0522e+001  1.3160e+001 32794 99974,100052,100026
 5.0000e-001 100127 -4.0887e+001 -8.0639e+000 -1.8918e+000 32794 99922,100078,100052
 5.0000e-001 100104 -2.7675e+001 -4.2857e+000  7.7989e+000 32794 99974,100026,100000
 5.0000e-001 100245 -2.4107e+001  1.6411e+001  2.4036e+001 32794 99974,99948,100219
 5.0000e-001 100268 -3.6964e+001 -6.8864e+000  1.3562e+001 32794 99974,100219,100052
 5.0000e-001 100418 -1.6914e+001  1.8694e+001 -9.2628e+000 32504 100571,100343,100317
 5.0000e-001 100395 -1.3709e+001  2.0334e+001 -1.6357e+001 32504 100571,100317,100441
 5.0000e-001 100467 -1.9103e+001  8.7005e-001 -7.9931e+000 32504 100291,100369,100441
 5.0000e-001 100597 -2.0441e+001  1.0827e+001 -8.5161e+000 32504 100369,100343,100571
 5.0000e-001 100620 -1.9776e+001  7.1740e+000 -1.4867e+001 32504 100369,100571,100441
 5.0000e-001 101020 -6.5709e+001 -5.3778e-001 -1.0625e+001 32142 100772,100902,100876
 5.0000e-001 100997 -3.9774e+001  2.1642e+001  1.7073e+000 32142 100746,100902,100772
 5.0000e-001 100974 -2.4631e+001  3.0670e+001  9.7208e+000 32142 101043,100824,100798
 5.0000e-001 100951 -5.0037e+001  1.2905e+001  1.9756e+000 32142 101043,100798,100772
 5.0000e-001 100928 -3.0769e+001  7.9450e+000 -6.9122e+000 32142 101115,100876,100850
 5.0000e-001 101069 -2.4442e+001  9.5305e+000  2.0668e+000 32142 100850,100824,101043
 5.0000e-001 101092 -2.9590e+001  4.2944e+000 -2.1765e+000 32142 101115,100850,101043
 5.0000e-001 101141 -2.8917e+001  1.5888e+001 -6.7701e+000 32142 100772,100876,101115
 5.0000e-001 101164 -2.6477e+001  1.4011e+001 -2.2257e+000 32142 100772,101115,101043
 5.0000e-001 101719 -2.5399e+001  4.7633e+000  4.6447e+000 31538 101742,101477,101399
 5.0000e-001 101696 -2.2915e+001  8.5500e-001  2.6013e+000 31538 101814,101742,101399
 5.0000e-001 101673 -1.9150e+001 -1.4073e+000  6.5634e+000 31538 101814,101399,101373
 5.0000e-001 101650 -5.9482e+001  1.2175e+001  2.5140e+001 31538 101425,101477,101451
 5.0000e-001 101627 -5.1742e+001 -1.2186e+001  1.2111e+001 31538 101399,101477,101425
 5.0000e-001 101604 -9.5125e+000 -2.6694e+000  8.5232e+000 31538 101477,101529,101503
 5.0000e-001 101581 -3.7865e+001  1.5332e+000  1.0062e+001 31538 101347,101555,101373
 5.0000e-001 101768 -2.2890e+001 -1.0578e+000  1.4110e+000 31538 101529,101477,101742
 5.0000e-001 101791 -3.0001e+001 -5.6921e+000 -3.5533e+000 31538 101529,101742,101555
 5.0000e-001 101840 -3.0897e+001 -7.2429e-001  2.9184e+000 31538 101555,101742,101814
 5.0000e-001 101863 -2.6475e+001 -2.7874e+000  6.4818e+000 31538 101555,101814,101373
 5.0000e-001 102111 -4.8323e+001 -2.3306e+001  2.0348e+000 31112 101886,101990,101912
 5.0000e-001 102088 -4.0816e+001 -1.3208e+001 -2.5963e+000 31112 101886,102016,101990
 5.0000e-001 102065 -4.3624e+001 -2.7040e+001  9.7363e+000 31112 101912,101990,101964
 5.0000e-001 102042 -3.4637e+001 -1.2700e+001  5.9073e+000 31112 101912,101964,101938
 5.0000e-001 102408  2.3489e+000  4.6734e+000  2.7220e+000 30658 102431,102186,102160
 5.0000e-001 102385 -1.4573e+000  1.0808e+000  5.2370e+000 30658 102431,102160,102264
 5.0000e-001 102362  4.9801e+000  4.9740e+000 -5.0028e+000 30658 102186,102238,102212
 5.0000e-001 102339  6.0251e+000  7.6072e+000  9.9202e+000 30658 102134,102264,102160
 5.0000e-001 102316 -1.8411e+001  5.6942e-001  4.5519e+000 30658 102134,102290,102264
 5.0000e-001 102457 -3.0738e+000  8.8349e+000  2.6956e+000 30658 102238,102186,102431
 5.0000e-001 102480 -6.5799e+000  5.6905e+000  5.1869e+000 30658 102238,102431,102264
 5.0000e-001 102681 -5.7181e+001 -1.9530e+001  1.0716e+001 30004 102704,102557,102505
 5.0000e-001 102658 -7.4415e+001  6.9346e+000 -1.2350e+000 30004 102704,102505,102609
 5.0000e-001 102635 -5.0895e+001 -1.0615e+001  6.3631e+000 30004 102505,102557,102531
 5.0000e-001 102730 -6.4178e+001 -3.3739e+001  8.0502e+000 30004 102583,102557,102704
 5.0000e-001 102753 -9.4167e+001 -2.2648e+001 -1.0753e+001 30004 102583,102704,102609
 5.0000e-001 103003 -4.4237e+001 -2.6503e+000  1.1457e+001 29564 103026,102804,102778
 5.0000e-001 102980 -4.3643e+001  7.7800e-001  1.2356e+001 29564 103026,102778,102908
 5.0000e-001 102957 -5.3071e+001 -1.3737e+001  6.3204e+000 29564 102856,102908,102882
 5.0000e-001 102934 -3.5012e+001 -4.7919e+000  8.2258e+000 29564 102804,102856,102830
 5.0000e-001 103052 -4.4713e+001 -4.4214e+000  9.1574e+000 29564 102856,102804,103026
 5.0000e-001 103075 -4.3726e+001 -1.5498e+000  1.0386e+001 29564 102856,103026,102908
 5.0000e-001 103634 -6.4416e+001  3.6641e+000  2.8412e+001 29160 103657,103418,103392
 5.0000e-001 103611 -6.5375e+001  4.6923e+000  6.3721e+000 29160 103657,103392,103314
 5.0000e-001 103588 -4.5741e+001  3.0045e+001 -2.2858e+000 29160 103314,103392,103366
 5.0000e-001 103565 -6.1964e+001  2.0361e+001  4.8164e+000 29160 103314,103366,103340
 5.0000e-001 103542 -4.1547e+001 -8.2794e+000 -2.6587e+000 29160 103262,103444,103314
 5.0000e-001 103519 -3.1646e+001  1.1670e+001  2.1133e+000 29160 103262,103314,103288
 5.0000e-001 103496 -4.0809e+001  4.9132e-001 -7.8711e+000 29160 103262,103470,103444
 5.0000e-001 103683 -3.7085e+001  1.6435e+001  3.1848e+001 29160 103444,103418,103657
 5.0000e-001 103706 -4.9118e+001  1.0981e+001  7.8811e+000 29160 103444,103657,103314
 5.0000e-001 104035 -3.6482e+001  1.4317e+000 -1.7904e+000 28770 103836,103914,103862
 5.0000e-001 104012 -2.1612e+001  7.6219e+000 -5.0423e-002 28770 103810,103914,103836
 5.0000e-001 103989 -5.0334e+001  2.6164e-001 -3.0677e+000 28770 103810,103940,103914
 5.0000e-001 103966 -2.8858e+001  2.5028e+001  1.2101e+000 28770 103862,103914,103888
 5.0000e-001 104185  2.5850e+000  3.4994e+001  7.5515e-001 28366 104208,104110,104084
 5.0000e-001 104162 -1.1827e+001  6.2468e+000 -4.0551e+000 28366 104280,104208,104084
 5.0000e-001 104234 -2.0081e+000  4.0225e+000 -2.2766e+000 28366 104610,104208,104136
 5.0000e-001 104257  2.6466e+000  1.5007e+001  1.0602e+000 28366 104538,104410,104208
 5.0000e-001 104306  1.1116e+000  1.4658e+001  1.1302e+000 28366 104538,104208,104280
 5.0000e-001 104436  3.3093e+000  1.2559e+001  9.1917e-002 28366 104136,104208,104410
 5.0000e-001 104564  9.9919e-001  1.5259e+001  2.0067e-001 28366 104058,104410,104538
 5.0000e-001 104587  1.0454e-001  1.5293e+001  1.4570e-001 28366 104058,104538,104280
 5.0000e-001 104636  3.7244e+000  8.6297e+000  7.1187e+000 28366 104110,104208,104610
 5.0000e-001 105349 -2.0968e+001  1.4424e+001  1.2543e+000 27976 105516,105372,105107
 5.0000e-001 105326 -1.5995e+001  2.1518e+001  1.9317e+000 27976 105588,105372,105055
 5.0000e-001 105303  1.2565e+001  2.8047e+001  1.1218e+001 27976 105444,105159,105133
 5.0000e-001 105280 -3.0883e+001  2.0448e+001 -4.0889e+000 27976 105516,105107,105081
 5.0000e-001 105257 -1.4834e+001  3.3760e+001 -1.2519e+000 27976 105588,105055,105029
 5.0000e-001 105234 -2.2200e+001  9.4082e+000  6.2419e+000 27976 105003,105185,105159
 5.0000e-001 105211 -1.1111e+001  1.0659e+001  5.5694e+000 27976 104977,105185,105003
 5.0000e-001 105398 -2.8186e+001  2.3828e+001  5.7286e+000 27976 105133,105107,105372
 5.0000e-001 105421 -1.0270e+001  3.1994e+001  7.9559e+000 27976 105444,105133,105372
 5.0000e-001 105470 -1.4252e+001  1.3789e+001  4.3501e+000 27976 105003,105159,105444
 5.0000e-001 105493 -2.5222e+001  2.5266e+001  1.6947e+000 27976 105003,105444,105372
 5.0000e-001 105542 -2.8150e+001  8.5872e+000 -5.3808e+000 27976 105055,105372,105516
 5.0000e-001 105565 -4.1555e+001  1.3786e+001 -1.0168e+001 27976 105055,105516,105081
 5.0000e-001 105614 -1.5497e+001  3.4025e+001 -4.5843e+000 27976 105003,105372,105588
 5.0000e-001 105637 -1.4273e+001  4.4580e+001 -8.5441e+000 27976 105003,105588,105029
 5.0000e-001 106143 -1.4279e+001  2.6652e+000  1.5798e+000 27664 106166,105846,105820
 5.0000e-001 106120 -8.7570e+000  3.7009e+000 -1.3570e+000 27664 106310,106166,105820
 5.0000e-001 106097 -3.4779e+000  6.2157e+000 -5.8015e+000 27664 106382,106238,105950
 5.0000e-001 106074 -1.1214e+001  3.4242e+000 -1.5531e+000 27664 106310,105820,106002
 5.0000e-001 106051 -2.3331e+000  3.8245e+000 -8.9960e+000 27664 106382,105950,105924
 5.0000e-001 106028  1.9896e+000  2.8171e+000  2.4722e+000 27664 105846,105898,105872
 5.0000e-001 106192 -5.0547e+000  6.3523e+000  1.7157e+000 27664 105898,105846,106166
 5.0000e-001 106215 -8.3385e+000  3.0442e+000 -3.6569e+000 27664 106238,105898,106166
 5.0000e-001 106264 -5.0872e+000  4.4704e+000 -4.2967e+000 27664 105976,105950,106238
 5.0000e-001 106287 -5.7178e+000  5.8909e+000 -4.8000e+000 27664 105976,106238,106166
 5.0000e-001 106336 -1.0957e+001  4.8588e+000 -3.3695e+000 27664 105976,106166,106310
 5.0000e-001 106359 -1.3744e+001  4.4142e+000 -3.4839e+000 27664 105976,106310,106002
 5.0000e-001 106408 -6.7071e+000 -5.6504e-001 -4.8770e+000 27664 105898,106238,106382
 5.0000e-001 106431 -4.6341e+000 -7.8449e-001 -8.2314e+000 27664 105898,106382,105924
 5.0000e-001 106728 -4.0249e+001  5.2758e+000 -9.3668e+000 27153 106751,106506,106454
 5.0000e-001 106705 -4.1165e+001 -4.8326e+000 -1.7578e+001 27153 106751,106454,106610
 5.0000e-001 106682 -3.8665e+001  2.4803e+001 -1.3183e+001 27153 106454,106506,106480
 5.0000e-001 106659 -1.3529e+001 -1.0942e+000 -1.2188e+000 27153 106532,106610,106584
 5.0000e-001 106636 -2.9142e+001 -5.9636e+000 -4.2889e+000 27153 106532,106584,106558
 5.0000e-001 106777 -3.1590e+001  2.1481e+001 -3.6014e+000 27153 106532,106506,106751
 5.0000e-001 106800 -3.7610e+001  4.4733e+000 -1.2619e+001 27153 106532,106751,106610
 5.0000e-001 107180 -7.9567e+000  5.8940e+001  1.7922e+001 26642 107203,106984,106958
 5.0000e-001 107157 -1.2799e+001  5.2692e+001  2.1492e+000 26642 107203,106958,106932
 5.0000e-001 107134  5.5225e-001  4.8334e+001 -1.0869e+000 26642 107275,107036,107010
 5.0000e-001 107111 -3.4848e+001  1.8939e+001  9.3775e+000 26642 106932,107062,107036
 5.0000e-001 107088 -3.2424e+001  2.3673e+001  2.1196e+001 26642 106906,107062,106932
 5.0000e-001 107229 -2.4137e+001  2.3673e+001  2.2045e+001 26642 107010,106984,107203
 5.0000e-001 107252 -3.2025e+000  5.5631e+001  4.8860e+000 26642 107275,107010,107203
 5.0000e-001 107301 -7.3138e+000  4.4680e+001 -2.0968e+000 26642 106932,107036,107275
 5.0000e-001 107324 -1.4460e+001  4.8509e+001  1.6491e+000 26642 106932,107275,107203
 5.0000e-001 107675 -3.7385e+001  1.9842e+001 -1.6225e+000 26045 107450,107554,107476
 5.0000e-001 107652 -4.1562e+001  2.5152e+001 -5.6194e+000 26045 107450,107580,107554
 5.0000e-001 107629 -8.4301e+001  5.6836e+000 -4.5789e+000 26045 107476,107528,107502
 5.0000e-001 107606 -5.2179e+001  9.5591e+000 -7.7037e+000 26045 107476,107554,107528
 5.0000e-001 107874 -5.0533e+001  3.4173e+001 -6.4190e+000 25641 107750,107802,107776
 5.0000e-001 107851 -5.3791e+001  1.0085e+001 -2.8528e+000 25641 107724,107802,107750
 5.0000e-001 107828 -2.9784e+001  2.3144e+001  2.5157e+000 25641 107698,107802,107724
 5.0000e-001 108431 -5.0560e+001  9.4379e+000 -1.5239e+000 25023 108526,108267,108241
 5.0000e-001 108408 -4.7253e+001  1.2398e+001  2.0251e+001 25023 108059,108267,108085
 5.0000e-001 108385 -3.8186e+001  1.0738e+001  5.8345e+000 25023 108454,108163,108111
 5.0000e-001 108362 -5.2477e+001  8.5533e+000  8.9881e+000 25023 108454,108111,108085
 5.0000e-001 108339 -3.2470e+001  3.6344e+000  8.7452e+000 25023 108111,108163,108137
 5.0000e-001 108316 -1.9040e+001  5.0088e+000 -2.4628e+000 25023 108163,108241,108215
 5.0000e-001 108293 -3.8535e+001 -7.8353e+000 -2.5906e+001 25023 108163,108215,108189
 5.0000e-001 108480 -3.1760e+001  1.4191e+001 -6.3938e+000 25023 108241,108163,108454
 5.0000e-001 108503 -4.6787e+001  7.5468e+000 -1.0092e+000 25023 108526,108241,108454
 5.0000e-001 108552 -4.6184e+001  1.0514e+001  5.3662e-001 25023 108085,108267,108526
 5.0000e-001 108575 -4.2195e+001  8.8959e+000  1.1513e+000 25023 108085,108526,108454
 5.0000e-001 108823 -6.7191e+001 -4.8713e+001 -9.2721e+000 24461 108624,108728,108650
 5.0000e-001 108800 -5.5268e+001 -2.8119e+001 -2.2980e+000 24461 108598,108728,108624
 5.0000e-001 108777 -3.0169e+001 -2.6339e+001  4.0774e+000 24461 108650,108728,108676
 5.0000e-001 108754 -3.4043e+001 -1.7876e+001 -2.4200e+000 24461 108676,108728,108702
 5.0000e-001 109022 -7.6677e+000  2.8614e+001  7.4551e-001 24121 108872,108924,108898
 5.0000e-001 108999 -1.3697e+001  3.1102e+001  5.7395e-001 24121 108846,108924,108872
 5.0000e-001 108976 -2.8214e+001  2.8081e+001 -7.0547e+000 24121 108846,108950,108924
 5.0000e-001 109483 -6.2681e+001  1.1008e+001  2.3966e+001 23717 109209,109339,109235
 5.0000e-001 109460 -3.8721e+001  3.6902e+001  1.2102e+001 23717 109209,109365,109339
 5.0000e-001 109437 -3.0968e+001  1.1727e+001  1.0533e+001 23717 109287,109339,109313
 5.0000e-001 109414 -2.7414e+001  2.5026e+001  2.1252e+001 23717 109235,109339,109287
 5.0000e-001 109391 -3.3412e+001  6.6313e-001  2.1427e+001 23717 109235,109287,109261
 5.0000e-001 109910 -7.1665e+000  2.8625e+001 -8.2174e-001 23305 109613,109743,109717
 5.0000e-001 109887 -1.2185e+001  2.4621e+001  8.9294e+000 23305 109613,109769,109743
 5.0000e-001 109864 -1.3567e+001  8.7684e+000  3.4430e+000 23305 109613,109717,109639
 5.0000e-001 109841 -1.9906e+001  3.6056e+001  3.1984e+000 23305 109587,109769,109613
 5.0000e-001 109818 -1.3857e+001  8.6754e+000  1.8126e+000 23305 109639,109717,109691
 5.0000e-001 109795 -1.5967e+001  7.5211e+000  2.2729e+000 23305 109639,109691,109665
 5.0000e-001 110180 -4.1908e+001 -2.3760e+000  1.4410e+000 22851 110007,110059,110033
 5.0000e-001 110157 -2.8574e+001  2.7925e+001  3.5405e+000 22851 109981,110059,110007
 5.0000e-001 110134 -3.7318e+001  2.6203e+001  3.7931e+000 22851 109955,110059,109981
 5.0000e-001 110111 -3.6763e+001  3.6899e+001  3.6374e+000 22851 109955,110085,110059
 5.0000e-001 110737 -8.9314e+000  7.9637e+000 -5.2497e+000 22333 110760,110469,110391
 5.0000e-001 110714 -2.2831e+001 -1.3510e+000 -1.1505e+000 22333 110760,110391,110365
 5.0000e-001 110691 -2.2882e+001  6.3947e+000 -1.0410e+001 22333 110832,110521,110469
 5.0000e-001 110668  5.8415e+000  9.8833e+000 -1.4529e+001 22333 110417,110469,110443
 5.0000e-001 110645 -8.9793e+000  3.8543e+000 -1.1471e+001 22333 110391,110469,110417
 5.0000e-001 110622 -2.1461e+001  2.0577e+001 -4.5773e+001 22333 110469,110521,110495
 5.0000e-001 110599  2.6259e+000  5.2491e+001 -1.5647e+001 22333 110365,110573,110547
 5.0000e-001 110786 -2.2505e+001  7.5256e+000 -9.5379e+000 22333 110832,110469,110760
 5.0000e-001 110809 -2.3124e+001  1.2333e+001 -3.6043e+000 22333 110547,110760,110365
 5.0000e-001 110858 -2.8529e+001  9.8943e+000 -8.9873e+000 22333 110547,110521,110832
 5.0000e-001 110881 -2.3565e+001  1.4245e+001 -6.8551e+000 22333 110547,110832,110760
 5.0000e-001 111308 -7.2757e+001 -3.2554e+000  2.1104e+001 21829 111331,111063,111011
 5.0000e-001 111285 -8.5576e+001  8.5737e-001  9.0857e+000 21829 111331,111011,111167
 5.0000e-001 111262 -6.1062e+001 -3.5907e+001  1.4250e+001 21829 111403,111089,111063
 5.0000e-001 111239 -6.0978e+001  4.6841e+001  2.4984e+001 21829 111011,111063,111037
 5.0000e-001 111216 -9.7613e+001  5.4159e+001 -1.9774e-001 21829 110985,111167,111011
 5.0000e-001 111193  9.5493e-001 -3.4907e-001 -3.8411e-001 21829 111089,111141,111115
 5.0000e-001 111357 -8.2973e+001 -1.5954e+001  1.5057e+001 21829 111403,111063,111331
 5.0000e-001 111380 -8.2559e+001 -1.8396e+001 -5.3278e+000 21829 111141,111331,111167
 5.0000e-001 111429  3.6924e+000 -6.2335e+000  6.9292e+000 21829 111141,111089,111403
 5.0000e-001 111452 -4.9168e+001 -1.0469e+000  6.0594e+000 21829 111141,111403,111331
 5.0000e-001 112056 -2.5409e+001  1.2471e+001  1.4634e+000 21489 111687,111765,111739
 5.0000e-001 112033 -9.2474e+000  1.1531e+001  3.1159e-001 21489 112151,112079,111687
 5.0000e-001 112010 -2.4498e+000  7.1462e+000  4.1799e+000 21489 111791,111843,111817
 5.0000e-001 111987 -6.0600e+000  1.0013e+001  2.3083e+000 21489 112079,111843,111791
 5.0000e-001 111964 -1.1868e+001  1.2913e+001 -1.6505e+000 21489 112151,111687,111661
 5.0000e-001 111941 -4.4799e+000  2.7062e+000 -6.5932e+000 21489 111661,111869,111843
 5.0000e-001 111918 -2.0860e+001  1.5274e+001 -8.7024e-002 21489 111687,111739,111713
 5.0000e-001 111895 -2.5765e+000  7.1288e+000 -7.4298e+000 21489 111635,111869,111661
 5.0000e-001 112105 -8.3493e+000  1.8882e+001  3.0442e+000 21489 111765,111687,112079
 5.0000e-001 112128 -1.3628e+001  1.1028e+001  5.3646e+000 21489 111765,112079,111791
 5.0000e-001 112177 -4.1797e+000  1.3582e+001  5.3135e-002 21489 111843,112079,112151
 5.0000e-001 112200 -7.1294e+000  1.4831e+001 -1.6748e+000 21489 111843,112151,111661
 5.0000e-001 112578 -3.0794e+001  1.6656e+001 -4.0770e+000 21177 112382,112434,112408
 5.0000e-001 112555 -2.6361e+001  2.7774e+001 -3.2168e+000 21177 112330,112434,112382
 5.0000e-001 112532 -4.1686e+001  1.4222e+001 -1.2887e+001 21177 112304,112434,112330
 5.0000e-001 112509 -3.4017e+001  2.0573e+001  0.0000e+000 21177 112330,112382,112356
 5.0000e-001 112486 -2.5482e+001  2.4152e+001 -1.7410e+001 21177 112304,112460,112434
 5.0000e-001 112679 -4.3045e+001  6.5250e+001  1.8700e+001 20666 112601,112653,112627
 5.0000e-001 112927 -4.8578e+001  2.1679e+000  4.1868e+000 19762 112702,112754,112728
 5.0000e-001 112904 -3.6960e+001  4.4219e+000  1.5133e+000 19762 112702,112832,112754
 5.0000e-001 112881 -3.7072e+001  3.2322e+000  9.7711e-001 19762 112754,112832,112806
 5.0000e-001 112858 -2.6123e+001  5.8842e+000  1.5968e+001 19762 112754,112806,112780
 5.0000e-001 113297 -2.9353e+001  3.4671e+001 -5.4901e+000 19308 112974,113052,113026
 5.0000e-001 113274 -3.3486e+001  2.3133e+001 -2.7692e+000 19308 112974,113156,113052
 5.0000e-001 113251 -3.2948e+001  3.8576e+001  7.2272e+000 19308 113052,113130,113104
 5.0000e-001 113228 -3.4912e+001  1.8539e+001 -2.2178e+000 19308 113052,113156,113130
 5.0000e-001 113205 -3.0214e+001  3.0340e+001  0.0000e+000 19308 113052,113104,113078
 5.0000e-001 113182 -3.7271e+001  3.1917e+001 -1.1162e+001 19308 112974,113026,113000
 5.0000e-001 113547 -3.1169e+001  3.3945e+001  2.1829e+000 18711 113570,113374,113348
 5.0000e-001 113524 -2.1391e+001  2.0171e+001 -2.0503e+000 18711 113570,113348,113452
 5.0000e-001 113501 -2.5618e+001  3.5355e+000  4.0037e+000 18711 113322,113452,113348
 5.0000e-001 113478 -3.4694e+001  2.6454e+001  1.5079e+001 18711 113374,113426,113400
 5.0000e-001 113596 -4.0559e+001  1.9832e+001  6.9932e+000 18711 113426,113374,113570
 5.0000e-001 113619 -2.6252e+001  1.0624e+001  2.3346e-001 18711 113426,113570,113452
 5.0000e-001 113771 -1.9650e+000  4.4581e+001  4.5649e+000 18307 113670,113722,113696
 5.0000e-001 113748 -2.5692e+000  3.0988e+001  1.3493e+000 18307 113644,113722,113670
 5.0000e-001 113972 -6.4338e+001  3.8552e+001  5.1351e+000 17945 113822,113874,113848
 5.0000e-001 113949 -3.5894e+001  3.9154e+001  1.1603e+000 17945 113822,113900,113874
 5.0000e-001 113926 -3.7316e+001  1.9882e+001 -1.3492e+001 17945 113796,113900,113822
 5.0000e-001 114075 -4.8378e+001  4.9564e+001 -9.9444e+000 17482 113997,114049,114023
 5.0000e-001 114479 -2.2252e+001  3.8764e+001  2.9192e+000 17042 114257,114361,114335
 5.0000e-001 114456 -2.4069e+001  3.5499e+001  3.6334e+000 17042 114205,114361,114257
 5.0000e-001 114433 -1.2052e+001  4.5868e+001 -9.0865e-001 17042 114205,114257,114231
 5.0000e-001 114410 -2.5486e+001  6.7968e+001  2.0189e+000 17042 114283,114335,114309
 5.0000e-001 114387 -1.9218e+001  5.0016e+001  3.1259e+000 17042 114257,114335,114283
 5.0000e-001 114879  2.1197e+001  2.2023e+001  5.7301e-001 16638 114631,114683,114657
 5.0000e-001 114856  1.7606e+001  2.0908e+001 -1.0239e+000 16638 114605,114683,114631
 5.0000e-001 114833  7.8901e+000  6.8265e+000  4.0903e+000 16638 114605,114761,114683
 5.0000e-001 114810  5.2596e+001  2.6585e+001 -1.2513e+001 16638 114683,114735,114709
 5.0000e-001 114787  5.9680e+000  2.6011e+001 -5.3997e+000 16638 114683,114761,114735
 5.0000e-001 115078 -1.5840e+002 -4.2956e+001  1.4386e+001 16232 114954,115006,114980
 5.0000e-001 115055 -9.5967e+001 -2.0946e+001 -1.8340e+000 16232 114928,115006,114954
 5.0000e-001 115032 -1.1508e+002 -3.3693e+001 -9.0441e+000 16232 114902,115006,114928
 5.0000e-001 115228  1.5909e+001  3.9857e+001  5.8124e+000 15482 115101,115153,115127
 5.0000e-001 115205 -2.4021e+001  3.5616e+001 -2.6887e+000 15482 115101,115179,115153
 5.0000e-001 115331 -1.5764e+001  2.2347e+001 -1.8210e+000 15163 115253,115305,115279
 5.0000e-001 115434  9.6875e+000  2.8838e+001 -1.1503e+001 421 115356,115408,115382
 6.0000e-001 68213 -3.4012e+000 -5.9644e+000  1.0127e+000 67888 68112,68164,68138
 6.0000e-001 68190  6.6892e+000 -4.6259e+000  3.2962e+000 67888 68086,68164,68112
 6.0000e-001 68314  3.3028e+000  4.2106e+000  3.8526e-001 67576 68236,68288,68262
 6.0000e-001 68584 -3.0600e+001 -8.1868e+000  1.0919e+000 67378 68385,68489,68463
 6.0000e-001 68561 -1.4682e+001 -1.2839e+000  1.8692e-001 67378 68359,68489,68385
 6.0000e-001 68538 -3.0487e+001 -4.8438e+000  1.1258e+000 67378 68385,68463,68411
 6.0000e-001 68515 -3.2882e+001  1.0677e+001  2.7630e+000 67378 68411,68463,68437
 6.0000e-001 68964 -2.0146e+001  1.4998e+001 -4.6131e+000 67130 68690,68820,68716
 6.0000e-001 68941 -2.3483e+001  2.9050e+001 -4.0881e+000 67130 68690,68846,68820
 6.0000e-001 68918 -5.0331e+001 -1.9849e+000  1.2310e+001 67130 68742,68820,68794
 6.0000e-001 68895 -4.6693e+001  6.2666e+000  6.1271e+000 67130 68716,68820,68742
 6.0000e-001 68872 -4.6868e+001  9.5565e+000  1.5934e+001 67130 68742,68794,68768
 6.0000e-001 69065 -2.5676e+000  2.5117e+000 -5.8563e+000 66926 68987,69039,69013
 6.0000e-001 69445 -2.9743e+000  3.2834e+000 -2.8461e+000 66614 69223,69301,69275
 6.0000e-001 69422 -1.3756e+000  1.5086e+000  8.5170e-001 66614 69171,69301,69223
 6.0000e-001 69399 -3.2649e-001  2.0865e+000  3.5639e-001 66614 69171,69327,69301
 6.0000e-001 69376 -5.5005e+000 -5.9082e-001 -1.5634e+000 66614 69223,69275,69249
 6.0000e-001 69353 -4.9150e+000  8.7229e-001 -1.2600e-001 66614 69171,69223,69197
 6.0000e-001 69546 -3.7612e+001  2.2497e+001 -1.3990e+001 66416 69468,69520,69494
 6.0000e-001 69997 -6.0639e+000  3.0572e+001  7.2305e-001 66104 69700,69830,69726
 6.0000e-001 69974 -2.2281e+000  2.2457e+001 -1.8634e+000 66104 69700,69856,69830
 6.0000e-001 69951  3.5183e+000  1.9324e+001  6.0163e+000 66104 69726,69804,69778
 6.0000e-001 69928 -1.1355e+001  2.1663e+001  3.2772e+000 66104 69726,69830,69804
 6.0000e-001 69905  1.5006e+000  1.5941e+001  3.9012e+000 66104 69726,69778,69752
 6.0000e-001 69882  1.5683e+001  1.6628e+001 -1.2559e+001 66104 69674,69856,69700
 6.0000e-001 70326 -5.6556e+000  2.3395e+001 -3.6370e+000 65814 70349,70153,70127
 6.0000e-001 70303 -6.4518e+000  2.8211e+001 -8.0810e+000 65814 70349,70127,70101
 6.0000e-001 70280  1.7445e-001  1.4059e+001 -1.9417e+001 65814 70101,70231,70205
 6.0000e-001 70257 -5.3341e+000  2.3391e+001  1.3542e+000 65814 70153,70205,70179
 6.0000e-001 70375 -7.0151e+000  1.5949e+001 -1.6891e+000 65814 70205,70153,70349
 6.0000e-001 70398 -5.6531e+000  2.2596e+001 -6.6726e+000 65814 70205,70349,70101
 6.0000e-001 70904 -2.6189e+001  5.6329e+000 -3.7194e+000 65502 70607,70737,70685
 6.0000e-001 70881 -3.7533e+001 -8.3565e+000  2.6310e+000 65502 70581,70737,70607
 6.0000e-001 70858 -3.2784e+001  1.6878e+000  1.2990e+000 65502 70581,70763,70737
 6.0000e-001 70835 -5.8007e+001 -6.1690e+000  2.8146e+000 65502 70685,70737,70711
 6.0000e-001 70812  2.2617e+001  1.0735e+001  4.3488e+000 65502 70607,70659,70633
 6.0000e-001 70789 -2.2107e+001  1.7663e+001  4.9314e+000 65502 70607,70685,70659
 6.0000e-001 71103 -9.5800e+000  1.5434e+001  6.1201e-001 65304 71126,70979,70953
 6.0000e-001 71080 -9.4525e+000  1.3910e+001  9.5262e-001 65304 71126,70953,70927
 6.0000e-001 71057 -2.6851e+000  2.3700e+001  9.5861e+000 65304 70927,71031,71005
 6.0000e-001 71152 -9.9802e+000  1.8234e+001  7.1732e-001 65304 71005,70979,71126
 6.0000e-001 71175 -1.0791e+001  1.5510e+001  1.2060e+000 65304 71005,71126,70927
 6.0000e-001 71374 -7.1214e+000  8.9263e+000  2.9676e+000 65106 71198,71276,71224
 6.0000e-001 71351 -2.7970e+001 -4.4986e-001 -7.8616e-001 65106 71198,71302,71276
 6.0000e-001 71328 -5.4624e+000  1.1850e+001 -1.8479e+000 65106 71224,71276,71250
 6.0000e-001 71756 -1.9477e+001  2.3691e+001  3.9282e+000 64652 71508,71638,71534
 6.0000e-001 71733 -4.4676e+001  1.2925e+001  6.2510e+000 64652 71482,71638,71508
 6.0000e-001 71710 -1.5613e+001  8.5480e+000 -5.6502e-001 64652 71534,71586,71560
 6.0000e-001 71687 -9.8391e+000  1.7065e+001 -3.5562e+000 64652 71534,71612,71586
 6.0000e-001 71664 -3.8956e+001  7.3908e+000 -3.8580e+000 64652 71534,71638,71612
 6.0000e-001 72085 -1.9197e+001  1.0145e+001  4.8313e+000 64248 71886,71964,71912
 6.0000e-001 72062 -2.2399e+001  8.9623e+000  4.9747e+000 64248 71860,71964,71886
 6.0000e-001 72039 -3.1631e+001  9.4094e+000  1.8877e+000 64248 71912,71964,71938
 6.0000e-001 72016 -1.8418e+001  2.1570e+001  2.6258e+000 64248 71860,71990,71964
 6.0000e-001 72235 -3.2461e+001  9.7313e+000  4.6360e+000 63858 72588,72258,72134
 6.0000e-001 72212 -2.2883e+001  3.7997e+000 -5.0126e+000 63858 72330,72258,72108
 6.0000e-001 72284 -1.8453e+001  1.3850e+001  8.1357e+000 63858 72160,72134,72258
 6.0000e-001 72307 -1.4279e+001  8.4195e+000  4.0783e+000 63858 72460,72258,72186
 6.0000e-001 72356 -9.0880e+000  1.1537e+001  5.4962e+000 63858 72186,72258,72330
 6.0000e-001 72486 -2.6187e+001 -3.0453e+000  1.0001e+001 63858 72160,72258,72460
 6.0000e-001 72614 -3.1655e+001  1.2733e+001 -2.7533e+000 63858 72108,72258,72588
 6.0000e-001 73248  7.8842e+000  1.3416e+001  8.7825e+000 63404 72902,72954,72928
 6.0000e-001 73225 -1.7025e+001  9.3339e+000 -2.4403e+000 63404 73271,72954,72902
 6.0000e-001 73202 -1.9418e+001  1.2993e+001 -8.3166e-001 63404 73271,72902,73032
 6.0000e-001 73179 -4.2407e+001  1.8062e+000  2.6571e+000 63404 72902,73058,73032
 6.0000e-001 73156 -2.1441e+001  2.4663e+001 -8.5114e+000 63404 72980,73032,73006
 6.0000e-001 73133 -4.4615e+001  2.2149e+001  1.0993e+001 63404 72876,73058,72902
 6.0000e-001 73110 -2.0975e+002 -3.1743e+001  2.4232e+001 63404 72876,73084,73058
 6.0000e-001 73297 -1.9263e+001  7.7585e+000 -3.8307e+000 63404 72980,72954,73271
 6.0000e-001 73320 -2.2082e+001  1.0480e+001 -2.2533e+000 63404 72980,73271,73032
 6.0000e-001 73470 -3.3922e+001  2.1481e+001  4.2621e+000 63014 73343,73395,73369
 6.0000e-001 73447 -4.6165e+001  1.3683e+001 -6.5208e-001 63014 73343,73421,73395
 6.0000e-001 73929 -1.0904e+001  1.3618e+001 -1.4288e+000 62702 73759,73811,73785
 6.0000e-001 73906 -1.1857e+001  1.3481e+001 -8.0389e-001 62702 73655,73811,73759
 6.0000e-001 73883 -9.4770e+000  1.4548e+001  3.2436e-001 62702 73655,73759,73681
 6.0000e-001 73860 -1.2909e+001  7.6037e+000  4.6840e+000 62702 73681,73759,73707
 6.0000e-001 73837 -1.7111e+000  1.2202e+001  1.2017e-001 62702 73707,73759,73733
 6.0000e-001 74209  3.8613e+000  9.8402e+000 -1.5092e+000 62404 74059,74137,74085
 6.0000e-001 74186  6.4176e+000  1.5884e+001 -4.3655e+000 62404 74033,74137,74059
 6.0000e-001 74163  5.4682e-001  5.1071e+000 -2.9804e+000 62404 74085,74137,74111
 6.0000e-001 74408 -2.1875e+001  6.6208e+000  1.3009e+000 62000 74258,74336,74284
 6.0000e-001 74385 -1.6760e+001  8.1311e+000 -2.5791e-001 62000 74232,74336,74258
 6.0000e-001 74362 -2.0313e+001  4.8700e+000  1.7228e+000 62000 74284,74336,74310
 6.0000e-001 74509 -5.5599e+001 -1.5124e+001 -1.4337e+001 61802 74431,74483,74457
 6.0000e-001 74759 -1.2153e+001 -1.1275e+000 -3.1318e+000 61554 74782,74586,74560
 6.0000e-001 74736 -1.6461e+001  2.7090e-001 -1.0474e+000 61554 74782,74560,74664
 6.0000e-001 74713 -1.0891e+001  2.4528e+000 -8.9164e+000 61554 74854,74612,74586
 6.0000e-001 74690 -1.6394e+001 -8.7964e-001 -5.7028e-001 61554 74534,74664,74560
 6.0000e-001 74808 -9.9490e+000  2.1384e+000 -4.1125e+000 61554 74854,74586,74782
 6.0000e-001 74831 -1.4137e+001  9.0247e+000 -2.3276e+000 61554 74638,74782,74664
 6.0000e-001 74880 -1.6964e+001  1.5740e+000 -7.9578e+000 61554 74638,74612,74854
 6.0000e-001 74903 -1.7389e+001 -2.0058e-001 -3.8843e+000 61554 74638,74854,74782
 6.0000e-001 75285 -3.1404e+001  2.2615e+000  1.0437e+001 61356 75063,75167,75115
 6.0000e-001 75262 -2.1882e+001  2.2920e+001  1.3094e+001 61356 75037,75167,75063
 6.0000e-001 75239 -5.5196e+001  1.1603e+001  1.0685e+001 61356 75115,75167,75141
 6.0000e-001 75216 -3.0427e+001  6.5803e+000  1.3247e+001 61356 75063,75115,75089
 6.0000e-001 75193 -3.0755e-001  7.4248e-001  8.8875e-001 61356 75011,75167,75037
 6.0000e-001 75631 -3.5279e+001 -8.1437e+000 -3.9951e+000 60952 75654,75412,75360
 6.0000e-001 75608 -4.5823e+001 -1.0044e+001 -5.2906e+000 60952 75654,75360,75334
 6.0000e-001 75585 -2.3644e+001  2.6700e+000 -4.2269e+000 60952 75726,75438,75412
 6.0000e-001 75562 -5.4274e+001 -2.8038e+001 -5.6581e-001 60952 75308,75490,75334
 6.0000e-001 75539 -3.6535e+001 -9.6866e+000 -1.5014e+000 60952 75360,75412,75386
 6.0000e-001 75516 -1.6474e+001 -1.3442e+000 -3.6705e+000 60952 75438,75490,75464
 6.0000e-001 75680 -2.8952e+001 -1.0611e+001 -6.6361e+000 60952 75726,75412,75654
 6.0000e-001 75703 -3.3273e+001 -1.8259e+001 -6.0157e+000 60952 75490,75654,75334
 6.0000e-001 75752 -2.1964e+001 -1.1636e+001 -1.3378e+000 60952 75490,75438,75726
 6.0000e-001 75775 -2.2323e+001 -1.1960e+001 -2.0314e+000 60952 75490,75726,75654
 6.0000e-001 76155 -1.4669e+001  1.1333e+001  6.9964e+000 60754 75933,75985,75959
 6.0000e-001 76132 -1.0287e+001  1.4499e+001 -9.5419e-001 60754 75933,76037,75985
 6.0000e-001 76109 -1.4132e+001  6.2914e+000  1.3040e+000 60754 75985,76037,76011
 6.0000e-001 76086 -1.3399e+001  4.4694e+000 -2.0286e+000 60754 75881,76037,75933
 6.0000e-001 76063 -1.1395e+001  3.6829e+000 -4.3215e+000 60754 75881,75933,75907
 6.0000e-001 76612 -2.6722e+001  2.3909e+001 -4.5377e+000 60350 76635,76442,76390
 6.0000e-001 76589 -1.7320e+001  2.1230e+001 -1.9765e+000 60350 76635,76390,76364
 6.0000e-001 76566 -1.5112e+001  3.0559e+001  7.1173e+000 60350 76364,76494,76468
 6.0000e-001 76543 -1.4101e+001  2.4374e+001 -2.0621e+001 60350 76390,76442,76416
 6.0000e-001 76520 -1.3822e+000  2.1447e+001  1.1586e+001 60350 76338,76494,76364
 6.0000e-001 76661 -3.2538e+001  2.2593e+001 -4.0436e+000 60350 76468,76442,76635
 6.0000e-001 76684 -2.6078e+001  1.8005e+001 -1.3908e+000 60350 76468,76635,76364
 6.0000e-001 76932 -1.2118e+001 -2.5809e+000  2.2481e+000 59946 76955,76733,76707
 6.0000e-001 76909 -9.1784e+000  4.1608e+000  1.6698e+000 59946 77027,76955,76707
 6.0000e-001 76886 -6.1548e+000  5.7759e+000  4.9638e-001 59946 77027,76707,76837
 6.0000e-001 76863 -3.9992e+000 -2.5742e+000 -4.5631e+000 59946 76733,76785,76759
 6.0000e-001 76981 -1.0698e+001  6.7691e-001 -1.8484e+000 59946 76785,76733,76955
 6.0000e-001 77004 -1.0018e+001 -2.6610e-001 -6.3810e-001 59946 76785,76955,76811
 6.0000e-001 77053 -4.4390e+000  1.5263e+000 -1.2257e+000 59946 76811,76955,77027
 6.0000e-001 77076 -1.0078e+000  4.8854e+000 -2.9965e+000 59946 76811,77027,76837
 6.0000e-001 77226 -3.7849e+001  5.1619e+001 -3.3344e+000 59542 77099,77151,77125
 6.0000e-001 77203 -3.8773e+001  3.1078e+001 -1.3129e+001 59542 77099,77177,77151
 6.0000e-001 77427 -2.0351e+001  2.6971e+000 -3.5784e+000 59030 77450,77277,77251
 6.0000e-001 77404 -2.2461e+001 -2.2752e+000 -3.3713e+000 59030 77450,77251,77355
 6.0000e-001 77381 -1.6571e+001  9.9674e+000 -5.4617e+000 59030 77277,77329,77303
 6.0000e-001 77476 -2.2054e+001  3.9296e+000 -1.6982e+000 59030 77329,77277,77450
 6.0000e-001 77499 -2.3007e+001  1.2051e+000 -1.6332e+000 59030 77329,77450,77355
 6.0000e-001 77749 -4.9482e+001  6.4895e+000  5.7649e+000 58426 77772,77628,77602
 6.0000e-001 77726 -4.0520e+001  4.6677e-001  1.1005e+001 58426 77524,77654,77628
 6.0000e-001 77703 -3.3063e+001  6.8506e+000 -1.2449e-001 58426 77772,77602,77550
 6.0000e-001 77680 -3.2943e+001  7.9031e+000 -7.7324e+000 58426 77550,77602,77576
 6.0000e-001 77798 -3.1035e+001  7.9564e+000  6.7522e+000 58426 77524,77628,77772
 6.0000e-001 77821 -2.3216e+001  3.3040e+000 -1.3820e+000 58426 77524,77772,77550
 6.0000e-001 78071 -1.4946e+000  3.8961e+000 -3.4841e+000 57922 78094,77924,77898
 6.0000e-001 78048 -1.4509e+000  7.1573e+000 -5.0896e+000 57922 78094,77898,77872
 6.0000e-001 78025 -8.0201e+000  1.7949e+000 -7.7490e+000 57922 78166,77846,77950
 6.0000e-001 78002 -1.4000e+001  2.0893e+000 -8.7891e+000 57922 77846,77976,77950
 6.0000e-001 78120  1.0786e+001  3.5947e+000 -8.6235e+000 57922 77950,77924,78094
 6.0000e-001 78143  2.1908e-001  3.6007e+000 -1.0700e+001 57922 78166,77950,78094
 6.0000e-001 78192 -1.6728e+001  2.4505e+000 -7.2700e-001 57922 77872,77846,78166
 6.0000e-001 78215 -7.0526e+000  2.9311e+000 -2.3501e+000 57922 77872,78166,78094
 6.0000e-001 78416 -2.1972e+001 -4.2861e+000  5.1879e+000 57468 78439,78292,78240
 6.0000e-001 78393 -2.0391e+001  4.9084e+000  4.0432e+000 57468 78439,78240,78344
 6.0000e-001 78370 -1.7901e+001 -3.2310e+000  7.8913e+000 57468 78240,78292,78266
 6.0000e-001 78465 -1.9376e+001 -6.0057e+000 -1.0430e+000 57468 78318,78292,78439
 6.0000e-001 78488 -1.8647e+001 -1.0651e-001 -4.1248e-001 57468 78318,78439,78344
 6.0000e-001 78689 -4.0632e+001 -5.5007e+000  2.2946e-001 57014 78712,78539,78513
 6.0000e-001 78666 -3.4829e+001 -1.3501e+001 -4.5413e+000 57014 78712,78513,78617
 6.0000e-001 78643 -2.0139e+001 -1.0355e+001  4.5132e+000 57014 78565,78617,78591
 6.0000e-001 78738 -3.3402e+001  4.3513e+000  3.6963e+000 57014 78565,78539,78712
 6.0000e-001 78761 -3.1055e+001 -8.5505e+000 -1.7848e+000 57014 78565,78712,78617
 6.0000e-001 79241 -2.5485e+001 -8.3333e-001  2.9071e+000 56652 79264,78895,78869
 6.0000e-001 79218 -1.9089e+001  3.3964e+000 -5.7673e-001 56652 79264,78869,79051
 6.0000e-001 79195 -2.5068e+001  9.9139e-001 -1.3145e-001 56652 78869,79077,79051
 6.0000e-001 79172 -2.1666e+001 -5.2674e+000 -3.2738e+000 56652 78895,78973,78947
 6.0000e-001 79149 -1.3119e+001  8.8417e+000 -6.6186e+000 56652 78973,79051,78999
 6.0000e-001 79126 -2.1075e+001  2.9382e+001 -7.1637e+000 56652 78895,78947,78921
 6.0000e-001 79103 -1.2202e+000  3.3141e+001 -1.1701e+001 56652 78999,79051,79025
 6.0000e-001 79290 -1.8997e+001 -5.3175e+000 -1.1211e+000 56652 78973,78895,79264
 6.0000e-001 79313 -1.0598e+001  1.7033e+000 -5.3198e+000 56652 78973,79264,79051
 6.0000e-001 79512 -9.4957e+001 -3.0558e+001 -8.3972e+000 56062 79388,79440,79414
 6.0000e-001 79489 -6.6910e+001 -3.2347e+001 -3.8607e+000 56062 79336,79440,79388
 6.0000e-001 79466 -5.3823e+001 -3.8033e+001 -1.8554e+000 56062 79336,79388,79362
 6.0000e-001 79941 -1.7754e+001  1.3722e+000 -2.1534e+000 55658 79964,79670,79644
 6.0000e-001 79918 -1.4841e+001  9.7745e-002 -2.2764e+000 55658 79964,79644,79800
 6.0000e-001 79895 -1.4209e+001  7.2720e+000  3.2686e+000 55658 80036,79696,79670
 6.0000e-001 79872 -1.4129e+001 -6.3981e+000  6.7099e+000 55658 80108,79722,79696
 6.0000e-001 79849 -6.0038e+000 -8.3327e-001 -2.3483e-001 55658 79722,79774,79748
 6.0000e-001 79826 -7.3191e+000  2.4333e+000 -7.0311e+000 55658 79618,79800,79644
 6.0000e-001 79990 -1.4534e+001  6.3939e+000 -4.9671e-001 55658 80036,79670,79964
 6.0000e-001 80013 -1.7417e+001 -7.1078e-001 -3.6073e+000 55658 79774,79964,79800
 6.0000e-001 80062 -1.7535e+001 -8.5784e-001  2.7653e+000 55658 80108,79696,80036
 6.0000e-001 80085 -1.4649e+001  3.5453e-001 -2.7644e+000 55658 79774,80036,79964
 6.0000e-001 80134 -6.8969e+000  6.7814e-001  3.7962e+000 55658 79774,79722,80108
 6.0000e-001 80157 -8.9538e+000  6.3162e+000 -4.2012e-001 55658 79774,80108,80036
 6.0000e-001 80307 -2.4086e+000 -1.2015e+000 -2.3097e+000 55254 80402,80330,80206
 6.0000e-001 80284 -4.4126e+000 -3.3738e-002 -1.7925e+000 55254 80330,80180,80258
 6.0000e-001 80356 -1.0312e+000  1.8024e+000 -5.5590e+000 55254 80232,80206,80330
 6.0000e-001 80379 -7.2968e+000 -7.5248e-001 -4.4401e+000 55254 80232,80330,80258
 6.0000e-001 80428 -4.1501e+000  2.4691e-001 -1.9280e+000 55254 80180,80330,80402
 6.0000e-001 80659 -4.4096e+000  3.3069e+001  4.5255e+000 54850 80558,80610,80584
 6.0000e-001 80636  1.0553e+000  3.1223e+001  6.8986e-001 54850 80532,80610,80558
 6.0000e-001 80760 -4.0004e+001 -1.8611e+000  1.0374e+000 54652 80682,80734,80708
 6.0000e-001 81164 -3.8892e+001  2.5328e+000 -2.0460e+000 54248 81187,80942,80890
 6.0000e-001 81141 -3.6373e+001  5.5332e+000 -3.1255e+000 54248 81187,80890,81046
 6.0000e-001 81118 -2.9271e+001  4.1017e+000 -8.2581e+000 54248 80942,81020,80994
 6.0000e-001 81095 -3.8328e+001  1.9405e+000 -5.8984e-001 54248 80890,80942,80916
 6.0000e-001 81072 -3.6992e+001 -1.3636e+001 -1.0016e+000 54248 80942,80994,80968
 6.0000e-001 81213 -3.5718e+001 -6.6337e-002 -2.5511e+000 54248 81020,80942,81187
 6.0000e-001 81236 -3.4113e+001  1.7565e+000 -3.2284e+000 54248 81020,81187,81046
 6.0000e-001 81663 -2.9675e+001  7.3474e+000  1.1637e+001 53594 81340,81444,81366
 6.0000e-001 81640 -1.5523e+001  9.3093e+000  3.9633e+000 53594 81340,81470,81444
 6.0000e-001 81617 -2.4365e+001  6.4428e+000  2.2742e+000 53594 81340,81522,81470
 6.0000e-001 81594 -3.7497e+001  1.6536e+001  1.0795e+001 53594 81392,81444,81418
 6.0000e-001 81571 -3.8898e+001  4.6332e+000  8.5157e+000 53594 81366,81444,81392
 6.0000e-001 81548  7.9296e+000  1.1247e+001  3.1425e+000 53594 81470,81522,81496
 6.0000e-001 81943 -8.9170e+000 -3.7034e+000 -7.4921e-001 53104 81966,81845,81819
 6.0000e-001 81920 -8.8626e+000 -6.1485e+000 -8.2562e-001 53104 81966,81819,81767
 6.0000e-001 81897 -7.9333e+000 -4.6654e+000  1.2698e-001 53104 81767,81819,81793
 6.0000e-001 81992 -8.9915e+000 -5.7983e+000 -1.0296e+000 53104 81871,81845,81966
 6.0000e-001 82015 -9.5182e+000 -9.1475e+000 -9.9754e-001 53104 81871,81966,81767
 6.0000e-001 82491 -2.8711e+001  1.6579e+001 -9.9202e+000 52650 82145,82249,82171
 6.0000e-001 82468 -2.5459e+001  1.3627e+001 -5.1927e+000 52650 82145,82301,82249
 6.0000e-001 82445 -2.4949e+001  2.9771e+001 -6.1094e-001 52650 82249,82301,82275
 6.0000e-001 82422 -2.1044e+001  7.4882e+000 -6.2252e+000 52650 82119,82301,82145
 6.0000e-001 82399 -4.4806e+001  7.1943e+000 -1.3778e+001 52650 82171,82249,82223
 6.0000e-001 82376 -2.1166e+001  6.7654e+000  3.7906e+000 52650 82119,82327,82301
 6.0000e-001 82353 -7.1675e+001  3.7133e+001 -4.4039e+001 52650 82171,82223,82197
 6.0000e-001 82739 -2.7020e+001 -2.7383e+000 -1.8543e+000 52246 82762,82540,82514
 6.0000e-001 82716 -3.2270e+001 -5.9742e+000  2.2732e-002 52246 82762,82514,82644
 6.0000e-001 82693 -3.6803e+001 -2.9158e+000 -6.9224e+000 52246 82540,82618,82592
 6.0000e-001 82670 -4.4818e+000 -3.8647e+000 -1.5270e+000 52246 82540,82592,82566
 6.0000e-001 82788 -3.1806e+001  1.7029e+000 -4.4720e+000 52246 82618,82540,82762
 6.0000e-001 82811 -3.7032e+001 -7.8250e-001 -3.6571e+000 52246 82618,82762,82644
 6.0000e-001 83059 -1.8362e+001  3.6650e+000  4.1168e+000 51578 82860,82964,82938
 6.0000e-001 83036 -1.8647e+001  3.7244e+000 -5.0771e-001 51578 82834,82964,82860
 6.0000e-001 83013 -1.9542e+001  1.6053e+001  9.9577e+000 51578 82860,82938,82886
 6.0000e-001 82990 -8.1834e+000  4.3879e+001  1.0403e+001 51578 82886,82938,82912
 6.0000e-001 83309 -6.4017e+000  4.1460e+001  1.0381e+001 51138 83332,83162,83136
 6.0000e-001 83286 -1.0585e+001  3.1367e+001  5.0346e+000 51138 83332,83136,83110
 6.0000e-001 83263 -9.6123e+000  2.6299e+001  3.8345e+000 51138 83404,83214,83188
 6.0000e-001 83240 -3.1098e+000  2.0878e+001  1.2877e+001 51138 83084,83214,83110
 6.0000e-001 83358 -5.5115e+000  3.3862e+001  4.2647e+000 51138 83188,83162,83332
 6.0000e-001 83381 -9.9951e+000  3.0048e+001  9.1479e-001 51138 83404,83188,83332
 6.0000e-001 83430 -1.2286e+001  1.5550e+001  7.8849e+000 51138 83110,83214,83404
 6.0000e-001 83453 -1.0010e+001  2.2024e+001  4.4906e+000 51138 83110,83404,83332
 6.0000e-001 83835 -3.2605e+001 -3.5956e+000 -3.9545e+000 50734 83613,83717,83691
 6.0000e-001 83812 -2.0544e+001  2.4608e+001 -3.8777e+000 50734 83561,83717,83613
 6.0000e-001 83789 -3.2499e+001  3.1640e+001 -1.7217e+000 50734 83561,83613,83587
 6.0000e-001 83766 -1.6321e+001  1.3464e+001  2.7049e+000 50734 83613,83691,83639
 6.0000e-001 83743 -1.2048e+001  2.5420e+001  7.7341e+000 50734 83639,83691,83665
 6.0000e-001 84034 -2.6724e+001  1.9310e+001 -1.6830e+001 50230 84057,83884,83858
 6.0000e-001 84011 -2.9110e+001  1.8936e+001 -8.4334e+000 50230 84129,84057,83858
 6.0000e-001 83988 -3.9304e+001  1.6560e+001 -5.2587e+000 50230 84129,83858,83962
 6.0000e-001 84083 -5.1339e+001  1.2244e+001 -2.5568e+001 50230 83910,83884,84057
 6.0000e-001 84106 -3.5415e+001  4.3353e+001 -1.9729e+001 50230 83910,84057,83936
 6.0000e-001 84155 -4.3754e+001  2.0184e+001 -8.9429e+000 50230 83936,84057,84129
 6.0000e-001 84178 -4.8319e+001  2.1958e+001 -5.4346e+000 50230 83936,84129,83962
 6.0000e-001 84558 -2.3437e+001  1.0602e+001  4.1059e+000 49768 84581,84388,84362
 6.0000e-001 84535 -1.2950e+001  1.1194e+001  1.3712e+000 49768 84581,84362,84310
 6.0000e-001 84512 -3.2814e+001  1.0965e+001  4.9951e+000 49768 84653,84440,84414
 6.0000e-001 84489 -2.5974e+000  1.0235e+001  1.0192e+001 49768 84310,84362,84336
 6.0000e-001 84466 -1.6566e+001  1.9783e+001  2.5643e+001 49768 84284,84440,84310
 6.0000e-001 84607 -2.5590e+001  1.1068e+001  5.1545e+000 49768 84414,84388,84581
 6.0000e-001 84630 -2.8437e+001  1.2322e+001  3.2643e+000 49768 84653,84414,84581
 6.0000e-001 84679 -2.6818e+001  6.8266e+000  6.8200e+000 49768 84310,84440,84653
 6.0000e-001 84702 -2.2160e+001  8.1039e+000  6.3125e+000 49768 84310,84653,84581
 6.0000e-001 85159 -4.1191e+000 -3.4563e+000  1.7181e+000 49192 84885,84937,84911
 6.0000e-001 85136 -6.4653e+000 -5.3789e+000  3.5478e+000 49192 84885,85041,84937
 6.0000e-001 85113 -4.4898e+000 -1.0125e+001  3.1043e-001 49192 84963,85041,84989
 6.0000e-001 85090 -4.4198e+000 -7.6484e+000  4.7770e+000 49192 84937,85041,84963
 6.0000e-001 85067 -9.9736e+000 -9.0604e+000 -2.2583e+000 49192 84989,85041,85015
 6.0000e-001 85714 -4.2907e+001  1.3994e+000  8.7545e+000 48638 85368,85498,85394
 6.0000e-001 85691 -3.9785e+001  9.6533e+000  7.4265e+000 48638 85368,85524,85498
 6.0000e-001 85668 -1.9762e+001  9.9461e+000 -1.0218e+001 48638 85737,85420,85394
 6.0000e-001 85645 -3.0699e+001  1.2768e+001 -3.3551e-001 48638 85737,85394,85498
 6.0000e-001 85622 -4.6796e+001  1.6153e+001 -6.7158e+000 48638 85446,85498,85472
 6.0000e-001 85599 -5.7493e+001 -5.3518e+000  2.8503e+001 48638 85342,85524,85368
 6.0000e-001 85576 -6.7455e+001  3.1249e+000  2.0870e+001 48638 85342,85550,85524
 6.0000e-001 85763 -3.6474e+001  2.3934e+000 -1.2092e+001 48638 85446,85420,85737
 6.0000e-001 85786 -3.7245e+001  9.1646e+000 -1.7340e+000 48638 85446,85737,85498
 6.0000e-001 86371 -3.1750e+001 -6.3634e-001  4.2208e+000 48084 86100,86230,86178
 6.0000e-001 86348 -3.8480e+001  5.5684e-001  2.6370e+000 48084 86048,86230,86100
 6.0000e-001 86325 -4.0173e+001 -3.8483e+000  5.6594e+000 48084 86100,86178,86126
 6.0000e-001 86302 -2.1970e+001  3.8961e+001  6.7326e+000 48084 86048,86100,86074
 6.0000e-001 86279 -2.1837e+001  1.5588e+001  5.2634e-002 48084 86178,86230,86204
 6.0000e-001 86256 -4.5929e+001 -5.2080e+000  4.1339e+000 48084 86126,86178,86152
 6.0000e-001 86619 -2.9472e+001  2.3842e+001 -2.7065e+001 47630 86642,86446,86420
 6.0000e-001 86596 -3.3291e+000  3.1454e+001 -3.5837e+001 47630 86642,86420,86394
 6.0000e-001 86573 -1.9024e+001  2.1436e+001 -1.0919e+001 47630 86394,86524,86498
 6.0000e-001 86550 -1.1996e+001 -2.7762e+001 -8.8201e+000 47630 86446,86498,86472
 6.0000e-001 86668 -3.1981e+001  1.5198e+001 -4.1048e+000 47630 86498,86446,86642
 6.0000e-001 86691 -8.6449e+000  2.4292e+001 -1.3595e+001 47630 86498,86642,86394
 6.0000e-001 87022 -1.7003e+000  2.7069e+001  1.8077e+000 47226 87045,86875,86849
 6.0000e-001 86999 -5.0360e+000  3.1660e+001 -1.6401e-001 47226 87045,86849,86797
 6.0000e-001 86976 -1.3287e+001  2.2046e+001  8.6088e+000 47226 86797,86849,86823
 6.0000e-001 86953  5.5483e+000  3.8746e+001 -9.1162e+000 47226 86875,86927,86901
 6.0000e-001 87071  2.7040e+000  2.9655e+001  1.6051e-002 47226 86927,86875,87045
 6.0000e-001 87094 -1.8650e+000  3.2857e+001 -1.1264e+000 47226 86927,87045,86797
 6.0000e-001 87244 -1.3838e+001  1.2967e+001 -4.3242e+000 46814 87267,87169,87143
 6.0000e-001 87221 -1.1110e+001  2.1098e+001 -3.9061e+000 46814 87267,87143,87117
 6.0000e-001 87293 -1.4095e+001  1.0813e+001 -6.0352e+000 46814 87339,87267,87195
 6.0000e-001 87316 -6.0895e+000  2.3110e+001 -1.1124e+001 46814 87469,87267,87117
 6.0000e-001 87365 -1.0103e+001  1.2932e+001 -5.0066e+000 46814 87169,87267,87339
 6.0000e-001 87495 -1.7822e+001 -1.0639e+000 -5.6522e+000 46814 87195,87267,87469
 6.0000e-001 88001 -3.7265e+001 -9.7498e+000 -3.6395e+000 46310 88024,87834,87808
 6.0000e-001 87978 -3.4275e+001 -8.2842e+000 -4.7704e+000 46310 88024,87808,87756
 6.0000e-001 87955 -3.2247e+001 -1.1363e+001 -2.7419e+000 46310 88096,87730,87860
 6.0000e-001 87932 -2.3763e+001 -4.6696e+000 -1.2214e+000 46310 87756,87808,87782
 6.0000e-001 87909 -2.9186e+001  3.6939e+000 -3.2963e+000 46310 87678,87860,87730
 6.0000e-001 87886 -3.2747e+001  3.5695e+000  7.5031e-001 46310 87678,87730,87704
 6.0000e-001 88050 -3.8177e+001 -1.1329e+001 -8.7333e-002 46310 87860,87834,88024
 6.0000e-001 88073 -3.2819e+001 -8.5157e+000 -1.3757e+000 46310 88096,87860,88024
 6.0000e-001 88122 -3.4021e+001 -1.2646e+001 -3.3744e+000 46310 87756,87730,88096
 6.0000e-001 88145 -3.6566e+001 -1.1431e+001 -2.6505e+000 46310 87756,88096,88024
 6.0000e-001 88572 -6.6199e+001 -1.4533e+001 -2.8502e+000 45856 88249,88405,88275
 6.0000e-001 88549 -6.9285e+001  3.2982e+001 -2.0783e+001 45856 88249,88431,88405
 6.0000e-001 88526 -4.4290e+001 -1.2249e+001  8.4202e+000 45856 88327,88405,88353
 6.0000e-001 88503 -4.1794e+001  1.2304e+001  1.1705e+001 45856 88275,88405,88327
 6.0000e-001 88480 -3.9880e+001  2.2397e+000  1.2703e+001 45856 88353,88405,88379
 6.0000e-001 88457 -5.4641e+001 -3.4327e+001  1.5759e+001 45856 88275,88327,88301
 6.0000e-001 88950 -1.7073e+001  5.1468e+000  2.0689e-001 45658 88973,88754,88728
 6.0000e-001 88927 -1.4395e+001 -1.2763e+000 -6.3501e-002 45658 88973,88728,88676
 6.0000e-001 88904 -2.2935e+000  6.8450e-001  3.2900e+000 45658 88676,88832,88806
 6.0000e-001 88881 -1.3487e+001 -2.1483e-002 -1.3922e+000 45658 88676,88728,88702
 6.0000e-001 88858 -8.8650e+000  7.4337e+000  1.5272e+001 45658 88754,88806,88780
 6.0000e-001 88999 -2.0250e+001  2.4865e-001  1.5753e+000 45658 88806,88754,88973
 6.0000e-001 89022 -1.5820e+001 -3.5900e+000  6.1730e-001 45658 88806,88973,88676
 6.0000e-001 89351 -1.5586e+001  2.1507e+001 -6.9054e-001 45254 89152,89230,89204
 6.0000e-001 89328 -1.7111e+001  2.2656e+001  5.4348e+000 45254 89152,89256,89230
 6.0000e-001 89305 -8.9087e+000  2.3922e+001  4.7320e+000 45254 89126,89256,89152
 6.0000e-001 89282 -6.4168e+000  3.0591e+001 -4.6782e+000 45254 89152,89204,89178
 6.0000e-001 89523 -3.6191e+001 -4.7307e+000  1.5013e-001 45006 89422,89474,89448
 6.0000e-001 89500 -3.8051e+001 -5.5307e+000 -1.3411e+000 45006 89396,89474,89422
 6.0000e-001 89673 -2.5742e+001  2.1378e+001 -8.5586e-001 44495 89572,89624,89598
 6.0000e-001 89650 -2.8411e+001  2.3887e+001 -9.1981e+000 44495 89546,89624,89572
 6.0000e-001 90104 -5.1505e+001 -1.5243e+001 -1.1635e+001 44005 90199,90127,89937
 6.0000e-001 90081 -4.1679e+001 -1.7475e+001 -7.1020e+000 44005 90271,90127,89859
 6.0000e-001 90058 -5.1488e+001 -1.7414e+001 -1.2312e+001 44005 90199,89937,89885
 6.0000e-001 90035 -4.8411e+001 -1.8600e+001 -3.6232e+000 44005 90271,89859,89807
 6.0000e-001 90012 -4.5850e+001 -6.8509e-001 -1.1387e+001 44005 89885,89937,89911
 6.0000e-001 89989 -5.2658e+001 -1.2527e+001 -1.0059e+001 44005 89807,89859,89833
 6.0000e-001 90153 -5.6183e+001 -1.7880e+001 -1.3598e+001 44005 89963,89937,90127
 6.0000e-001 90176 -4.9595e+001 -3.5439e+000 -1.1650e+001 44005 89963,90127,89781
 6.0000e-001 90225 -4.5472e+001 -2.0583e+001 -1.2300e+001 44005 89859,90127,90199
 6.0000e-001 90248 -5.0205e+001 -2.7180e+001 -1.4675e+001 44005 89859,90199,89885
 6.0000e-001 90297 -5.1568e+001 -1.7657e+001 -5.0878e+000 44005 89781,90127,90271
 6.0000e-001 90320 -5.5873e+001 -1.7070e+001 -1.5532e+000 44005 89781,90271,89807
 6.0000e-001 90470 -3.3294e+001  4.4175e+000  8.2333e-001 43601 90493,90369,90343
 6.0000e-001 90447 -3.5635e+001  8.3191e+000  2.7690e+000 43601 90493,90343,90421
 6.0000e-001 90519 -3.6895e+001 -2.5841e+000 -1.6426e+000 43601 90395,90369,90493
 6.0000e-001 90542 -3.5700e+001  5.4903e+000  8.6299e-001 43601 90395,90493,90421
 6.0000e-001 90922 -3.4946e+001  3.9564e+000 -3.4373e+000 43154 90945,90700,90674
 6.0000e-001 90899 -3.0511e+001  5.1532e+000 -6.7282e+000 43154 90945,90674,90648
 6.0000e-001 90876 -2.8064e+001  9.5906e+000 -5.4232e+000 43154 90648,90778,90752
 6.0000e-001 90853 -4.3340e+001 -4.7610e+000 -3.5681e+000 43154 90700,90752,90726
 6.0000e-001 90830 -2.3134e+001  7.0646e+000 -1.4989e+000 43154 90648,90804,90778
 6.0000e-001 90971 -3.4944e+001  1.0855e+000 -6.6661e-001 43154 90752,90700,90945
 6.0000e-001 90994 -3.1300e+001  3.0006e+000 -3.9577e+000 43154 90752,90945,90648
 6.0000e-001 91451 -2.3058e+001  4.2400e+000  6.6465e+000 42650 91203,91255,91229
 6.0000e-001 91428 -5.1607e+000  1.1916e+001 -3.3628e+000 42650 91203,91333,91255
 6.0000e-001 91405  1.0613e+000 -4.8057e+000 -7.0539e+000 42650 91177,91333,91203
 6.0000e-001 91382 -1.1620e+001 -4.9069e+000 -1.9887e+000 42650 91255,91333,91281
 6.0000e-001 91359 -7.7542e+000 -3.9951e+000 -1.6705e+000 42650 91281,91333,91307
 6.0000e-001 91721 -2.6253e+001  1.4084e+001  1.7224e+000 42288 91496,91600,91522
 6.0000e-001 91698 -2.0582e+001  2.7498e+001  1.5630e+000 42288 91496,91626,91600
 6.0000e-001 91675 -1.4328e+001  1.9492e+001 -4.1595e-001 42288 91522,91574,91548
 6.0000e-001 91652 -2.1442e+001  1.5860e+001  1.6633e+000 42288 91522,91600,91574
 6.0000e-001 92199 -1.7288e+001  1.2582e+001 -5.8870e+000 41898 92222,91983,91879
 6.0000e-001 92176 -1.7845e+001  2.2085e+001 -2.1671e+000 41898 92294,92222,91879
 6.0000e-001 92153 -1.6492e+001  2.1233e+001 -1.1276e+000 41898 92294,91879,91853
 6.0000e-001 92130 -2.8469e+001  2.9775e-001 -1.8956e+000 41898 91879,91957,91931
 6.0000e-001 92107 -2.6057e+001  8.3432e+000 -1.9823e+000 41898 91879,91983,91957
 6.0000e-001 92084 -1.1206e+001  2.7754e+000 -1.6987e+001 41898 91879,91931,91905
 6.0000e-001 92061 -1.6758e+001  1.6063e+001 -1.4224e+000 41898 91827,92035,91853
 6.0000e-001 92248 -1.8026e+001  2.5027e+001 -8.4850e+000 41898 92009,91983,92222
 6.0000e-001 92271 -1.8288e+001  2.7921e+001  8.2271e-001 41898 92009,92222,92035
 6.0000e-001 92320 -2.0168e+001  2.0931e+001 -1.7855e+000 41898 92035,92222,92294
 6.0000e-001 92343 -1.9139e+001  1.9987e+001 -7.8479e-001 41898 92035,92294,91853
 6.0000e-001 92770 -2.0297e+001  5.9868e+000 -8.1670e+000 41437 92865,92793,92525
 6.0000e-001 92747 -1.6210e+001  1.1953e+001 -8.6800e+000 41437 92793,92473,92629
 6.0000e-001 92724 -9.0247e+000 -2.3133e+000 -1.4520e+001 41437 92865,92525,92499
 6.0000e-001 92701 -2.0661e+001 -4.4814e-001 -5.9994e+000 41437 92525,92603,92577
 6.0000e-001 92678 -1.5490e+001  2.7362e+001 -1.7319e+000 41437 92447,92629,92473
 6.0000e-001 92655 -5.6895e+001 -1.1874e+001 -9.4551e+000 41437 92525,92577,92551
 6.0000e-001 92819 -2.0227e+001  6.1256e+000 -4.9745e+000 41437 92603,92525,92793
 6.0000e-001 92842 -2.1420e+001  6.6615e+000 -1.2373e+001 41437 92603,92793,92629
 6.0000e-001 92891 -1.5682e+000  1.1069e+001 -5.2947e+000 41437 92473,92793,92865
 6.0000e-001 92914  1.1476e+001  4.1660e+000 -1.3116e+001 41437 92473,92865,92499
 6.0000e-001 93243 -2.1522e+001 -3.7273e+000  3.4759e+000 41097 93044,93096,93070
 6.0000e-001 93220 -1.5315e+001  1.6313e+001  1.7713e+000 41097 93044,93122,93096
 6.0000e-001 93197 -3.7545e+001 -4.3419e+000  1.0416e+001 41097 93044,93148,93122
 6.0000e-001 93174 -4.6660e+001  8.7426e+000  1.9237e+001 41097 93018,93148,93044
 6.0000e-001 93393 -4.6434e+001  1.1354e+001  1.6174e-001 40643 93416,93292,93344
 6.0000e-001 93370 -3.5474e+001  2.6340e+001  5.2744e+000 40643 93266,93344,93292
 6.0000e-001 93442 -3.6155e+001  1.5688e+001  7.2178e-001 40643 93318,93292,93416
 6.0000e-001 93901 -1.9374e+001  8.3889e+000 -3.2616e+000 40132 93924,93731,93705
 6.0000e-001 93878 -9.2744e+000  1.5490e+001  6.0463e-001 40132 93996,93924,93705
 6.0000e-001 93855 -1.0149e+001  1.2697e+001  6.3359e+000 40132 93996,93705,93653
 6.0000e-001 93832  2.7528e+001  9.5057e+000  3.2619e+000 40132 93653,93705,93679
 6.0000e-001 93809 -1.3265e+001  1.6431e+001  6.5304e+000 40132 93627,93783,93757
 6.0000e-001 93950 -2.5884e+001  1.4380e+001  1.0228e+000 40132 93757,93731,93924
 6.0000e-001 93973 -1.8429e+001  2.0578e+001  3.7963e+000 40132 93757,93924,93627
 6.0000e-001 94022 -2.1279e+001  1.0403e+001  1.0148e+000 40132 93627,93924,93996
 6.0000e-001 94045 -1.5025e+001  1.0548e+001  5.7909e+000 40132 93627,93996,93653
 6.0000e-001 94423 -2.3858e+001  2.1842e+001 -2.7540e+000 39514 94149,94227,94175
 6.0000e-001 94400 -3.2317e+001  7.5762e-001 -4.2211e+000 39514 94149,94305,94227
 6.0000e-001 94377 -4.6187e+001  2.6226e+001  2.3127e+000 39514 94175,94227,94201
 6.0000e-001 94354 -2.8295e+001  4.6754e+000 -2.5562e+000 39514 94227,94305,94279
 6.0000e-001 94331 -1.5375e+001  9.8466e+000 -4.4497e+000 39514 94227,94279,94253
 6.0000e-001 94573  2.4054e+001  3.2831e+000  1.4955e+001 38822 94596,94498,94472
 6.0000e-001 94550  1.6485e+001  2.4617e+001 -3.7562e+000 38822 94596,94472,94446
 6.0000e-001 94622  3.3846e+001  9.2964e+000 -7.1416e+000 38822 94524,94498,94596
 6.0000e-001 94645  4.3319e+001  4.7803e+001 -2.7829e+001 38822 94524,94596,94446
 6.0000e-001 95025 -3.2283e+001  2.1296e+001 -3.9609e+000 38418 95048,94829,94777
 6.0000e-001 95002 -3.6768e+001  2.0103e+001 -3.4575e+000 38418 95120,95048,94777
 6.0000e-001 94979 -3.6207e+001  2.2216e+001 -3.0350e+000 38418 95120,94777,94751
 6.0000e-001 94956 -2.0674e+001  2.4181e+001 -1.2046e+001 38418 95192,94881,94855
 6.0000e-001 94933 -3.4164e+001  2.6330e+001 -4.5593e+000 38418 94777,94829,94803
 6.0000e-001 95074 -3.6498e+001  7.0673e+000 -8.9994e-001 38418 94855,94829,95048
 6.0000e-001 95097 -2.5439e+001  2.2253e+001 -7.5555e+000 38418 95192,94855,95048
 6.0000e-001 95146 -4.0421e+001  2.4543e+001 -2.5728e+000 38418 94907,95048,95120
 6.0000e-001 95169 -3.7486e+001  2.8825e+001 -1.1594e+000 38418 94907,95120,94751
 6.0000e-001 95218 -2.9513e+001  3.7869e+001 -1.2992e+001 38418 94907,94881,95192
 6.0000e-001 95241 -4.1282e+001  2.8211e+001 -6.4795e+000 38418 94907,95192,95048
 6.0000e-001 95511 -4.7962e+001  6.9654e-001  7.5996e+000 38049 95312,95390,95364
 6.0000e-001 95488 -2.7862e+001  1.0256e+001  4.0559e+000 38049 95312,95416,95390
 6.0000e-001 95465 -3.5052e+001  1.8326e+001  1.8941e+000 38049 95312,95364,95338
 6.0000e-001 95442 -3.7071e+001  7.7499e+000  1.6964e+000 38049 95286,95416,95312
 6.0000e-001 95808 -4.0751e+001  3.1324e+001  1.6096e+001 37437 95831,95586,95560
 6.0000e-001 95785 -6.2574e+001  8.1674e+000  6.0716e+000 37437 95831,95560,95534
 6.0000e-001 95762 -2.7813e+001 -8.9686e-003 -2.4590e+000 37437 95586,95664,95638
 6.0000e-001 95739 -3.5853e+001  4.4983e+000 -2.2909e+001 37437 95534,95690,95664
 6.0000e-001 95716 -2.1307e+001 -4.5954e+000  1.6363e+000 37437 95586,95638,95612
 6.0000e-001 95857 -2.3244e+001  6.1226e+000  2.8140e+000 37437 95664,95586,95831
 6.0000e-001 95880 -4.7368e+001 -1.8902e+001 -7.9354e+000 37437 95664,95831,95534
 6.0000e-001 96390 -3.5088e+001 -7.3402e+000  1.1116e+001 36883 96413,96145,96093
 6.0000e-001 96367 -3.3690e+001 -9.2825e+000  1.1667e+000 36883 96413,96093,96067
 6.0000e-001 96344 -2.7627e+001 -1.9200e+001  1.8666e+000 36883 96067,96249,96171
 6.0000e-001 96321 -2.6570e+001  3.4202e+000  7.0179e+000 36883 96093,96145,96119
 6.0000e-001 96298 -2.5909e+001 -1.4013e+001 -1.4939e+000 36883 96171,96249,96197
 6.0000e-001 96275 -1.3139e+001 -1.2193e+001 -4.5063e-001 36883 96197,96249,96223
 6.0000e-001 96439 -4.1412e+001 -2.3537e+001  1.5131e+001 36883 96171,96145,96413
 6.0000e-001 96462 -3.5998e+001 -1.5642e+001  5.1398e+000 36883 96171,96413,96067
 6.0000e-001 96781 -3.1800e+001 -6.3028e+000 -4.7104e-001 36215 96559,96663,96637
 6.0000e-001 96758 -2.9158e+001 -1.4870e+001 -3.6535e+000 36215 96507,96663,96559
 6.0000e-001 96735 -2.9852e+001  1.9359e+001  2.4039e+000 36215 96585,96637,96611
 6.0000e-001 96712 -4.2599e+001 -5.7299e+000 -2.8744e+000 36215 96559,96637,96585
 6.0000e-001 96689 -2.4967e+001 -1.8036e+001 -1.2135e+000 36215 96507,96559,96533
 6.0000e-001 97161 -3.0104e+001 -1.1946e+000 -3.1132e+000 35818 97184,96965,96939
 6.0000e-001 97138 -2.5954e+001 -6.9424e+000  1.2417e+000 35818 97184,96939,96887
 6.0000e-001 97115 -2.9080e+001  7.5966e+000 -3.7245e+000 35818 96965,97043,97017
 6.0000e-001 97092 -1.9824e+001 -7.1157e+000 -2.7452e+000 35818 96887,96939,96913
 6.0000e-001 97069 -1.9867e+001  2.1273e+001  1.2038e+000 35818 96965,97017,96991
 6.0000e-001 97210 -3.5662e+001 -5.1141e+000 -1.3804e+000 35818 97043,96965,97184
 6.0000e-001 97233 -3.0757e+001 -1.0138e+001  2.6955e+000 35818 97043,97184,96887
 6.0000e-001 97739  1.2951e+001  1.4010e+001 -9.3238e+000 35214 97416,97468,97442
 6.0000e-001 97716  7.8546e-001  1.3652e+001  3.1205e+000 35214 97416,97598,97468
 6.0000e-001 97693 -1.4528e+001  6.0067e+000 -8.7307e+000 35214 97762,97520,97468
 6.0000e-001 97670 -1.0564e+001  1.0609e+001 -2.4715e+000 35214 97762,97468,97598
 6.0000e-001 97647 -2.4517e+001  2.4834e+001 -3.0295e+000 35214 97546,97598,97572
 6.0000e-001 97624 -2.3330e+001  5.3676e+000 -7.4127e+000 35214 97468,97520,97494
 6.0000e-001 97788 -1.2173e+001  1.3782e+001 -4.7720e+000 35214 97546,97520,97762
 6.0000e-001 97811 -1.0594e+001  1.7214e+001  9.9792e-001 35214 97546,97762,97598
 6.0000e-001 98189 -1.4034e+001  2.2465e+000  2.8045e+000 34760 98356,98212,97967
 6.0000e-001 98166 -1.5410e+001  2.4103e+001 -4.1215e+000 34760 98284,98212,97941
 6.0000e-001 98143 -1.2246e+001  2.1694e+001 -5.9384e+000 34760 98284,97941,97915
 6.0000e-001 98120 -1.8523e+001  2.3641e+000  6.5353e-001 34760 98484,97993,97967
 6.0000e-001 98097 -1.0626e+001  1.1672e+001 -6.3056e+000 34760 98556,98045,98019
 6.0000e-001 98238 -1.4536e+001  2.2439e+000  1.6358e+000 34760 98484,97967,98212
 6.0000e-001 98261 -1.5643e+001  1.2224e+001 -3.8048e+000 34760 98556,98019,98212
 6.0000e-001 98310 -1.6984e+001  1.8829e+001 -3.7547e+000 34760 98071,98212,98284
 6.0000e-001 98333 -1.6108e+001  1.2507e+001 -5.2249e+000 34760 98071,98284,97915
 6.0000e-001 98382 -7.4193e-001  2.3579e+001  1.0905e+001 34760 97941,98212,98356
 6.0000e-001 98510 -2.7712e+001  4.9403e+000  2.4257e+000 34760 98019,97993,98484
 6.0000e-001 98533 -2.0159e+001  7.5586e+000  3.9918e+000 34760 98019,98484,98212
 6.0000e-001 98582 -1.7065e+001  1.0190e+001 -6.7040e+000 34760 98071,98045,98556
 6.0000e-001 98605 -1.9330e+001  1.2616e+001 -3.9066e+000 34760 98071,98556,98212
 6.0000e-001 99032 -3.7146e+001 -1.7189e+001  7.5973e+000 34156 98735,98891,98839
 6.0000e-001 99009 -3.2342e+001 -9.8987e+000  1.5187e+001 34156 98709,98891,98735
 6.0000e-001 98986 -3.4532e+001 -2.0742e+000  6.1706e-001 34156 98735,98813,98787
 6.0000e-001 98963 -3.7798e+001 -6.6312e+000  4.1223e+000 34156 98735,98839,98813
 6.0000e-001 98940 -4.2296e+001  1.3168e+000 -1.5623e+000 34156 98735,98787,98761
 6.0000e-001 98917 -2.8553e+001  3.7990e+000  2.7851e+000 34156 98839,98891,98865
 6.0000e-001 99231 -5.3303e+001 -2.0546e+001  3.5853e+000 33766 99055,99133,99107
 6.0000e-001 99208 -6.6847e+001 -1.6535e+001  6.9867e+000 33766 99055,99159,99133
 6.0000e-001 99185 -4.3322e+001  3.7803e+000  5.9329e+000 33766 99055,99107,99081
 6.0000e-001 99818 -5.7919e+000  9.7298e+000 -3.9148e+000 33248 99521,99651,99573
 6.0000e-001 99795 -2.6078e+001 -1.5181e+000 -9.4469e+000 33248 99521,99677,99651
 6.0000e-001 99772 -9.6793e+000  1.7267e+000 -5.2550e+000 33248 99573,99651,99599
 6.0000e-001 99749 -1.2278e+001  1.5748e+001 -3.2051e+000 33248 99495,99677,99521
 6.0000e-001 99726 -1.0053e+001 -8.6224e-001 -5.5369e+000 33248 99599,99651,99625
 6.0000e-001 99703 -5.1434e+000  3.6210e+000 -3.3561e+000 33248 99521,99573,99547
 6.0000e-001 100196 -3.5378e+001 -2.6748e+000  9.1660e+000 32794 100219,99948,99922
 6.0000e-001 100173 -3.9858e+001 -1.4353e+001  1.9347e+000 32794 100219,99922,100052
 6.0000e-001 100150 -2.9112e+001 -1.4196e+001  1.3359e+001 32794 99974,100052,100026
 6.0000e-001 100127 -4.0625e+001 -1.1685e+001  1.1456e+000 32794 99922,100078,100052
 6.0000e-001 100104 -3.0422e+001 -8.4348e+000  8.2906e+000 32794 99974,100026,100000
 6.0000e-001 100245 -2.6946e+001  8.0294e+000  2.1858e+001 32794 99974,99948,100219
 6.0000e-001 100268 -3.7289e+001 -1.0969e+001  1.3784e+001 32794 99974,100219,100052
 6.0000e-001 100418 -1.3403e+001  1.7765e+001 -8.1793e+000 32504 100571,100343,100317
 6.0000e-001 100395 -1.0468e+001  1.9261e+001 -1.4523e+001 32504 100571,100317,100441
 6.0000e-001 100467 -1.4722e+001  2.4001e+000 -7.3517e+000 32504 100291,100369,100441
 6.0000e-001 100597 -1.6561e+001  1.0750e+001 -7.4756e+000 32504 100369,100343,100571
 6.0000e-001 100620 -1.5913e+001  7.5054e+000 -1.3151e+001 32504 100369,100571,100441
 6.0000e-001 101020 -6.0982e+001 -7.6273e+000 -7.7897e+000 32142 100772,100902,100876
 6.0000e-001 100997 -4.1447e+001  6.3337e+000  1.6796e+000 32142 100746,100902,100772
 6.0000e-001 100974 -2.8329e+001  2.8068e+001  1.3449e+001 32142 101043,100824,100798
 6.0000e-001 100951 -5.3456e+001  5.5934e+000  3.4489e+000 32142 101043,100798,100772
 6.0000e-001 100928 -3.1224e+001  1.3220e-001 -2.9359e+000 32142 101115,100876,100850
 6.0000e-001 101069 -3.0829e+001  2.0733e+000  6.8808e+000 32142 100850,100824,101043
 6.0000e-001 101092 -3.1474e+001 -3.0536e+000  6.6559e-001 32142 101115,100850,101043
 6.0000e-001 101141 -3.1103e+001  6.5597e+000 -3.6924e+000 32142 100772,100876,101115
 6.0000e-001 101164 -2.9920e+001  4.9330e+000 -3.3878e-001 32142 100772,101115,101043
 6.0000e-001 101719 -2.1450e+001  4.2304e+000  3.9836e+000 31538 101742,101477,101399
 6.0000e-001 101696 -1.9167e+001  7.9844e-001  2.1851e+000 31538 101814,101742,101399
 6.0000e-001 101673 -1.5836e+001 -7.3214e-001  5.5623e+000 31538 101814,101399,101373
 6.0000e-001 101650 -5.0575e+001  1.0801e+001  2.1871e+001 31538 101425,101477,101451
 6.0000e-001 101627 -4.4185e+001 -1.0490e+001  1.0496e+001 31538 101399,101477,101425
 6.0000e-001 101604 -7.0185e+000 -1.9260e+000  7.6676e+000 31538 101477,101529,101503
 6.0000e-001 101581 -3.1143e+001  1.4724e+000  7.8042e+000 31538 101347,101555,101373
 6.0000e-001 101768 -1.9275e+001 -8.3255e-001  1.1757e+000 31538 101529,101477,101742
 6.0000e-001 101791 -2.5565e+001 -5.0166e+000 -3.4711e+000 31538 101529,101742,101555
 6.0000e-001 101840 -2.6108e+001 -7.6920e-002  2.1963e+000 31538 101555,101742,101814
 6.0000e-001 101863 -2.2273e+001 -1.5287e+000  5.2261e+000 31538 101555,101814,101373
 6.0000e-001 102111 -4.1660e+001 -2.0400e+001  1.8258e+000 31112 101886,101990,101912
 6.0000e-001 102088 -3.4927e+001 -1.1186e+001 -2.2581e+000 31112 101886,102016,101990
 6.0000e-001 102065 -3.7720e+001 -2.3869e+001  8.7524e+000 31112 101912,101990,101964
 6.0000e-001 102042 -2.8624e+001 -1.0790e+001  4.7061e+000 31112 101912,101964,101938
 6.0000e-001 102408  1.3397e+000  3.7949e+000  2.5660e+000 30658 102431,102186,102160
 6.0000e-001 102385 -2.4769e+000  7.3077e-001  4.4891e+000 30658 102431,102160,102264
 6.0000e-001 102362 -7.0041e-001  3.6000e+000 -2.9487e+000 30658 102186,102238,102212
 6.0000e-001 102339  5.0427e+000  6.2890e+000  7.9602e+000 30658 102134,102264,102160
 6.0000e-001 102316 -1.6395e+001  4.2082e-001  2.6581e+000 30658 102134,102290,102264
 6.0000e-001 102457 -3.7863e+000  7.2000e+000  2.4208e+000 30658 102238,102186,102431
 6.0000e-001 102480 -7.3784e+000  4.4712e+000  4.3020e+000 30658 102238,102431,102264
 6.0000e-001 102681 -5.3269e+001 -1.6436e+001  1.1116e+001 30004 102704,102557,102505
 6.0000e-001 102658 -6.7540e+001  8.5348e+000 -1.6235e-001 30004 102704,102505,102609
 6.0000e-001 102635 -4.8613e+001 -1.1022e+001  7.1899e+000 30004 102505,102557,102531
 6.0000e-001 102730 -5.8364e+001 -3.1448e+001  9.6470e+000 30004 102583,102557,102704
 6.0000e-001 102753 -8.2373e+001 -1.9476e+001 -8.2465e+000 30004 102583,102704,102609
 6.0000e-001 103003 -4.0176e+001 -3.4733e+000  1.1672e+001 29564 103026,102804,102778
 6.0000e-001 102980 -3.9248e+001  1.4585e+000  1.2867e+001 29564 103026,102778,102908
 6.0000e-001 102957 -4.7963e+001 -1.2964e+001  6.2593e+000 29564 102856,102908,102882
 6.0000e-001 102934 -3.4884e+001 -6.0184e+000  7.7322e+000 29564 102804,102856,102830
 6.0000e-001 103052 -4.0732e+001 -5.9822e+000  8.3514e+000 29564 102856,102804,103026
 6.0000e-001 103075 -3.9311e+001 -1.8926e+000  1.0017e+001 29564 102856,103026,102908
 6.0000e-001 103634 -6.1955e+001 -4.4746e+000  2.5387e+001 29160 103657,103418,103392
 6.0000e-001 103611 -6.3053e+001 -4.1532e+000  5.5797e+000 29160 103657,103392,103314
 6.0000e-001 103588 -4.5441e+001  1.6478e+001 -1.9257e+000 29160 103314,103392,103366
 6.0000e-001 103565 -5.9242e+001  4.1990e+000  4.1055e+000 29160 103314,103366,103340
 6.0000e-001 103542 -3.8706e+001 -1.2935e+001 -3.9641e-001 29160 103262,103444,103314
 6.0000e-001 103519 -3.2350e+001 -5.3852e-001  3.2077e+000 29160 103262,103314,103288
 6.0000e-001 103496 -4.0937e+001 -6.5104e+000 -4.5337e+000 29160 103262,103470,103444
 6.0000e-001 103683 -3.7120e+001  7.4955e+000  2.9211e+001 29160 103444,103418,103657
 6.0000e-001 103706 -4.8479e+001  1.2612e+000  7.6102e+000 29160 103444,103657,103314
 6.0000e-001 104035 -3.2478e+001  6.9800e-001 -9.8827e-001 28770 103836,103914,103862
 6.0000e-001 104012 -2.0537e+001  5.8529e+000  5.4260e-001 28770 103810,103914,103836
 6.0000e-001 103989 -4.4623e+001  2.5682e-001 -2.6289e+000 28770 103810,103940,103914
 6.0000e-001 103966 -2.5168e+001  2.1084e+001  1.9468e+000 28770 103862,103914,103888
 6.0000e-001 104185 -7.9609e+000  1.6723e+001  3.1775e+000 28366 104208,104110,104084
 6.0000e-001 104162 -1.9317e+001 -3.8652e+000 -1.3801e+000 28366 104280,104208,104084
 6.0000e-001 104234 -1.3113e+001 -6.7294e+000 -9.6260e-001 28366 104610,104208,104136
 6.0000e-001 104257 -5.8625e+000  4.4520e+000  9.4066e-001 28366 104538,104410,104208
 6.0000e-001 104306 -6.8889e+000  2.9573e+000  1.6866e+000 28366 104538,104208,104280
 6.0000e-001 104436 -7.6077e+000  2.8432e-001  1.4266e+000 28366 104136,104208,104410
 6.0000e-001 104564 -7.1389e+000  6.2538e+000  1.8632e-001 28366 104058,104410,104538
 6.0000e-001 104587 -7.4311e+000  5.2149e+000  6.9193e-001 28366 104058,104538,104280
 6.0000e-001 104636 -5.4954e+000 -1.5671e+000  7.3463e+000 28366 104110,104208,104610
 6.0000e-001 105349 -1.8464e+001  1.1210e+001  1.2191e+000 27976 105516,105372,105107
 6.0000e-001 105326 -1.4177e+001  1.8084e+001  1.8336e+000 27976 105588,105372,105055
 6.0000e-001 105303  1.1531e+001  2.4078e+001  1.0092e+001 27976 105444,105159,105133
 6.0000e-001 105280 -2.7340e+001  1.6386e+001 -3.4242e+000 27976 105516,105107,105081
 6.0000e-001 105257 -1.3237e+001  2.8762e+001 -1.0173e+000 27976 105588,105055,105029
 6.0000e-001 105234 -1.9103e+001  8.1248e+000  5.6126e+000 27976 105003,105185,105159
 6.0000e-001 105211 -8.9642e+000  9.4647e+000  5.1217e+000 27976 104977,105185,105003
 6.0000e-001 105398 -2.4612e+001  1.9993e+001  5.0813e+000 27976 105133,105107,105372
 6.0000e-001 105421 -8.8266e+000  2.7275e+001  7.3490e+000 27976 105444,105133,105372
 6.0000e-001 105470 -1.2490e+001  1.1736e+001  4.0847e+000 27976 105003,105159,105444
 6.0000e-001 105493 -2.2152e+001  2.1749e+001  1.7768e+000 27976 105003,105444,105372
 6.0000e-001 105542 -2.4849e+001  6.3777e+000 -4.8549e+000 27976 105055,105372,105516
 6.0000e-001 105565 -3.6974e+001  1.0720e+001 -8.9639e+000 27976 105055,105516,105081
 6.0000e-001 105614 -1.3628e+001  2.9000e+001 -3.8457e+000 27976 105003,105372,105588
 6.0000e-001 105637 -1.2603e+001  3.8229e+001 -7.3731e+000 27976 105003,105588,105029
 6.0000e-001 106143 -1.5386e+001 -3.8579e+000  2.2360e+000 27664 106166,105846,105820
 6.0000e-001 106120 -1.2421e+001 -9.5704e-001  8.3616e-001 27664 106310,106166,105820
 6.0000e-001 106097 -9.7366e+000 -2.3457e+000 -1.5648e+000 27664 106382,106238,105950
 6.0000e-001 106074 -1.5767e+001  1.0192e+000 -1.0223e+000 27664 106310,105820,106002
 6.0000e-001 106051 -9.9777e+000 -4.9897e+000 -4.4770e+000 27664 106382,105950,105924
 6.0000e-001 106028 -9.4728e+000 -7.7310e+000  3.6387e+000 27664 105846,105898,105872
 6.0000e-001 106192 -1.1020e+001 -2.3768e+000  1.8820e+000 27664 105898,105846,106166
 6.0000e-001 106215 -1.2955e+001 -4.8005e+000 -7.5117e-001 27664 106238,105898,106166
 6.0000e-001 106264 -8.5398e+000 -3.0168e+000 -9.2914e-002 27664 105976,105950,106238
 6.0000e-001 106287 -1.1164e+001 -2.3850e+000 -1.6803e+000 27664 105976,106238,106166
 6.0000e-001 106336 -1.5609e+001 -3.6854e+000 -1.0936e+000 27664 105976,106166,106310
 6.0000e-001 106359 -1.9142e+001 -1.7091e+000 -2.9200e+000 27664 105976,106310,106002
 6.0000e-001 106408 -1.1817e+001 -8.9135e+000 -2.1757e+000 27664 105898,106238,106382
 6.0000e-001 106431 -1.0806e+001 -9.4527e+000 -5.1185e+000 27664 105898,106382,105924
 6.0000e-001 106728 -3.5453e+001  2.2049e+000 -7.0664e+000 27153 106751,106506,106454
 6.0000e-001 106705 -3.6583e+001 -5.6634e+000 -1.2426e+001 27153 106751,106454,106610
 6.0000e-001 106682 -3.4584e+001  2.2683e+001 -1.1754e+001 27153 106454,106506,106480
 6.0000e-001 106659 -1.6549e+001 -2.0799e+000  4.1654e-001 27153 106532,106610,106584
 6.0000e-001 106636 -3.0101e+001 -8.5846e+000 -2.9462e+000 27153 106532,106584,106558
 6.0000e-001 106777 -3.0157e+001  1.5259e+001 -2.6038e+000 27153 106532,106506,106751
 6.0000e-001 106800 -3.5157e+001  1.7054e+000 -8.3687e+000 27153 106532,106751,106610
 6.0000e-001 107180 -1.4758e+001  4.1937e+001  1.4209e+001 26642 107203,106984,106958
 6.0000e-001 107157 -1.7663e+001  3.7174e+001  9.8889e-001 26642 107203,106958,106932
 6.0000e-001 107134 -6.6465e+000  3.4208e+001 -8.4038e-001 26642 107275,107036,107010
 6.0000e-001 107111 -3.7222e+001  1.2222e+001  6.9521e+000 26642 106932,107062,107036
 6.0000e-001 107088 -3.4207e+001  1.8064e+001  2.1499e+001 26642 106906,107062,106932
 6.0000e-001 107229 -2.9091e+001  1.1699e+001  1.8945e+001 26642 107010,106984,107203
 6.0000e-001 107252 -9.9374e+000  3.9591e+001  4.0672e+000 26642 107275,107010,107203
 6.0000e-001 107301 -1.3225e+001  3.1256e+001 -1.4319e+000 26642 106932,107036,107275
 6.0000e-001 107324 -1.9029e+001  3.4273e+001  1.6030e+000 26642 106932,107275,107203
 6.0000e-001 107675 -3.3099e+001  1.7372e+001 -1.2038e+000 26045 107450,107554,107476
 6.0000e-001 107652 -3.6469e+001  2.2655e+001 -5.0712e+000 26045 107450,107580,107554
 6.0000e-001 107629 -7.4789e+001  3.8198e+000 -3.7338e+000 26045 107476,107528,107502
 6.0000e-001 107606 -4.5844e+001  8.1767e+000 -6.8658e+000 26045 107476,107554,107528
 6.0000e-001 107874 -4.6574e+001  2.6899e+001 -4.7776e+000 25641 107750,107802,107776
 6.0000e-001 107851 -4.9255e+001  5.0968e+000 -1.3162e+000 25641 107724,107802,107750
 6.0000e-001 107828 -3.0606e+001  1.6585e+001  4.5729e+000 25641 107698,107802,107724
 6.0000e-001 108431 -4.6967e+001  7.1917e+000 -1.2239e+000 25023 108526,108267,108241
 6.0000e-001 108408 -4.3605e+001  9.6211e+000  1.8406e+001 25023 108059,108267,108085
 6.0000e-001 108385 -3.5125e+001  7.8987e+000  5.0981e+000 25023 108454,108163,108111
 6.0000e-001 108362 -4.6552e+001  6.3557e+000  7.8466e+000 25023 108454,108111,108085
 6.0000e-001 108339 -3.0859e+001  2.0740e+000  7.4891e+000 25023 108111,108163,108137
 6.0000e-001 108316 -1.8353e+001  2.4270e+000 -2.0827e+000 25023 108163,108241,108215
 6.0000e-001 108293 -3.4571e+001 -8.4344e+000 -2.2449e+001 25023 108163,108215,108189
 6.0000e-001 108480 -2.9372e+001  1.1419e+001 -5.4212e+000 25023 108241,108163,108454
 6.0000e-001 108503 -4.3054e+001  5.3755e+000 -7.4526e-001 25023 108526,108241,108454
 6.0000e-001 108552 -4.2402e+001  8.0785e+000  9.3132e-001 25023 108085,108267,108526
 6.0000e-001 108575 -3.8270e+001  6.5353e+000  1.5114e+000 25023 108085,108526,108454
 6.0000e-001 108823 -5.8917e+001 -4.7137e+001 -6.8077e+000 24461 108624,108728,108650
 6.0000e-001 108800 -5.7316e+001 -3.5605e+001 -3.6678e+000 24461 108598,108728,108624
 6.0000e-001 108777 -3.8166e+001 -3.1802e+001  9.9943e-001 24461 108650,108728,108676
 6.0000e-001 108754 -4.5815e+001 -2.9544e+001 -7.2149e+000 24461 108676,108728,108702
 6.0000e-001 109022 -1.0161e+001  2.2540e+001  1.4037e+000 24121 108872,108924,108898
 6.0000e-001 108999 -1.4800e+001  2.4710e+001  1.3396e+000 24121 108846,108924,108872
 6.0000e-001 108976 -2.7132e+001  2.2158e+001 -5.1782e+000 24121 108846,108950,108924
 6.0000e-001 109483 -5.6883e+001  2.9806e+000  1.9415e+001 23717 109209,109339,109235
 6.0000e-001 109460 -3.9679e+001  2.4352e+001  1.1269e+001 23717 109209,109365,109339
 6.0000e-001 109437 -3.3100e+001  1.8300e+000  8.1543e+000 23717 109287,109339,109313
 6.0000e-001 109414 -2.8388e+001  1.3959e+001  1.7533e+001 23717 109235,109339,109287
 6.0000e-001 109391 -3.6073e+001 -6.9370e+000  1.5834e+001 23717 109235,109287,109261
 6.0000e-001 109910 -1.2025e+001  1.9761e+001 -4.7792e-001 23305 109613,109743,109717
 6.0000e-001 109887 -1.6447e+001  1.6305e+001  7.7404e+000 23305 109613,109769,109743
 6.0000e-001 109864 -1.6464e+001  2.8651e+000  2.8697e+000 23305 109613,109717,109639
 6.0000e-001 109841 -1.9089e+001  2.4654e+001  5.3275e+000 23305 109587,109769,109613
 6.0000e-001 109818 -1.9463e+001  1.6104e+000  1.2935e+000 23305 109639,109717,109691
 6.0000e-001 109795 -2.0149e+001  1.8747e+000  7.0904e-001 23305 109639,109691,109665
 6.0000e-001 110180 -3.6965e+001 -3.1949e+000  1.3186e+000 22851 110007,110059,110033
 6.0000e-001 110157 -2.5499e+001  2.2944e+001  2.9915e+000 22851 109981,110059,110007
 6.0000e-001 110134 -3.3302e+001  2.1706e+001  3.4231e+000 22851 109955,110059,109981
 6.0000e-001 110111 -3.2320e+001  3.2364e+001  3.0751e+000 22851 109955,110085,110059
 6.0000e-001 110737 -1.2047e+001 -4.5971e-001 -5.7955e+000 22333 110760,110469,110391
 6.0000e-001 110714 -2.7254e+001 -9.0438e+000 -1.9566e+000 22333 110760,110391,110365
 6.0000e-001 110691 -2.8113e+001 -3.2841e+000 -1.1091e+001 22333 110832,110521,110469
 6.0000e-001 110668 -3.7222e+000 -1.1111e+001 -1.1489e+001 22333 110417,110469,110443
 6.0000e-001 110645 -1.4963e+001 -1.0713e+001 -1.0940e+001 22333 110391,110469,110417
 6.0000e-001 110622 -3.6358e+001  6.1075e+000 -4.4620e+001 22333 110469,110521,110495
 6.0000e-001 110599 -6.0478e+000  3.6815e+001 -1.3323e+001 22333 110365,110573,110547
 6.0000e-001 110786 -2.6728e+001 -2.2606e+000 -1.0572e+001 22333 110832,110469,110760
 6.0000e-001 110809 -2.6659e+001  4.4053e+000 -3.7673e+000 22333 110547,110760,110365
 6.0000e-001 110858 -3.6615e+001  2.5066e-001 -8.7900e+000 22333 110547,110521,110832
 6.0000e-001 110881 -2.9061e+001  5.2735e+000 -6.5849e+000 22333 110547,110832,110760
 6.0000e-001 111308 -6.9521e+001 -9.4224e+000  1.7602e+001 21829 111331,111063,111011
 6.0000e-001 111285 -8.0788e+001 -6.9743e+000  8.5938e+000 21829 111331,111011,111167
 6.0000e-001 111262 -5.9462e+001 -3.6730e+001  1.1819e+001 21829 111403,111089,111063
 6.0000e-001 111239 -6.1010e+001  2.9581e+001  2.1222e+001 21829 111011,111063,111037
 6.0000e-001 111216 -9.2840e+001  4.0306e+001 -3.8043e-001 21829 110985,111167,111011
 6.0000e-001 111193 -3.3765e+000 -3.1140e-001  8.7961e-001 21829 111089,111141,111115
 6.0000e-001 111357 -7.8040e+001 -1.9820e+001  1.2492e+001 21829 111403,111063,111331
 6.0000e-001 111380 -7.7446e+001 -2.1544e+001 -3.7691e+000 21829 111141,111331,111167
 6.0000e-001 111429 -4.4336e+000 -1.1545e+001  5.6423e+000 21829 111141,111089,111403
 6.0000e-001 111452 -4.9340e+001 -7.2158e+000  4.8660e+000 21829 111141,111403,111331
 6.0000e-001 112056 -2.7861e+001  1.3386e+000  1.2846e+000 21489 111687,111765,111739
 6.0000e-001 112033 -2.1569e+001 -6.2956e-001 -4.6604e-001 21489 112151,112079,111687
 6.0000e-001 112010 -4.0687e+000 -2.1779e+000  4.7663e+000 21489 111791,111843,111817
 6.0000e-001 111987 -1.2775e+001  1.0552e+000  2.2700e+000 21489 112079,111843,111791
 6.0000e-001 111964 -2.6611e+001 -6.1749e-001 -3.8439e+000 21489 112151,111687,111661
 6.0000e-001 111941 -1.9765e+001 -1.0514e+001 -6.3555e+000 21489 111661,111869,111843
 6.0000e-001 111918 -3.1253e+001  2.1066e+000 -1.8458e+000 21489 111687,111739,111713
 6.0000e-001 111895 -1.7926e+001 -6.1224e+000 -3.0964e+000 21489 111635,111869,111661
 6.0000e-001 112105 -1.5501e+001  6.0572e+000  2.3016e+000 21489 111765,111687,112079
 6.0000e-001 112128 -1.6431e+001 -3.1270e-001  2.0672e+000 21489 111765,112079,111791
 6.0000e-001 112177 -1.2700e+001  9.4727e-001  1.5262e+000 21489 111843,112079,112151
 6.0000e-001 112200 -1.7793e+001  1.6389e+000 -1.3479e+000 21489 111843,112151,111661
 6.0000e-001 112578 -3.7474e+001  3.0393e+000 -2.1879e+000 21177 112382,112434,112408
 6.0000e-001 112555 -3.6368e+001  7.7375e+000 -2.5191e+000 21177 112330,112434,112382
 6.0000e-001 112532 -4.7630e+001 -1.8711e+000 -9.1944e+000 21177 112304,112434,112330
 6.0000e-001 112509 -4.2872e+001  6.8372e+000  0.0000e+000 21177 112330,112382,112356
 6.0000e-001 112486 -3.7285e+001  1.0227e+000 -1.0851e+001 21177 112304,112460,112434
 6.0000e-001 112679 -4.9543e+001  2.6044e+001  8.3877e+000 20666 112601,112653,112627
 6.0000e-001 112927 -4.6023e+001 -1.1460e+000  3.8157e+000 19762 112702,112754,112728
 6.0000e-001 112904 -3.5794e+001  4.9253e-001  1.5350e+000 19762 112702,112832,112754
 6.0000e-001 112881 -3.5188e+001  8.7076e-001  8.2789e-001 19762 112754,112832,112806
 6.0000e-001 112858 -2.6066e+001  2.9618e+000  1.3395e+001 19762 112754,112806,112780
 6.0000e-001 113297 -2.6807e+001  2.8083e+001 -4.5191e+000 19308 112974,113052,113026
 6.0000e-001 113274 -2.9949e+001  1.8351e+001 -2.3131e+000 19308 112974,113156,113052
 6.0000e-001 113251 -2.9309e+001  3.1613e+001  6.2703e+000 19308 113052,113130,113104
 6.0000e-001 113228 -3.1006e+001  1.4649e+001 -1.7259e+000 19308 113052,113156,113130
 6.0000e-001 113205 -2.6952e+001  2.4465e+001  0.0000e+000 19308 113052,113104,113078
 6.0000e-001 113182 -3.3985e+001  2.6209e+001 -9.8004e+000 19308 112974,113026,113000
 6.0000e-001 113547 -3.2108e+001  1.9955e+001  2.4666e+000 18711 113570,113374,113348
 6.0000e-001 113524 -2.5035e+001  1.0082e+001 -5.5950e-001 18711 113570,113348,113452
 6.0000e-001 113501 -2.9430e+001 -5.9791e+000  4.5779e+000 18711 113322,113452,113348
 6.0000e-001 113478 -3.4557e+001  1.5431e+001  1.1308e+001 18711 113374,113426,113400
 6.0000e-001 113596 -3.8942e+001  9.8501e+000  5.9304e+000 18711 113426,113374,113570
 6.0000e-001 113619 -2.8579e+001  3.2839e+000  1.0977e+000 18711 113426,113570,113452
 6.0000e-001 113771 -9.5823e+000  3.0389e+001  4.3701e+000 18307 113670,113722,113696
 6.0000e-001 113748 -1.0608e+001  2.0450e+001  1.9195e+000 18307 113644,113722,113670
 6.0000e-001 113972 -5.9600e+001  2.8506e+001  4.1357e+000 17945 113822,113874,113848
 6.0000e-001 113949 -3.5536e+001  2.9540e+001  1.1263e+000 17945 113822,113900,113874
 6.0000e-001 113926 -3.6725e+001  1.3133e+001 -1.1393e+001 17945 113796,113900,113822
 6.0000e-001 114075 -4.2452e+001  4.1551e+001 -8.4689e+000 17482 113997,114049,114023
 6.0000e-001 114479 -2.2562e+001  3.0722e+001  2.4596e+000 17042 114257,114361,114335
 6.0000e-001 114456 -2.5036e+001  2.6828e+001  3.5373e+000 17042 114205,114361,114257
 6.0000e-001 114433 -1.4843e+001  3.6674e+001 -7.8464e-001 17042 114205,114257,114231
 6.0000e-001 114410 -2.3899e+001  5.6802e+001  1.8525e+000 17042 114283,114335,114309
 6.0000e-001 114387 -1.9237e+001  4.0618e+001  3.1019e+000 17042 114257,114335,114283
 6.0000e-001 114879  3.7708e+000  1.3309e+001 -7.3861e-002 16638 114631,114683,114657
 6.0000e-001 114856  4.3070e+000  1.2979e+001  2.7749e+000 16638 114605,114683,114631
 6.0000e-001 114833  2.3992e+000  6.3515e+000  2.4214e+000 16638 114605,114761,114683
 6.0000e-001 114810  4.1756e+001  1.8334e+001 -8.4368e+000 16638 114683,114735,114709
 6.0000e-001 114787  3.4100e+000  1.9450e+001 -1.5146e+000 16638 114683,114761,114735
 6.0000e-001 115078 -1.3940e+002 -4.4468e+001  1.0998e+001 16232 114954,115006,114980
 6.0000e-001 115055 -9.1534e+001 -2.5169e+001 -1.9541e+000 16232 114928,115006,114954
 6.0000e-001 115032 -1.2156e+002 -3.6669e+001 -1.2474e+001 16232 114902,115006,114928
 6.0000e-001 115228  1.8656e+000  2.3421e+001  5.1637e+000 15482 115101,115153,115127
 6.0000e-001 115205 -2.9547e+001  1.9513e+001 -9.7872e-001 15482 115101,115179,115153
 6.0000e-001 115331 -2.3618e+001  6.7396e+000  3.9724e-001 15163 115253,115305,115279
 6.0000e-001 115434 -4.4694e+000  1.2931e+001 -5.3459e+000 421 115356,115408,115382
 7.0000e-001 68213  2.8463e+000 -3.4656e+000  2.7856e-001 67888 68112,68164,68138
 7.0000e-001 68190  5.0849e+000 -4.4149e+000  2.0326e+000 67888 68086,68164,68112
 7.0000e-001 68314  7.5485e+000  8.9580e-001  1.3051e+000 67576 68236,68288,68262
 7.0000e-001 68584 -2.1517e+001 -5.8462e+000  1.1441e+000 67378 68385,68489,68463
 7.0000e-001 68561 -6.9484e+000  6.4827e-001 -7.6132e-002 67378 68359,68489,68385
 7.0000e-001 68538 -2.1166e+001 -2.2271e+000  1.2819e+000 67378 68385,68463,68411
 7.0000e-001 68515 -2.0332e+001  9.8448e+000  1.2558e+000 67378 68411,68463,68437
 7.0000e-001 68964 -1.1308e+001  1.6200e+001 -3.7288e+000 67130 68690,68820,68716
 7.0000e-001 68941 -1.3714e+001  2.7628e+001 -3.2095e+000 67130 68690,68846,68820
 7.0000e-001 68918 -3.4917e+001  2.6580e+000  8.7936e+000 67130 68742,68820,68794
 7.0000e-001 68895 -3.0861e+001  9.2005e+000  4.1943e+000 67130 68716,68820,68742
 7.0000e-001 68872 -3.1866e+001  1.2151e+001  1.1210e+001 67130 68742,68794,68768
 7.0000e-001 69065  4.3246e-001  2.3885e+000 -3.3100e+000 66926 68987,69039,69013
 7.0000e-001 69445 -4.7580e-001  1.3656e+000 -1.1845e+000 66614 69223,69301,69275
 7.0000e-001 69422  5.7102e-001  7.3793e-001  4.1392e-001 66614 69171,69301,69223
 7.0000e-001 69399  7.2559e-001  1.2651e+000  3.5755e-001 66614 69171,69327,69301
 7.0000e-001 69376 -1.0517e+000  3.8168e-001 -9.3910e-001 66614 69223,69275,69249
 7.0000e-001 69353 -5.3921e-001  9.4733e-001  1.7089e-001 66614 69171,69223,69197
 7.0000e-001 69546 -2.3941e+001  2.0848e+001 -1.0621e+001 66416 69468,69520,69494
 7.0000e-001 69997 -5.8734e-001  2.6052e+001  5.7279e-001 66104 69700,69830,69726
 7.0000e-001 69974  1.9560e+000  1.9899e+001 -1.4128e+000 66104 69700,69856,69830
 7.0000e-001 69951  6.1071e+000  1.7690e+001  4.1172e+000 66104 69726,69804,69778
 7.0000e-001 69928 -4.2001e+000  2.0055e+001  2.3576e+000 66104 69726,69830,69804
 7.0000e-001 69905  3.2636e+000  1.4292e+001  2.1514e+000 66104 69726,69778,69752
 7.0000e-001 69882  1.4793e+001  1.6509e+001 -9.0211e+000 66104 69674,69856,69700
 7.0000e-001 70326 -9.9932e-001  2.0936e+001 -2.8144e+000 65814 70349,70153,70127
 7.0000e-001 70303 -1.6033e+000  2.4642e+001 -6.2325e+000 65814 70349,70127,70101
 7.0000e-001 70280  2.6446e+000  1.3519e+001 -1.3797e+001 65814 70101,70231,70205
 7.0000e-001 70257 -1.3638e+000  2.0949e+001  1.0626e+000 65814 70153,70205,70179
 7.0000e-001 70375 -2.0298e+000  1.5180e+001 -1.2812e+000 65814 70205,70153,70349
 7.0000e-001 70398 -9.4969e-001  2.0306e+001 -5.1192e+000 65814 70205,70349,70101
 7.0000e-001 70904 -1.6642e+001  7.7118e+000 -2.4540e+000 65502 70607,70737,70685
 7.0000e-001 70881 -2.4867e+001 -2.8224e+000  2.3377e+000 65502 70581,70737,70607
 7.0000e-001 70858 -2.0912e+001  5.2147e+000  1.0311e+000 65502 70581,70763,70737
 7.0000e-001 70835 -4.2762e+001 -2.0857e+000  2.4753e+000 65502 70685,70737,70711
 7.0000e-001 70812  2.0201e+001  1.1170e+001  3.6238e+000 65502 70607,70659,70633
 7.0000e-001 70789 -1.3890e+001  1.5967e+001  3.8583e+000 65502 70607,70685,70659
 7.0000e-001 71103 -2.1616e+000  1.3108e+001  3.8068e-001 65304 71126,70979,70953
 7.0000e-001 71080 -2.0533e+000  1.1871e+001  6.5637e-001 65304 71126,70953,70927
 7.0000e-001 71057  2.9387e+000  1.9349e+001  7.1117e+000 65304 70927,71031,71005
 7.0000e-001 71152 -2.4190e+000  1.5492e+001  4.9772e-001 65304 71005,70979,71126
 7.0000e-001 71175 -3.0768e+000  1.3263e+001  8.9572e-001 65304 71005,71126,70927
 7.0000e-001 71374 -2.4465e+000  8.6934e+000  2.3942e+000 65106 71198,71276,71224
 7.0000e-001 71351 -1.6789e+001  1.1469e+000 -7.3774e-001 65106 71198,71302,71276
 7.0000e-001 71328 -1.1865e+000  1.0868e+001 -1.6573e+000 65106 71224,71276,71250
 7.0000e-001 71756 -1.2160e+001  2.0351e+001  2.0284e+000 64652 71508,71638,71534
 7.0000e-001 71733 -3.2302e+001  1.1742e+001  3.8736e+000 64652 71482,71638,71508
 7.0000e-001 71710 -9.9590e+000  7.7911e+000 -5.3373e-001 64652 71534,71586,71560
 7.0000e-001 71687 -4.4733e+000  1.5220e+001 -3.6103e+000 64652 71534,71612,71586
 7.0000e-001 71664 -2.6250e+001  7.8194e+000 -3.6641e+000 64652 71534,71638,71612
 7.0000e-001 72085 -1.1890e+001  9.5050e+000  3.4020e+000 64248 71886,71964,71912
 7.0000e-001 72062 -1.3403e+001  8.6655e+000  3.7342e+000 64248 71860,71964,71886
 7.0000e-001 72039 -2.1363e+001  7.7391e+000  9.4952e-001 64248 71912,71964,71938
 7.0000e-001 72016 -1.0630e+001  1.8899e+001  1.9771e+000 64248 71860,71990,71964
 7.0000e-001 72235 -2.1441e+001  1.0908e+001  4.3114e+000 63858 72588,72258,72134
 7.0000e-001 72212 -1.4019e+001  6.5918e+000 -3.4007e+000 63858 72330,72258,72108
 7.0000e-001 72284 -1.0338e+001  1.3075e+001  6.8515e+000 63858 72160,72134,72258
 7.0000e-001 72307 -6.0838e+000  1.0510e+001  2.1856e+000 63858 72460,72258,72186
 7.0000e-001 72356 -3.7676e+000  1.3168e+001  4.1663e+000 63858 72186,72258,72330
 7.0000e-001 72486 -1.5834e+001  3.9322e-001  7.5340e+000 63858 72160,72258,72460
 7.0000e-001 72614 -2.1084e+001  1.3165e+001 -1.5335e+000 63858 72108,72258,72588
 7.0000e-001 73248  9.4930e+000  1.4192e+001  6.7041e+000 63404 72902,72954,72928
 7.0000e-001 73225 -1.0273e+001  9.9304e+000 -2.1986e+000 63404 73271,72954,72902
 7.0000e-001 73202 -1.2346e+001  1.3437e+001 -7.7920e-001 63404 73271,72902,73032
 7.0000e-001 73179 -3.0323e+001  4.9380e+000  1.6844e+000 63404 72902,73058,73032
 7.0000e-001 73156 -1.4644e+001  2.1830e+001 -7.5544e+000 63404 72980,73032,73006
 7.0000e-001 73133 -3.2967e+001  2.0846e+001  8.1884e+000 63404 72876,73058,72902
 7.0000e-001 73110 -1.5864e+002 -2.1683e+001  1.9177e+001 63404 72876,73084,73058
 7.0000e-001 73297 -1.2131e+001  8.5150e+000 -3.5779e+000 63404 72980,72954,73271
 7.0000e-001 73320 -1.4648e+001  1.1074e+001 -2.1628e+000 63404 72980,73271,73032
 7.0000e-001 73470 -2.1868e+001  2.1901e+001  3.5577e+000 63014 73343,73395,73369
 7.0000e-001 73447 -3.2218e+001  1.5083e+001 -6.0875e-001 63014 73343,73421,73395
 7.0000e-001 73929 -4.4833e+000  9.9017e+000 -1.9461e+000 62702 73759,73811,73785
 7.0000e-001 73906 -5.2221e+000  1.0090e+001 -7.1824e-001 62702 73655,73811,73759
 7.0000e-001 73883 -3.1521e+000  1.1427e+001  2.4723e-001 62702 73655,73759,73681
 7.0000e-001 73860 -5.2605e+000  7.0182e+000  2.3375e+000 62702 73681,73759,73707
 7.0000e-001 73837  9.0938e-002  9.0752e+000  1.6125e-001 62702 73707,73759,73733
 7.0000e-001 74209  5.4553e+000  8.3466e+000 -1.0187e+000 62404 74059,74137,74085
 7.0000e-001 74186  6.9472e+000  1.1755e+001 -2.6280e+000 62404 74033,74137,74059
 7.0000e-001 74163  3.7612e+000  1.7394e+000 -2.1303e+000 62404 74085,74137,74111
 7.0000e-001 74408 -1.3246e+001  5.2987e+000  7.7522e-001 62000 74258,74336,74284
 7.0000e-001 74385 -8.5596e+000  6.5919e+000 -8.8508e-001 62000 74232,74336,74258
 7.0000e-001 74362 -1.2053e+001  5.7039e+000  1.2164e+000 62000 74284,74336,74310
 7.0000e-001 74509 -3.8066e+001 -9.8842e+000 -1.0264e+001 61802 74431,74483,74457
 7.0000e-001 74759 -5.4819e+000  3.7460e-001 -2.0712e+000 61554 74782,74586,74560
 7.0000e-001 74736 -7.6724e+000  1.1784e+000 -9.3796e-001 61554 74782,74560,74664
 7.0000e-001 74713 -5.5255e+000  1.4355e+000 -5.1330e+000 61554 74854,74612,74586
 7.0000e-001 74690 -7.1617e+000  1.4130e+000 -4.8744e-001 61554 74534,74664,74560
 7.0000e-001 74808 -4.6367e+000  2.0786e+000 -2.3778e+000 61554 74854,74586,74782
 7.0000e-001 74831 -6.7485e+000  6.9839e+000 -1.5565e+000 61554 74638,74782,74664
 7.0000e-001 74880 -8.8747e+000  1.9663e+000 -4.8989e+000 61554 74638,74612,74854
 7.0000e-001 74903 -9.0204e+000  1.1917e+000 -2.6250e+000 61554 74638,74854,74782
 7.0000e-001 75285 -1.8378e+001  1.9170e+000  7.8640e+000 61356 75063,75167,75115
 7.0000e-001 75262 -1.1494e+001  1.6628e+001  1.0050e+001 61356 75037,75167,75063
 7.0000e-001 75239 -3.6836e+001  8.9512e+000  8.1283e+000 61356 75115,75167,75141
 7.0000e-001 75216 -1.9471e+001  4.9198e+000  1.0111e+001 61356 75063,75115,75089
 7.0000e-001 75193  2.0874e+000 -6.9564e-001  6.7374e-001 61356 75011,75167,75037
 7.0000e-001 75631 -2.5178e+001 -6.0434e+000 -3.2492e+000 60952 75654,75412,75360
 7.0000e-001 75608 -3.2090e+001 -8.5419e+000 -4.5492e+000 60952 75654,75360,75334
 7.0000e-001 75585 -1.7892e+001 -8.9314e-001 -2.7045e+000 60952 75726,75438,75412
 7.0000e-001 75562 -3.8955e+001 -2.2607e+001  1.1051e+000 60952 75308,75490,75334
 7.0000e-001 75539 -2.2843e+001 -5.4350e+000 -2.4016e+000 60952 75360,75412,75386
 7.0000e-001 75516 -1.1523e+001 -9.8963e-001 -2.5761e+000 60952 75438,75490,75464
 7.0000e-001 75680 -2.1015e+001 -9.0036e+000 -4.9716e+000 60952 75726,75412,75654
 7.0000e-001 75703 -2.3433e+001 -1.5078e+001 -4.8730e+000 60952 75490,75654,75334
 7.0000e-001 75752 -1.5782e+001 -9.6107e+000 -1.1369e+000 60952 75490,75438,75726
 7.0000e-001 75775 -1.6068e+001 -9.5794e+000 -2.0634e+000 60952 75490,75726,75654
 7.0000e-001 76155 -7.5894e+000  1.0337e+001  5.8657e+000 60754 75933,75985,75959
 7.0000e-001 76132 -3.7229e+000  1.3095e+001 -9.2558e-001 60754 75933,76037,75985
 7.0000e-001 76109 -6.8115e+000  8.1612e+000  6.1592e-001 60754 75985,76037,76011
 7.0000e-001 76086 -5.0321e+000  6.2691e+000 -1.2444e+000 60754 75881,76037,75933
 7.0000e-001 76063 -3.9402e+000  5.4540e+000 -2.6271e+000 60754 75881,75933,75907
 7.0000e-001 76612 -1.7748e+001  2.1910e+001 -3.6375e+000 60350 76635,76442,76390
 7.0000e-001 76589 -9.6966e+000  1.9796e+001 -1.4268e+000 60350 76635,76390,76364
 7.0000e-001 76566 -8.2165e+000  2.7026e+001  5.5921e+000 60350 76364,76494,76468
 7.0000e-001 76543 -8.5676e+000  2.1920e+001 -1.6428e+001 60350 76390,76442,76416
 7.0000e-001 76520  2.3917e+000  2.0315e+001  9.0611e+000 60350 76338,76494,76364
 7.0000e-001 76661 -2.2751e+001  2.0911e+001 -3.2733e+000 60350 76468,76442,76635
 7.0000e-001 76684 -1.7233e+001  1.7127e+001 -1.0071e+000 60350 76468,76635,76364
 7.0000e-001 76932 -5.8555e+000  3.7989e-001  8.0498e-001 59946 76955,76733,76707
 7.0000e-001 76909 -4.7019e+000  3.2226e+000  1.4342e+000 59946 77027,76955,76707
 7.0000e-001 76886 -3.1323e+000  4.3391e+000  8.0800e-001 59946 77027,76707,76837
 7.0000e-001 76863 -1.8550e+000 -7.0758e-001 -2.1771e+000 59946 76733,76785,76759
 7.0000e-001 76981 -5.7564e+000  1.3465e+000 -6.0129e-001 59946 76785,76733,76955
 7.0000e-001 77004 -5.4270e+000 -8.0799e-001  7.1425e-001 59946 76785,76955,76811
 7.0000e-001 77053 -2.2597e+000  1.5187e+000 -3.1399e-001 59946 76811,76955,77027
 7.0000e-001 77076 -3.5431e-001  3.7201e+000 -1.2484e+000 59946 76811,77027,76837
 7.0000e-001 77226 -2.7335e+001  4.3042e+001 -2.3527e+000 59542 77099,77151,77125
 7.0000e-001 77203 -2.7963e+001  2.7206e+001 -1.0032e+001 59542 77099,77177,77151
 7.0000e-001 77427 -1.1967e+001  4.1552e+000 -3.1859e+000 59030 77450,77277,77251
 7.0000e-001 77404 -1.3531e+001  5.4205e-001 -2.9756e+000 59030 77450,77251,77355
 7.0000e-001 77381 -8.0480e+000  1.0137e+001 -4.8054e+000 59030 77277,77329,77303
 7.0000e-001 77476 -1.3283e+001  5.0501e+000 -1.7932e+000 59030 77329,77277,77450
 7.0000e-001 77499 -1.4017e+001  3.0871e+000 -1.7011e+000 59030 77329,77450,77355
 7.0000e-001 77749 -3.6914e+001  7.6957e+000  5.3134e+000 58426 77772,77628,77602
 7.0000e-001 77726 -2.9519e+001  3.1070e+000  8.8354e+000 58426 77524,77654,77628
 7.0000e-001 77703 -2.2760e+001  8.1683e+000  2.2515e-001 58426 77772,77602,77550
 7.0000e-001 77680 -2.4038e+001  8.4838e+000 -6.3024e+000 58426 77550,77602,77576
 7.0000e-001 77798 -2.0962e+001  8.7521e+000  6.0810e+000 58426 77524,77628,77772
 7.0000e-001 77821 -1.4167e+001  4.9603e+000 -9.2018e-001 58426 77524,77772,77550
 7.0000e-001 78071  1.2223e+000  1.5027e+000 -2.6450e+000 57922 78094,77924,77898
 7.0000e-001 78048  1.8552e+000  5.4918e+000 -3.8256e+000 57922 78094,77898,77872
 7.0000e-001 78025 -2.8769e+000  2.5572e+000 -5.3888e+000 57922 78166,77846,77950
 7.0000e-001 78002 -7.5836e+000  3.7956e+000 -6.8635e+000 57922 77846,77976,77950
 7.0000e-001 78120  9.8610e+000  2.9907e+000 -6.2788e+000 57922 77950,77924,78094
 7.0000e-001 78143  2.6031e+000  3.6447e+000 -7.5735e+000 57922 78166,77950,78094
 7.0000e-001 78192 -8.6381e+000  2.6251e+000 -8.2487e-001 57922 77872,77846,78166
 7.0000e-001 78215 -2.3587e+000  2.6031e+000 -2.1304e+000 57922 77872,78166,78094
 7.0000e-001 78416 -1.2674e+001 -1.4153e+000  3.3679e+000 57468 78439,78292,78240
 7.0000e-001 78393 -1.2910e+001  5.4563e+000  3.0121e+000 57468 78439,78240,78344
 7.0000e-001 78370 -9.0741e+000  2.2402e-001  5.6371e+000 57468 78240,78292,78266
 7.0000e-001 78465 -1.2259e+001 -3.2872e+000 -1.2038e+000 57468 78318,78292,78439
 7.0000e-001 78488 -1.2269e+001  1.6513e+000 -2.0986e-001 57468 78318,78439,78344
 7.0000e-001 78689 -2.7886e+001 -4.3000e+000 -4.8559e-001 57014 78712,78539,78513
 7.0000e-001 78666 -2.4017e+001 -9.8915e+000 -3.6980e+000 57014 78712,78513,78617
 7.0000e-001 78643 -1.2494e+001 -8.5483e+000  3.5469e+000 57014 78565,78617,78591
 7.0000e-001 78738 -2.2984e+001  2.6703e+000  1.9278e+000 57014 78565,78539,78712
 7.0000e-001 78761 -2.1555e+001 -6.4203e+000 -1.7367e+000 57014 78565,78712,78617
 7.0000e-001 79241 -1.6430e+001  7.3785e-001  2.1938e+000 56652 79264,78895,78869
 7.0000e-001 79218 -1.1441e+001  4.1198e+000 -5.1273e-001 56652 79264,78869,79051
 7.0000e-001 79195 -1.6142e+001  2.1085e+000 -4.8468e-002 56652 78869,79077,79051
 7.0000e-001 79172 -1.5165e+001 -3.4260e+000 -2.6721e+000 56652 78895,78973,78947
 7.0000e-001 79149 -5.7197e+000  8.7552e+000 -4.7536e+000 56652 78973,79051,78999
 7.0000e-001 79126 -1.4239e+001  2.4080e+001 -5.9103e+000 56652 78895,78947,78921
 7.0000e-001 79103  2.8216e+000  2.5717e+001 -8.9794e+000 56652 78999,79051,79025
 7.0000e-001 79290 -1.1392e+001 -2.7970e+000 -9.6703e-001 56652 78973,78895,79264
 7.0000e-001 79313 -4.8373e+000  2.7695e+000 -4.2337e+000 56652 78973,79264,79051
 7.0000e-001 79512 -7.2550e+001 -2.1744e+001 -6.6040e+000 56062 79388,79440,79414
 7.0000e-001 79489 -4.9475e+001 -2.1820e+001 -2.5585e+000 56062 79336,79440,79388
 7.0000e-001 79466 -4.1546e+001 -2.8537e+001 -1.9034e+000 56062 79336,79388,79362
 7.0000e-001 79941 -1.3409e+001  2.0523e-001 -1.8861e+000 55658 79964,79670,79644
 7.0000e-001 79918 -1.1484e+001 -2.4132e+000 -1.5216e+000 55658 79964,79644,79800
 7.0000e-001 79895 -1.1277e+001  4.5141e+000  1.4313e+000 55658 80036,79696,79670
 7.0000e-001 79872 -1.0797e+001 -4.2655e+000  3.9838e+000 55658 80108,79722,79696
 7.0000e-001 79849 -4.3955e+000 -2.9361e-002 -7.2893e-001 55658 79722,79774,79748
 7.0000e-001 79826 -7.2917e+000 -1.4249e+000 -5.8684e+000 55658 79618,79800,79644
 7.0000e-001 79990 -1.1604e+001  3.9418e+000 -7.6924e-001 55658 80036,79670,79964
 7.0000e-001 80013 -1.2664e+001 -5.0127e-001 -2.2930e+000 55658 79774,79964,79800
 7.0000e-001 80062 -1.3427e+001 -7.4234e-001  1.1039e+000 55658 80108,79696,80036
 7.0000e-001 80085 -1.1261e+001  1.4830e-001 -2.6581e+000 55658 79774,80036,79964
 7.0000e-001 80134 -5.2794e+000  3.3027e-001  2.0164e+000 55658 79774,79722,80108
 7.0000e-001 80157 -6.8526e+000  4.0703e+000 -1.0044e+000 55658 79774,80108,80036
 7.0000e-001 80307 -1.7027e+000 -1.1093e+000 -1.7412e+000 55254 80402,80330,80206
 7.0000e-001 80284 -1.8236e+000  5.8089e-001 -1.6645e+000 55254 80330,80180,80258
 7.0000e-001 80356 -1.1502e+000  1.2982e-001 -2.4905e+000 55254 80232,80206,80330
 7.0000e-001 80379 -3.5273e+000 -9.2597e-001 -2.8694e+000 55254 80232,80330,80258
 7.0000e-001 80428 -7.9103e-001  6.6265e-002 -1.2722e+000 55254 80180,80330,80402
 7.0000e-001 80659 -1.7912e+000  2.7742e+001  3.3267e+000 54850 80558,80610,80584
 7.0000e-001 80636  2.9220e+000  2.6785e+001  6.7535e-001 54850 80532,80610,80558
 7.0000e-001 80760 -2.9689e+001 -4.5081e+000 -4.6298e-001 54652 80682,80734,80708
 7.0000e-001 81164 -2.8573e+001 -3.8087e-001 -2.1083e+000 54248 81187,80942,80890
 7.0000e-001 81141 -2.6358e+001  6.7686e-001 -2.9540e+000 54248 81187,80890,81046
 7.0000e-001 81118 -2.0963e+001  1.9668e+000 -7.0312e+000 54248 80942,81020,80994
 7.0000e-001 81095 -2.9008e+001 -3.0958e+000 -9.2662e-001 54248 80890,80942,80916
 7.0000e-001 81072 -2.7775e+001 -1.1819e+001 -1.3652e+000 54248 80942,80994,80968
 7.0000e-001 81213 -2.6186e+001 -1.4561e+000 -2.2131e+000 54248 81020,80942,81187
 7.0000e-001 81236 -2.4402e+001 -9.4270e-001 -2.7669e+000 54248 81020,81187,81046
 7.0000e-001 81663 -2.1562e+001  7.9746e+000  9.1878e+000 53594 81340,81444,81366
 7.0000e-001 81640 -9.9546e+000  9.4589e+000  2.8819e+000 53594 81340,81470,81444
 7.0000e-001 81617 -1.5811e+001  7.7037e+000  1.4432e+000 53594 81340,81522,81470
 7.0000e-001 81594 -2.5975e+001  1.5055e+001  8.5334e+000 53594 81392,81444,81418
 7.0000e-001 81571 -2.7597e+001  6.3497e+000  6.7237e+000 53594 81366,81444,81392
 7.0000e-001 81548  6.8392e+000  1.0083e+001  2.6527e+000 53594 81470,81522,81496
 7.0000e-001 81943 -4.3999e+000 -2.0918e+000 -1.2612e+000 53104 81966,81845,81819
 7.0000e-001 81920 -3.5897e+000 -3.6922e+000 -1.0131e+000 53104 81966,81819,81767
 7.0000e-001 81897 -2.9793e+000 -2.5567e+000 -5.9391e-001 53104 81767,81819,81793
 7.0000e-001 81992 -4.8382e+000 -3.1284e+000 -1.1268e+000 53104 81871,81845,81966
 7.0000e-001 82015 -4.4801e+000 -5.3826e+000 -6.8490e-001 53104 81871,81966,81767
 7.0000e-001 82491 -1.9740e+001  1.4994e+001 -7.6089e+000 52650 82145,82249,82171
 7.0000e-001 82468 -1.7178e+001  1.2712e+001 -3.9340e+000 52650 82145,82301,82249
 7.0000e-001 82445 -1.6754e+001  2.5858e+001 -2.1314e-001 52650 82249,82301,82275
 7.0000e-001 82422 -1.3849e+001  8.2819e+000 -4.6591e+000 52650 82119,82301,82145
 7.0000e-001 82399 -3.1612e+001  7.8116e+000 -1.0663e+001 52650 82171,82249,82223
 7.0000e-001 82376 -1.4820e+001  7.4088e+000  2.1488e+000 52650 82119,82327,82301
 7.0000e-001 82353 -5.4022e+001  3.0389e+001 -3.4034e+001 52650 82171,82223,82197
 7.0000e-001 82739 -2.0150e+001 -7.9341e-001 -1.2697e+000 52246 82762,82540,82514
 7.0000e-001 82716 -2.3469e+001 -2.7944e+000 -8.9339e-002 52246 82762,82514,82644
 7.0000e-001 82693 -2.6383e+001 -1.6199e+000 -4.9692e+000 52246 82540,82618,82592
 7.0000e-001 82670 -1.7626e+000 -1.0663e+000 -1.7134e+000 52246 82540,82592,82566
 7.0000e-001 82788 -2.3180e+001  1.9804e+000 -2.9268e+000 52246 82618,82540,82762
 7.0000e-001 82811 -2.6504e+001  4.2037e-001 -2.4246e+000 52246 82618,82762,82644
 7.0000e-001 83059 -1.2854e+001  3.4894e+000  2.5323e+000 51578 82860,82964,82938
 7.0000e-001 83036 -1.2846e+001  4.1149e+000 -1.3605e+000 51578 82834,82964,82860
 7.0000e-001 83013 -1.2866e+001  1.3908e+001  7.4208e+000 51578 82860,82938,82886
 7.0000e-001 82990 -4.2407e+000  3.4375e+001  8.2490e+000 51578 82886,82938,82912
 7.0000e-001 83309 -3.9015e+000  3.3106e+001  7.7733e+000 51138 83332,83162,83136
 7.0000e-001 83286 -5.9522e+000  2.5497e+001  3.6510e+000 51138 83332,83136,83110
 7.0000e-001 83263 -5.3268e+000  2.1767e+001  3.5653e+000 51138 83404,83214,83188
 7.0000e-001 83240  9.1193e-001  1.7887e+001  1.0026e+001 51138 83084,83214,83110
 7.0000e-001 83358 -3.7046e+000  2.7362e+001  3.9127e+000 51138 83188,83162,83332
 7.0000e-001 83381 -5.9115e+000  2.4798e+001  1.1473e+000 51138 83404,83188,83332
 7.0000e-001 83430 -7.6511e+000  1.3202e+001  6.3463e+000 51138 83110,83214,83404
 7.0000e-001 83453 -6.2615e+000  1.8378e+001  3.5964e+000 51138 83110,83404,83332
 7.0000e-001 83835 -2.3256e+001 -3.5181e-001 -3.1319e+000 50734 83613,83717,83691
 7.0000e-001 83812 -1.3947e+001  2.1465e+001 -2.8130e+000 50734 83561,83717,83613
 7.0000e-001 83789 -2.3038e+001  2.6558e+001 -1.1379e+000 50734 83561,83613,83587
 7.0000e-001 83766 -1.0313e+001  1.3104e+001  2.1448e+000 50734 83613,83691,83639
 7.0000e-001 83743 -6.9589e+000  2.2594e+001  6.3675e+000 50734 83639,83691,83665
 7.0000e-001 84034 -2.0357e+001  1.5145e+001 -1.2367e+001 50230 84057,83884,83858
 7.0000e-001 84011 -2.1816e+001  1.5607e+001 -6.1523e+000 50230 84129,84057,83858
 7.0000e-001 83988 -2.9098e+001  1.4318e+001 -3.9368e+000 50230 84129,83858,83962
 7.0000e-001 84083 -3.8525e+001  1.0070e+001 -1.9216e+001 50230 83910,83884,84057
 7.0000e-001 84106 -2.6628e+001  3.2833e+001 -1.4587e+001 50230 83910,84057,83936
 7.0000e-001 84155 -3.2140e+001  1.5943e+001 -6.7042e+000 50230 83936,84057,84129
 7.0000e-001 84178 -3.5350e+001  1.7649e+001 -4.1600e+000 50230 83936,84129,83962
 7.0000e-001 84558 -1.5954e+001  1.0185e+001  3.1304e+000 49768 84581,84388,84362
 7.0000e-001 84535 -7.4852e+000  1.0739e+001  9.9547e-001 49768 84581,84362,84310
 7.0000e-001 84512 -2.3406e+001  1.0669e+001  3.9749e+000 49768 84653,84440,84414
 7.0000e-001 84489  1.0782e+000  1.0174e+001  8.2424e+000 49768 84310,84362,84336
 7.0000e-001 84466 -1.0165e+001  1.7891e+001  2.0499e+001 49768 84284,84440,84310
 7.0000e-001 84607 -1.7950e+001  1.0649e+001  4.1039e+000 49768 84414,84388,84581
 7.0000e-001 84630 -1.9927e+001  1.1735e+001  2.5998e+000 49768 84653,84414,84581
 7.0000e-001 84679 -1.8668e+001  7.3921e+000  5.4182e+000 49768 84310,84440,84653
 7.0000e-001 84702 -1.4954e+001  8.4063e+000  5.0160e+000 49768 84310,84653,84581
 7.0000e-001 85159 -3.1029e+000 -2.7562e+000  1.9080e+000 49192 84885,84937,84911
 7.0000e-001 85136 -4.2615e+000 -4.1346e+000  2.6509e+000 49192 84885,85041,84937
 7.0000e-001 85113 -3.0262e+000 -7.4740e+000 -1.0691e-001 49192 84963,85041,84989
 7.0000e-001 85090 -3.6960e+000 -7.3525e+000  3.1598e+000 49192 84937,85041,84963
 7.0000e-001 85067 -7.5642e+000 -7.5724e+000 -1.3429e+000 49192 84989,85041,85015
 7.0000e-001 85714 -3.1382e+001  2.6757e+000  7.2029e+000 48638 85368,85498,85394
 7.0000e-001 85691 -2.9203e+001  9.4017e+000  6.2842e+000 48638 85368,85524,85498
 7.0000e-001 85668 -1.3705e+001  8.9834e+000 -7.9930e+000 48638 85737,85420,85394
 7.0000e-001 85645 -2.2517e+001  1.1381e+001  3.1133e-004 48638 85737,85394,85498
 7.0000e-001 85622 -3.5655e+001  1.4106e+001 -5.2828e+000 48638 85446,85498,85472
 7.0000e-001 85599 -4.2619e+001 -2.1992e+000  2.2860e+001 48638 85342,85524,85368
 7.0000e-001 85576 -5.1431e+001  4.9050e+000  1.6393e+001 48638 85342,85550,85524
 7.0000e-001 85763 -2.7187e+001  2.8711e+000 -9.5759e+000 48638 85446,85420,85737
 7.0000e-001 85786 -2.7791e+001  8.4078e+000 -1.1826e+000 48638 85446,85737,85498
 7.0000e-001 86371 -2.3153e+001  7.1803e-001  3.6833e+000 48084 86100,86230,86178
 7.0000e-001 86348 -2.8238e+001  2.3800e+000  2.5953e+000 48084 86048,86230,86100
 7.0000e-001 86325 -2.9617e+001 -1.7568e+000  4.7476e+000 48084 86100,86178,86126
 7.0000e-001 86302 -1.5737e+001  3.1462e+001  5.4969e+000 48084 86048,86100,86074
 7.0000e-001 86279 -1.4744e+001  1.4224e+001  1.1107e-001 48084 86178,86230,86204
 7.0000e-001 86256 -3.3562e+001 -3.1578e+000  3.6198e+000 48084 86126,86178,86152
 7.0000e-001 86619 -2.2040e+001  1.6920e+001 -2.0647e+001 47630 86642,86446,86420
 7.0000e-001 86596 -2.0572e+000  2.2950e+001 -2.6815e+001 47630 86642,86420,86394
 7.0000e-001 86573 -1.5432e+001  1.6726e+001 -7.6541e+000 47630 86394,86524,86498
 7.0000e-001 86550 -9.0545e+000 -2.2782e+001 -6.9816e+000 47630 86446,86498,86472
 7.0000e-001 86668 -2.3687e+001  1.0890e+001 -3.0928e+000 47630 86498,86446,86642
 7.0000e-001 86691 -5.9558e+000  1.7847e+001 -9.8053e+000 47630 86498,86642,86394
 7.0000e-001 87022 -5.0486e-001  2.2093e+001  2.0041e+000 47226 87045,86875,86849
 7.0000e-001 86999 -3.2375e+000  2.6270e+001  3.6474e-001 47226 87045,86849,86797
 7.0000e-001 86976 -9.8001e+000  1.8378e+001  7.1358e+000 47226 86797,86849,86823
 7.0000e-001 86953  4.8582e+000  3.0279e+001 -6.6220e+000 47226 86875,86927,86901
 7.0000e-001 87071  3.1836e+000  2.4462e+001  4.9601e-001 47226 86927,86875,87045
 7.0000e-001 87094 -6.5108e-001  2.7384e+001 -4.4169e-001 47226 86927,87045,86797
 7.0000e-001 87244 -9.6412e+000  1.0870e+001 -3.1783e+000 46814 87267,87169,87143
 7.0000e-001 87221 -7.5442e+000  1.7030e+001 -2.8385e+000 46814 87267,87143,87117
 7.0000e-001 87293 -9.3127e+000  9.6590e+000 -4.4209e+000 46814 87339,87267,87195
 7.0000e-001 87316 -5.1123e+000  1.7974e+001 -7.7509e+000 46814 87469,87267,87117
 7.0000e-001 87365 -6.3523e+000  1.1140e+001 -3.8435e+000 46814 87169,87267,87339
 7.0000e-001 87495 -1.2073e+001  1.6350e+000 -4.4196e+000 46814 87195,87267,87469
 7.0000e-001 88001 -2.7380e+001 -7.3334e+000 -3.3847e+000 46310 88024,87834,87808
 7.0000e-001 87978 -2.4910e+001 -6.1267e+000 -4.2950e+000 46310 88024,87808,87756
 7.0000e-001 87955 -2.3462e+001 -8.5408e+000 -2.6466e+000 46310 88096,87730,87860
 7.0000e-001 87932 -1.6443e+001 -3.3644e+000 -1.4500e+000 46310 87756,87808,87782
 7.0000e-001 87909 -2.1296e+001 -8.8884e-001 -2.4859e+000 46310 87678,87860,87730
 7.0000e-001 87886 -2.6376e+001 -2.8008e+000  2.5804e+000 46310 87678,87730,87704
 7.0000e-001 88050 -2.8189e+001 -8.7749e+000 -5.2929e-001 46310 87860,87834,88024
 7.0000e-001 88073 -2.3898e+001 -6.3895e+000 -1.6115e+000 46310 88096,87860,88024
 7.0000e-001 88122 -2.4803e+001 -9.4812e+000 -3.1000e+000 46310 87756,87730,88096
 7.0000e-001 88145 -2.6726e+001 -8.5487e+000 -2.5554e+000 46310 87756,88096,88024
 7.0000e-001 88572 -5.0690e+001 -1.0737e+001 -2.1151e+000 45856 88249,88405,88275
 7.0000e-001 88549 -5.3811e+001  2.6413e+001 -1.6119e+001 45856 88249,88431,88405
 7.0000e-001 88526 -3.3640e+001 -9.3106e+000  6.8333e+000 45856 88327,88405,88353
 7.0000e-001 88503 -3.1999e+001  1.0268e+001  9.3497e+000 45856 88275,88405,88327
 7.0000e-001 88480 -3.0256e+001  2.2375e+000  1.0602e+001 45856 88353,88405,88379
 7.0000e-001 88457 -4.1138e+001 -2.6441e+001  1.2026e+001 45856 88275,88327,88301
 7.0000e-001 88950 -1.3298e+001  4.7976e+000  4.7747e-001 45658 88973,88754,88728
 7.0000e-001 88927 -1.1923e+001 -1.2553e+000 -6.6252e-002 45658 88973,88728,88676
 7.0000e-001 88904 -4.1011e+000 -1.0857e+000  1.7568e+000 45658 88676,88832,88806
 7.0000e-001 88881 -1.0639e+001  8.2812e-001 -1.4847e+000 45658 88676,88728,88702
 7.0000e-001 88858 -6.9244e+000  4.7060e+000  1.1787e+001 45658 88754,88806,88780
 7.0000e-001 88999 -1.5390e+001 -1.7078e-001  1.2797e+000 45658 88806,88754,88973
 7.0000e-001 89022 -1.2255e+001 -3.7432e+000  3.1669e-001 45658 88806,88973,88676
 7.0000e-001 89351 -1.0267e+001  1.8386e+001 -5.5455e-001 45254 89152,89230,89204
 7.0000e-001 89328 -1.1080e+001  1.9427e+001  4.1787e+000 45254 89152,89256,89230
 7.0000e-001 89305 -4.9269e+000  2.0558e+001  3.7881e+000 45254 89126,89256,89152
 7.0000e-001 89282 -3.0699e+000  2.5283e+001 -3.6834e+000 45254 89152,89204,89178
 7.0000e-001 89523 -3.1532e+001 -1.6771e+001  3.8057e-001 45006 89422,89474,89448
 7.0000e-001 89500 -3.4144e+001 -1.7894e+001 -1.7135e+000 45006 89396,89474,89422
 7.0000e-001 89673 -1.7997e+001  1.8224e+001 -5.4673e-001 44495 89572,89624,89598
 7.0000e-001 89650 -1.9811e+001  2.0635e+001 -6.8618e+000 44495 89546,89624,89572
 7.0000e-001 90104 -3.8843e+001 -1.1644e+001 -9.4441e+000 44005 90199,90127,89937
 7.0000e-001 90081 -3.1740e+001 -1.4174e+001 -5.4721e+000 44005 90271,90127,89859
 7.0000e-001 90058 -3.8786e+001 -1.3303e+001 -9.9561e+000 44005 90199,89937,89885
 7.0000e-001 90035 -3.6927e+001 -1.5591e+001 -2.8292e+000 44005 90271,89859,89807
 7.0000e-001 90012 -3.3487e+001 -2.0108e+000 -8.2182e+000 44005 89885,89937,89911
 7.0000e-001 89989 -4.0375e+001 -1.0696e+001 -8.0353e+000 44005 89807,89859,89833
 7.0000e-001 90153 -4.3036e+001 -1.3712e+001 -1.0358e+001 44005 89963,89937,90127
 7.0000e-001 90176 -3.8214e+001 -3.6649e+000 -8.2701e+000 44005 89963,90127,89781
 7.0000e-001 90225 -3.4466e+001 -1.5568e+001 -9.9155e+000 44005 89859,90127,90199
 7.0000e-001 90248 -3.7877e+001 -2.0469e+001 -1.1664e+001 44005 89859,90199,89885
 7.0000e-001 90297 -3.9413e+001 -1.3832e+001 -3.5332e+000 44005 89781,90127,90271
 7.0000e-001 90320 -4.2771e+001 -1.3914e+001 -8.9816e-001 44005 89781,90271,89807
 7.0000e-001 90470 -2.5681e+001  1.9097e+000  2.3637e-001 43601 90493,90369,90343
 7.0000e-001 90447 -2.7126e+001  5.2421e+000  1.5509e+000 43601 90493,90343,90421
 7.0000e-001 90519 -2.7927e+001 -4.1685e+000 -1.8052e+000 43601 90395,90369,90493
 7.0000e-001 90542 -2.6490e+001  2.8210e+000 -1.8707e-001 43601 90395,90493,90421
 7.0000e-001 90922 -2.6815e+001  1.4067e+000 -3.3943e+000 43154 90945,90700,90674
 7.0000e-001 90899 -2.3190e+001  2.5748e+000 -5.1682e+000 43154 90945,90674,90648
 7.0000e-001 90876 -2.1279e+001  4.3668e+000 -3.9975e+000 43154 90648,90778,90752
 7.0000e-001 90853 -3.3184e+001 -5.7107e+000 -3.6359e+000 43154 90700,90752,90726
 7.0000e-001 90830 -1.7162e+001  2.9984e+000 -1.4239e+000 43154 90648,90804,90778
 7.0000e-001 90971 -2.6505e+001 -1.5027e-001 -1.1642e+000 43154 90752,90700,90945
 7.0000e-001 90994 -2.3645e+001  1.2665e+000 -2.9668e+000 43154 90752,90945,90648
 7.0000e-001 91451 -1.7429e+001  2.5403e+000  6.0473e+000 42650 91203,91255,91229
 7.0000e-001 91428 -2.1180e+000  9.1020e+000 -2.2769e+000 42650 91203,91333,91255
 7.0000e-001 91405  1.3281e+000 -3.7701e+000 -5.2891e+000 42650 91177,91333,91203
 7.0000e-001 91382 -6.8198e+000 -3.4653e+000 -1.3472e+000 42650 91255,91333,91281
 7.0000e-001 91359 -4.1622e+000 -4.0768e+000  4.8650e-002 42650 91281,91333,91307
 7.0000e-001 91721 -1.8916e+001  1.2057e+001  1.4917e+000 42288 91496,91600,91522
 7.0000e-001 91698 -1.4145e+001  2.3465e+001  1.5318e+000 42288 91496,91626,91600
 7.0000e-001 91675 -8.3608e+000  1.7236e+001 -5.2391e-001 42288 91522,91574,91548
 7.0000e-001 91652 -1.4805e+001  1.3574e+001  1.4419e+000 42288 91522,91600,91574
 7.0000e-001 92199 -1.1917e+001  1.0764e+001 -4.6294e+000 41898 92222,91983,91879
 7.0000e-001 92176 -1.2142e+001  1.8373e+001 -1.6436e+000 41898 92294,92222,91879
 7.0000e-001 92153 -1.0850e+001  1.7571e+001 -6.5321e-001 41898 92294,91879,91853
 7.0000e-001 92130 -2.0284e+001  1.1012e+000 -1.8287e+000 41898 91879,91957,91931
 7.0000e-001 92107 -1.8192e+001  7.7485e+000 -1.9739e+000 41898 91879,91983,91957
 7.0000e-001 92084 -7.4400e+000  2.3959e+000 -1.3223e+001 41898 91879,91931,91905
 7.0000e-001 92061 -1.0866e+001  1.3603e+001 -6.4199e-001 41898 91827,92035,91853
 7.0000e-001 92248 -1.2646e+001  2.0655e+001 -6.6694e+000 41898 92009,91983,92222
 7.0000e-001 92271 -1.2724e+001  2.3028e+001  7.7955e-001 41898 92009,92222,92035
 7.0000e-001 92320 -1.4317e+001  1.7266e+001 -1.2606e+000 41898 92035,92222,92294
 7.0000e-001 92343 -1.3326e+001  1.6389e+001 -3.0396e-001 41898 92035,92294,91853
 7.0000e-001 92770 -1.6784e+001  2.6420e+000 -6.0540e+000 41437 92865,92793,92525
 7.0000e-001 92747 -1.3714e+001  5.9428e+000 -6.4808e+000 41437 92793,92473,92629
 7.0000e-001 92724 -9.3390e+000 -2.6989e+000 -1.0241e+001 41437 92865,92525,92499
 7.0000e-001 92701 -1.7941e+001 -1.9543e+000 -4.2124e+000 41437 92525,92603,92577
 7.0000e-001 92678 -1.5271e+001  1.7477e+001 -1.2679e+000 41437 92447,92629,92473
 7.0000e-001 92655 -4.4020e+001 -1.1038e+001 -7.1727e+000 41437 92525,92577,92551
 7.0000e-001 92819 -1.7063e+001  1.9730e+000 -3.4385e+000 41437 92603,92525,92793
 7.0000e-001 92842 -1.6617e+001  2.8715e+000 -8.4960e+000 41437 92603,92793,92629
 7.0000e-001 92891 -4.1922e+000  5.4589e+000 -4.3385e+000 41437 92473,92793,92865
 7.0000e-001 92914  4.5832e+000  1.2786e+000 -9.5597e+000 41437 92473,92865,92499
 7.0000e-001 93243 -1.4968e+001 -2.0044e+000  2.8241e+000 41097 93044,93096,93070
 7.0000e-001 93220 -1.0143e+001  1.2830e+001  1.8657e+000 41097 93044,93122,93096
 7.0000e-001 93197 -2.7723e+001 -3.3551e+000  8.6526e+000 41097 93044,93148,93122
 7.0000e-001 93174 -3.6446e+001  7.0648e+000  1.5839e+001 41097 93018,93148,93044
 7.0000e-001 93393 -3.4130e+001  9.6716e+000  1.4586e-001 40643 93416,93292,93344
 7.0000e-001 93370 -2.5619e+001  2.1915e+001  4.2252e+000 40643 93266,93344,93292
 7.0000e-001 93442 -2.6060e+001  1.2879e+001  2.9206e-001 40643 93318,93292,93416
 7.0000e-001 93901 -1.3583e+001  5.9940e+000 -2.0985e+000 40132 93924,93731,93705
 7.0000e-001 93878 -7.0340e+000  1.1315e+001  4.7535e-001 40132 93996,93924,93705
 7.0000e-001 93855 -7.8702e+000  8.8748e+000  4.3190e+000 40132 93996,93705,93653
 7.0000e-001 93832  1.7752e+001  6.1657e+000  2.4002e+000 40132 93653,93705,93679
 7.0000e-001 93809 -9.0183e+000  1.2749e+001  5.4266e+000 40132 93627,93783,93757
 7.0000e-001 93950 -1.8015e+001  1.0552e+001  8.5580e-001 40132 93757,93731,93924
 7.0000e-001 93973 -1.2775e+001  1.5951e+001  3.3308e+000 40132 93757,93924,93627
 7.0000e-001 94022 -1.5152e+001  7.6707e+000  1.2036e+000 40132 93627,93924,93996
 7.0000e-001 94045 -1.1067e+001  7.5172e+000  4.3825e+000 40132 93627,93996,93653
 7.0000e-001 94423 -1.7042e+001  1.8332e+001 -2.1338e+000 39514 94149,94227,94175
 7.0000e-001 94400 -2.3775e+001  1.4615e+000 -3.4317e+000 39514 94149,94305,94227
 7.0000e-001 94377 -3.4911e+001  2.1435e+001  1.9767e+000 39514 94175,94227,94201
 7.0000e-001 94354 -1.9982e+001  4.6067e+000 -1.8980e+000 39514 94227,94305,94279
 7.0000e-001 94331 -8.9388e+000  8.9949e+000 -3.7034e+000 39514 94227,94279,94253
 7.0000e-001 94573  1.7080e+001  1.9082e+000  1.0360e+001 38822 94596,94498,94472
 7.0000e-001 94550  1.1753e+001  1.6162e+001 -2.5281e+000 38822 94596,94472,94446
 7.0000e-001 94622  2.3941e+001  5.9853e+000 -4.3200e+000 38822 94524,94498,94596
 7.0000e-001 94645  3.0258e+001  3.1829e+001 -1.8579e+001 38822 94524,94596,94446
 7.0000e-001 95025 -2.4487e+001  1.5638e+001 -2.5758e+000 38418 95048,94829,94777
 7.0000e-001 95002 -2.8574e+001  1.4817e+001 -1.8037e+000 38418 95120,95048,94777
 7.0000e-001 94979 -2.8476e+001  1.7019e+001 -1.4999e+000 38418 95120,94777,94751
 7.0000e-001 94956 -1.4526e+001  1.8417e+001 -9.1503e+000 38418 95192,94881,94855
 7.0000e-001 94933 -2.6949e+001  1.9658e+001 -2.8598e+000 38418 94777,94829,94803
 7.0000e-001 95074 -2.7621e+001  4.8318e+000 -1.0561e-001 38418 94855,94829,95048
 7.0000e-001 95097 -1.8500e+001  1.6876e+001 -5.3871e+000 38418 95192,94855,95048
 7.0000e-001 95146 -3.0969e+001  1.8956e+001 -1.3213e+000 38418 94907,95048,95120
 7.0000e-001 95169 -2.9070e+001  2.2884e+001 -2.0322e-001 38418 94907,95120,94751
 7.0000e-001 95218 -2.1914e+001  2.9776e+001 -9.9582e+000 38418 94907,94881,95192
 7.0000e-001 95241 -3.1732e+001  2.1796e+001 -4.5170e+000 38418 94907,95192,95048
 7.0000e-001 95511 -3.7506e+001 -2.8466e+000  5.3252e+000 38049 95312,95390,95364
 7.0000e-001 95488 -2.3174e+001  4.0564e+000  2.5312e+000 38049 95312,95416,95390
 7.0000e-001 95465 -2.8296e+001  1.0302e+001  1.2925e+000 38049 95312,95364,95338
 7.0000e-001 95442 -3.0502e+001  2.3888e+000  7.1753e-001 38049 95286,95416,95312
 7.0000e-001 95808 -3.1152e+001  2.1939e+001  1.2697e+001 37437 95831,95586,95560
 7.0000e-001 95785 -4.8836e+001  5.3462e+000  5.5002e+000 37437 95831,95560,95534
 7.0000e-001 95762 -2.0445e+001 -8.0090e-001 -1.4182e+000 37437 95586,95664,95638
 7.0000e-001 95739 -2.5250e+001  4.9076e+000 -1.7540e+001 37437 95534,95690,95664
 7.0000e-001 95716 -1.6208e+001 -5.5647e+000  1.4047e+000 37437 95586,95638,95612
 7.0000e-001 95857 -1.7261e+001  3.3984e+000  2.3277e+000 37437 95664,95586,95831
 7.0000e-001 95880 -3.6678e+001 -1.4559e+001 -5.4221e+000 37437 95664,95831,95534
 7.0000e-001 96390 -2.6522e+001 -5.4136e+000  8.7166e+000 36883 96413,96145,96093
 7.0000e-001 96367 -2.5377e+001 -6.8624e+000  1.1190e+000 36883 96413,96093,96067
 7.0000e-001 96344 -2.0663e+001 -1.4681e+001  1.6748e+000 36883 96067,96249,96171
 7.0000e-001 96321 -1.8620e+001  3.2573e+000  5.2903e+000 36883 96093,96145,96119
 7.0000e-001 96298 -1.9517e+001 -1.1159e+001 -7.4581e-001 36883 96171,96249,96197
 7.0000e-001 96275 -9.4219e+000 -8.8997e+000 -5.1985e-001 36883 96197,96249,96223
 7.0000e-001 96439 -3.1344e+001 -1.7786e+001  1.1835e+001 36883 96171,96145,96413
 7.0000e-001 96462 -2.7139e+001 -1.1727e+001  4.2008e+000 36883 96171,96413,96067
 7.0000e-001 96781 -2.3098e+001 -4.5195e+000 -3.2600e-001 36215 96559,96663,96637
 7.0000e-001 96758 -2.1461e+001 -1.2037e+001 -3.1451e+000 36215 96507,96663,96559
 7.0000e-001 96735 -2.1932e+001  1.5339e+001  1.8729e+000 36215 96585,96637,96611
 7.0000e-001 96712 -3.1727e+001 -4.1634e+000 -2.1734e+000 36215 96559,96637,96585
 7.0000e-001 96689 -1.7220e+001 -1.2590e+001 -8.4842e-001 36215 96507,96559,96533
 7.0000e-001 97161 -2.2032e+001 -3.8862e-001 -2.3836e+000 35818 97184,96965,96939
 7.0000e-001 97138 -1.8698e+001 -4.7763e+000  1.0694e+000 35818 97184,96939,96887
 7.0000e-001 97115 -2.1579e+001  6.6559e+000 -2.6055e+000 35818 96965,97043,97017
 7.0000e-001 97092 -1.3703e+001 -5.6867e+000 -2.2840e+000 35818 96887,96939,96913
 7.0000e-001 97069 -1.4229e+001  1.6785e+001  1.1149e+000 35818 96965,97017,96991
 7.0000e-001 97210 -2.6431e+001 -3.3533e+000 -1.0913e+000 35818 97043,96965,97184
 7.0000e-001 97233 -2.2518e+001 -7.2029e+000  2.1366e+000 35818 97043,97184,96887
 7.0000e-001 97739  7.7472e+000  9.4229e+000 -6.5544e+000 35214 97416,97468,97442
 7.0000e-001 97716 -6.4280e-001  9.2045e+000  2.0410e+000 35214 97416,97598,97468
 7.0000e-001 97693 -1.0890e+001  3.6959e+000 -6.0251e+000 35214 97762,97520,97468
 7.0000e-001 97670 -8.0290e+000  6.9795e+000 -1.5871e+000 35214 97762,97468,97598
 7.0000e-001 97647 -1.7083e+001  1.7024e+001 -1.8958e+000 35214 97546,97598,97572
 7.0000e-001 97624 -1.8116e+001  2.3175e+000 -4.7108e+000 35214 97468,97520,97494
 7.0000e-001 97788 -9.2148e+000  9.2458e+000 -3.1825e+000 35214 97546,97520,97762
 7.0000e-001 97811 -8.0636e+000  1.1693e+001  9.0634e-001 35214 97546,97762,97598
 7.0000e-001 98189 -1.2892e+001 -2.1752e+000  2.2565e+000 34760 98356,98212,97967
 7.0000e-001 98166 -1.3851e+001  1.4304e+001 -3.1768e+000 34760 98284,98212,97941
 7.0000e-001 98143 -1.1375e+001  1.2407e+001 -4.6050e+000 34760 98284,97941,97915
 7.0000e-001 98120 -1.6423e+001 -2.1937e+000  9.1899e-001 34760 98484,97993,97967
 7.0000e-001 98097 -1.1193e+001  5.4321e+000 -4.7533e+000 34760 98556,98045,98019
 7.0000e-001 98238 -1.3359e+001 -2.6447e+000  1.6193e+000 34760 98484,97967,98212
 7.0000e-001 98261 -1.4250e+001  4.7125e+000 -3.2722e+000 34760 98556,98019,98212
 7.0000e-001 98310 -1.5014e+001  1.0384e+001 -2.9078e+000 34760 98071,98212,98284
 7.0000e-001 98333 -1.4311e+001  5.4518e+000 -4.0505e+000 34760 98071,98284,97915
 7.0000e-001 98382 -2.4590e+000  1.3934e+001  8.4080e+000 34760 97941,98212,98356
 7.0000e-001 98510 -2.3293e+001 -6.5240e-001  2.3072e+000 34760 98019,97993,98484
 7.0000e-001 98533 -1.7556e+001  9.6095e-001  3.3814e+000 34760 98019,98484,98212
 7.0000e-001 98582 -1.5144e+001  5.5451e+000 -4.4665e+000 34760 98071,98045,98556
 7.0000e-001 98605 -1.6619e+001  6.0242e+000 -2.9663e+000 34760 98071,98556,98212
 7.0000e-001 99032 -2.8793e+001 -1.3391e+001  6.2341e+000 34156 98735,98891,98839
 7.0000e-001 99009 -2.5217e+001 -7.6417e+000  1.2348e+001 34156 98709,98891,98735
 7.0000e-001 98986 -2.6191e+001 -1.7432e+000  5.1858e-001 34156 98735,98813,98787
 7.0000e-001 98963 -2.8893e+001 -5.3739e+000  3.5646e+000 34156 98735,98839,98813
 7.0000e-001 98940 -3.1945e+001  9.4553e-001 -1.0804e+000 34156 98735,98787,98761
 7.0000e-001 98917 -2.2233e+001  2.7483e+000  1.9770e+000 34156 98839,98891,98865
 7.0000e-001 99231 -4.0209e+001 -1.6591e+001  3.5690e+000 33766 99055,99133,99107
 7.0000e-001 99208 -5.0862e+001 -1.3068e+001  6.1945e+000 33766 99055,99159,99133
 7.0000e-001 99185 -3.3482e+001  2.4954e+000  4.4849e+000 33766 99055,99107,99081
 7.0000e-001 99818 -6.2146e+000  6.6362e+000 -3.1310e+000 33248 99521,99651,99573
 7.0000e-001 99795 -2.1278e+001 -2.0180e+000 -7.7553e+000 33248 99521,99677,99651
 7.0000e-001 99772 -9.7760e+000 -1.4062e+000 -4.2263e+000 33248 99573,99651,99599
 7.0000e-001 99749 -1.0851e+001  1.0152e+001 -2.9715e+000 33248 99495,99677,99521
 7.0000e-001 99726 -1.0281e+001 -1.6592e+000 -3.8856e+000 33248 99599,99651,99625
 7.0000e-001 99703 -5.9607e+000 -4.3404e-001 -2.3432e+000 33248 99521,99573,99547
 7.0000e-001 100196 -2.7668e+001 -3.5502e+000  7.9876e+000 32794 100219,99948,99922
 7.0000e-001 100173 -3.0739e+001 -1.1635e+001  2.5896e+000 32794 100219,99922,100052
 7.0000e-001 100150 -2.2388e+001 -1.2087e+001  1.0386e+001 32794 99974,100052,100026
 7.0000e-001 100127 -3.1485e+001 -7.8327e+000  1.4345e+000 32794 99922,100078,100052
 7.0000e-001 100104 -2.4278e+001 -8.8269e+000  7.2419e+000 32794 99974,100026,100000
 7.0000e-001 100245 -2.1369e+001  4.0951e+000  1.6862e+001 32794 99974,99948,100219
 7.0000e-001 100268 -2.8705e+001 -9.1746e+000  1.0857e+001 32794 99974,100219,100052
 7.0000e-001 100418 -9.0711e+000  1.4665e+001 -5.7405e+000 32504 100571,100343,100317
 7.0000e-001 100395 -6.9082e+000  1.5788e+001 -1.0956e+001 32504 100571,100317,100441
 7.0000e-001 100467 -1.0663e+001  2.2313e+000 -5.7827e+000 32504 100291,100369,100441
 7.0000e-001 100597 -1.1614e+001  8.8469e+000 -5.4019e+000 32504 100369,100343,100571
 7.0000e-001 100620 -1.1230e+001  6.1172e+000 -1.0074e+001 32504 100369,100571,100441
 7.0000e-001 101020 -4.7798e+001 -8.4922e+000 -5.5241e+000 32142 100772,100902,100876
 7.0000e-001 100997 -3.4263e+001 -2.2796e-001  1.1296e+000 32142 100746,100902,100772
 7.0000e-001 100974 -2.3748e+001  2.2509e+001  1.2460e+001 32142 101043,100824,100798
 7.0000e-001 100951 -4.4523e+001  1.9460e+000  3.2467e+000 32142 101043,100798,100772
 7.0000e-001 100928 -2.6486e+001 -3.2814e+000 -2.1162e+000 32142 101115,100876,100850
 7.0000e-001 101069 -2.6360e+001 -1.0252e+000  6.8770e+000 32142 100850,100824,101043
 7.0000e-001 101092 -2.6428e+001 -5.7999e+000  8.3761e-001 32142 101115,100850,101043
 7.0000e-001 101141 -2.6027e+001  1.8827e+000 -2.4955e+000 32142 100772,100876,101115
 7.0000e-001 101164 -2.4930e+001  5.8004e-001  2.8266e-001 32142 100772,101115,101043
 7.0000e-001 101719 -1.5603e+001  3.4432e+000  3.4135e+000 31538 101742,101477,101399
 7.0000e-001 101696 -1.3734e+001  4.1255e-001  1.8306e+000 31538 101814,101742,101399
 7.0000e-001 101673 -1.1108e+001 -3.9145e-001  4.3822e+000 31538 101814,101399,101373
 7.0000e-001 101650 -3.7214e+001  8.6162e+000  1.6700e+001 31538 101425,101477,101451
 7.0000e-001 101627 -3.2507e+001 -7.3645e+000  8.1532e+000 31538 101399,101477,101425
 7.0000e-001 101604 -4.1808e+000 -9.6905e-001  6.3844e+000 31538 101477,101529,101503
 7.0000e-001 101581 -2.2483e+001  1.7542e+000  5.8226e+000 31538 101347,101555,101373
 7.0000e-001 101768 -1.4025e+001 -9.2633e-001  1.2227e+000 31538 101529,101477,101742
 7.0000e-001 101791 -1.8968e+001 -4.3863e+000 -2.9482e+000 31538 101529,101742,101555
 7.0000e-001 101840 -1.9127e+001  2.2724e-001  1.5770e+000 31538 101555,101742,101814
 7.0000e-001 101863 -1.6176e+001 -6.0813e-001  3.8568e+000 31538 101555,101814,101373
 7.0000e-001 102111 -3.1123e+001 -1.5984e+001  1.3825e+000 31112 101886,101990,101912
 7.0000e-001 102088 -2.5724e+001 -8.2911e+000 -1.7607e+000 31112 101886,102016,101990
 7.0000e-001 102065 -2.8323e+001 -1.8939e+001  6.9879e+000 31112 101912,101990,101964
 7.0000e-001 102042 -2.0243e+001 -7.8025e+000  3.3347e+000 31112 101912,101964,101938
 7.0000e-001 102408  1.2888e+000  2.9906e+000  1.9326e+000 30658 102431,102186,102160
 7.0000e-001 102385 -1.5369e+000  6.2722e-001  3.4623e+000 30658 102431,102160,102264
 7.0000e-001 102362 -7.9455e-001  2.8549e+000 -2.0673e+000 30658 102186,102238,102212
 7.0000e-001 102339  4.2411e+000  4.8829e+000  6.1118e+000 30658 102134,102264,102160
 7.0000e-001 102316 -1.3130e+001  4.3953e-001  1.2184e+000 30658 102134,102290,102264
 7.0000e-001 102457 -2.5536e+000  5.6548e+000  1.8492e+000 30658 102238,102186,102431
 7.0000e-001 102480 -5.1993e+000  3.5593e+000  3.3513e+000 30658 102238,102431,102264
 7.0000e-001 102681 -4.1867e+001 -1.3973e+001  8.9262e+000 30004 102704,102557,102505
 7.0000e-001 102658 -5.2775e+001  5.9112e+000 -4.9746e-002 30004 102704,102505,102609
 7.0000e-001 102635 -3.7746e+001 -9.0544e+000  5.5217e+000 30004 102505,102557,102531
 7.0000e-001 102730 -4.5582e+001 -2.6220e+001  7.9853e+000 30004 102583,102557,102704
 7.0000e-001 102753 -6.3748e+001 -1.6370e+001 -6.2797e+000 30004 102583,102704,102609
 7.0000e-001 103003 -3.0833e+001 -2.6130e+000  9.2682e+000 29564 103026,102804,102778
 7.0000e-001 102980 -3.0102e+001  1.1348e+000  1.0143e+001 29564 103026,102778,102908
 7.0000e-001 102957 -3.6884e+001 -9.9432e+000  5.1281e+000 29564 102856,102908,102882
 7.0000e-001 102934 -2.7106e+001 -4.5849e+000  6.4012e+000 29564 102804,102856,102830
 7.0000e-001 103052 -3.1269e+001 -4.4732e+000  6.8176e+000 29564 102856,102804,103026
 7.0000e-001 103075 -3.0170e+001 -1.3391e+000  8.0443e+000 29564 102856,103026,102908
 7.0000e-001 103634 -5.0295e+001 -6.6722e+000  2.0740e+001 29160 103657,103418,103392
 7.0000e-001 103611 -5.1130e+001 -6.2949e+000  4.8237e+000 29160 103657,103392,103314
 7.0000e-001 103588 -3.6722e+001  1.0369e+001 -1.2901e+000 29160 103314,103392,103366
 7.0000e-001 103565 -4.7194e+001  2.7012e-002  3.2863e+000 29160 103314,103366,103340
 7.0000e-001 103542 -3.0229e+001 -1.2570e+001  2.6140e-001 29160 103262,103444,103314
 7.0000e-001 103519 -2.6274e+001 -5.4117e+000  3.2166e+000 29160 103262,103314,103288
 7.0000e-001 103496 -3.2991e+001 -8.4786e+000 -2.5267e+000 29160 103262,103470,103444
 7.0000e-001 103683 -3.0334e+001  2.9127e+000  2.3744e+001 29160 103444,103418,103657
 7.0000e-001 103706 -3.9392e+001 -1.9125e+000  6.3876e+000 29160 103444,103657,103314
 7.0000e-001 104035 -2.4065e+001  9.0694e-001 -4.1431e-001 28770 103836,103914,103862
 7.0000e-001 104012 -1.5512e+001  4.6786e+000  7.3959e-001 28770 103810,103914,103836
 7.0000e-001 103989 -3.4247e+001  4.7087e-001 -1.8868e+000 28770 103810,103940,103914
 7.0000e-001 103966 -1.9092e+001  1.6039e+001  1.5528e+000 28770 103862,103914,103888
 7.0000e-001 104185 -9.2649e+000  9.5488e+000  2.9880e+000 28366 104208,104110,104084
 7.0000e-001 104162 -1.7723e+001 -4.6604e+000 -8.2558e-001 28366 104280,104208,104084
 7.0000e-001 104234 -1.3844e+001 -8.1041e+000 -1.3054e+000 28366 104610,104208,104136
 7.0000e-001 104257 -6.4737e+000  1.6082e+000 -2.4551e-001 28366 104538,104410,104208
 7.0000e-001 104306 -7.1816e+000  2.5038e-001  4.5013e-001 28366 104538,104208,104280
 7.0000e-001 104436 -9.0105e+000 -2.9125e+000  7.5900e-001 28366 104136,104208,104410
 7.0000e-001 104564 -7.3522e+000  3.3300e+000 -7.9029e-001 28366 104058,104410,104538
 7.0000e-001 104587 -7.4802e+000  2.3391e+000 -3.0168e-001 28366 104058,104538,104280
 7.0000e-001 104636 -6.3897e+000 -3.3094e+000  5.7416e+000 28366 104110,104208,104610
 7.0000e-001 105349 -1.3341e+001  8.4380e+000  1.0515e+000 27976 105516,105372,105107
 7.0000e-001 105326 -1.0517e+001  1.3779e+001  1.7443e+000 27976 105588,105372,105055
 7.0000e-001 105303  9.9942e+000  1.8614e+001  8.0627e+000 27976 105444,105159,105133
 7.0000e-001 105280 -2.0053e+001  1.2348e+001 -2.4572e+000 27976 105516,105107,105081
 7.0000e-001 105257 -9.9970e+000  2.1976e+001 -6.5023e-001 27976 105588,105055,105029
 7.0000e-001 105234 -1.3455e+001  6.3462e+000  4.8258e+000 27976 105003,105185,105159
 7.0000e-001 105211 -5.4571e+000  7.5883e+000  4.5555e+000 27976 104977,105185,105003
 7.0000e-001 105398 -1.7997e+001  1.5314e+001  3.9913e+000 27976 105133,105107,105372
 7.0000e-001 105421 -5.8529e+000  2.0988e+001  5.9871e+000 27976 105444,105133,105372
 7.0000e-001 105470 -8.7121e+000  9.1531e+000  3.4362e+000 27976 105003,105159,105444
 7.0000e-001 105493 -1.6197e+001  1.6867e+001  1.6643e+000 27976 105003,105444,105372
 7.0000e-001 105542 -1.8169e+001  4.7606e+000 -3.5266e+000 27976 105055,105372,105516
 7.0000e-001 105565 -2.7320e+001  8.0506e+000 -6.6333e+000 27976 105055,105516,105081
 7.0000e-001 105614 -9.8135e+000  2.2147e+001 -2.5892e+000 27976 105003,105372,105588
 7.0000e-001 105637 -9.1499e+000  2.9294e+001 -5.5015e+000 27976 105003,105588,105029
 7.0000e-001 106143 -1.2513e+001 -5.0712e+000  1.7942e+000 27664 106166,105846,105820
 7.0000e-001 106120 -1.0825e+001 -2.4181e+000  1.0707e+000 27664 106310,106166,105820
 7.0000e-001 106097 -1.0245e+001 -5.0922e+000  4.9482e-001 27664 106382,106238,105950
 7.0000e-001 106074 -1.3832e+001 -2.8783e-002 -1.0132e+000 27664 106310,105820,106002
 7.0000e-001 106051 -1.1101e+001 -7.7270e+000 -2.1584e+000 27664 106382,105950,105924
 7.0000e-001 106028 -7.5837e+000 -9.8504e+000  4.5939e+000 27664 105846,105898,105872
 7.0000e-001 106192 -9.7216e+000 -3.5235e+000  2.5281e+000 27664 105898,105846,106166
 7.0000e-001 106215 -1.1833e+001 -7.1149e+000  7.7494e-001 27664 106238,105898,106166
 7.0000e-001 106264 -8.6750e+000 -5.3529e+000  1.6088e+000 27664 105976,105950,106238
 7.0000e-001 106287 -1.1346e+001 -4.7977e+000  1.6054e-003 27664 105976,106238,106166
 7.0000e-001 106336 -1.3669e+001 -5.9628e+000 -3.9949e-001 27664 105976,106166,106310
 7.0000e-001 106359 -1.6766e+001 -3.5086e+000 -2.4762e+000 27664 105976,106310,106002
 7.0000e-001 106408 -1.1766e+001 -1.1377e+001 -7.6360e-001 27664 105898,106238,106382
 7.0000e-001 106431 -1.1284e+001 -1.2033e+001 -3.3845e+000 27664 105898,106382,105924
 7.0000e-001 106728 -2.7694e+001  1.1238e+000 -5.3627e+000 27153 106751,106506,106454
 7.0000e-001 106705 -2.8582e+001 -5.0189e+000 -9.5369e+000 27153 106751,106454,106610
 7.0000e-001 106682 -2.6867e+001  1.8424e+001 -9.2381e+000 27153 106454,106506,106480
 7.0000e-001 106659 -1.2943e+001 -1.9617e+000  4.9375e-001 27153 106532,106610,106584
 7.0000e-001 106636 -2.3678e+001 -7.4963e+000 -2.2864e+000 27153 106532,106584,106558
 7.0000e-001 106777 -2.3563e+001  1.1341e+001 -1.8706e+000 27153 106532,106506,106751
 7.0000e-001 106800 -2.7478e+001  7.4583e-001 -6.3596e+000 27153 106532,106751,106610
 7.0000e-001 107180 -1.2314e+001  3.0793e+001  1.1291e+001 26642 107203,106984,106958
 7.0000e-001 107157 -1.4522e+001  2.7006e+001  6.0951e-001 26642 107203,106958,106932
 7.0000e-001 107134 -6.3350e+000  2.4603e+001 -5.7954e-001 26642 107275,107036,107010
 7.0000e-001 107111 -3.0748e+001  7.6532e+000  5.3653e+000 26642 106932,107062,107036
 7.0000e-001 107088 -2.6239e+001  1.3222e+001  1.7100e+001 26642 106906,107062,106932
 7.0000e-001 107229 -2.3798e+001  6.5322e+000  1.5051e+001 26642 107010,106984,107203
 7.0000e-001 107252 -8.7584e+000  2.8839e+001  3.1204e+000 26642 107275,107010,107203
 7.0000e-001 107301 -1.1239e+001  2.2373e+001 -1.0922e+000 26642 106932,107036,107275
 7.0000e-001 107324 -1.5640e+001  2.4684e+001  1.2102e+000 26642 106932,107275,107203
 7.0000e-001 107675 -2.5661e+001  1.3568e+001 -7.8693e-001 26045 107450,107554,107476
 7.0000e-001 107652 -2.7608e+001  1.8446e+001 -4.1969e+000 26045 107450,107580,107554
 7.0000e-001 107629 -5.7983e+001  2.2193e+000 -2.7413e+000 26045 107476,107528,107502
 7.0000e-001 107606 -3.5046e+001  6.3789e+000 -5.4821e+000 26045 107476,107554,107528
 7.0000e-001 107874 -3.6255e+001  1.9285e+001 -3.4089e+000 25641 107750,107802,107776
 7.0000e-001 107851 -3.8082e+001  2.7091e+000 -5.9387e-001 25641 107724,107802,107750
 7.0000e-001 107828 -2.4549e+001  1.1663e+001  4.4686e+000 25641 107698,107802,107724
 7.0000e-001 108431 -3.5230e+001  5.0816e+000 -6.0197e-001 25023 108526,108267,108241
 7.0000e-001 108408 -3.3095e+001  6.3775e+000  1.3902e+001 25023 108059,108267,108085
 7.0000e-001 108385 -2.6603e+001  5.6027e+000  3.9181e+000 25023 108454,108163,108111
 7.0000e-001 108362 -3.5175e+001  4.5177e+000  6.0621e+000 25023 108454,108111,108085
 7.0000e-001 108339 -2.3839e+001  1.2588e+000  5.7041e+000 25023 108111,108163,108137
 7.0000e-001 108316 -1.3665e+001  1.2884e+000 -1.4869e+000 25023 108163,108241,108215
 7.0000e-001 108293 -2.5881e+001 -6.9793e+000 -1.7234e+001 25023 108163,108215,108189
 7.0000e-001 108480 -2.2148e+001  8.5325e+000 -4.0335e+000 25023 108241,108163,108454
 7.0000e-001 108503 -3.2462e+001  3.9657e+000 -3.2747e-001 25023 108526,108241,108454
 7.0000e-001 108552 -3.1937e+001  5.3707e+000  9.6164e-001 25023 108085,108267,108526
 7.0000e-001 108575 -2.9021e+001  4.4365e+000  1.3052e+000 25023 108085,108526,108454
 7.0000e-001 108823 -4.5460e+001 -4.1062e+001 -5.2621e+000 24461 108624,108728,108650
 7.0000e-001 108800 -4.8334e+001 -3.4170e+001 -3.9635e+000 24461 108598,108728,108624
 7.0000e-001 108777 -3.3188e+001 -3.2003e+001 -6.4573e-001 24461 108650,108728,108676
 7.0000e-001 108754 -4.0652e+001 -3.1267e+001 -8.1920e+000 24461 108676,108728,108702
 7.0000e-001 109022 -8.0816e+000  1.6884e+001  1.4025e+000 24121 108872,108924,108898
 7.0000e-001 108999 -1.1322e+001  1.8245e+001  1.3175e+000 24121 108846,108924,108872
 7.0000e-001 108976 -2.1306e+001  1.5994e+001 -3.4837e+000 24121 108846,108950,108924
 7.0000e-001 109483 -4.4280e+001  6.8440e-001  1.4735e+001 23717 109209,109339,109235
 7.0000e-001 109460 -3.2556e+001  1.6186e+001  9.3090e+000 23717 109209,109365,109339
 7.0000e-001 109437 -2.6617e+001 -9.5022e-001  6.6468e+000 23717 109287,109339,109313
 7.0000e-001 109414 -2.2744e+001  8.4118e+000  1.3824e+001 23717 109235,109339,109287
 7.0000e-001 109391 -2.9334e+001 -7.9629e+000  1.2077e+001 23717 109235,109287,109261
 7.0000e-001 109910 -1.0346e+001  1.3953e+001  3.7049e-003 23305 109613,109743,109717
 7.0000e-001 109887 -1.3269e+001  1.1575e+001  5.9276e+000 23305 109613,109769,109743
 7.0000e-001 109864 -1.3126e+001  1.0745e+000  2.3873e+000 23305 109613,109717,109639
 7.0000e-001 109841 -1.3939e+001  1.6457e+001  5.0339e+000 23305 109587,109769,109613
 7.0000e-001 109818 -1.5520e+001  7.4340e-002  1.0420e+000 23305 109639,109717,109691
 7.0000e-001 109795 -1.6513e+001 -5.7285e-002  7.8539e-001 23305 109639,109691,109665
 7.0000e-001 110180 -2.7516e+001 -2.3262e+000  9.6082e-001 22851 110007,110059,110033
 7.0000e-001 110157 -1.8970e+001  1.7134e+001  2.2428e+000 22851 109981,110059,110007
 7.0000e-001 110134 -2.5473e+001  1.6302e+001  2.7410e+000 22851 109955,110059,109981
 7.0000e-001 110111 -2.3992e+001  2.5870e+001  2.1595e+000 22851 109955,110085,110059
 7.0000e-001 110737 -1.0827e+001 -2.6357e+000 -4.8084e+000 22333 110760,110469,110391
 7.0000e-001 110714 -2.3347e+001 -8.9310e+000 -1.9580e+000 22333 110760,110391,110365
 7.0000e-001 110691 -2.4089e+001 -5.4495e+000 -9.1560e+000 22333 110832,110521,110469
 7.0000e-001 110668 -7.8337e+000 -1.2897e+001 -9.1129e+000 22333 110417,110469,110443
 7.0000e-001 110645 -1.4177e+001 -1.3079e+001 -8.6544e+000 22333 110391,110469,110417
 7.0000e-001 110622 -3.2976e+001  1.0677e+000 -3.5925e+001 22333 110469,110521,110495
 7.0000e-001 110599 -7.0534e+000  2.6626e+001 -1.0406e+001 22333 110365,110573,110547
 7.0000e-001 110786 -2.2812e+001 -4.5970e+000 -8.7552e+000 22333 110832,110469,110760
 7.0000e-001 110809 -2.2777e+001  1.3873e+000 -3.2686e+000 22333 110547,110760,110365
 7.0000e-001 110858 -3.1558e+001 -2.4763e+000 -7.1215e+000 22333 110547,110521,110832
 7.0000e-001 110881 -2.4916e+001  1.8268e+000 -5.2562e+000 22333 110547,110832,110760
 7.0000e-001 111308 -5.5846e+001 -9.3557e+000  1.3442e+001 21829 111331,111063,111011
 7.0000e-001 111285 -6.4883e+001 -7.5796e+000  6.4689e+000 21829 111331,111011,111167
 7.0000e-001 111262 -4.7909e+001 -3.0960e+001  8.8468e+000 21829 111403,111089,111063
 7.0000e-001 111239 -4.9554e+001  1.9883e+001  1.6236e+001 21829 111011,111063,111037
 7.0000e-001 111216 -7.4107e+001  3.0297e+001 -4.8736e-001 21829 110985,111167,111011
 7.0000e-001 111193 -2.7741e+000 -5.8205e-001  4.4865e-001 21829 111089,111141,111115
 7.0000e-001 111357 -6.2593e+001 -1.7561e+001  9.3856e+000 21829 111403,111063,111331
 7.0000e-001 111380 -6.2139e+001 -1.8893e+001 -3.3387e+000 21829 111141,111331,111167
 7.0000e-001 111429 -4.3840e+000 -1.1043e+001  3.9659e+000 21829 111141,111089,111403
 7.0000e-001 111452 -3.9918e+001 -7.6073e+000  3.3586e+000 21829 111141,111403,111331
 7.0000e-001 112056 -2.2351e+001 -1.3387e+000 -4.0274e-001 21489 111687,111765,111739
 7.0000e-001 112033 -1.9697e+001 -3.4973e+000 -4.4699e-001 21489 112151,112079,111687
 7.0000e-001 112010 -3.3870e+000 -5.5852e+000  5.7454e+000 21489 111791,111843,111817
 7.0000e-001 111987 -1.1006e+001 -6.7643e-001  2.4056e+000 21489 112079,111843,111791
 7.0000e-001 111964 -2.4293e+001 -4.0713e+000 -3.4368e+000 21489 112151,111687,111661
 7.0000e-001 111941 -1.8631e+001 -1.1371e+001 -4.4446e+000 21489 111661,111869,111843
 7.0000e-001 111918 -2.7765e+001 -2.3102e+000 -2.0518e+000 21489 111687,111739,111713
 7.0000e-001 111895 -1.6465e+001 -6.2433e+000 -2.1893e+000 21489 111635,111869,111661
 7.0000e-001 112105 -1.3565e+001  1.4705e+000  1.6968e+000 21489 111765,111687,112079
 7.0000e-001 112128 -1.3490e+001 -2.9207e+000  1.0825e+000 21489 111765,112079,111791
 7.0000e-001 112177 -1.1686e+001 -2.4837e+000  1.8518e+000 21489 111843,112079,112151
 7.0000e-001 112200 -1.6204e+001 -2.2496e+000 -6.6779e-001 21489 111843,112151,111661
 7.0000e-001 112578 -3.1098e+001  9.9710e-001 -1.3481e+000 21177 112382,112434,112408
 7.0000e-001 112555 -3.2142e+001  7.7006e-001 -2.2278e+000 21177 112330,112434,112382
 7.0000e-001 112532 -4.0758e+001 -6.0371e+000 -6.6771e+000 21177 112304,112434,112330
 7.0000e-001 112509 -3.7865e+001 -2.9074e-001  0.0000e+000 21177 112330,112382,112356
 7.0000e-001 112486 -3.3537e+001 -7.4513e+000 -6.6054e+000 21177 112304,112460,112434
 7.0000e-001 112679 -4.3144e+001  1.1174e+001  3.9750e+000 20666 112601,112653,112627
 7.0000e-001 112927 -3.5442e+001 -1.4467e+000  3.0198e+000 19762 112702,112754,112728
 7.0000e-001 112904 -2.7784e+001 -1.8927e-001  1.3059e+000 19762 112702,112832,112754
 7.0000e-001 112881 -2.7186e+001  2.8155e-001  6.6762e-001 19762 112754,112832,112806
 7.0000e-001 112858 -1.9959e+001  2.5334e+000  1.0284e+001 19762 112754,112806,112780
 7.0000e-001 113297 -2.0038e+001  2.0971e+001 -3.3474e+000 19308 112974,113052,113026
 7.0000e-001 113274 -2.2149e+001  1.3699e+001 -1.7601e+000 19308 112974,113156,113052
 7.0000e-001 113251 -2.1618e+001  2.3740e+001  4.7354e+000 19308 113052,113130,113104
 7.0000e-001 113228 -2.2789e+001  1.1135e+001 -1.2099e+000 19308 113052,113156,113130
 7.0000e-001 113205 -1.9832e+001  1.8346e+001  0.0000e+000 19308 113052,113104,113078
 7.0000e-001 113182 -2.5666e+001  1.9728e+001 -7.5401e+000 19308 112974,113026,113000
 7.0000e-001 113547 -2.5560e+001  1.3508e+001  1.7689e+000 18711 113570,113374,113348
 7.0000e-001 113524 -2.0278e+001  6.2155e+000 -4.6179e-001 18711 113570,113348,113452
 7.0000e-001 113501 -2.3971e+001 -7.2324e+000  3.8165e+000 18711 113322,113452,113348
 7.0000e-001 113478 -2.6979e+001  1.1137e+001  8.6481e+000 18711 113374,113426,113400
 7.0000e-001 113596 -3.0734e+001  6.0812e+000  4.3414e+000 18711 113426,113374,113570
 7.0000e-001 113619 -2.2968e+001  1.2726e+000  7.8488e-001 18711 113426,113570,113452
 7.0000e-001 113771 -7.5819e+000  2.3865e+001  3.2925e+000 18307 113670,113722,113696
 7.0000e-001 113748 -9.0651e+000  1.6321e+001  1.3112e+000 18307 113644,113722,113670
 7.0000e-001 113972 -4.5183e+001  2.1284e+001  2.8688e+000 17945 113822,113874,113848
 7.0000e-001 113949 -2.8198e+001  2.1843e+001  6.3064e-001 17945 113822,113900,113874
 7.0000e-001 113926 -2.9024e+001  9.0425e+000 -9.3655e+000 17945 113796,113900,113822
 7.0000e-001 114075 -3.1401e+001  3.1444e+001 -6.3666e+000 17482 113997,114049,114023
 7.0000e-001 114479 -1.7406e+001  2.2447e+001  1.7314e+000 17042 114257,114361,114335
 7.0000e-001 114456 -1.9453e+001  1.9559e+001  2.6867e+000 17042 114205,114361,114257
 7.0000e-001 114433 -1.2041e+001  2.7414e+001 -7.6607e-001 17042 114205,114257,114231
 7.0000e-001 114410 -1.7568e+001  4.2823e+001  1.3863e+000 17042 114283,114335,114309
 7.0000e-001 114387 -1.4438e+001  3.0178e+001  2.4928e+000 17042 114257,114335,114283
 7.0000e-001 114879 -9.5681e-001  7.4445e+000 -9.3470e-001 16638 114631,114683,114657
 7.0000e-001 114856  2.3820e-001  7.2059e+000  2.8274e+000 16638 114605,114683,114631
 7.0000e-001 114833  9.0682e-001  4.8596e+000  1.3119e+000 16638 114605,114761,114683
 7.0000e-001 114810  3.0593e+001  1.2173e+001 -6.0847e+000 16638 114683,114735,114709
 7.0000e-001 114787  2.0301e+000  1.3323e+001 -7.1153e-001 16638 114683,114761,114735
 7.0000e-001 115078 -1.1012e+002 -3.7206e+001  8.2714e+000 16232 114954,115006,114980
 7.0000e-001 115055 -7.3273e+001 -2.1473e+001 -1.8858e+000 16232 114928,115006,114954
 7.0000e-001 115032 -9.9112e+001 -2.9885e+001 -1.0794e+001 16232 114902,115006,114928
 7.0000e-001 115228 -9.8332e-001  1.5992e+001  3.8578e+000 15482 115101,115153,115127
 7.0000e-001 115205 -2.4661e+001  1.3103e+001 -8.2725e-001 15482 115101,115179,115153
 7.0000e-001 115331 -2.1079e+001  2.1862e+000 -4.1848e-001 15163 115253,115305,115279
 7.0000e-001 115434 -6.0639e+000  7.1306e+000 -4.2723e+000 421 115356,115408,115382
 8.0000e-001 68213  3.9978e+000 -3.5943e+000 -1.7494e-001 67888 68112,68164,68138
 8.0000e-001 68190  1.8035e+000 -4.9733e+000  3.2037e-001 67888 68086,68164,68112
 8.0000e-001 68314  9.3920e+000  3.3175e-002  9.2185e-001 67576 68236,68288,68262
 8.0000e-001 68584 -1.1355e+001 -5.3445e+000  1.0582e+000 67378 68385,68489,68463
 8.0000e-001 68561  7.5296e+000  2.5909e+000  5.4574e-001 67378 68359,68489,68385
 8.0000e-001 68538 -1.1295e+001 -1.5234e+000  1.0665e+000 67378 68385,68463,68411
 8.0000e-001 68515 -9.4993e+000  8.8726e+000  5.2553e-001 67378 68411,68463,68437
 8.0000e-001 68964 -5.2233e+000  1.3959e+001 -2.4737e+000 67130 68690,68820,68716
 8.0000e-001 68941 -6.1745e+000  2.1586e+001 -1.9315e+000 67130 68690,68846,68820
 8.0000e-001 68918 -2.1222e+001  4.8017e+000  6.3241e+000 67130 68742,68820,68794
 8.0000e-001 68895 -1.9029e+001  9.1731e+000  3.1120e+000 67130 68716,68820,68742
 8.0000e-001 68872 -1.9028e+001  1.1474e+001  7.8784e+000 67130 68742,68794,68768
 8.0000e-001 69065  3.3369e+000  2.0167e+000 -1.1070e+000 66926 68987,69039,69013
 8.0000e-001 69445  1.8723e+000  5.1919e-001  1.6958e-001 66614 69223,69301,69275
 8.0000e-001 69422  1.4382e+000  3.6127e-001  1.5404e-001 66614 69171,69301,69223
 8.0000e-001 69399 -2.5740e-001 -6.2309e-001  9.4938e-001 66614 69171,69327,69301
 8.0000e-001 69376  2.0519e+000  8.5449e-001  8.9844e-002 66614 69223,69275,69249
 8.0000e-001 69353  2.0411e+000  1.1468e+000  4.2621e-001 66614 69171,69223,69197
 8.0000e-001 69546 -1.4742e+001  1.7569e+001 -6.9954e+000 66416 69468,69520,69494
 8.0000e-001 69997  3.3518e+000  2.1631e+001  4.0287e-001 66104 69700,69830,69726
 8.0000e-001 69974  4.6755e+000  1.6799e+001 -1.2013e+000 66104 69700,69856,69830
 8.0000e-001 69951  6.4322e+000  1.5216e+001  2.7393e+000 66104 69726,69804,69778
 8.0000e-001 69928  4.1957e-001  1.6383e+001  1.6727e+000 66104 69726,69830,69804
 8.0000e-001 69905  5.1989e+000  1.2928e+001  1.2848e+000 66104 69726,69778,69752
 8.0000e-001 69882  1.5534e+001  1.4640e+001 -7.5816e+000 66104 69674,69856,69700
 8.0000e-001 70326  3.8958e+000  1.7941e+001 -2.2075e+000 65814 70349,70153,70127
 8.0000e-001 70303  3.5648e+000  2.0683e+001 -4.7052e+000 65814 70349,70127,70101
 8.0000e-001 70280  6.6720e+000  1.1730e+001 -1.0712e+001 65814 70101,70231,70205
 8.0000e-001 70257  4.1442e+000  1.7911e+001  6.0012e-001 65814 70153,70205,70179
 8.0000e-001 70375  3.1448e+000  1.3762e+001 -1.0983e+000 65814 70205,70153,70349
 8.0000e-001 70398  4.0316e+000  1.7532e+001 -3.9010e+000 65814 70205,70349,70101
 8.0000e-001 70904 -8.4956e+000  7.9843e+000 -1.4033e+000 65502 70607,70737,70685
 8.0000e-001 70881 -1.4147e+001  1.0839e+000  1.7282e+000 65502 70581,70737,70607
 8.0000e-001 70858 -1.1103e+001  6.2186e+000  9.6945e-002 65502 70581,70763,70737
 8.0000e-001 70835 -2.7957e+001  5.9364e-001  1.9050e+000 65502 70685,70737,70711
 8.0000e-001 70812  1.7442e+001  1.0390e+001  2.8442e+000 65502 70607,70659,70633
 8.0000e-001 70789 -6.5781e+000  1.3741e+001  2.9789e+000 65502 70607,70685,70659
 8.0000e-001 71103  2.8896e+000  9.1221e+000  2.9583e-001 65304 71126,70979,70953
 8.0000e-001 71080  2.6463e+000  8.3872e+000  5.1002e-001 65304 71126,70953,70927
 8.0000e-001 71057  6.0638e+000  1.3046e+001  5.9879e+000 65304 70927,71031,71005
 8.0000e-001 71152  2.2747e+000  1.0769e+001  2.3373e-001 65304 71005,70979,71126
 8.0000e-001 71175  1.4792e+000  9.3441e+000  6.1265e-001 65304 71005,71126,70927
 8.0000e-001 71374  1.0979e+000  5.2707e+000  1.4352e+000 65106 71198,71276,71224
 8.0000e-001 71351 -8.1748e+000 -3.5976e-002 -8.0381e-001 65106 71198,71302,71276
 8.0000e-001 71328  2.3252e+000  8.0854e+000  5.7861e-001 65106 71224,71276,71250
 8.0000e-001 71756 -5.8981e+000  1.6872e+001  1.3934e+000 64652 71508,71638,71534
 8.0000e-001 71733 -1.9336e+001  1.1141e+001  3.4937e+000 64652 71482,71638,71508
 8.0000e-001 71710 -3.0570e+000  8.6269e+000 -7.9549e-001 64652 71534,71586,71560
 8.0000e-001 71687 -1.9638e-001  1.2910e+001 -2.2546e+000 64652 71534,71612,71586
 8.0000e-001 71664 -1.5537e+001  7.9233e+000 -2.5312e+000 64652 71534,71638,71612
 8.0000e-001 72085 -5.1384e+000  8.7330e+000  2.2091e+000 64248 71886,71964,71912
 8.0000e-001 72062 -5.0217e+000  8.8556e+000  2.1288e+000 64248 71860,71964,71886
 8.0000e-001 72039 -1.0468e+001  7.6962e+000  8.2189e-001 64248 71912,71964,71938
 8.0000e-001 72016 -4.2438e+000  1.5562e+001  1.3192e+000 64248 71860,71990,71964
 8.0000e-001 72235 -1.1329e+001  1.0415e+001  2.6779e+000 63858 72588,72258,72134
 8.0000e-001 72212 -6.3977e+000  7.3587e+000 -2.2645e+000 63858 72330,72258,72108
 8.0000e-001 72284 -3.8906e+000  1.1959e+001  4.3997e+000 63858 72160,72134,72258
 8.0000e-001 72307 -1.8135e-001  1.1132e+001  9.7602e-001 63858 72460,72258,72186
 8.0000e-001 72356  9.7499e-001  1.3271e+001  2.8287e+000 63858 72186,72258,72330
 8.0000e-001 72486 -7.8550e+000  3.1421e+000  5.2057e+000 63858 72160,72258,72460
 8.0000e-001 72614 -1.0119e+001  1.2389e+001 -1.4027e+000 63858 72108,72258,72588
 8.0000e-001 73248  9.9402e+000  1.2805e+001  4.6478e+000 63404 72902,72954,72928
 8.0000e-001 73225 -3.6178e+000  9.9378e+000 -1.4657e+000 63404 73271,72954,72902
 8.0000e-001 73202 -5.1563e+000  1.2488e+001 -4.1628e-001 63404 73271,72902,73032
 8.0000e-001 73179 -1.9046e+001  5.9589e+000  1.4472e+000 63404 72902,73058,73032
 8.0000e-001 73156 -6.6950e+000  1.8777e+001 -5.1994e+000 63404 72980,73032,73006
 8.0000e-001 73133 -2.1425e+001  1.7563e+001  6.1853e+000 63404 72876,73058,72902
 8.0000e-001 73110 -1.0986e+002 -1.2403e+001  1.3926e+001 63404 72876,73084,73058
 8.0000e-001 73297 -5.0156e+000  8.8950e+000 -2.4573e+000 63404 72980,72954,73271
 8.0000e-001 73320 -6.8701e+000  1.0767e+001 -1.4157e+000 63404 72980,73271,73032
 8.0000e-001 73470 -1.2167e+001  1.8289e+001  1.9958e+000 63014 73343,73395,73369
 8.0000e-001 73447 -1.8490e+001  1.3250e+001 -5.9462e-001 63014 73343,73421,73395
 8.0000e-001 73929 -2.5483e+000  4.8635e+000 -1.3475e+000 62702 73759,73811,73785
 8.0000e-001 73906 -4.1154e-001  5.9826e+000 -7.8597e-001 62702 73655,73811,73759
 8.0000e-001 73883  1.7403e+000  6.8658e+000  2.3733e-001 62702 73655,73759,73681
 8.0000e-001 73860  1.1438e+000  5.5414e+000  5.0661e-001 62702 73681,73759,73707
 8.0000e-001 73837  3.8410e+000  6.8256e+000 -5.9771e-001 62702 73707,73759,73733
 8.0000e-001 74209  6.0297e+000  5.4394e+000 -3.2500e-001 62404 74059,74137,74085
 8.0000e-001 74186  6.8938e+000  7.0635e+000 -1.0865e+000 62404 74033,74137,74059
 8.0000e-001 74163  7.1138e+000  1.3856e+000 -3.1256e-001 62404 74085,74137,74111
 8.0000e-001 74408 -6.8075e+000  5.3089e+000  7.7299e-001 62000 74258,74336,74284
 8.0000e-001 74385 -2.8634e+000  6.5908e+000 -1.1134e-001 62000 74232,74336,74258
 8.0000e-001 74362 -6.0497e+000  4.4102e+000  9.7410e-001 62000 74284,74336,74310
 8.0000e-001 74509 -2.2272e+001 -5.7247e+000 -5.3371e+000 61802 74431,74483,74457
 8.0000e-001 74759  7.4248e-003  1.1911e+000 -9.7681e-001 61554 74782,74586,74560
 8.0000e-001 74736 -8.2897e-001  1.5066e+000 -5.3731e-001 61554 74782,74560,74664
 8.0000e-001 74713 -7.0432e-001  2.4893e-001 -2.6879e+000 61554 74854,74612,74586
 8.0000e-001 74690 -3.9590e-001  2.4447e+000 -4.1313e-001 61554 74534,74664,74560
 8.0000e-001 74808  2.6440e-001  1.6837e+000 -1.0740e+000 61554 74854,74586,74782
 8.0000e-001 74831 -7.1166e-001  5.3900e+000 -7.6413e-001 61554 74638,74782,74664
 8.0000e-001 74880 -2.7695e+000  1.7839e+000 -2.8940e+000 61554 74638,74612,74854
 8.0000e-001 74903 -2.7345e+000  1.6333e+000 -1.6758e+000 61554 74638,74854,74782
 8.0000e-001 75285 -1.0047e+001 -2.8975e-001  4.4339e+000 61356 75063,75167,75115
 8.0000e-001 75262 -6.1547e+000  8.0606e+000  5.6290e+000 61356 75037,75167,75063
 8.0000e-001 75239 -2.1185e+001  5.0672e+000  4.2887e+000 61356 75115,75167,75141
 8.0000e-001 75216 -1.1682e+001  1.7817e-001  5.0301e+000 61356 75063,75115,75089
 8.0000e-001 75193  1.6019e+000  1.4003e+000  1.9246e+000 61356 75011,75167,75037
 8.0000e-001 75631 -1.4549e+001 -6.1261e+000 -2.4848e+000 60952 75654,75412,75360
 8.0000e-001 75608 -1.9302e+001 -6.2302e+000 -2.7972e+000 60952 75654,75360,75334
 8.0000e-001 75585 -1.0642e+001 -2.9186e+000 -2.5926e+000 60952 75726,75438,75412
 8.0000e-001 75562 -2.1949e+001 -1.2042e+001  2.1255e+000 60952 75308,75490,75334
 8.0000e-001 75539 -1.2743e+001 -5.5690e+000 -2.0498e+000 60952 75360,75412,75386
 8.0000e-001 75516 -7.9924e+000 -1.6659e+000 -1.4956e+000 60952 75438,75490,75464
 8.0000e-001 75680 -1.2180e+001 -6.8363e+000 -3.4770e+000 60952 75726,75412,75654
 8.0000e-001 75703 -1.4113e+001 -7.8381e+000 -3.4713e+000 60952 75490,75654,75334
 8.0000e-001 75752 -9.8182e+000 -6.9850e+000 -1.8336e+000 60952 75490,75438,75726
 8.0000e-001 75775 -9.9777e+000 -7.1272e+000 -2.1435e+000 60952 75490,75726,75654
 8.0000e-001 76155 -2.4905e+000  8.7663e+000  3.7192e+000 60754 75933,75985,75959
 8.0000e-001 76132 -2.1961e-001  1.0403e+001 -3.6735e-001 60754 75933,76037,75985
 8.0000e-001 76109 -1.8840e+000  7.4691e+000  5.0851e-001 60754 75985,76037,76011
 8.0000e-001 76086 -1.3275e+000  6.2925e+000 -7.2168e-001 60754 75881,76037,75933
 8.0000e-001 76063 -1.4547e+000  5.5499e+000 -8.4994e-001 60754 75881,75933,75907
 8.0000e-001 76612 -9.5331e+000  1.8647e+001 -2.4671e+000 60350 76635,76442,76390
 8.0000e-001 76589 -3.6605e+000  1.7205e+001 -8.4503e-001 60350 76635,76390,76364
 8.0000e-001 76566 -2.3086e+000  2.2780e+001  4.3696e+000 60350 76364,76494,76468
 8.0000e-001 76543 -2.9897e+000  1.8549e+001 -1.1938e+001 60350 76390,76442,76416
 8.0000e-001 76520  4.8500e+000  1.7417e+001  6.6630e+000 60350 76338,76494,76364
 8.0000e-001 76661 -1.3198e+001  1.7995e+001 -2.2369e+000 60350 76468,76442,76635
 8.0000e-001 76684 -9.1837e+000  1.5312e+001 -5.8805e-001 60350 76468,76635,76364
 8.0000e-001 76932 -8.8306e-001  1.2001e+000 -1.0568e-001 59946 76955,76733,76707
 8.0000e-001 76909 -1.0813e+000  9.3132e-001  7.3420e-001 59946 77027,76955,76707
 8.0000e-001 76886 -9.9209e-001  1.3320e+000  6.7775e-001 59946 77027,76707,76837
 8.0000e-001 76863  9.3265e-001  3.8958e-001 -2.7746e-001 59946 76733,76785,76759
 8.0000e-001 76981 -1.1590e+000  6.4049e-001  5.8223e-001 59946 76785,76733,76955
 8.0000e-001 77004 -1.4653e+000 -1.7097e+000  1.2275e+000 59946 76785,76955,76811
 8.0000e-001 77053 -8.4692e-001  2.8502e-001  2.0729e-001 59946 76811,76955,77027
 8.0000e-001 77076 -5.4112e-001  1.0492e+000  1.1619e-001 59946 76811,77027,76837
 8.0000e-001 77226 -1.6447e+001  3.4412e+001 -1.8181e+000 59542 77099,77151,77125
 8.0000e-001 77203 -1.7116e+001  2.2311e+001 -7.4220e+000 59542 77099,77177,77151
 8.0000e-001 77427 -5.4141e+000  4.8654e+000 -2.6696e+000 59030 77450,77277,77251
 8.0000e-001 77404 -6.7475e+000  1.9371e+000 -2.3683e+000 59030 77450,77251,77355
 8.0000e-001 77381 -3.6696e+000  8.7498e+000 -3.5054e+000 59030 77277,77329,77303
 8.0000e-001 77476 -6.6340e+000  5.5519e+000 -1.5269e+000 59030 77329,77277,77450
 8.0000e-001 77499 -7.3390e+000  3.9585e+000 -1.3477e+000 59030 77329,77450,77355
 8.0000e-001 77749 -2.3588e+001  7.1151e+000  3.4897e+000 58426 77772,77628,77602
 8.0000e-001 77726 -1.8719e+001  4.2418e+000  5.9451e+000 58426 77524,77654,77628
 8.0000e-001 77703 -1.4104e+001  7.2229e+000  9.1185e-002 58426 77772,77602,77550
 8.0000e-001 77680 -1.4414e+001  7.7654e+000 -5.0054e+000 58426 77550,77602,77576
 8.0000e-001 77798 -1.2908e+001  8.0523e+000  4.0985e+000 58426 77524,77628,77772
 8.0000e-001 77821 -8.4146e+000  5.2348e+000 -6.1267e-001 58426 77524,77772,77550
 8.0000e-001 78071  2.1670e+000 -9.8151e-001 -1.6982e+000 57922 78094,77924,77898
 8.0000e-001 78048  3.1678e+000  3.7382e+000 -2.7565e+000 57922 78094,77898,77872
 8.0000e-001 78025  7.3503e-001  2.9412e+000 -3.4177e+000 57922 78166,77846,77950
 8.0000e-001 78002 -3.5739e+000  2.4706e+000 -3.7215e+000 57922 77846,77976,77950
 8.0000e-001 78120  7.5753e+000  2.2392e+000 -4.0017e+000 57922 77950,77924,78094
 8.0000e-001 78143  3.2701e+000  3.3434e+000 -4.6250e+000 57922 78166,77950,78094
 8.0000e-001 78192 -1.9476e+000  2.7044e+000 -1.3530e+000 57922 77872,77846,78166
 8.0000e-001 78215  8.4635e-001  2.4069e+000 -2.1515e+000 57922 77872,78166,78094
 8.0000e-001 78416 -5.4769e+000  7.5247e-001  2.5784e+000 57468 78439,78292,78240
 8.0000e-001 78393 -5.3472e+000  5.8015e+000  2.2106e+000 57468 78439,78240,78344
 8.0000e-001 78370 -2.5780e+000  2.7910e+000  4.2827e+000 57468 78240,78292,78266
 8.0000e-001 78465 -4.8094e+000 -4.8920e-001 -8.1560e-001 57468 78318,78292,78439
 8.0000e-001 78488 -4.7087e+000  3.0089e+000 -1.9280e-001 57468 78318,78439,78344
 8.0000e-001 78689 -1.6391e+001 -2.5008e+000 -3.4391e-001 57014 78712,78539,78513
 8.0000e-001 78666 -1.3979e+001 -5.2148e+000 -2.2430e+000 57014 78712,78513,78617
 8.0000e-001 78643 -5.2113e+000 -5.9442e+000  2.5746e+000 57014 78565,78617,78591
 8.0000e-001 78738 -1.3370e+001  5.0520e-001  8.6210e-001 57014 78565,78539,78712
 8.0000e-001 78761 -1.1972e+001 -3.5613e+000 -1.4381e+000 57014 78565,78712,78617
 8.0000e-001 79241 -9.0373e+000  2.3485e+000  1.3955e+000 56652 79264,78895,78869
 8.0000e-001 79218 -5.9442e+000  4.6608e+000 -2.5482e-001 56652 79264,78869,79051
 8.0000e-001 79195 -1.0976e+001  2.6463e+000  1.1064e-001 56652 78869,79077,79051
 8.0000e-001 79172 -7.1012e+000  4.1075e-001 -2.3870e+000 56652 78895,78973,78947
 8.0000e-001 79149 -3.0786e+000  6.1702e+000 -3.2758e+000 56652 78973,79051,78999
 8.0000e-001 79126 -6.7569e+000  1.9008e+001 -4.5023e+000 56652 78895,78947,78921
 8.0000e-001 79103  2.8339e+000  1.8200e+001 -5.8766e+000 56652 78999,79051,79025
 8.0000e-001 79290 -5.9827e+000 -2.7989e-002 -6.7611e-001 56652 78973,78895,79264
 8.0000e-001 79313 -1.9018e+000  3.6857e+000 -2.6849e+000 56652 78973,79264,79051
 8.0000e-001 79512 -5.0468e+001 -1.3854e+001 -4.7936e+000 56062 79388,79440,79414
 8.0000e-001 79489 -3.3724e+001 -1.3653e+001 -1.8001e+000 56062 79336,79440,79388
 8.0000e-001 79466 -2.6547e+001 -1.8323e+001 -9.6147e-001 56062 79336,79388,79362
 8.0000e-001 79941 -1.1273e+001 -1.4605e+000 -1.1148e+000 55658 79964,79670,79644
 8.0000e-001 79918 -9.4228e+000 -4.2040e+000 -7.0720e-001 55658 79964,79644,79800
 8.0000e-001 79895 -8.9132e+000  8.8861e-001  1.0814e-001 55658 80036,79696,79670
 8.0000e-001 79872 -7.9649e+000 -3.6957e+000  1.9444e+000 55658 80108,79722,79696
 8.0000e-001 79849 -3.0447e+000 -4.0193e-001 -3.9756e-001 55658 79722,79774,79748
 8.0000e-001 79826 -7.3263e+000 -4.2316e+000 -5.7295e+000 55658 79618,79800,79644
 8.0000e-001 79990 -9.6958e+000  4.5311e-001 -4.1521e-001 55658 80036,79670,79964
 8.0000e-001 80013 -9.3198e+000 -1.2889e+000 -8.5851e-001 55658 79774,79964,79800
 8.0000e-001 80062 -9.9749e+000 -1.7279e+000 -9.4364e-002 55658 80108,79696,80036
 8.0000e-001 80085 -8.5611e+000 -7.8269e-001 -2.1807e+000 55658 79774,80036,79964
 8.0000e-001 80134 -3.9499e+000 -1.4564e+000  8.6462e-001 55658 79774,79722,80108
 8.0000e-001 80157 -5.0952e+000  9.0724e-001 -1.2040e+000 55658 79774,80108,80036
 8.0000e-001 80307  2.3923e-001 -1.7033e-001 -6.8650e-001 55254 80402,80330,80206
 8.0000e-001 80284  1.6091e-001  2.0758e+000 -1.1227e+000 55254 80330,80180,80258
 8.0000e-001 80356  5.7692e-001  6.1136e-001 -8.0279e-001 55254 80232,80206,80330
 8.0000e-001 80379 -2.4361e-001  2.4977e-001 -9.1728e-001 55254 80232,80330,80258
 8.0000e-001 80428 -9.4615e-001  7.3806e-001 -4.5653e-001 55254 80180,80330,80402
 8.0000e-001 80659  2.5428e+000  2.2188e+001  2.1214e+000 54850 80558,80610,80584
 8.0000e-001 80636  5.2745e+000  2.1570e+001  5.1778e-001 54850 80532,80610,80558
 8.0000e-001 80760 -1.9627e+001 -8.3377e+000  2.7131e-001 54652 80682,80734,80708
 8.0000e-001 81164 -1.8578e+001 -3.4062e+000 -9.4844e-001 54248 81187,80942,80890
 8.0000e-001 81141 -1.7686e+001 -3.4338e+000 -1.2594e+000 54248 81187,80890,81046
 8.0000e-001 81118 -1.4148e+001 -8.8984e-001 -4.3660e+000 54248 80942,81020,80994
 8.0000e-001 81095 -2.0035e+001 -7.9047e+000 -3.2881e-001 54248 80890,80942,80916
 8.0000e-001 81072 -1.8964e+001 -9.5037e+000 -8.0863e-001 54248 80942,80994,80968
 8.0000e-001 81213 -1.7822e+001 -3.3280e+000 -8.5093e-001 54248 81020,80942,81187
 8.0000e-001 81236 -1.6956e+001 -3.3820e+000 -1.0800e+000 54248 81020,81187,81046
 8.0000e-001 81663 -1.2622e+001  7.7168e+000  6.5087e+000 53594 81340,81444,81366
 8.0000e-001 81640 -4.2873e+000  8.9554e+000  1.9915e+000 53594 81340,81470,81444
 8.0000e-001 81617 -8.5544e+000  7.5441e+000  1.2428e+000 53594 81340,81522,81470
 8.0000e-001 81594 -1.6290e+001  1.2826e+001  5.5805e+000 53594 81392,81444,81418
 8.0000e-001 81571 -1.6823e+001  6.7091e+000  4.4522e+000 53594 81366,81444,81392
 8.0000e-001 81548  9.2571e+000  9.6989e+000  2.0133e+000 53594 81470,81522,81496
 8.0000e-001 81943  1.2877e+000 -7.2509e-001 -6.3493e-001 53104 81966,81845,81819
 8.0000e-001 81920  1.0633e+000 -4.2752e-001 -7.0970e-001 53104 81966,81819,81767
 8.0000e-001 81897  1.1863e+000 -2.3775e-001 -5.7427e-001 53104 81767,81819,81793
 8.0000e-001 81992  1.4331e+000 -4.2876e-001 -6.8696e-001 53104 81871,81845,81966
 8.0000e-001 82015  1.3067e+000  7.5169e-003 -8.0617e-001 53104 81871,81966,81767
 8.0000e-001 82491 -1.1944e+001  1.1526e+001 -5.3117e+000 52650 82145,82249,82171
 8.0000e-001 82468 -9.2499e+000  1.0203e+001 -2.6862e+000 52650 82145,82301,82249
 8.0000e-001 82445 -9.0611e+000  1.9096e+001 -7.5377e-002 52650 82249,82301,82275
 8.0000e-001 82422 -8.0396e+000  6.8372e+000 -3.4177e+000 52650 82119,82301,82145
 8.0000e-001 82399 -1.9058e+001  6.8335e+000 -7.4530e+000 52650 82171,82249,82223
 8.0000e-001 82376 -7.4706e+000  6.7505e+000  1.4799e+000 52650 82119,82327,82301
 8.0000e-001 82353 -3.5950e+001  2.2025e+001 -2.3634e+001 52650 82171,82223,82197
 8.0000e-001 82739 -1.0984e+001  1.8138e+000 -1.0089e+000 52246 82762,82540,82514
 8.0000e-001 82716 -1.3170e+001  1.5549e+000 -3.6320e-001 52246 82762,82514,82644
 8.0000e-001 82693 -1.5447e+001  1.1957e-002 -3.9920e+000 52246 82540,82618,82592
 8.0000e-001 82670  1.5996e+000 -3.9762e-001 -1.2194e+000 52246 82540,82592,82566
 8.0000e-001 82788 -1.2974e+001  3.2472e+000 -2.0796e+000 52246 82618,82540,82762
 8.0000e-001 82811 -1.5664e+001  2.4872e+000 -2.0622e+000 52246 82618,82762,82644
 8.0000e-001 83059 -7.2251e+000  3.2607e+000  1.6871e+000 51578 82860,82964,82938
 8.0000e-001 83036 -7.0525e+000  4.3366e+000 -2.6199e+000 51578 82834,82964,82860
 8.0000e-001 83013 -5.9696e+000  1.1409e+001  5.4823e+000 51578 82860,82938,82886
 8.0000e-001 82990 -4.3149e-001  2.5527e+001  5.3004e+000 51578 82886,82938,82912
 8.0000e-001 83309 -5.6724e-001  2.4282e+001  6.1756e+000 51138 83332,83162,83136
 8.0000e-001 83286 -3.4191e+000  1.8760e+001  3.3055e+000 51138 83332,83136,83110
 8.0000e-001 83263 -1.6029e+000  1.6365e+001  2.8474e+000 51138 83404,83214,83188
 8.0000e-001 83240  3.4428e+000  1.4884e+001  6.6358e+000 51138 83084,83214,83110
 8.0000e-001 83358 -4.6232e-001  1.9825e+001  3.2595e+000 51138 83188,83162,83332
 8.0000e-001 83381 -2.0786e+000  1.8079e+001  1.4497e+000 51138 83404,83188,83332
 8.0000e-001 83430 -3.0002e+000  1.1479e+001  4.2705e+000 51138 83110,83214,83404
 8.0000e-001 83453 -2.4044e+000  1.4402e+001  2.7010e+000 51138 83110,83404,83332
 8.0000e-001 83835 -1.4181e+001  1.8827e+000 -1.6685e+000 50734 83613,83717,83691
 8.0000e-001 83812 -7.5020e+000  1.7408e+001 -2.0984e+000 50734 83561,83717,83613
 8.0000e-001 83789 -1.3628e+001  2.0724e+001 -9.5331e-001 50734 83561,83613,83587
 8.0000e-001 83766 -4.3830e+000  1.0713e+001  2.1107e+000 50734 83613,83691,83639
 8.0000e-001 83743 -1.5905e+000  1.8097e+001  4.2810e+000 50734 83639,83691,83665
 8.0000e-001 84034 -1.1942e+001  1.1600e+001 -7.9052e+000 50230 84057,83884,83858
 8.0000e-001 84011 -1.2804e+001  1.2303e+001 -3.5531e+000 50230 84129,84057,83858
 8.0000e-001 83988 -1.8950e+001  1.1486e+001 -1.7175e+000 50230 84129,83858,83962
 8.0000e-001 84083 -2.4904e+001  8.0111e+000 -1.2885e+001 50230 83910,83884,84057
 8.0000e-001 84106 -1.6520e+001  2.4887e+001 -1.0082e+001 50230 83910,84057,83936
 8.0000e-001 84155 -2.1518e+001  1.2168e+001 -4.1671e+000 50230 83936,84057,84129
 8.0000e-001 84178 -2.4190e+001  1.3895e+001 -1.9971e+000 50230 83936,84129,83962
 8.0000e-001 84558 -9.0842e+000  9.6673e+000  2.6167e+000 49768 84581,84388,84362
 8.0000e-001 84535 -3.1439e+000  9.9683e+000  1.0345e+000 49768 84581,84362,84310
 8.0000e-001 84512 -1.4640e+001  9.6984e+000  2.9738e+000 49768 84653,84440,84414
 8.0000e-001 84489  2.3131e+000  9.2727e+000  5.7381e+000 49768 84310,84362,84336
 8.0000e-001 84466 -5.7912e+000  1.4475e+001  1.5005e+001 49768 84284,84440,84310
 8.0000e-001 84607 -9.5589e+000  1.0232e+001  2.8622e+000 49768 84414,84388,84581
 8.0000e-001 84630 -1.2014e+001  1.0520e+001  1.9352e+000 49768 84653,84414,84581
 8.0000e-001 84679 -1.1063e+001  7.2233e+000  4.0646e+000 49768 84310,84440,84653
 8.0000e-001 84702 -8.2651e+000  7.9963e+000  3.7578e+000 49768 84310,84653,84581
 8.0000e-001 85159 -1.9519e+000 -2.3534e+000  1.5396e+000 49192 84885,84937,84911
 8.0000e-001 85136 -9.5404e-001 -2.1339e+000  5.4394e-001 49192 84885,85041,84937
 8.0000e-001 85113  4.7457e-001 -4.5346e+000 -8.4951e-001 49192 84963,85041,84989
 8.0000e-001 85090 -5.9620e-001 -6.1003e+000  9.9219e-001 49192 84937,85041,84963
 8.0000e-001 85067 -4.1007e+000 -5.8970e+000 -9.3879e-001 49192 84989,85041,85015
 8.0000e-001 85714 -2.1948e+001  3.4030e+000  5.0740e+000 48638 85368,85498,85394
 8.0000e-001 85691 -1.9789e+001  8.0432e+000  4.1463e+000 48638 85368,85524,85498
 8.0000e-001 85668 -8.5149e+000  7.4206e+000 -5.3955e+000 48638 85737,85420,85394
 8.0000e-001 85645 -1.4684e+001  9.6624e+000  3.4029e-001 48638 85737,85394,85498
 8.0000e-001 85622 -2.4706e+001  1.0965e+001 -3.9794e+000 48638 85446,85498,85472
 8.0000e-001 85599 -2.9017e+001 -1.7525e-001  1.6181e+001 48638 85342,85524,85368
 8.0000e-001 85576 -3.5836e+001  4.2169e+000  1.1952e+001 48638 85342,85550,85524
 8.0000e-001 85763 -1.8135e+001  2.9696e+000 -6.8523e+000 48638 85446,85420,85737
 8.0000e-001 85786 -1.8480e+001  7.2100e+000 -7.6314e-001 48638 85446,85737,85498
 8.0000e-001 86371 -1.4538e+001  1.7277e+000  2.6382e+000 48084 86100,86230,86178
 8.0000e-001 86348 -1.8375e+001  3.6858e+000  1.9181e+000 48084 86048,86230,86100
 8.0000e-001 86325 -1.9060e+001  4.4136e-002  3.5800e+000 48084 86100,86178,86126
 8.0000e-001 86302 -9.5659e+000  2.4188e+001  3.6249e+000 48084 86048,86100,86074
 8.0000e-001 86279 -1.0291e+001  1.0806e+001  1.1493e+000 48084 86178,86230,86204
 8.0000e-001 86256 -2.2713e+001 -1.3035e+000  2.5271e+000 48084 86126,86178,86152
 8.0000e-001 86619 -1.2390e+001  9.8447e+000 -1.2298e+001 47630 86642,86446,86420
 8.0000e-001 86596 -1.5820e+000  1.3252e+001 -1.5269e+001 47630 86642,86420,86394
 8.0000e-001 86573 -9.0003e+000  1.1277e+001 -5.0914e+000 47630 86394,86524,86498
 8.0000e-001 86550 -3.1057e+000 -1.5508e+001 -5.4305e+000 47630 86446,86498,86472
 8.0000e-001 86668 -1.3058e+001  7.0587e+000 -2.8552e+000 47630 86498,86446,86642
 8.0000e-001 86691 -3.5297e+000  1.0832e+001 -6.1175e+000 47630 86498,86642,86394
 8.0000e-001 87022  2.8235e+000  1.7000e+001  1.2268e+000 47226 87045,86875,86849
 8.0000e-001 86999  9.9019e-001  1.9832e+001  1.2469e-001 47226 87045,86849,86797
 8.0000e-001 86976 -3.4769e+000  1.4153e+001  4.4809e+000 47226 86797,86849,86823
 8.0000e-001 86953  6.3538e+000  2.2327e+001 -4.1386e+000 47226 86875,86927,86901
 8.0000e-001 87071  5.2767e+000  1.8642e+001  2.2137e-001 47226 86927,86875,87045
 8.0000e-001 87094  2.6870e+000  2.0614e+001 -4.1236e-001 47226 86927,87045,86797
 8.0000e-001 87244 -3.5498e+000  8.7096e+000 -2.2598e+000 46814 87267,87169,87143
 8.0000e-001 87221 -1.6960e+000  1.3932e+001 -1.9146e+000 46814 87267,87143,87117
 8.0000e-001 87293 -3.8087e+000  8.4859e+000 -3.1699e+000 46814 87339,87267,87195
 8.0000e-001 87316 -1.4496e-001  1.4523e+001 -5.5540e+000 46814 87469,87267,87117
 8.0000e-001 87365 -1.0592e+000  9.7137e+000 -2.9361e+000 46814 87169,87267,87339
 8.0000e-001 87495 -5.6000e+000  2.7844e+000 -2.9871e+000 46814 87195,87267,87469
 8.0000e-001 88001 -1.8209e+001 -5.8419e+000 -1.8834e+000 46310 88024,87834,87808
 8.0000e-001 87978 -1.7222e+001 -5.3155e+000 -2.5052e+000 46310 88024,87808,87756
 8.0000e-001 87955 -1.6250e+001 -6.3633e+000 -1.7570e+000 46310 88096,87730,87860
 8.0000e-001 87932 -1.1779e+001 -1.9279e+000 -5.0335e-001 46310 87756,87808,87782
 8.0000e-001 87909 -1.5487e+001 -1.4757e+000 -2.1033e+000 46310 87678,87860,87730
 8.0000e-001 87886 -1.9154e+001 -3.9029e+000  1.1194e+000 46310 87678,87730,87704
 8.0000e-001 88050 -1.9014e+001 -7.4806e+000 -3.3652e-001 46310 87860,87834,88024
 8.0000e-001 88073 -1.6595e+001 -5.5092e+000 -1.1879e+000 46310 88096,87860,88024
 8.0000e-001 88122 -1.7064e+001 -6.7355e+000 -1.8683e+000 46310 87756,87730,88096
 8.0000e-001 88145 -1.8102e+001 -6.3722e+000 -1.5624e+000 46310 87756,88096,88024
 8.0000e-001 88572 -3.4762e+001 -6.2810e+000 -1.1333e+000 45856 88249,88405,88275
 8.0000e-001 88549 -3.8661e+001  1.8919e+001 -1.0568e+001 45856 88249,88431,88405
 8.0000e-001 88526 -2.2551e+001 -6.4553e+000  5.1125e+000 45856 88327,88405,88353
 8.0000e-001 88503 -2.1265e+001  8.7821e+000  7.0774e+000 45856 88275,88405,88327
 8.0000e-001 88480 -1.9962e+001  2.2182e+000  7.8192e+000 45856 88353,88405,88379
 8.0000e-001 88457 -2.7744e+001 -1.8944e+001  8.8679e+000 45856 88275,88327,88301
 8.0000e-001 88950 -9.5317e+000  1.0856e+000  2.0320e-001 45658 88973,88754,88728
 8.0000e-001 88927 -8.7702e+000 -2.6840e+000 -1.5881e-001 45658 88973,88728,88676
 8.0000e-001 88904 -4.7811e+000 -2.6501e+000  1.1149e-001 45658 88676,88832,88806
 8.0000e-001 88881 -7.6251e+000 -4.8300e-001 -9.2623e-001 45658 88676,88728,88702
 8.0000e-001 88858 -5.1208e+000  5.8090e-001  8.0714e+000 45658 88754,88806,88780
 8.0000e-001 88999 -1.0782e+001 -2.0986e+000  6.7119e-001 45658 88806,88754,88973
 8.0000e-001 89022 -8.9117e+000 -4.3115e+000  7.0081e-002 45658 88806,88973,88676
 8.0000e-001 89351 -4.9695e+000  1.4348e+001 -3.7780e-001 45254 89152,89230,89204
 8.0000e-001 89328 -6.2207e+000  1.4807e+001  2.9972e+000 45254 89152,89256,89230
 8.0000e-001 89305 -7.5840e-001  1.5799e+001  2.6410e+000 45254 89126,89256,89152
 8.0000e-001 89282  9.1505e-003  1.9469e+001 -2.5437e+000 45254 89152,89204,89178
 8.0000e-001 89523 -2.1650e+001 -1.1865e+001 -4.0748e-001 45006 89422,89474,89448
 8.0000e-001 89500 -2.3021e+001 -1.2456e+001 -1.5071e+000 45006 89396,89474,89422
 8.0000e-001 89673 -1.0455e+001  1.4840e+001 -3.3130e-001 44495 89572,89624,89598
 8.0000e-001 89650 -1.1921e+001  1.6103e+001 -4.7995e+000 44495 89546,89624,89572
 8.0000e-001 90104 -2.4876e+001 -8.6779e+000 -6.8260e+000 44005 90199,90127,89937
 8.0000e-001 90081 -2.0371e+001 -1.0506e+001 -3.7072e+000 44005 90271,90127,89859
 8.0000e-001 90058 -2.4481e+001 -1.0134e+001 -7.2410e+000 44005 90199,89937,89885
 8.0000e-001 90035 -2.4362e+001 -1.1389e+001 -1.6624e+000 44005 90271,89859,89807
 8.0000e-001 90012 -2.0552e+001 -6.0260e-001 -6.1796e+000 44005 89885,89937,89911
 8.0000e-001 89989 -2.5917e+001 -6.8327e+000 -6.0734e+000 44005 89807,89859,89833
 8.0000e-001 90153 -2.8459e+001 -1.0378e+001 -7.4170e+000 44005 89963,89937,90127
 8.0000e-001 90176 -2.4973e+001 -3.2200e+000 -5.7518e+000 44005 89963,90127,89781
 8.0000e-001 90225 -2.2453e+001 -1.1763e+001 -6.9441e+000 44005 89859,90127,90199
 8.0000e-001 90248 -2.4326e+001 -1.5474e+001 -8.1616e+000 44005 89859,90199,89885
 8.0000e-001 90297 -2.6187e+001 -1.0442e+001 -2.3927e+000 44005 89781,90127,90271
 8.0000e-001 90320 -2.8760e+001 -1.0312e+001 -3.3255e-001 44005 89781,90271,89807
 8.0000e-001 90470 -1.7722e+001 -3.6195e-001  2.1501e-001 43601 90493,90369,90343
 8.0000e-001 90447 -1.8572e+001  9.4114e-001  9.0700e-001 43601 90493,90343,90421
 8.0000e-001 90519 -1.8995e+001 -2.7402e+000 -6.2786e-001 43601 90395,90369,90493
 8.0000e-001 90542 -1.8630e+001 -2.3091e-002  2.6395e-001 43601 90395,90493,90421
 8.0000e-001 90922 -1.9200e+001 -2.2378e+000 -3.0486e+000 43154 90945,90700,90674
 8.0000e-001 90899 -1.6910e+001 -1.1940e+000 -2.7023e+000 43154 90945,90674,90648
 8.0000e-001 90876 -1.3807e+001  2.1703e+000 -2.7759e+000 43154 90648,90778,90752
 8.0000e-001 90853 -2.2344e+001 -2.3613e+000 -2.6597e+000 43154 90700,90752,90726
 8.0000e-001 90830 -1.3031e+001  1.9625e+000 -2.3442e+000 43154 90648,90804,90778
 8.0000e-001 90971 -1.8509e+001 -1.9168e+000 -1.7347e+000 43154 90752,90700,90945
 8.0000e-001 90994 -1.6874e+001 -1.2480e+000 -1.4548e+000 43154 90752,90945,90648
 8.0000e-001 91451 -1.1831e+001  1.2909e+000  3.8790e+000 42650 91203,91255,91229
 8.0000e-001 91428  6.2544e-001  6.6246e+000 -1.7878e+000 42650 91203,91333,91255
 8.0000e-001 91405  2.3964e+000 -3.2281e+000 -4.2026e+000 42650 91177,91333,91203
 8.0000e-001 91382 -2.5968e+000 -1.2312e+000 -9.8140e-001 42650 91255,91333,91281
 8.0000e-001 91359 -1.5484e-001 -9.7650e-001 -4.7508e-001 42650 91281,91333,91307
 8.0000e-001 91721 -1.1314e+001  9.6648e+000  1.2514e+000 42288 91496,91600,91522
 8.0000e-001 91698 -8.1515e+000  1.6780e+001  6.5400e-001 42288 91496,91626,91600
 8.0000e-001 91675 -3.5012e+000  1.4687e+001 -4.7425e-001 42288 91522,91574,91548
 8.0000e-001 91652 -8.3318e+000  1.0793e+001  1.2528e+000 42288 91522,91600,91574
 8.0000e-001 92199 -7.3421e+000  7.8498e+000 -3.1630e+000 41898 92222,91983,91879
 8.0000e-001 92176 -8.0421e+000  1.3390e+001 -1.0053e+000 41898 92294,92222,91879
 8.0000e-001 92153 -7.5561e+000  1.2969e+001 -6.1448e-001 41898 92294,91879,91853
 8.0000e-001 92130 -1.2548e+001  1.2421e+000 -1.6036e+000 41898 91879,91957,91931
 8.0000e-001 92107 -1.1041e+001  6.0833e+000 -1.6877e+000 41898 91879,91983,91957
 8.0000e-001 92084 -4.6323e+000  1.8915e+000 -8.6684e+000 41898 91879,91931,91905
 8.0000e-001 92061 -6.0699e+000  1.0455e+001 -5.2564e-001 41898 91827,92035,91853
 8.0000e-001 92248 -7.4432e+000  1.5260e+001 -4.7726e+000 41898 92009,91983,92222
 8.0000e-001 92271 -7.7854e+000  1.6923e+001  8.1481e-001 41898 92009,92222,92035
 8.0000e-001 92320 -8.8501e+000  1.2874e+001 -7.6107e-001 41898 92035,92222,92294
 8.0000e-001 92343 -8.4597e+000  1.2472e+001 -3.7199e-001 41898 92035,92294,91853
 8.0000e-001 92770 -1.3685e+001  5.2972e-002 -3.6367e+000 41437 92865,92793,92525
 8.0000e-001 92747 -1.2073e+001  1.6128e+000 -3.6395e+000 41437 92793,92473,92629
 8.0000e-001 92724 -9.2583e+000 -3.1267e+000 -6.1262e+000 41437 92865,92525,92499
 8.0000e-001 92701 -1.2535e+001 -2.5223e+000 -2.4020e+000 41437 92525,92603,92577
 8.0000e-001 92678 -1.2693e+001  8.9094e+000 -3.5086e-001 41437 92447,92629,92473
 8.0000e-001 92655 -3.0478e+001 -8.7866e+000 -4.4446e+000 41437 92525,92577,92551
 8.0000e-001 92819 -1.3775e+001 -1.6307e-001 -2.4073e+000 41437 92603,92525,92793
 8.0000e-001 92842 -1.3921e+001  1.5016e-001 -5.1152e+000 41437 92603,92793,92629
 8.0000e-001 92891 -6.2099e+000  1.7254e+000 -2.6165e+000 41437 92473,92793,92865
 8.0000e-001 92914 -9.8806e-001 -7.6283e-001 -5.7207e+000 41437 92473,92865,92499
 8.0000e-001 93243 -9.4522e+000 -7.1497e-001  1.5891e+000 41097 93044,93096,93070
 8.0000e-001 93220 -5.8461e+000  9.0170e+000  1.5439e+000 41097 93044,93122,93096
 8.0000e-001 93197 -1.9550e+001 -3.0991e+000  6.6685e+000 41097 93044,93148,93122
 8.0000e-001 93174 -2.4314e+001  6.2222e+000  1.2769e+001 41097 93018,93148,93044
 8.0000e-001 93393 -2.3458e+001  6.7001e+000  5.7561e-001 40643 93416,93292,93344
 8.0000e-001 93370 -1.7777e+001  1.5505e+001  3.4126e+000 40643 93266,93344,93292
 8.0000e-001 93442 -1.7548e+001  8.6008e+000  7.5796e-003 40643 93318,93292,93416
 8.0000e-001 93901 -8.5292e+000  4.2297e+000 -6.9808e-001 40132 93924,93731,93705
 8.0000e-001 93878 -5.3290e+000  7.2455e+000  5.9765e-001 40132 93996,93924,93705
 8.0000e-001 93855 -6.3819e+000  4.4899e+000  2.9803e+000 40132 93996,93705,93653
 8.0000e-001 93832  9.7728e+000  3.6836e+000  1.5005e+000 40132 93653,93705,93679
 8.0000e-001 93809 -5.3848e+000  8.2130e+000  4.7488e+000 40132 93627,93783,93757
 8.0000e-001 93950 -1.0764e+001  6.5589e+000  7.9298e-001 40132 93757,93731,93924
 8.0000e-001 93973 -8.1833e+000  1.1048e+001  2.9340e+000 40132 93757,93924,93627
 8.0000e-001 94022 -1.0439e+001  4.4985e+000  2.0589e+000 40132 93627,93924,93996
 8.0000e-001 94045 -8.1173e+000  3.8737e+000  3.9814e+000 40132 93627,93996,93653
 8.0000e-001 94423 -1.0676e+001  1.3682e+001 -1.6642e+000 39514 94149,94227,94175
 8.0000e-001 94400 -1.5446e+001  1.7778e+000 -2.5118e+000 39514 94149,94305,94227
 8.0000e-001 94377 -2.3489e+001  1.5444e+001  1.3491e+000 39514 94175,94227,94201
 8.0000e-001 94354 -1.2321e+001  4.2961e+000 -1.2530e+000 39514 94227,94305,94279
 8.0000e-001 94331 -3.3666e+000  7.8326e+000 -2.8445e+000 39514 94227,94279,94253
 8.0000e-001 94573  9.0396e+000 -3.8253e-001  7.7416e+000 38822 94596,94498,94472
 8.0000e-001 94550  5.1394e+000  9.3139e+000 -1.4016e+000 38822 94596,94472,94446
 8.0000e-001 94622  1.4119e+001  2.5346e+000 -2.2947e+000 38822 94524,94498,94596
 8.0000e-001 94645  1.8388e+001  2.0261e+001 -1.2413e+001 38822 94524,94596,94446
 8.0000e-001 95025 -1.6666e+001  9.6900e+000 -1.7449e+000 38418 95048,94829,94777
 8.0000e-001 95002 -1.9652e+001  9.5570e+000 -6.2825e-001 38418 95120,95048,94777
 8.0000e-001 94979 -2.0015e+001  1.2043e+001 -4.1827e-001 38418 95120,94777,94751
 8.0000e-001 94956 -7.6821e+000  1.2518e+001 -6.4044e+000 38418 95192,94881,94855
 8.0000e-001 94933 -1.7988e+001  1.0936e+001 -1.7202e+000 38418 94777,94829,94803
 8.0000e-001 95074 -1.8623e+001  1.8160e+000  7.1360e-001 38418 94855,94829,95048
 8.0000e-001 95097 -1.0874e+001  1.1219e+001 -3.4091e+000 38418 95192,94855,95048
 8.0000e-001 95146 -2.0975e+001  1.3577e+001 -4.9768e-001 38418 94907,95048,95120
 8.0000e-001 95169 -2.0006e+001  1.7434e+001  3.9846e-001 38418 94907,95120,94751
 8.0000e-001 95218 -1.3703e+001  2.1754e+001 -7.0683e+000 38418 94907,94881,95192
 8.0000e-001 95241 -2.1615e+001  1.5237e+001 -2.6984e+000 38418 94907,95192,95048
 8.0000e-001 95511 -2.5776e+001 -5.4327e+000  3.4412e+000 38049 95312,95390,95364
 8.0000e-001 95488 -1.6747e+001 -8.8735e-001  1.0781e+000 38049 95312,95416,95390
 8.0000e-001 95465 -2.0409e+001  2.2561e+000  1.0929e+000 38049 95312,95364,95338
 8.0000e-001 95442 -2.1487e+001 -1.5138e-002  2.8977e-001 38049 95286,95416,95312
 8.0000e-001 95808 -2.1902e+001  1.6024e+001  8.7521e+000 37437 95831,95586,95560
 8.0000e-001 95785 -3.4950e+001  4.2616e+000  3.6478e+000 37437 95831,95560,95534
 8.0000e-001 95762 -1.4032e+001 -7.9986e-001 -1.1049e+000 37437 95586,95664,95638
 8.0000e-001 95739 -1.6381e+001  3.2146e+000 -1.2189e+001 37437 95534,95690,95664
 8.0000e-001 95716 -1.0831e+001 -4.6791e+000  1.0525e+000 37437 95586,95638,95612
 8.0000e-001 95857 -1.1672e+001  2.7739e+000  1.1712e+000 37437 95664,95586,95831
 8.0000e-001 95880 -2.5973e+001 -9.9584e+000 -4.3325e+000 37437 95664,95831,95534
 8.0000e-001 96390 -1.7226e+001 -3.7962e+000  6.1215e+000 36883 96413,96145,96093
 8.0000e-001 96367 -1.6744e+001 -4.8371e+000  1.2182e+000 36883 96413,96093,96067
 8.0000e-001 96344 -1.2881e+001 -9.0831e+000  1.0137e+000 36883 96067,96249,96171
 8.0000e-001 96321 -1.0378e+001  2.8707e+000  3.3944e+000 36883 96093,96145,96119
 8.0000e-001 96298 -1.2343e+001 -7.3182e+000 -4.4396e-001 36883 96171,96249,96197
 8.0000e-001 96275 -5.6154e+000 -4.7696e+000 -1.0523e+000 36883 96197,96249,96223
 8.0000e-001 96439 -2.0357e+001 -1.1749e+001  7.9028e+000 36883 96171,96145,96413
 8.0000e-001 96462 -1.7891e+001 -7.9487e+000  2.9973e+000 36883 96171,96413,96067
 8.0000e-001 96781 -1.5437e+001 -3.2222e+000  1.7528e-001 36215 96559,96663,96637
 8.0000e-001 96758 -1.4440e+001 -9.2398e+000 -2.0935e+000 36215 96507,96663,96559
 8.0000e-001 96735 -1.4266e+001  1.2170e+001  1.3688e+000 36215 96585,96637,96611
 8.0000e-001 96712 -2.1033e+001 -2.5026e+000 -1.3768e+000 36215 96559,96637,96585
 8.0000e-001 96689 -1.0145e+001 -7.1195e+000  5.6394e-002 36215 96507,96559,96533
 8.0000e-001 97161 -1.3940e+001 -4.4368e-001 -1.5859e+000 35818 97184,96965,96939
 8.0000e-001 97138 -1.1654e+001 -3.1939e+000  7.2813e-001 35818 97184,96939,96887
 8.0000e-001 97115 -1.3700e+001  5.2867e+000 -1.5685e+000 35818 96965,97043,97017
 8.0000e-001 97092 -8.6974e+000 -3.5891e+000 -1.2376e+000 35818 96887,96939,96913
 8.0000e-001 97069 -8.5905e+000  1.1610e+001  8.2364e-001 35818 96965,97017,96991
 8.0000e-001 97210 -1.6980e+001 -2.2816e+000 -8.1426e-001 35818 97043,96965,97184
 8.0000e-001 97233 -1.4338e+001 -4.7213e+000  1.3406e+000 35818 97043,97184,96887
 8.0000e-001 97739  2.1779e+000  3.3328e+000 -3.2682e+000 35214 97416,97468,97442
 8.0000e-001 97716 -2.4143e+000  4.4377e+000  1.8708e+000 35214 97416,97598,97468
 8.0000e-001 97693 -7.8914e+000 -3.5883e-001 -3.1549e+000 35214 97762,97520,97468
 8.0000e-001 97670 -6.7235e+000  1.5419e+000 -1.6804e-001 35214 97762,97468,97598
 8.0000e-001 97647 -1.2466e+001  7.0718e+000 -3.8266e-001 35214 97546,97598,97572
 8.0000e-001 97624 -1.2208e+001 -1.9795e+000 -2.1523e+000 35214 97468,97520,97494
 8.0000e-001 97788 -6.7015e+000  3.1875e+000 -1.8438e+000 35214 97546,97520,97762
 8.0000e-001 97811 -6.3418e+000  4.6796e+000  9.3606e-001 35214 97546,97762,97598
 8.0000e-001 98189 -1.1630e+001 -4.8295e+000  1.4131e+000 34760 98356,98212,97967
 8.0000e-001 98166 -1.2195e+001  5.7242e+000 -2.1292e+000 34760 98284,98212,97941
 8.0000e-001 98143 -1.1172e+001  4.9069e+000 -2.7386e+000 34760 98284,97941,97915
 8.0000e-001 98120 -1.3412e+001 -8.0692e+000  6.6195e-001 34760 98484,97993,97967
 8.0000e-001 98097 -1.0077e+001  5.7150e-001 -3.0737e+000 34760 98556,98045,98019
 8.0000e-001 98238 -1.2332e+001 -6.3148e+000  1.1977e+000 34760 98484,97967,98212
 8.0000e-001 98261 -1.2163e+001  3.9458e-001 -2.0508e+000 34760 98556,98019,98212
 8.0000e-001 98310 -1.2706e+001  3.9776e+000 -2.0137e+000 34760 98071,98212,98284
 8.0000e-001 98333 -1.2445e+001  1.8573e+000 -2.5105e+000 34760 98071,98284,97915
 8.0000e-001 98382 -4.1186e+000  5.7143e+000  5.4980e+000 34760 97941,98212,98356
 8.0000e-001 98510 -1.7000e+001 -4.8571e+000  9.9820e-001 34760 98019,97993,98484
 8.0000e-001 98533 -1.4530e+001 -2.0734e+000  2.1037e+000 34760 98019,98484,98212
 8.0000e-001 98582 -1.2718e+001  3.8202e-001 -3.0199e+000 34760 98071,98045,98556
 8.0000e-001 98605 -1.3696e+001  1.0107e+000 -1.9348e+000 34760 98071,98556,98212
 8.0000e-001 99032 -1.9504e+001 -8.9254e+000  4.5092e+000 34156 98735,98891,98839
 8.0000e-001 99009 -1.7747e+001 -5.0184e+000  9.0402e+000 34156 98709,98891,98735
 8.0000e-001 98986 -1.7441e+001 -1.3761e+000  4.3783e-001 34156 98735,98813,98787
 8.0000e-001 98963 -1.9234e+001 -3.5586e+000  2.6958e+000 34156 98735,98839,98813
 8.0000e-001 98940 -2.1845e+001  7.9053e-001 -7.7554e-001 34156 98735,98787,98761
 8.0000e-001 98917 -1.4838e+001  2.4324e+000  2.1630e+000 34156 98839,98891,98865
 8.0000e-001 99231 -2.9149e+001 -1.2347e+001  3.1866e+000 33766 99055,99133,99107
 8.0000e-001 99208 -3.6295e+001 -9.1583e+000  4.8431e+000 33766 99055,99159,99133
 8.0000e-001 99185 -2.3757e+001  1.1007e+000  4.3767e+000 33766 99055,99107,99081
 8.0000e-001 99818 -7.5467e+000 -6.5375e-001 -2.9478e+000 33248 99521,99651,99573
 8.0000e-001 99795 -1.7274e+001 -5.3298e+000 -4.3737e+000 33248 99521,99677,99651
 8.0000e-001 99772 -9.5683e+000 -4.8510e+000 -3.6384e+000 33248 99573,99651,99599
 8.0000e-001 99749 -1.0776e+001  4.3911e+000 -1.5544e+000 33248 99495,99677,99521
 8.0000e-001 99726 -1.0674e+001 -3.6258e+000 -2.4915e+000 33248 99599,99651,99625
 8.0000e-001 99703 -6.9334e+000 -6.6685e+000 -2.3923e+000 33248 99521,99573,99547
 8.0000e-001 100196 -2.0228e+001 -4.2042e+000  6.3382e+000 32794 100219,99948,99922
 8.0000e-001 100173 -2.2402e+001 -9.9178e+000  2.5848e+000 32794 100219,99922,100052
 8.0000e-001 100150 -1.6709e+001 -1.0486e+001  7.9558e+000 32794 99974,100052,100026
 8.0000e-001 100127 -2.3504e+001 -7.2086e+000  1.8122e+000 32794 99922,100078,100052
 8.0000e-001 100104 -1.7694e+001 -8.5013e+000  6.0807e+000 32794 99974,100026,100000
 8.0000e-001 100245 -1.5850e+001  1.1397e+000  1.2558e+001 32794 99974,99948,100219
 8.0000e-001 100268 -2.1004e+001 -8.2083e+000  8.3767e+000 32794 99974,100219,100052
 8.0000e-001 100418 -5.3741e+000  1.0541e+001 -4.1638e+000 32504 100571,100343,100317
 8.0000e-001 100395 -4.0788e+000  1.1227e+001 -7.6453e+000 32504 100571,100317,100441
 8.0000e-001 100467 -7.2395e+000  1.8223e+000 -4.3032e+000 32504 100291,100369,100441
 8.0000e-001 100597 -7.0371e+000  6.6026e+000 -4.1234e+000 32504 100369,100343,100571
 8.0000e-001 100620 -6.8514e+000  4.7519e+000 -7.2445e+000 32504 100369,100571,100441
 8.0000e-001 101020 -3.3763e+001 -8.7825e+000 -3.4709e+000 32142 100772,100902,100876
 8.0000e-001 100997 -2.4895e+001 -4.9964e+000  9.9531e-001 32142 100746,100902,100772
 8.0000e-001 100974 -1.7411e+001  1.7399e+001  1.0702e+001 32142 101043,100824,100798
 8.0000e-001 100951 -3.2864e+001 -1.8014e-001  2.7591e+000 32142 101043,100798,100772
 8.0000e-001 100928 -1.9240e+001 -4.7212e+000 -8.1617e-001 32142 101115,100876,100850
 8.0000e-001 101069 -2.0118e+001 -2.4108e+000  6.5294e+000 32142 100850,100824,101043
 8.0000e-001 101092 -1.9151e+001 -6.3285e+000  1.0919e+000 32142 101115,100850,101043
 8.0000e-001 101141 -1.8896e+001 -1.3734e+000 -1.0326e+000 32142 100772,100876,101115
 8.0000e-001 101164 -1.8150e+001 -2.2026e+000  7.6461e-001 32142 100772,101115,101043
 8.0000e-001 101719 -1.0036e+001  2.8261e+000  2.3595e+000 31538 101742,101477,101399
 8.0000e-001 101696 -8.7176e+000  6.4350e-001  1.2194e+000 31538 101814,101742,101399
 8.0000e-001 101673 -6.9542e+000  1.2608e-001  2.9254e+000 31538 101814,101399,101373
 8.0000e-001 101650 -2.5449e+001  6.2008e+000  1.1763e+001 31538 101425,101477,101451
 8.0000e-001 101627 -2.1710e+001 -4.8683e+000  5.8035e+000 31538 101399,101477,101425
 8.0000e-001 101604 -2.7684e+000 -8.6882e-001  4.2716e+000 31538 101477,101529,101503
 8.0000e-001 101581 -1.3717e+001  1.5739e+000  3.7994e+000 31538 101347,101555,101373
 8.0000e-001 101768 -9.0834e+000 -2.9006e-001  9.3002e-001 31538 101529,101477,101742
 8.0000e-001 101791 -1.2240e+001 -2.5835e+000 -1.9947e+000 31538 101529,101742,101555
 8.0000e-001 101840 -1.2334e+001  5.3618e-001  1.0411e+000 31538 101555,101742,101814
 8.0000e-001 101863 -1.0356e+001 -6.5652e-003  2.5650e+000 31538 101555,101814,101373
 8.0000e-001 102111 -2.1041e+001 -1.0637e+001  1.0385e+000 31112 101886,101990,101912
 8.0000e-001 102088 -1.7357e+001 -6.1199e+000 -1.4244e+000 31112 101886,102016,101990
 8.0000e-001 102065 -1.8019e+001 -1.2253e+001  4.8889e+000 31112 101912,101990,101964
 8.0000e-001 102042 -1.2029e+001 -4.8640e+000  2.0742e+000 31112 101912,101964,101938
 8.0000e-001 102408  1.2457e+000  2.1047e+000  1.4140e+000 30658 102431,102186,102160
 8.0000e-001 102385 -5.3380e-001  3.8494e-001  2.6355e+000 30658 102431,102160,102264
 8.0000e-001 102362  7.9287e-001  2.5360e+000 -1.2836e+000 30658 102186,102238,102212
 8.0000e-001 102339  3.5914e+000  3.2704e+000  4.3399e+000 30658 102134,102264,102160
 8.0000e-001 102316 -8.9011e+000  2.0887e-001  5.6671e-001 30658 102134,102290,102264
 8.0000e-001 102457 -1.3690e+000  4.1155e+000  1.4022e+000 30658 102238,102186,102431
 8.0000e-001 102480 -2.9996e+000  2.6143e+000  2.6138e+000 30658 102238,102431,102264
 8.0000e-001 102681 -2.9294e+001 -1.0177e+001  6.7973e+000 30004 102704,102557,102505
 8.0000e-001 102658 -3.6646e+001  4.2990e+000  2.6393e-001 30004 102704,102505,102609
 8.0000e-001 102635 -2.6170e+001 -6.6014e+000  4.1235e+000 30004 102505,102557,102531
 8.0000e-001 102730 -3.1563e+001 -1.9465e+001  6.4043e+000 30004 102583,102557,102704
 8.0000e-001 102753 -4.3567e+001 -1.1888e+001 -4.0069e+000 30004 102583,102704,102609
 8.0000e-001 103003 -2.0569e+001 -1.3435e+000  6.4812e+000 29564 103026,102804,102778
 8.0000e-001 102980 -2.0201e+001  1.1701e+000  7.2293e+000 29564 103026,102778,102908
 8.0000e-001 102957 -2.5174e+001 -7.1774e+000  3.7003e+000 29564 102856,102908,102882
 8.0000e-001 102934 -1.8156e+001 -3.8169e+000  4.8574e+000 29564 102804,102856,102830
 8.0000e-001 103052 -2.1053e+001 -2.6695e+000  4.8279e+000 29564 102856,102804,103026
 8.0000e-001 103075 -2.0325e+001 -5.1437e-001  5.8194e+000 29564 102856,103026,102908
 8.0000e-001 103634 -3.7362e+001 -7.1169e+000  1.5377e+001 29160 103657,103418,103392
 8.0000e-001 103611 -3.7947e+001 -6.7470e+000  3.5378e+000 29160 103657,103392,103314
 8.0000e-001 103588 -2.8027e+001  4.2636e+000 -6.1493e-001 29160 103314,103392,103366
 8.0000e-001 103565 -3.4256e+001 -2.3456e+000  2.1072e+000 29160 103314,103366,103340
 8.0000e-001 103542 -2.1090e+001 -1.0646e+001  2.9294e-001 29160 103262,103444,103314
 8.0000e-001 103519 -1.9646e+001 -9.0234e+000  2.6493e+000 29160 103262,103314,103288
 8.0000e-001 103496 -2.5539e+001 -9.2765e+000 -1.0396e+000 29160 103262,103470,103444
 8.0000e-001 103683 -2.2536e+001 -7.2114e-002  1.7465e+001 29160 103444,103418,103657
 8.0000e-001 103706 -2.9181e+001 -3.4274e+000  4.5599e+000 29160 103444,103657,103314
 8.0000e-001 104035 -1.6386e+001  7.3536e-001 -3.8567e-001 28770 103836,103914,103862
 8.0000e-001 104012 -1.0502e+001  3.4635e+000  5.0476e-001 28770 103810,103914,103836
 8.0000e-001 103989 -2.2532e+001  1.2574e+000 -1.7296e+000 28770 103810,103940,103914
 8.0000e-001 103966 -1.3037e+001  1.0995e+001  9.3957e-001 28770 103862,103914,103888
 8.0000e-001 104185 -1.0694e+001  2.6645e+000  2.7945e+000 28366 104208,104110,104084
 8.0000e-001 104162 -1.6214e+001 -6.1773e+000  1.4547e-001 28366 104280,104208,104084
 8.0000e-001 104234 -1.4836e+001 -9.9162e+000 -1.3065e+000 28366 104610,104208,104136
 8.0000e-001 104257 -7.2292e+000 -1.8414e+000 -1.0151e+000 28366 104538,104410,104208
 8.0000e-001 104306 -7.4303e+000 -3.1027e+000 -3.3275e-001 28366 104538,104208,104280
 8.0000e-001 104436 -1.0642e+001 -7.5402e+000  4.1079e-001 28366 104136,104208,104410
 8.0000e-001 104564 -7.4863e+000 -1.8159e-001 -1.2362e+000 28366 104058,104410,104538
 8.0000e-001 104587 -7.3423e+000 -1.2142e+000 -7.1558e-001 28366 104058,104538,104280
 8.0000e-001 104636 -8.2201e+000 -5.7680e+000  4.5075e+000 28366 104110,104208,104610
 8.0000e-001 105349 -8.3672e+000  5.8781e+000  7.8533e-001 27976 105516,105372,105107
 8.0000e-001 105326 -6.2720e+000  9.7796e+000  1.4114e+000 27976 105588,105372,105055
 8.0000e-001 105303  7.3000e+000  1.3072e+001  5.5040e+000 27976 105444,105159,105133
 8.0000e-001 105280 -1.2893e+001  8.5022e+000 -1.5721e+000 27976 105516,105107,105081
 8.0000e-001 105257 -5.7793e+000  1.5634e+001 -1.6656e-001 27976 105588,105055,105029
 8.0000e-001 105234 -8.5372e+000  4.9390e+000  3.1550e+000 27976 105003,105185,105159
 8.0000e-001 105211 -3.2768e+000  5.5717e+000  2.8580e+000 27976 104977,105185,105003
 8.0000e-001 105398 -1.1464e+001  1.0882e+001  2.7696e+000 27976 105133,105107,105372
 8.0000e-001 105421 -3.3969e+000  1.4657e+001  4.1133e+000 27976 105444,105133,105372
 8.0000e-001 105470 -5.3406e+000  6.7059e+000  2.3885e+000 27976 105003,105159,105444
 8.0000e-001 105493 -1.0379e+001  1.1905e+001  1.1963e+000 27976 105003,105444,105372
 8.0000e-001 105542 -1.1613e+001  3.4380e+000 -2.3057e+000 27976 105055,105372,105516
 8.0000e-001 105565 -1.7786e+001  5.6396e+000 -4.3887e+000 27976 105055,105516,105081
 8.0000e-001 105614 -5.9534e+000  1.5767e+001 -1.6977e+000 27976 105003,105372,105588
 8.0000e-001 105637 -5.4033e+000  2.0839e+001 -3.6479e+000 27976 105003,105588,105029
 8.0000e-001 106143 -9.2780e+000 -5.1584e+000  1.1717e+000 27664 106166,105846,105820
 8.0000e-001 106120 -8.4528e+000 -3.1181e+000  8.7273e-001 27664 106310,106166,105820
 8.0000e-001 106097 -9.7446e+000 -6.4302e+000  2.0486e+000 27664 106382,106238,105950
 8.0000e-001 106074 -1.0929e+001 -5.9191e-001 -1.2186e+000 27664 106310,105820,106002
 8.0000e-001 106051 -1.0981e+001 -8.9333e+000 -3.0235e-001 27664 106382,105950,105924
 8.0000e-001 106028 -6.2474e+000 -8.1222e+000  4.8148e+000 27664 105846,105898,105872
 8.0000e-001 106192 -7.3140e+000 -3.1475e+000  3.1624e+000 27664 105898,105846,106166
 8.0000e-001 106215 -9.8108e+000 -8.0864e+000  1.9083e+000 27664 106238,105898,106166
 8.0000e-001 106264 -8.1458e+000 -6.3548e+000  2.7333e+000 27664 105976,105950,106238
 8.0000e-001 106287 -1.0528e+001 -5.9614e+000  1.3111e+000 27664 105976,106238,106166
 8.0000e-001 106336 -1.0782e+001 -7.0272e+000 -1.0314e-001 27664 105976,106166,106310
 8.0000e-001 106359 -1.3261e+001 -4.3887e+000 -2.2080e+000 27664 105976,106310,106002
 8.0000e-001 106408 -1.0763e+001 -1.2109e+001  3.9863e-001 27664 105898,106238,106382
 8.0000e-001 106431 -1.0667e+001 -1.2813e+001 -1.8816e+000 27664 105898,106382,105924
 8.0000e-001 106728 -1.8410e+001  1.5335e+000 -4.0166e+000 27153 106751,106506,106454
 8.0000e-001 106705 -1.9033e+001 -2.7009e+000 -6.8707e+000 27153 106751,106454,106610
 8.0000e-001 106682 -1.7822e+001  1.4817e+001 -7.0305e+000 27153 106454,106506,106480
 8.0000e-001 106659 -8.2922e+000 -1.0606e+000  4.9773e-002 27153 106532,106610,106584
 8.0000e-001 106636 -1.5347e+001 -5.0180e+000 -1.8742e+000 27153 106532,106584,106558
 8.0000e-001 106777 -1.5620e+001  8.5503e+000 -1.6233e+000 27153 106532,106506,106751
 8.0000e-001 106800 -1.8324e+001  1.2479e+000 -4.6889e+000 27153 106532,106751,106610
 8.0000e-001 107180 -8.8624e+000  2.0881e+001  8.2389e+000 26642 107203,106984,106958
 8.0000e-001 107157 -1.0739e+001  1.7957e+001  2.5462e-001 26642 107203,106958,106932
 8.0000e-001 107134 -4.8594e+000  1.6353e+001 -7.0057e-001 26642 107275,107036,107010
 8.0000e-001 107111 -2.2739e+001  4.7375e+000  3.3400e+000 26642 106932,107062,107036
 8.0000e-001 107088 -1.7846e+001  9.4701e+000  1.1932e+001 26642 106906,107062,106932
 8.0000e-001 107229 -1.7361e+001  2.7359e+000  1.0815e+001 26642 107010,106984,107203
 8.0000e-001 107252 -6.6075e+000  1.9271e+001  1.9248e+000 26642 107275,107010,107203
 8.0000e-001 107301 -8.3683e+000  1.4772e+001 -1.0323e+000 26642 106932,107036,107275
 8.0000e-001 107324 -1.1478e+001  1.6393e+001  5.9409e-001 26642 106932,107275,107203
 8.0000e-001 107675 -1.6751e+001  9.6513e+000 -6.0964e-001 26045 107450,107554,107476
 8.0000e-001 107652 -1.8261e+001  1.2736e+001 -2.8021e+000 26045 107450,107580,107554
 8.0000e-001 107629 -3.8730e+001  1.9711e+000 -1.8299e+000 26045 107476,107528,107502
 8.0000e-001 107606 -2.3197e+001  4.8233e+000 -3.6994e+000 26045 107476,107554,107528
 8.0000e-001 107874 -2.5500e+001  1.2161e+001 -2.3516e+000 25641 107750,107802,107776
 8.0000e-001 107851 -2.6288e+001  1.0528e+000 -8.5035e-002 25641 107724,107802,107750
 8.0000e-001 107828 -1.7742e+001  7.4924e+000  4.1174e+000 25641 107698,107802,107724
 8.0000e-001 108431 -2.3880e+001  3.6084e+000 -3.3200e-001 25023 108526,108267,108241
 8.0000e-001 108408 -2.2253e+001  4.6035e+000  9.8278e+000 25023 108059,108267,108085
 8.0000e-001 108385 -1.8077e+001  3.7522e+000  2.5842e+000 25023 108454,108163,108111
 8.0000e-001 108362 -2.3827e+001  3.1572e+000  4.1725e+000 25023 108454,108111,108085
 8.0000e-001 108339 -1.6463e+001  8.0876e-001  3.7953e+000 25023 108111,108163,108137
 8.0000e-001 108316 -9.1607e+000  9.7475e-001 -1.0419e+000 25023 108163,108241,108215
 8.0000e-001 108293 -1.7273e+001 -4.5396e+000 -1.1600e+001 25023 108163,108215,108189
 8.0000e-001 108480 -1.4979e+001  5.9586e+000 -2.7844e+000 25023 108241,108163,108454
 8.0000e-001 108503 -2.1998e+001  2.8426e+000 -1.4407e-001 25023 108526,108241,108454
 8.0000e-001 108552 -2.1642e+001  3.8270e+000  7.2872e-001 25023 108085,108267,108526
 8.0000e-001 108575 -1.9658e+001  3.1855e+000  9.6379e-001 25023 108085,108526,108454
 8.0000e-001 108823 -3.2776e+001 -3.2975e+001 -4.1212e+000 24461 108624,108728,108650
 8.0000e-001 108800 -3.7306e+001 -2.9208e+001 -3.8584e+000 24461 108598,108728,108624
 8.0000e-001 108777 -2.4553e+001 -2.5758e+001 -8.9666e-001 24461 108650,108728,108676
 8.0000e-001 108754 -3.1791e+001 -2.6616e+001 -7.7094e+000 24461 108676,108728,108702
 8.0000e-001 109022 -5.8901e+000  1.1248e+001  1.0224e+000 24121 108872,108924,108898
 8.0000e-001 108999 -7.3800e+000  1.2414e+001  1.1271e+000 24121 108846,108924,108872
 8.0000e-001 108976 -1.5213e+001  1.0423e+001 -2.0587e+000 24121 108846,108950,108924
 8.0000e-001 109483 -3.1399e+001 -5.4021e-001  1.0032e+001 23717 109209,109339,109235
 8.0000e-001 109460 -2.4260e+001  9.9559e+000  6.8702e+000 23717 109209,109365,109339
 8.0000e-001 109437 -1.9332e+001 -3.0282e+000  4.3658e+000 23717 109287,109339,109313
 8.0000e-001 109414 -1.6582e+001  4.1705e+000  9.9472e+000 23717 109235,109339,109287
 8.0000e-001 109391 -2.2004e+001 -8.0060e+000  8.2681e+000 23717 109235,109287,109261
 8.0000e-001 109910 -7.9190e+000  8.4882e+000 -6.8088e-003 23305 109613,109743,109717
 8.0000e-001 109887 -9.9640e+000  6.8500e+000  4.0043e+000 23305 109613,109769,109743
 8.0000e-001 109864 -9.2328e+000 -1.7059e-001  1.4402e+000 23305 109613,109717,109639
 8.0000e-001 109841 -9.3709e+000  1.0031e+001  4.0290e+000 23305 109587,109769,109613
 8.0000e-001 109818 -1.1122e+001 -9.5769e-001  2.4147e-001 23305 109639,109717,109691
 8.0000e-001 109795 -1.2149e+001 -1.4702e+000  4.0707e-001 23305 109639,109691,109665
 8.0000e-001 110180 -1.8004e+001 -1.1268e+000  6.6472e-001 22851 110007,110059,110033
 8.0000e-001 110157 -1.2293e+001  1.1875e+001  1.5286e+000 22851 109981,110059,110007
 8.0000e-001 110134 -1.6751e+001  1.1351e+001  1.9024e+000 22851 109955,110059,109981
 8.0000e-001 110111 -1.5653e+001  1.8065e+001  1.4679e+000 22851 109955,110085,110059
 8.0000e-001 110737 -9.3320e+000 -3.9891e+000 -3.3872e+000 22333 110760,110469,110391
 8.0000e-001 110714 -1.9080e+001 -8.7714e+000 -1.2158e+000 22333 110760,110391,110365
 8.0000e-001 110691 -1.9747e+001 -5.9101e+000 -6.6163e+000 22333 110832,110521,110469
 8.0000e-001 110668 -9.2042e+000 -1.2786e+001 -6.1994e+000 22333 110417,110469,110443
 8.0000e-001 110645 -1.2541e+001 -1.3194e+001 -5.8424e+000 22333 110391,110469,110417
 8.0000e-001 110622 -2.8337e+001 -2.5330e+000 -2.4873e+001 22333 110469,110521,110495
 8.0000e-001 110599 -7.7405e+000  1.6184e+001 -7.4101e+000 22333 110365,110573,110547
 8.0000e-001 110786 -1.8640e+001 -5.3685e+000 -6.4378e+000 22333 110832,110469,110760
 8.0000e-001 110809 -1.8704e+001 -8.5214e-001 -2.2647e+000 22333 110547,110760,110365
 8.0000e-001 110858 -2.5645e+001 -3.7594e+000 -4.9901e+000 22333 110547,110521,110832
 8.0000e-001 110881 -2.0392e+001 -6.0505e-001 -3.6764e+000 22333 110547,110832,110760
 8.0000e-001 111308 -4.1371e+001 -9.0058e+000  9.3952e+000 21829 111331,111063,111011
 8.0000e-001 111285 -4.7973e+001 -8.0926e+000  4.8186e+000 21829 111331,111011,111167
 8.0000e-001 111262 -3.5479e+001 -2.4477e+001  6.0983e+000 21829 111403,111089,111063
 8.0000e-001 111239 -3.6687e+001  1.1454e+001  1.1089e+001 21829 111011,111063,111037
 8.0000e-001 111216 -5.4917e+001  1.8701e+001 -3.1265e-001 21829 110985,111167,111011
 8.0000e-001 111193 -1.4084e+000 -2.3208e-001  3.2419e-001 21829 111089,111141,111115
 8.0000e-001 111357 -4.6144e+001 -1.4719e+001  6.4954e+000 21829 111403,111063,111331
 8.0000e-001 111380 -4.5713e+001 -1.5716e+001 -2.3624e+000 21829 111141,111331,111167
 8.0000e-001 111429 -3.5553e+000 -9.9633e+000  2.6428e+000 21829 111141,111089,111403
 8.0000e-001 111452 -2.9575e+001 -7.6296e+000  2.1335e+000 21829 111141,111403,111331
 8.0000e-001 112056 -1.5167e+001 -2.5825e+000 -9.8233e-001 21489 111687,111765,111739
 8.0000e-001 112033 -1.6187e+001 -5.4977e+000 -4.5104e-001 21489 112151,112079,111687
 8.0000e-001 112010 -3.9648e+000 -6.3034e+000  5.0563e+000 21489 111791,111843,111817
 8.0000e-001 111987 -8.4733e+000 -2.3259e+000  2.4894e+000 21489 112079,111843,111791
 8.0000e-001 111964 -2.0079e+001 -6.4180e+000 -2.9163e+000 21489 112151,111687,111661
 8.0000e-001 111941 -1.5588e+001 -1.2242e+001 -3.0783e+000 21489 111661,111869,111843
 8.0000e-001 111918 -2.2626e+001 -5.6701e+000 -5.8671e-001 21489 111687,111739,111713
 8.0000e-001 111895 -1.4713e+001 -1.0121e+001 -6.5957e-001 21489 111635,111869,111661
 8.0000e-001 112105 -1.0739e+001 -1.6157e+000  1.2596e+000 21489 111765,111687,112079
 8.0000e-001 112128 -1.0566e+001 -4.9414e+000  7.2081e-001 21489 111765,112079,111791
 8.0000e-001 112177 -9.5450e+000 -5.0525e+000  1.9338e+000 21489 111843,112079,112151
 8.0000e-001 112200 -1.3272e+001 -5.1261e+000 -1.2273e-001 21489 111843,112151,111661
 8.0000e-001 112578 -2.4945e+001 -4.0811e+000 -6.3746e-001 21177 112382,112434,112408
 8.0000e-001 112555 -2.5557e+001 -3.9578e+000 -1.2255e+000 21177 112330,112434,112382
 8.0000e-001 112532 -3.0976e+001 -8.5200e+000 -4.3632e+000 21177 112304,112434,112330
 8.0000e-001 112509 -2.8899e+001 -2.7332e+000  0.0000e+000 21177 112330,112382,112356
 8.0000e-001 112486 -2.5860e+001 -1.0857e+001 -3.8352e+000 21177 112304,112460,112434
 8.0000e-001 112679 -3.3279e+001  1.8328e+000  5.8748e-001 20666 112601,112653,112627
 8.0000e-001 112927 -2.4612e+001 -1.2923e+000  1.9887e+000 19762 112702,112754,112728
 8.0000e-001 112904 -1.9440e+001 -8.8020e-001  9.2327e-001 19762 112702,112832,112754
 8.0000e-001 112881 -1.8925e+001 -3.8684e-001  4.2494e-001 19762 112754,112832,112806
 8.0000e-001 112858 -1.3678e+001  1.7145e+000  7.1386e+000 19762 112754,112806,112780
 8.0000e-001 113297 -1.3210e+001  1.4175e+001 -2.2411e+000 19308 112974,113052,113026
 8.0000e-001 113274 -1.4503e+001  9.2802e+000 -1.2058e+000 19308 112974,113156,113052
 8.0000e-001 113251 -1.4066e+001  1.6066e+001  3.1574e+000 19308 113052,113130,113104
 8.0000e-001 113228 -1.4838e+001  7.7138e+000 -7.8293e-001 19308 113052,113156,113130
 8.0000e-001 113205 -1.2853e+001  1.2477e+001  0.0000e+000 19308 113052,113104,113078
 8.0000e-001 113182 -1.7039e+001  1.3476e+001 -5.1259e+000 19308 112974,113026,113000
 8.0000e-001 113547 -1.8764e+001  8.0093e+000  1.4004e+000 18711 113570,113374,113348
 8.0000e-001 113524 -1.5123e+001  2.9273e+000 -1.5607e-001 18711 113570,113348,113452
 8.0000e-001 113501 -1.8007e+001 -7.4602e+000  3.0835e+000 18711 113322,113452,113348
 8.0000e-001 113478 -1.9389e+001  7.1930e+000  6.0590e+000 18711 113374,113426,113400
 8.0000e-001 113596 -2.2310e+001  2.8142e+000  3.1868e+000 18711 113426,113374,113570
 8.0000e-001 113619 -1.6966e+001 -5.5737e-001  7.0370e-001 18711 113426,113570,113452
 8.0000e-001 113771 -5.6814e+000  1.6301e+001  2.5523e+000 18307 113670,113722,113696
 8.0000e-001 113748 -7.2435e+000  1.0990e+001  1.0687e+000 18307 113644,113722,113670
 8.0000e-001 113972 -3.1130e+001  1.4703e+001  2.1670e+000 17945 113822,113874,113848
 8.0000e-001 113949 -2.0215e+001  1.4688e+001  4.7760e-001 17945 113822,113900,113874
 8.0000e-001 113926 -2.0635e+001  5.9396e+000 -6.6808e+000 17945 113796,113900,113822
 8.0000e-001 114075 -2.0556e+001  2.1307e+001 -4.1967e+000 17482 113997,114049,114023
 8.0000e-001 114479 -1.1590e+001  1.5794e+001  1.2662e+000 17042 114257,114361,114335
 8.0000e-001 114456 -1.3062e+001  1.3479e+001  1.9078e+000 17042 114205,114361,114257
 8.0000e-001 114433 -8.6015e+000  1.8590e+001 -3.4156e-001 17042 114205,114257,114231
 8.0000e-001 114410 -1.1587e+001  2.9312e+001  9.3571e-001 17042 114283,114335,114309
 8.0000e-001 114387 -9.7052e+000  2.0582e+001  1.7708e+000 17042 114257,114335,114283
 8.0000e-001 114879 -4.8553e+000  2.7892e+000 -2.4663e+000 16638 114631,114683,114657
 8.0000e-001 114856 -3.0471e+000  2.4740e+000  2.8906e+000 16638 114605,114683,114631
 8.0000e-001 114833 -8.3641e-001  2.7434e+000  6.9831e-001 16638 114605,114761,114683
 8.0000e-001 114810  1.8093e+001  5.3268e+000 -3.6029e+000 16638 114683,114735,114709
 8.0000e-001 114787  4.4560e-001  7.0908e+000  4.3632e-001 16638 114683,114761,114735
 8.0000e-001 115078 -7.8921e+001 -2.7147e+001  5.7463e+000 16232 114954,115006,114980
 8.0000e-001 115055 -5.3027e+001 -1.5928e+001 -1.4239e+000 16232 114928,115006,114954
 8.0000e-001 115032 -7.3227e+001 -2.2005e+001 -8.3392e+000 16232 114902,115006,114928
 8.0000e-001 115228 -3.4296e+000  9.6085e+000  2.6063e+000 15482 115101,115153,115127
 8.0000e-001 115205 -1.9027e+001  7.7950e+000 -5.6772e-001 15482 115101,115179,115153
 8.0000e-001 115331 -1.7207e+001 -2.2626e+000  9.5806e-001 15163 115253,115305,115279
 8.0000e-001 115434 -7.7241e+000  1.6572e-002 -2.8277e+000 421 115356,115408,115382
 9.0000e-001 68213  1.7084e+000 -5.1750e+000  4.1606e-001 67888 68112,68164,68138
 9.0000e-001 68190  5.7294e+000 -4.9948e+000  1.5654e+000 67888 68086,68164,68112
 9.0000e-001 68314  1.2594e+001  6.4940e+000  6.2262e-001 67576 68236,68288,68262
 9.0000e-001 68584  8.2827e-001  1.1465e+000  5.9125e-001 67378 68385,68489,68463
 9.0000e-001 68561  5.6153e+000  2.6262e+000  1.6225e+000 67378 68359,68489,68385
 9.0000e-001 68538  1.0124e+000  2.5656e+000  6.6595e-001 67378 68385,68463,68411
 9.0000e-001 68515  2.2618e+000  7.9652e+000  2.3187e-001 67378 68411,68463,68437
 9.0000e-001 68964  3.3999e+000  1.3219e+001 -1.4140e+000 67130 68690,68820,68716
 9.0000e-001 68941  3.0126e+000  1.8088e+001 -1.0020e+000 67130 68690,68846,68820
 9.0000e-001 68918 -6.7395e+000  7.6169e+000  3.9834e+000 67130 68742,68820,68794
 9.0000e-001 68895 -5.2716e+000  1.0243e+001  2.0916e+000 67130 68716,68820,68742
 9.0000e-001 68872 -5.4300e+000  1.1320e+001  4.5887e+000 67130 68742,68794,68768
 9.0000e-001 69065  6.5602e+000  2.0449e+000  4.6265e-001 66926 68987,69039,69013
 9.0000e-001 69445  2.3994e+000 -1.0976e+000  1.2092e+000 66614 69223,69301,69275
 9.0000e-001 69422  3.6181e+000 -4.7423e-002  3.1582e-001 66614 69171,69301,69223
 9.0000e-001 69399  3.9797e+000  6.4360e-001  1.6364e-001 66614 69171,69327,69301
 9.0000e-001 69376  2.9687e+000  1.2123e-001  1.0399e+000 66614 69223,69275,69249
 9.0000e-001 69353  2.8428e+000 -5.2273e-001  5.2091e-002 66614 69171,69223,69197
 9.0000e-001 69546 -3.5975e+000  1.4788e+001 -4.1173e+000 66416 69468,69520,69494
 9.0000e-001 69997  8.0403e+000  1.6811e+001  1.6053e-001 66104 69700,69830,69726
 9.0000e-001 69974  8.9214e+000  1.3961e+001 -7.7856e-001 66104 69700,69856,69830
 9.0000e-001 69951  9.4780e+000  1.3708e+001  1.3947e+000 66104 69726,69804,69778
 9.0000e-001 69928  6.5568e+000  1.4335e+001  8.8773e-001 66104 69726,69830,69804
 9.0000e-001 69905  7.8164e+000  1.2013e+001  4.6147e-001 66104 69726,69778,69752
 9.0000e-001 69882  1.4887e+001  1.2726e+001 -4.3032e+000 66104 69674,69856,69700
 9.0000e-001 70326  7.1598e+000  1.4760e+001 -1.7258e+000 65814 70349,70153,70127
 9.0000e-001 70303  7.5481e+000  1.6676e+001 -3.3042e+000 65814 70349,70127,70101
 9.0000e-001 70280  9.3373e+000  1.0994e+001 -5.3868e+000 65814 70101,70231,70205
 9.0000e-001 70257  6.8606e+000  1.3602e+001  2.9410e-001 65814 70153,70205,70179
 9.0000e-001 70375  6.9333e+000  1.1696e+001 -4.7327e-001 65814 70205,70153,70349
 9.0000e-001 70398  8.4832e+000  1.4463e+001 -2.3289e+000 65814 70205,70349,70101
 9.0000e-001 70904 -4.9193e-001  8.9191e+000 -1.1897e+000 65502 70607,70737,70685
 9.0000e-001 70881 -4.2596e+000  4.7076e+000  7.1258e-001 65502 70581,70737,70607
 9.0000e-001 70858 -2.1539e+000  8.2263e+000 -4.4137e-001 65502 70581,70763,70737
 9.0000e-001 70835 -1.1871e+001  4.5635e+000  6.0607e-001 65502 70685,70737,70711
 9.0000e-001 70812  1.6912e+001  9.1893e+000  1.6050e+000 65502 70607,70659,70633
 9.0000e-001 70789  4.0296e-001  1.1894e+001  1.8363e+000 65502 70607,70685,70659
 9.0000e-001 71103  7.9840e+000  6.5241e+000  4.4760e-002 65304 71126,70979,70953
 9.0000e-001 71080  7.3879e+000  5.9986e+000  2.6713e-001 65304 71126,70953,70927
 9.0000e-001 71057  9.1046e+000  8.5978e+000  4.2609e+000 65304 70927,71031,71005
 9.0000e-001 71152  7.1469e+000  7.8935e+000 -1.1351e-001 65304 71005,70979,71126
 9.0000e-001 71175  6.1108e+000  6.8153e+000  3.1725e-001 65304 71005,71126,70927
 9.0000e-001 71374  7.2695e+000  5.6684e+000  8.1385e-001 65106 71198,71276,71224
 9.0000e-001 71351  2.5923e+000  2.6014e+000 -5.1089e-001 65106 71198,71302,71276
 9.0000e-001 71328  7.9842e+000  7.2519e+000 -2.6984e-001 65106 71224,71276,71250
 9.0000e-001 71756  1.8464e+000  1.2490e+001  7.7604e-001 64652 71508,71638,71534
 9.0000e-001 71733 -4.9388e+000  9.5502e+000  6.3926e-001 64652 71482,71638,71508
 9.0000e-001 71710  1.9625e+000  7.8308e+000 -5.6087e-001 64652 71534,71586,71560
 9.0000e-001 71687  4.3678e+000  1.0965e+001 -1.9531e+000 64652 71534,71612,71586
 9.0000e-001 71664 -4.7913e+000  7.7024e+000 -1.8190e+000 64652 71534,71638,71612
 9.0000e-001 72085  2.0740e+000  8.2314e+000  1.1220e+000 64248 71886,71964,71912
 9.0000e-001 72062  3.0181e+000  8.6741e+000  9.9121e-001 64248 71860,71964,71886
 9.0000e-001 72039 -7.8097e-001  7.2872e+000  3.1162e-001 64248 71912,71964,71938
 9.0000e-001 72016  2.4127e+000  1.1601e+001  9.4884e-001 64248 71860,71990,71964
 9.0000e-001 72235 -2.4916e+000  9.9301e+000  1.5908e+000 63858 72588,72258,72134
 9.0000e-001 72212  1.6788e+000  8.7698e+000 -1.1284e+000 63858 72330,72258,72108
 9.0000e-001 72284  3.0255e+000  1.1033e+001  2.8589e+000 63858 72160,72134,72258
 9.0000e-001 72307  4.8531e+000  1.0605e+001  1.6113e-001 63858 72460,72258,72186
 9.0000e-001 72356  5.3226e+000  1.1873e+001  1.3360e+000 63858 72186,72258,72330
 9.0000e-001 72486  1.1801e+000  6.2253e+000  2.5663e+000 63858 72160,72258,72460
 9.0000e-001 72614  2.2035e-001  1.1949e+001 -8.8435e-001 63858 72108,72258,72588
 9.0000e-001 73248  8.9900e+000  1.1443e+001  2.2211e+000 63404 72902,72954,72928
 9.0000e-001 73225  2.2690e+000  9.6539e+000 -8.1354e-001 63404 73271,72954,72902
 9.0000e-001 73202  1.4054e+000  1.1390e+001 -2.0064e-001 63404 73271,72902,73032
 9.0000e-001 73179 -6.7626e+000  7.6384e+000  8.0104e-001 63404 72902,73058,73032
 9.0000e-001 73156  2.1200e-001  1.4852e+001 -3.4573e+000 63404 72980,73032,73006
 9.0000e-001 73133 -7.4900e+000  1.4468e+001  3.6027e+000 63404 72876,73058,72902
 9.0000e-001 73110 -6.0342e+001 -4.5419e+000  8.8991e+000 63404 72876,73084,73058
 9.0000e-001 73297  1.4783e+000  8.9848e+000 -1.5397e+000 63404 72980,72954,73271
 9.0000e-001 73320  3.7444e-001  1.0216e+001 -9.1401e-001 63404 72980,73271,73032
 9.0000e-001 73470 -2.0911e+000  1.5079e+001  5.2925e-001 63014 73343,73395,73369
 9.0000e-001 73447 -3.8628e+000  1.3509e+001 -2.0600e-001 63014 73343,73421,73395
 9.0000e-001 73929  3.5218e+000  3.4337e+000 -4.1753e-001 62702 73759,73811,73785
 9.0000e-001 73906  7.8634e+000  5.2183e+000 -4.9078e-001 62702 73655,73811,73759
 9.0000e-001 73883  9.3556e+000  5.7995e+000  2.1987e-001 62702 73655,73759,73681
 9.0000e-001 73860  9.4785e+000  5.8997e+000 -5.4873e-001 62702 73681,73759,73707
 9.0000e-001 73837  6.3258e+000  3.7799e+000  7.6097e-001 62702 73707,73759,73733
 9.0000e-001 74209  7.2209e+000  4.1228e+000  3.3679e-001 62404 74059,74137,74085
 9.0000e-001 74186  7.0542e+000  3.6752e+000  5.4933e-001 62404 74033,74137,74059
 9.0000e-001 74163  6.6738e+000 -4.9503e-003 -1.8076e-001 62404 74085,74137,74111
 9.0000e-001 74408  2.0975e+000  5.8703e+000  7.3109e-002 62000 74258,74336,74284
 9.0000e-001 74385  1.7206e+000  5.6286e+000 -1.1682e-001 62000 74232,74336,74258
 9.0000e-001 74362  2.2997e+000  5.8351e+000  1.4047e-001 62000 74284,74336,74310
 9.0000e-001 74509 -3.2544e+000 -1.6651e+000 -1.4439e+000 61802 74431,74483,74457
 9.0000e-001 74759  5.6983e+000  3.3546e+000 -4.3383e-001 61554 74782,74586,74560
 9.0000e-001 74736  7.2155e+000  3.2705e+000 -8.4151e-001 61554 74782,74560,74664
 9.0000e-001 74713  4.3478e+000  1.3903e+000 -2.6316e-001 61554 74854,74612,74586
 9.0000e-001 74690  7.4982e+000  2.9831e+000 -4.4249e-001 61554 74534,74664,74560
 9.0000e-001 74808  5.0433e+000  2.9229e+000 -5.9900e-002 61554 74854,74586,74782
 9.0000e-001 74831  5.5637e+000  3.6509e+000 -2.4231e-001 61554 74638,74782,74664
 9.0000e-001 74880  4.1681e+000  3.2034e+000 -7.6833e-001 61554 74638,74612,74854
 9.0000e-001 74903  4.3386e+000  3.5940e+000 -7.3212e-001 61554 74638,74854,74782
 9.0000e-001 75285 -7.5171e-001 -5.4163e-002  4.0575e-001 61356 75063,75167,75115
 9.0000e-001 75262 -1.0897e+000 -6.1925e-001  1.1833e-001 61356 75037,75167,75063
 9.0000e-001 75239 -2.8469e+000  6.5675e-001  4.6287e-001 61356 75115,75167,75141
 9.0000e-001 75216 -1.5305e+000  1.3634e-001  6.7248e-001 61356 75063,75115,75089
 9.0000e-001 75193  1.0974e+000  4.4458e+000  2.6264e+000 61356 75011,75167,75037
 9.0000e-001 75631 -4.1588e+000 -6.2567e+000 -1.5860e+000 60952 75654,75412,75360
 9.0000e-001 75608 -4.9464e+000 -4.0540e+000 -8.3805e-001 60952 75654,75360,75334
 9.0000e-001 75585 -2.7045e+000 -1.5241e+000 -2.3489e+000 60952 75726,75438,75412
 9.0000e-001 75562 -6.5416e+000 -3.8293e+000  1.1189e+000 60952 75308,75490,75334
 9.0000e-001 75539 -4.6586e+000 -6.8472e+000 -6.7095e-001 60952 75360,75412,75386
 9.0000e-001 75516 -2.9696e+000  1.2956e-001 -5.0251e-001 60952 75438,75490,75464
 9.0000e-001 75680 -3.7477e+000 -3.7916e+000 -1.7853e+000 60952 75726,75412,75654
 9.0000e-001 75703 -4.6781e+000 -2.6725e+000 -1.1746e+000 60952 75490,75654,75334
 9.0000e-001 75752 -3.8670e+000 -4.0307e+000 -1.5825e+000 60952 75490,75438,75726
 9.0000e-001 75775 -3.8602e+000 -4.3880e+000 -1.1077e+000 60952 75490,75726,75654
 9.0000e-001 76155  2.3778e+000  6.9890e+000  2.6079e+000 60754 75933,75985,75959
 9.0000e-001 76132  2.7328e+000  7.5770e+000 -4.6605e-002 60754 75933,76037,75985
 9.0000e-001 76109  3.4258e+000  6.4377e+000 -2.3905e-002 60754 75985,76037,76011
 9.0000e-001 76086  3.4975e+000  6.4256e+000  4.0198e-001 60754 75881,76037,75933
 9.0000e-001 76063  4.1767e+000  5.3876e+000 -6.4077e-001 60754 75881,75933,75907
 9.0000e-001 76612 -1.4022e+000  1.4735e+001 -1.6505e+000 60350 76635,76442,76390
 9.0000e-001 76589  1.7915e+000  1.4074e+001 -7.5554e-001 60350 76635,76390,76364
 9.0000e-001 76566  3.7514e+000  1.8264e+001  2.6156e+000 60350 76364,76494,76468
 9.0000e-001 76543  3.0915e+000  1.4828e+001 -7.6196e+000 60350 76390,76442,76416
 9.0000e-001 76520  8.7113e+000  1.5202e+001  4.2411e+000 60350 76338,76494,76364
 9.0000e-001 76661 -3.4390e+000  1.4512e+001 -1.5870e+000 60350 76468,76442,76635
 9.0000e-001 76684 -1.2804e+000  1.3130e+001 -6.9986e-001 60350 76468,76635,76364
 9.0000e-001 76932  1.3500e+000  1.3811e+000  1.5791e-001 59946 76955,76733,76707
 9.0000e-001 76909  9.8433e-001  6.5220e-001  7.0262e-001 59946 77027,76955,76707
 9.0000e-001 76886  1.8514e+000  4.9584e-001  4.0480e-001 59946 77027,76707,76837
 9.0000e-001 76863  1.5557e+000  7.5798e-001  1.0663e-001 59946 76733,76785,76759
 9.0000e-001 76981  6.8989e-001  9.2567e-001  4.6264e-001 59946 76785,76733,76955
 9.0000e-001 77004  9.7989e-001  1.6224e-001  1.1366e+000 59946 76785,76955,76811
 9.0000e-001 77053  1.9935e+000  9.9519e-001  7.6079e-001 59946 76811,76955,77027
 9.0000e-001 77076  2.5668e+000  7.0824e-001  3.4273e-001 59946 76811,77027,76837
 9.0000e-001 77226 -5.1728e+000  2.4857e+001 -1.1273e+000 59542 77099,77151,77125
 9.0000e-001 77203 -5.4959e+000  1.7430e+001 -4.6950e+000 59542 77099,77177,77151
 9.0000e-001 77427  1.4788e+000  5.9639e+000 -2.0843e+000 59030 77450,77277,77251
 9.0000e-001 77404  7.7768e-001  4.9774e+000 -1.4829e+000 59030 77450,77251,77355
 9.0000e-001 77381  3.0338e+000  8.1299e+000 -2.6134e+000 59030 77277,77329,77303
 9.0000e-001 77476  6.9167e-001  6.2000e+000 -1.5618e+000 59030 77329,77277,77450
 9.0000e-001 77499  4.2105e-002  5.7034e+000 -1.0953e+000 59030 77329,77450,77355
 9.0000e-001 77749 -1.0139e+001  7.0622e+000  2.5133e+000 58426 77772,77628,77602
 9.0000e-001 77726 -7.7146e+000  4.9944e+000  4.0483e+000 58426 77524,77654,77628
 9.0000e-001 77703 -4.7496e+000  7.2146e+000  5.7556e-001 58426 77772,77602,77550
 9.0000e-001 77680 -4.8442e+000  7.5313e+000 -2.1100e+000 58426 77550,77602,77576
 9.0000e-001 77798 -3.9928e+000  7.4870e+000  2.8170e+000 58426 77524,77628,77772
 9.0000e-001 77821 -1.4084e+000  6.0098e+000  1.4580e-001 58426 77524,77772,77550
 9.0000e-001 78071  4.8431e+000 -3.3914e-001 -6.4326e-001 57922 78094,77924,77898
 9.0000e-001 78048  5.3281e+000  1.8288e+000 -1.0955e+000 57922 78094,77898,77872
 9.0000e-001 78025  4.1788e+000  2.5090e+000 -6.4559e-001 57922 78166,77846,77950
 9.0000e-001 78002  3.1985e+000  2.9567e+000 -1.0767e+000 57922 77846,77976,77950
 9.0000e-001 78120  7.0203e+000  1.4195e+000 -1.5766e+000 57922 77950,77924,78094
 9.0000e-001 78143  5.5255e+000  2.5409e+000 -1.6429e+000 57922 78166,77950,78094
 9.0000e-001 78192  3.0080e+000  1.8092e+000  1.2368e-001 57922 77872,77846,78166
 9.0000e-001 78215  4.1815e+000  1.0756e+000 -6.7485e-001 57922 77872,78166,78094
 9.0000e-001 78416  9.4907e-001  3.1505e+000  1.0278e+000 57468 78439,78292,78240
 9.0000e-001 78393  9.9946e-001  5.8782e+000  8.3651e-001 57468 78439,78240,78344
 9.0000e-001 78370  2.9823e+000  4.9418e+000  2.1637e+000 57468 78240,78292,78266
 9.0000e-001 78465  1.2330e+000  2.4642e+000 -7.7151e-001 57468 78318,78292,78439
 9.0000e-001 78488  1.2962e+000  4.3893e+000 -4.3473e-001 57468 78318,78439,78344
 9.0000e-001 78689 -4.0260e+000 -1.2972e-001 -5.5116e-001 57014 78712,78539,78513
 9.0000e-001 78666 -3.3379e+000 -1.0193e+000 -1.1082e+000 57014 78712,78513,78617
 9.0000e-001 78643 -1.0031e+000 -1.2016e+000  4.9788e-001 57014 78565,78617,78591
 9.0000e-001 78738 -3.3519e+000  1.0712e+000 -1.6640e-001 57014 78565,78539,78712
 9.0000e-001 78761 -3.1303e+000 -4.7072e-001 -7.6976e-001 57014 78565,78712,78617
 9.0000e-001 79241 -1.5894e+000  4.0592e+000  9.9975e-001 56652 79264,78895,78869
 9.0000e-001 79218  1.5775e-001  5.3737e+000  6.8733e-002 56652 79264,78869,79051
 9.0000e-001 79195 -2.6353e+000  4.1767e+000  3.4606e-001 56652 78869,79077,79051
 9.0000e-001 79172 -9.9334e-001  2.8361e+000 -1.2555e+000 56652 78895,78973,78947
 9.0000e-001 79149  2.5721e+000  5.6860e+000 -1.2685e+000 56652 78973,79051,78999
 9.0000e-001 79126 -3.4009e-001  1.3692e+001 -2.6305e+000 56652 78895,78947,78921
 9.0000e-001 79103  6.0917e+000  1.2796e+001 -2.8995e+000 56652 78999,79051,79025
 9.0000e-001 79290  1.7378e-001  2.7382e+000 -1.6115e-001 56652 78973,78895,79264
 9.0000e-001 79313  2.4808e+000  4.8434e+000 -1.2959e+000 56652 78973,79264,79051
 9.0000e-001 79512 -2.7104e+001 -5.4957e+000 -3.2976e+000 56062 79388,79440,79414
 9.0000e-001 79489 -1.6257e+001 -5.2942e+000 -1.3416e+000 56062 79336,79440,79388
 9.0000e-001 79466 -1.2327e+001 -6.8985e+000 -7.1634e-001 56062 79336,79388,79362
 9.0000e-001 79941 -5.2614e+000 -6.0594e-001 -1.5376e+000 55658 79964,79670,79644
 9.0000e-001 79918 -5.0587e+000 -1.4989e+000 -1.3454e+000 55658 79964,79644,79800
 9.0000e-001 79895 -5.1775e+000 -1.4149e+000 -1.8059e+000 55658 80036,79696,79670
 9.0000e-001 79872 -4.9828e+000 -3.9358e+000 -2.7702e-001 55658 80108,79722,79696
 9.0000e-001 79849 -2.5853e+000  3.7433e-001  6.8670e-002 55658 79722,79774,79748
 9.0000e-001 79826 -2.4988e+000 -9.6853e-001 -4.3820e+000 55658 79618,79800,79644
 9.0000e-001 79990 -5.3449e+000 -1.4713e+000 -1.7308e+000 55658 80036,79670,79964
 9.0000e-001 80013 -4.1152e+000  1.3674e-001 -9.5322e-001 55658 79774,79964,79800
 9.0000e-001 80062 -5.7851e+000 -2.5360e+000 -1.2294e+000 55658 80108,79696,80036
 9.0000e-001 80085 -4.5676e+000  8.7611e-002 -1.9868e+000 55658 79774,80036,79964
 9.0000e-001 80134 -3.2076e+000 -2.1420e+000 -1.0089e+000 55658 79774,79722,80108
 9.0000e-001 80157 -3.6921e+000 -7.3485e-001 -2.0307e+000 55658 79774,80108,80036
 9.0000e-001 80307  2.0926e+000  1.0868e+000  7.6734e-001 55254 80402,80330,80206
 9.0000e-001 80284  2.4670e+000  1.7287e+000  4.1695e-002 55254 80330,80180,80258
 9.0000e-001 80356  1.6845e+000  1.9407e-001  1.5491e+000 55254 80232,80206,80330
 9.0000e-001 80379  2.8015e+000  5.8560e-001  7.6017e-001 55254 80232,80330,80258
 9.0000e-001 80428  1.7814e+000  6.5421e-001  5.9601e-001 55254 80180,80330,80402
 9.0000e-001 80659  5.4325e+000  1.6501e+001  1.1542e+000 54850 80558,80610,80584
 9.0000e-001 80636  6.6439e+000  1.6026e+001  2.3427e-001 54850 80532,80610,80558
 9.0000e-001 80760 -7.5875e+000 -6.7207e+000  9.6291e-001 54652 80682,80734,80708
 9.0000e-001 81164 -7.9354e+000 -4.9481e+000 -3.3919e-001 54248 81187,80942,80890
 9.0000e-001 81141 -7.9466e+000 -4.7069e+000 -3.5124e-001 54248 81187,80890,81046
 9.0000e-001 81118 -5.0757e+000 -3.4516e+000 -2.0460e+000 54248 80942,81020,80994
 9.0000e-001 81095 -8.3214e+000 -6.1967e+000 -1.2136e-001 54248 80890,80942,80916
 9.0000e-001 81072 -1.0065e+001 -8.7444e+000  2.0024e-001 54248 80942,80994,80968
 9.0000e-001 81213 -7.9453e+000 -5.0818e+000 -3.8202e-001 54248 81020,80942,81187
 9.0000e-001 81236 -7.9940e+000 -4.8940e+000 -3.9371e-001 54248 81020,81187,81046
 9.0000e-001 81663 -4.4460e+000  7.4699e+000  3.9779e+000 53594 81340,81444,81366
 9.0000e-001 81640  7.4204e-001  8.1029e+000  1.1540e+000 53594 81340,81470,81444
 9.0000e-001 81617  3.9435e-001  8.2459e+000  5.1476e-001 53594 81340,81522,81470
 9.0000e-001 81594 -6.1245e+000  1.0236e+001  3.5565e+000 53594 81392,81444,81418
 9.0000e-001 81571 -6.9753e+000  6.8419e+000  2.7983e+000 53594 81366,81444,81392
 9.0000e-001 81548  8.8806e+000  9.1356e+000  9.6150e-001 53594 81470,81522,81496
 9.0000e-001 81943  3.5048e+000  2.2303e+000 -6.2996e-001 53104 81966,81845,81819
 9.0000e-001 81920  3.9768e+000  2.4138e+000 -4.4147e-001 53104 81966,81819,81767
 9.0000e-001 81897  3.9758e+000  2.3054e+000 -3.0388e-001 53104 81767,81819,81793
 9.0000e-001 81992  3.1669e+000  2.6236e+000 -3.3925e-001 53104 81871,81845,81966
 9.0000e-001 82015  3.6522e+000  2.8473e+000 -7.6166e-002 53104 81871,81966,81767
 9.0000e-001 82491 -3.2489e+000  9.6564e+000 -3.2064e+000 52650 82145,82249,82171
 9.0000e-001 82468 -1.6687e+000  8.9096e+000 -1.7000e+000 52650 82145,82301,82249
 9.0000e-001 82445 -2.6395e+000  1.2735e+001  4.3509e-001 52650 82249,82301,82275
 9.0000e-001 82422 -1.5672e+000  6.7978e+000 -2.2489e+000 52650 82119,82301,82145
 9.0000e-001 82399 -8.0671e+000  6.8571e+000 -4.3528e+000 52650 82171,82249,82223
 9.0000e-001 82376 -1.3519e+000  6.7108e+000  3.8112e-001 52650 82119,82327,82301
 9.0000e-001 82353 -1.8429e+001  1.5906e+001 -1.4090e+001 52650 82171,82223,82197
 9.0000e-001 82739 -2.5667e+000  4.4717e+000 -6.4476e-001 52246 82762,82540,82514
 9.0000e-001 82716 -3.3535e+000  3.7983e+000 -3.4051e-001 52246 82762,82514,82644
 9.0000e-001 82693 -5.1530e+000  2.8537e+000 -2.4874e+000 52246 82540,82618,82592
 9.0000e-001 82670  2.5089e+000  2.5813e-001  3.4484e-001 52246 82540,82592,82566
 9.0000e-001 82788 -3.3477e+000  5.2384e+000 -1.0749e+000 52246 82618,82540,82762
 9.0000e-001 82811 -4.0269e+000  4.8263e+000 -9.0023e-001 52246 82618,82762,82644
 9.0000e-001 83059 -1.2462e+000  4.2391e+000  8.7217e-001 51578 82860,82964,82938
 9.0000e-001 83036 -1.1419e+000  5.0367e+000 -2.6778e+000 51578 82834,82964,82860
 9.0000e-001 83013  1.2690e-002  8.5288e+000  2.8566e+000 51578 82860,82938,82886
 9.0000e-001 82990  3.2252e+000  1.5076e+001  3.9609e+000 51578 82886,82938,82912
 9.0000e-001 83309  7.4201e-001  1.4889e+001  4.5039e+000 51138 83332,83162,83136
 9.0000e-001 83286 -2.6248e-001  1.1401e+001  2.6240e+000 51138 83332,83136,83110
 9.0000e-001 83263  8.0321e-001  1.0367e+001  2.5276e+000 51138 83404,83214,83188
 9.0000e-001 83240  2.5527e+000  1.0427e+001  4.1211e+000 51138 83084,83214,83110
 9.0000e-001 83358 -8.9458e-002  1.1572e+001  3.7762e+000 51138 83188,83162,83332
 9.0000e-001 83381  6.1730e-001  1.0837e+001  2.1332e+000 51138 83404,83188,83332
 9.0000e-001 83430  3.4931e-001  9.0818e+000  2.7009e+000 51138 83110,83214,83404
 9.0000e-001 83453  3.7439e-001  9.8484e+000  2.2787e+000 51138 83110,83404,83332
 9.0000e-001 83835 -5.5798e+000  3.3289e+000 -1.0130e+000 50734 83613,83717,83691
 9.0000e-001 83812 -1.4732e+000  1.2955e+001 -8.6139e-001 50734 83561,83717,83613
 9.0000e-001 83789 -4.4754e+000  1.4475e+001 -2.8535e-001 50734 83561,83613,83587
 9.0000e-001 83766 -5.7948e-002  8.9977e+000  1.2268e+000 50734 83613,83691,83639
 9.0000e-001 83743  1.0933e+000  1.2526e+001  3.3890e+000 50734 83639,83691,83665
 9.0000e-001 84034 -5.7830e+000  6.9211e+000 -2.9519e+000 50230 84057,83884,83858
 9.0000e-001 84011 -5.9004e+000  7.6986e+000 -1.2795e+000 50230 84129,84057,83858
 9.0000e-001 83988 -1.0049e+001  7.3560e+000 -6.7142e-002 50230 84129,83858,83962
 9.0000e-001 84083 -1.1372e+001  5.4749e+000 -5.3814e+000 50230 83910,83884,84057
 9.0000e-001 84106 -7.6510e+000  1.4533e+001 -5.0041e+000 50230 83910,84057,83936
 9.0000e-001 84155 -1.1701e+001  7.4502e+000 -1.7444e+000 50230 83936,84057,84129
 9.0000e-001 84178 -1.3466e+001  8.8658e+000 -2.6497e-001 50230 83936,84129,83962
 9.0000e-001 84558 -1.8660e+000  8.4531e+000  1.4659e+000 49768 84581,84388,84362
 9.0000e-001 84535  1.8790e+000  8.7140e+000  5.3748e-001 49768 84581,84362,84310
 9.0000e-001 84512 -5.2724e+000  8.6243e+000  1.7921e+000 49768 84653,84440,84414
 9.0000e-001 84489  5.5385e+000  8.3711e+000  3.6651e+000 49768 84310,84362,84336
 9.0000e-001 84466  2.0042e-001  1.1676e+001  9.3285e+000 49768 84284,84440,84310
 9.0000e-001 84607 -2.3594e+000  8.8802e+000  1.7160e+000 49768 84414,84388,84581
 9.0000e-001 84630 -3.6697e+000  9.1034e+000  1.1594e+000 49768 84653,84414,84581
 9.0000e-001 84679 -3.0886e+000  7.1309e+000  2.4598e+000 49768 84310,84440,84653
 9.0000e-001 84702 -1.3714e+000  7.5945e+000  2.2768e+000 49768 84310,84653,84581
 9.0000e-001 85159  3.7972e-001 -1.1812e+000  1.9313e+000 49192 84885,84937,84911
 9.0000e-001 85136  1.1904e+000 -2.7899e+000  4.5081e-001 49192 84885,85041,84937
 9.0000e-001 85113 -5.1879e-001 -3.3356e+000 -2.8066e-001 49192 84963,85041,84989
 9.0000e-001 85090 -1.4160e+000 -5.6949e+000 -7.4361e-001 49192 84937,85041,84963
 9.0000e-001 85067 -1.7688e+000 -3.3928e+000 -6.0363e-001 49192 84989,85041,85015
 9.0000e-001 85714 -9.5996e+000  4.1651e+000  2.9186e+000 48638 85368,85498,85394
 9.0000e-001 85691 -9.8238e+000  7.0088e+000  3.0444e+000 48638 85368,85524,85498
 9.0000e-001 85668 -3.3735e+000  5.6813e+000 -2.8791e+000 48638 85737,85420,85394
 9.0000e-001 85645 -6.6536e+000  7.2521e+000  2.6437e-001 48638 85737,85394,85498
 9.0000e-001 85622 -1.1972e+001  7.6637e+000 -2.1948e+000 48638 85446,85498,85472
 9.0000e-001 85599 -1.5144e+001  2.2483e+000  1.0026e+001 48638 85342,85524,85368
 9.0000e-001 85576 -1.8328e+001  5.0314e+000  7.5392e+000 48638 85342,85550,85524
 9.0000e-001 85763 -8.5678e+000  3.2165e+000 -3.8909e+000 48638 85446,85420,85737
 9.0000e-001 85786 -8.7027e+000  5.7107e+000 -5.0643e-001 48638 85446,85737,85498
 9.0000e-001 86371 -6.3072e+000  2.7122e+000  2.0420e+000 48084 86100,86230,86178
 9.0000e-001 86348 -8.1410e+000  4.4448e+000  1.8114e+000 48084 86048,86230,86100
 9.0000e-001 86325 -8.5108e+000  1.8919e+000  2.5027e+000 48084 86100,86178,86126
 9.0000e-001 86302 -3.1263e+000  1.6121e+001  2.6058e+000 48084 86048,86100,86074
 9.0000e-001 86279 -2.9648e+000  8.5369e+000  6.8594e-001 48084 86178,86230,86204
 9.0000e-001 86256 -1.1536e+001  7.3770e-001  1.6244e+000 48084 86126,86178,86152
 9.0000e-001 86619 -5.9173e+000  2.4436e+000 -5.7545e+000 47630 86642,86446,86420
 9.0000e-001 86596 -1.9528e+000  3.9010e+000 -6.2812e+000 47630 86642,86420,86394
 9.0000e-001 86573 -6.6847e+000  2.5165e+000 -1.8665e+000 47630 86394,86524,86498
 9.0000e-001 86550  2.6998e-001 -9.2591e+000 -3.3312e+000 47630 86446,86498,86472
 9.0000e-001 86668 -5.8802e+000  2.0628e+000 -2.2709e+000 47630 86498,86446,86642
 9.0000e-001 86691 -2.4736e+000  3.4618e+000 -2.9080e+000 47630 86498,86642,86394
 9.0000e-001 87022  4.8257e+000  1.0863e+001  1.0049e+000 47226 87045,86875,86849
 9.0000e-001 86999  3.9430e+000  1.3393e+001  4.0930e-001 47226 87045,86849,86797
 9.0000e-001 86976  1.5612e+000  1.0271e+001  2.6538e+000 47226 86797,86849,86823
 9.0000e-001 86953  6.6452e+000  1.4433e+001 -2.8809e+000 47226 86875,86927,86901
 9.0000e-001 87071  6.2715e+000  1.2688e+001  3.7836e-001 47226 86927,86875,87045
 9.0000e-001 87094  4.7345e+000  1.4419e+001  5.4601e-002 47226 86927,87045,86797
 9.0000e-001 87244  1.4503e+000  6.5458e+000 -9.8995e-001 46814 87267,87169,87143
 9.0000e-001 87221  3.6984e+000  1.0401e+001 -6.9191e-002 46814 87267,87143,87117
 9.0000e-001 87293  1.4654e+000  7.3982e+000 -1.4096e+000 46814 87339,87267,87195
 9.0000e-001 87316  2.9707e+000  1.0045e+001 -2.1967e+000 46814 87469,87267,87117
 9.0000e-001 87365  2.4697e+000  7.7872e+000 -1.4461e+000 46814 87169,87267,87339
 9.0000e-001 87495  7.0630e-001  4.3380e+000 -1.0958e+000 46814 87195,87267,87469
 9.0000e-001 88001 -9.8804e+000 -5.0872e+000 -1.1097e+000 46310 88024,87834,87808
 9.0000e-001 87978 -9.0850e+000 -4.7413e+000 -1.1483e+000 46310 88024,87808,87756
 9.0000e-001 87955 -1.0796e+001 -5.4809e+000 -4.4470e-001 46310 88096,87730,87860
 9.0000e-001 87932 -7.9022e+000 -2.7945e+000 -5.8233e-001 46310 87756,87808,87782
 9.0000e-001 87909 -1.0532e+001 -5.8575e+000 -1.8271e-001 46310 87678,87860,87730
 9.0000e-001 87886 -9.9456e+000 -1.7967e+000  7.9919e-001 46310 87678,87730,87704
 9.0000e-001 88050 -8.8179e+000 -2.6841e+000 -1.6065e+000 46310 87860,87834,88024
 9.0000e-001 88073 -1.0214e+001 -4.7335e+000 -7.6290e-001 46310 88096,87860,88024
 9.0000e-001 88122 -9.8750e+000 -5.9054e+000 -1.0167e+000 46310 87756,87730,88096
 9.0000e-001 88145 -9.4395e+000 -5.6531e+000 -1.1800e+000 46310 87756,88096,88024
 9.0000e-001 88572 -1.8423e+001 -2.2534e+000 -2.0133e-002 45856 88249,88405,88275
 9.0000e-001 88549 -2.0398e+001  1.2660e+001 -5.6227e+000 45856 88249,88431,88405
 9.0000e-001 88526 -1.1307e+001 -3.6416e+000  3.7469e+000 45856 88327,88405,88353
 9.0000e-001 88503 -1.0722e+001  6.8339e+000  5.0095e+000 45856 88275,88405,88327
 9.0000e-001 88480 -9.3225e+000  2.1430e+000  4.8612e+000 45856 88353,88405,88379
 9.0000e-001 88457 -1.5314e+001 -1.0527e+001  6.3973e+000 45856 88275,88327,88301
 9.0000e-001 88950 -5.2196e+000  1.5681e+000  3.8151e-001 45658 88973,88754,88728
 9.0000e-001 88927 -6.0609e+000 -2.4008e+000 -4.1804e-001 45658 88973,88728,88676
 9.0000e-001 88904 -5.9130e+000 -4.1667e+000 -2.1730e+000 45658 88676,88832,88806
 9.0000e-001 88881 -4.9521e+000  9.9077e-002 -6.2822e-001 45658 88676,88728,88702
 9.0000e-001 88858 -2.5158e+000  5.3231e-002  3.2585e+000 45658 88754,88806,88780
 9.0000e-001 88999 -5.2899e+000 -2.1870e+000  2.0629e-001 45658 88806,88754,88973
 9.0000e-001 89022 -4.8446e+000 -4.4819e+000 -5.3101e-001 45658 88806,88973,88676
 9.0000e-001 89351 -1.3674e-001  1.0372e+001 -2.4029e-001 45254 89152,89230,89204
 9.0000e-001 89328 -7.1681e-001  1.0675e+001  1.6343e+000 45254 89152,89256,89230
 9.0000e-001 89305  2.3307e+000  1.1516e+001  1.6527e+000 45254 89126,89256,89152
 9.0000e-001 89282  2.8603e+000  1.2772e+001 -1.5414e+000 45254 89152,89204,89178
 9.0000e-001 89523 -1.3296e+001 -8.4807e+000 -2.0386e-001 45006 89422,89474,89448
 9.0000e-001 89500 -1.4139e+001 -8.8457e+000 -8.8068e-001 45006 89396,89474,89422
 9.0000e-001 89673 -3.2357e+000  1.0914e+001 -3.6176e-001 44495 89572,89624,89598
 9.0000e-001 89650 -3.8742e+000  1.1675e+001 -2.5007e+000 44495 89546,89624,89572
 9.0000e-001 90104 -1.3150e+001 -5.7542e+000 -4.2067e+000 44005 90199,90127,89937
 9.0000e-001 90081 -1.0644e+001 -6.8547e+000 -1.6278e+000 44005 90271,90127,89859
 9.0000e-001 90058 -1.1965e+001 -7.8245e+000 -4.7351e+000 44005 90199,89937,89885
 9.0000e-001 90035 -1.2752e+001 -6.5891e+000 -5.0416e-001 44005 90271,89859,89807
 9.0000e-001 90012 -8.8221e+000 -3.3558e+000 -3.2621e+000 44005 89885,89937,89911
 9.0000e-001 89989 -1.2812e+001 -3.3097e+000 -3.4027e+000 44005 89807,89859,89833
 9.0000e-001 90153 -1.5135e+001 -6.5308e+000 -4.0671e+000 44005 89963,89937,90127
 9.0000e-001 90176 -1.4159e+001 -5.1909e+000 -2.6137e+000 44005 89963,90127,89781
 9.0000e-001 90225 -1.2562e+001 -8.9187e+000 -3.8589e+000 44005 89859,90127,90199
 9.0000e-001 90248 -1.2874e+001 -1.2793e+001 -4.8838e+000 44005 89859,90199,89885
 9.0000e-001 90297 -1.3648e+001 -7.5292e+000 -1.5038e+000 44005 89781,90127,90271
 9.0000e-001 90320 -1.4955e+001 -6.7600e+000 -3.0326e-001 44005 89781,90271,89807
 9.0000e-001 90470 -1.2389e+001 -4.6974e+000  9.9208e-002 43601 90493,90369,90343
 9.0000e-001 90447 -1.2278e+001 -3.9415e+000  1.2392e-001 43601 90493,90343,90421
 9.0000e-001 90519 -1.2319e+001 -6.0072e+000 -2.7859e-001 43601 90395,90369,90493
 9.0000e-001 90542 -1.1713e+001 -4.4402e+000 -3.0114e-001 43601 90395,90493,90421
 9.0000e-001 90922 -1.1956e+001 -4.0162e+000 -1.4940e+000 43154 90945,90700,90674
 9.0000e-001 90899 -1.1264e+001 -3.5997e+000 -9.0548e-001 43154 90945,90674,90648
 9.0000e-001 90876 -9.0023e+000 -3.3516e+000 -1.4412e+000 43154 90648,90778,90752
 9.0000e-001 90853 -1.3274e+001 -3.2688e+000 -1.4782e+000 43154 90700,90752,90726
 9.0000e-001 90830 -9.1725e+000 -2.2414e+000 -2.5620e+000 43154 90648,90804,90778
 9.0000e-001 90971 -1.1572e+001 -3.4506e+000 -1.1361e+000 43154 90752,90700,90945
 9.0000e-001 90994 -1.1129e+001 -3.3201e+000 -5.8524e-001 43154 90752,90945,90648
 9.0000e-001 91451 -7.9559e+000 -1.1538e+000  2.3795e+000 42650 91203,91255,91229
 9.0000e-001 91428  2.5665e+000  3.3509e+000 -1.1796e+000 42650 91203,91333,91255
 9.0000e-001 91405  2.4670e+000 -2.8407e+000 -2.8567e+000 42650 91177,91333,91203
 9.0000e-001 91382  1.0419e+000 -1.9991e-001 -7.6089e-001 42650 91255,91333,91281
 9.0000e-001 91359  1.8114e+000 -4.1379e-001 -3.2392e-001 42650 91281,91333,91307
 9.0000e-001 91721 -4.0735e+000  7.2834e+000  7.2644e-001 42288 91496,91600,91522
 9.0000e-001 91698 -1.9970e+000  1.1803e+001  1.2035e-001 42288 91496,91626,91600
 9.0000e-001 91675  5.1456e-001  9.7136e+000 -1.6662e-001 42288 91522,91574,91548
 9.0000e-001 91652 -2.2757e+000  7.9593e+000  7.2169e-001 42288 91522,91600,91574
 9.0000e-001 92199 -1.9995e+000  5.6166e+000 -2.0435e+000 41898 92222,91983,91879
 9.0000e-001 92176 -2.4477e+000  8.9244e+000 -7.5628e-001 41898 92294,92222,91879
 9.0000e-001 92153 -2.2286e+000  8.5021e+000 -5.4451e-001 41898 92294,91879,91853
 9.0000e-001 92130 -4.2294e+000  2.4013e+000 -1.6295e+000 41898 91879,91957,91931
 9.0000e-001 92107 -3.6279e+000  4.8558e+000 -1.5278e+000 41898 91879,91983,91957
 9.0000e-001 92084 -9.0339e-001  1.5995e+000 -4.8978e+000 41898 91879,91931,91905
 9.0000e-001 92061 -5.6430e-001  7.3977e+000 -8.2132e-002 41898 91827,92035,91853
 9.0000e-001 92248 -2.0798e+000  1.0007e+001 -2.9941e+000 41898 92009,91983,92222
 9.0000e-001 92271 -2.1553e+000  1.1111e+001  5.1713e-001 41898 92009,92222,92035
 9.0000e-001 92320 -2.8831e+000  8.4554e+000 -4.4065e-001 41898 92035,92222,92294
 9.0000e-001 92343 -2.6770e+000  8.1329e+000 -2.1167e-001 41898 92035,92294,91853
 9.0000e-001 92770 -9.0483e+000 -1.4943e+000 -1.7394e+000 41437 92865,92793,92525
 9.0000e-001 92747 -8.4293e+000 -1.9683e+000 -8.2222e-001 41437 92793,92473,92629
 9.0000e-001 92724 -7.2539e+000 -2.8713e+000 -2.7538e+000 41437 92865,92525,92499
 9.0000e-001 92701 -6.8175e+000 -9.0076e-001 -8.3649e-001 41437 92525,92603,92577
 9.0000e-001 92678 -8.3502e+000  9.3935e-001  4.8346e-001 41437 92447,92629,92473
 9.0000e-001 92655 -1.5068e+001 -4.7179e+000 -2.2834e+000 41437 92525,92577,92551
 9.0000e-001 92819 -8.8812e+000 -1.1043e+000 -1.4146e+000 41437 92603,92525,92793
 9.0000e-001 92842 -8.5664e+000 -9.7757e-001 -1.3578e+000 41437 92603,92793,92629
 9.0000e-001 92891 -6.0599e+000 -7.1708e-001 -1.2914e+000 41437 92473,92793,92865
 9.0000e-001 92914 -3.9699e+000 -1.8569e+000 -2.5445e+000 41437 92473,92865,92499
 9.0000e-001 93243 -4.1703e+000 -3.3788e-001  4.1332e-001 41097 93044,93096,93070
 9.0000e-001 93220 -1.6214e+000  4.3512e+000  1.4707e+000 41097 93044,93122,93096
 9.0000e-001 93197 -1.0455e+001 -3.6660e+000  4.8427e+000 41097 93044,93148,93122
 9.0000e-001 93174 -1.4100e+001  3.3175e+000  9.4245e+000 41097 93018,93148,93044
 9.0000e-001 93393 -1.1660e+001  4.3002e+000  6.5805e-001 40643 93416,93292,93344
 9.0000e-001 93370 -7.8882e+000  9.7558e+000  2.4713e+000 40643 93266,93344,93292
 9.0000e-001 93442 -8.2991e+000  5.1638e+000  8.2092e-003 40643 93318,93292,93416
 9.0000e-001 93901 -3.4720e+000  2.0669e+000  8.4811e-002 40132 93924,93731,93705
 9.0000e-001 93878 -2.2619e+000  3.1235e+000  5.6715e-001 40132 93996,93924,93705
 9.0000e-001 93855 -3.1380e+000  9.3508e-001  1.7459e+000 40132 93996,93705,93653
 9.0000e-001 93832  8.0271e-001  1.4049e+000  1.1841e+000 40132 93653,93705,93679
 9.0000e-001 93809 -3.1166e+000  3.5070e+000  3.8097e+000 40132 93627,93783,93757
 9.0000e-001 93950 -4.7961e+000  2.8181e+000  9.0901e-001 40132 93757,93731,93924
 9.0000e-001 93973 -3.2226e+000  5.9753e+000  2.4243e+000 40132 93757,93924,93627
 9.0000e-001 94022 -4.8494e+000  1.4395e+000  1.9595e+000 40132 93627,93924,93996
 9.0000e-001 94045 -3.8421e+000  7.7754e-001  2.8778e+000 40132 93627,93996,93653
 9.0000e-001 94423 -3.5205e+000  9.1440e+000 -9.6888e-001 39514 94149,94227,94175
 9.0000e-001 94400 -6.1381e+000  2.4233e+000 -1.7167e+000 39514 94149,94305,94227
 9.0000e-001 94377 -1.0730e+001  1.0027e+001  7.4059e-001 39514 94175,94227,94201
 9.0000e-001 94354 -4.6138e+000  3.9452e+000 -1.0833e+000 39514 94227,94305,94279
 9.0000e-001 94331 -4.7774e-001  5.5568e+000 -1.9433e+000 39514 94227,94279,94253
 9.0000e-001 94573  2.7839e+000  9.8539e-001  3.4123e+000 38822 94596,94498,94472
 9.0000e-001 94550  9.0510e-001  4.2490e+000 -3.7966e-001 38822 94596,94472,94446
 9.0000e-001 94622  5.1178e+000  2.2165e+000  8.9248e-002 38822 94524,94498,94596
 9.0000e-001 94645  6.4019e+000  8.3488e+000 -4.0973e+000 38822 94524,94596,94446
 9.0000e-001 95025 -9.2203e+000  3.8624e+000 -4.6427e-001 38418 95048,94829,94777
 9.0000e-001 95002 -1.1108e+001  4.1186e+000  6.4254e-001 38418 95120,95048,94777
 9.0000e-001 94979 -1.1425e+001  5.3620e+000  7.0910e-001 38418 95120,94777,94751
 9.0000e-001 94956 -1.9072e+000  5.9494e+000 -2.8552e+000 38418 95192,94881,94855
 9.0000e-001 94933 -1.1176e+001  2.7406e+000  1.5307e-001 38418 94777,94829,94803
 9.0000e-001 95074 -1.0177e+001 -9.5002e-001  1.5258e+000 38418 94855,94829,95048
 9.0000e-001 95097 -4.0337e+000  4.7762e+000 -9.8072e-001 38418 95192,94855,95048
 9.0000e-001 95146 -1.1263e+001  6.0215e+000  5.4550e-001 38418 94907,95048,95120
 9.0000e-001 95169 -1.1136e+001  7.7837e+000  8.8339e-001 38418 94907,95120,94751
 9.0000e-001 95218 -5.7947e+000  1.2608e+001 -3.2071e+000 38418 94907,94881,95192
 9.0000e-001 95241 -1.1068e+001  7.8646e+000 -3.6091e-001 38418 94907,95192,95048
 9.0000e-001 95511 -1.5257e+001 -7.0288e+000  1.2492e+000 38049 95312,95390,95364
 9.0000e-001 95488 -1.2050e+001 -5.3883e+000  3.2831e-001 38049 95312,95416,95390
 9.0000e-001 95465 -1.3413e+001 -4.3109e+000  4.4718e-001 38049 95312,95364,95338
 9.0000e-001 95442 -1.2798e+001 -4.4492e+000  3.6227e-001 38049 95286,95416,95312
 9.0000e-001 95808 -1.2436e+001  7.1733e+000  5.7014e+000 37437 95831,95586,95560
 9.0000e-001 95785 -2.0698e+001  1.6331e+000  3.2768e+000 37437 95831,95560,95534
 9.0000e-001 95762 -7.3657e+000 -6.8354e-001 -3.9007e-001 37437 95586,95664,95638
 9.0000e-001 95739 -7.1035e+000  2.8446e+000 -6.0296e+000 37437 95534,95690,95664
 9.0000e-001 95716 -5.2323e+000 -3.6656e+000  1.0840e+000 37437 95586,95638,95612
 9.0000e-001 95857 -6.2422e+000  4.8205e-001  1.2637e+000 37437 95664,95586,95831
 9.0000e-001 95880 -1.5191e+001 -5.5601e+000 -1.3854e+000 37437 95664,95831,95534
 9.0000e-001 96390 -7.9484e+000 -7.4151e-001  3.0985e+000 36883 96413,96145,96093
 9.0000e-001 96367 -7.2868e+000 -1.2134e+000  1.4131e-001 36883 96413,96093,96067
 9.0000e-001 96344 -5.4816e+000 -3.6823e+000  5.4612e-001 36883 96067,96249,96171
 9.0000e-001 96321 -5.6196e+000  1.6917e+000  2.1222e+000 36883 96093,96145,96119
 9.0000e-001 96298 -5.0950e+000 -2.3246e+000 -7.5951e-001 36883 96171,96249,96197
 9.0000e-001 96275 -1.5176e+000 -1.6879e+000 -5.6251e-001 36883 96197,96249,96223
 9.0000e-001 96439 -9.8005e+000 -5.5717e+000  4.5148e+000 36883 96171,96145,96413
 9.0000e-001 96462 -7.9618e+000 -3.1250e+000  1.5279e+000 36883 96171,96413,96067
 9.0000e-001 96781 -6.3593e+000 -3.2459e-001  3.2036e-002 36215 96559,96663,96637
 9.0000e-001 96758 -5.9282e+000 -3.7457e+000 -1.2625e+000 36215 96507,96663,96559
 9.0000e-001 96735 -5.4964e+000  8.4562e+000  7.5953e-001 36215 96585,96637,96611
 9.0000e-001 96712 -9.4496e+000  1.1138e-001 -8.5358e-001 36215 96559,96637,96585
 9.0000e-001 96689 -4.3965e+000 -4.0229e+000 -4.2353e-001 36215 96507,96559,96533
 9.0000e-001 97161 -6.6320e+000  3.5119e-001 -7.9635e-001 35818 97184,96965,96939
 9.0000e-001 97138 -5.3682e+000 -1.2188e+000  4.9342e-001 35818 97184,96939,96887
 9.0000e-001 97115 -6.2920e+000  4.2365e+000 -7.0367e-001 35818 96965,97043,97017
 9.0000e-001 97092 -3.6184e+000 -1.5608e+000 -6.8539e-001 35818 96887,96939,96913
 9.0000e-001 97069 -3.1006e+000  7.8458e+000  6.9847e-001 35818 96965,97017,96991
 9.0000e-001 97210 -8.3028e+000 -7.0839e-001 -3.4370e-001 35818 97043,96965,97184
 9.0000e-001 97233 -6.8336e+000 -2.0934e+000  8.5935e-001 35818 97043,97184,96887
 9.0000e-001 97739 -1.6836e+000 -3.5747e-001 -1.1234e-001 35214 97416,97468,97442
 9.0000e-001 97716 -3.2280e+000 -7.4351e-001  1.3541e+000 35214 97416,97598,97468
 9.0000e-001 97693 -5.4607e+000 -2.4362e+000 -1.1806e+000 35214 97762,97520,97468
 9.0000e-001 97670 -5.6664e+000 -1.8717e+000  1.7573e-001 35214 97762,97468,97598
 9.0000e-001 97647 -8.2903e+000 -1.4268e+000  5.2311e-001 35214 97546,97598,97572
 9.0000e-001 97624 -6.9175e+000 -3.2871e+000 -7.6106e-001 35214 97468,97520,97494
 9.0000e-001 97788 -4.8664e+000 -9.9808e-001 -1.1218e+000 35214 97546,97520,97762
 9.0000e-001 97811 -5.1348e+000 -4.8268e-001  1.6532e-001 35214 97546,97762,97598
 9.0000e-001 98189 -9.6583e+000 -7.4224e+000  2.5260e-001 34760 98356,98212,97967
 9.0000e-001 98166 -9.6956e+000 -2.7217e+000 -1.5044e+000 34760 98284,98212,97941
 9.0000e-001 98143 -9.4117e+000 -2.9285e+000 -1.6611e+000 34760 98284,97941,97915
 9.0000e-001 98120 -1.0189e+001 -1.0333e+001  6.1349e-001 34760 98484,97993,97967
 9.0000e-001 98097 -7.6043e+000 -4.3929e+000 -2.7150e+000 34760 98556,98045,98019
 9.0000e-001 98238 -1.0136e+001 -9.1647e+000  8.0391e-001 34760 98484,97967,98212
 9.0000e-001 98261 -9.1820e+000 -5.4382e+000 -1.9782e+000 34760 98556,98019,98212
 9.0000e-001 98310 -9.9623e+000 -3.0597e+000 -1.3814e+000 34760 98071,98212,98284
 9.0000e-001 98333 -9.7931e+000 -3.5448e+000 -1.4782e+000 34760 98071,98284,97915
 9.0000e-001 98382 -5.1976e+000 -2.5092e+000  2.2370e+000 34760 97941,98212,98356
 9.0000e-001 98510 -1.1077e+001 -8.5491e+000  5.3679e-001 34760 98019,97993,98484
 9.0000e-001 98533 -1.0668e+001 -7.1257e+000  1.0164e+000 34760 98019,98484,98212
 9.0000e-001 98582 -9.6856e+000 -3.6921e+000 -2.2310e+000 34760 98071,98045,98556
 9.0000e-001 98605 -1.0506e+001 -4.0805e+000 -1.5888e+000 34760 98071,98556,98212
 9.0000e-001 99032 -1.0671e+001 -4.7133e+000  2.8134e+000 34156 98735,98891,98839
 9.0000e-001 99009 -1.1455e+001 -3.1820e+000  5.3986e+000 34156 98709,98891,98735
 9.0000e-001 98986 -8.8793e+000 -2.9022e-001  2.1903e-001 34156 98735,98813,98787
 9.0000e-001 98963 -1.0249e+001 -2.0186e+000  1.8804e+000 34156 98735,98839,98813
 9.0000e-001 98940 -1.0306e+001  5.3017e-001 -1.6277e-001 34156 98735,98787,98761
 9.0000e-001 98917 -8.2016e+000  1.4220e+000  9.5479e-001 34156 98839,98891,98865
 9.0000e-001 99231 -1.6193e+001 -8.2194e+000  2.7923e+000 33766 99055,99133,99107
 9.0000e-001 99208 -2.0819e+001 -5.1036e+000  3.7344e+000 33766 99055,99159,99133
 9.0000e-001 99185 -1.3424e+001 -1.0307e+000  3.3315e+000 33766 99055,99107,99081
 9.0000e-001 99818 -7.3066e+000 -4.5571e+000 -1.5709e+000 33248 99521,99651,99573
 9.0000e-001 99795 -1.1985e+001 -7.3793e+000 -3.2372e+000 33248 99521,99677,99651
 9.0000e-001 99772 -9.0084e+000 -8.4431e+000 -2.0865e+000 33248 99573,99651,99599
 9.0000e-001 99749 -8.0474e+000 -3.2183e+000 -1.3962e+000 33248 99495,99677,99521
 9.0000e-001 99726 -9.1508e+000 -4.0534e+000 -9.9884e-001 33248 99599,99651,99625
 9.0000e-001 99703 -6.5630e+000 -7.3961e+000 -1.4375e+000 33248 99521,99573,99547
 9.0000e-001 100196 -1.1630e+001 -3.8844e+000  3.3899e+000 32794 100219,99948,99922
 9.0000e-001 100173 -1.3015e+001 -7.3873e+000  1.8202e+000 32794 100219,99922,100052
 9.0000e-001 100150 -1.0337e+001 -7.3295e+000  5.3133e+000 32794 99974,100052,100026
 9.0000e-001 100127 -1.3757e+001 -6.6047e+000  1.6335e+000 32794 99922,100078,100052
 9.0000e-001 100104 -9.7501e+000 -5.2464e+000  3.7345e+000 32794 99974,100026,100000
 9.0000e-001 100245 -9.7608e+000 -9.3708e-001  7.1888e+000 32794 99974,99948,100219
 9.0000e-001 100268 -1.2642e+001 -6.5413e+000  5.3947e+000 32794 99974,100219,100052
 9.0000e-001 100418 -1.4607e+000  6.6651e+000 -2.6189e+000 32504 100571,100343,100317
 9.0000e-001 100395 -7.4871e-001  7.0389e+000 -4.4400e+000 32504 100571,100317,100441
 9.0000e-001 100467 -2.1253e+000  2.1304e+000 -2.5891e+000 32504 100291,100369,100441
 9.0000e-001 100597 -2.3290e+000  4.6128e+000 -2.5923e+000 32504 100369,100343,100571
 9.0000e-001 100620 -2.2011e+000  3.6580e+000 -4.2229e+000 32504 100369,100571,100441
 9.0000e-001 101020 -2.0031e+001 -1.0150e+001 -1.5599e+000 32142 100772,100902,100876
 9.0000e-001 100997 -1.6191e+001 -8.8644e+000  3.9705e-001 32142 100746,100902,100772
 9.0000e-001 100974 -1.1839e+001  1.1085e+001  9.4027e+000 32142 101043,100824,100798
 9.0000e-001 100951 -2.2132e+001 -3.8935e+000  2.5532e+000 32142 101043,100798,100772
 9.0000e-001 100928 -1.3015e+001 -7.9360e+000  2.6645e-001 32142 101115,100876,100850
 9.0000e-001 101069 -1.4859e+001 -5.6445e+000  6.6407e+000 32142 100850,100824,101043
 9.0000e-001 101092 -1.2813e+001 -8.9259e+000  1.5037e+000 32142 101115,100850,101043
 9.0000e-001 101141 -1.2591e+001 -5.9084e+000  2.7087e-001 32142 100772,100876,101115
 9.0000e-001 101164 -1.2054e+001 -6.4378e+000  1.4562e+000 32142 100772,101115,101043
 9.0000e-001 101719 -4.7963e+000  1.7053e+000  1.3472e+000 31538 101742,101477,101399
 9.0000e-001 101696 -4.1371e+000  7.4735e-001  8.4299e-001 31538 101814,101742,101399
 9.0000e-001 101673 -3.2010e+000  8.6730e-001  1.6403e+000 31538 101814,101399,101373
 9.0000e-001 101650 -1.2946e+001  4.0076e+000  6.9115e+000 31538 101425,101477,101451
 9.0000e-001 101627 -1.1503e+001 -2.7201e+000  3.3291e+000 31538 101399,101477,101425
 9.0000e-001 101604 -1.4342e+000 -6.3356e-001  2.1459e+000 31538 101477,101529,101503
 9.0000e-001 101581 -6.8792e+000  1.7378e+000  1.7990e+000 31538 101347,101555,101373
 9.0000e-001 101768 -4.2384e+000  3.7604e-001  6.1728e-001 31538 101529,101477,101742
 9.0000e-001 101791 -5.9552e+000 -8.6005e-001 -9.4356e-001 31538 101529,101742,101555
 9.0000e-001 101840 -5.8255e+000  1.0996e+000  5.4652e-001 31538 101555,101742,101814
 9.0000e-001 101863 -4.8317e+000  1.1371e+000  1.2561e+000 31538 101555,101814,101373
 9.0000e-001 102111 -1.0513e+001 -5.6345e+000  6.9961e-001 31112 101886,101990,101912
 9.0000e-001 102088 -8.3810e+000 -3.4071e+000 -8.9417e-001 31112 101886,102016,101990
 9.0000e-001 102065 -8.3204e+000 -6.3824e+000  2.8999e+000 31112 101912,101990,101964
 9.0000e-001 102042 -3.8380e+000 -2.4285e+000  6.0241e-001 31112 101912,101964,101938
 9.0000e-001 102408  8.7739e-001  8.3374e-001  7.1179e-001 30658 102431,102186,102160
 9.0000e-001 102385 -3.0835e-004  9.8126e-002  1.1894e+000 30658 102431,102160,102264
 9.0000e-001 102362  3.3642e-002  1.0800e+000 -1.6311e-001 30658 102186,102238,102212
 9.0000e-001 102339  2.6948e+000  1.8857e+000  2.1835e+000 30658 102134,102264,102160
 9.0000e-001 102316 -3.2514e+000  7.8054e-001 -2.8751e-001 30658 102134,102290,102264
 9.0000e-001 102457 -3.4610e-001  1.6881e+000  6.8711e-001 30658 102238,102186,102431
 9.0000e-001 102480 -1.1651e+000  1.0371e+000  1.1557e+000 30658 102238,102431,102264
 9.0000e-001 102681 -1.7464e+001 -6.8751e+000  4.7546e+000 30004 102704,102557,102505
 9.0000e-001 102658 -2.1315e+001  2.9456e+000  3.2802e-001 30004 102704,102505,102609
 9.0000e-001 102635 -1.5478e+001 -6.1948e+000  2.1042e+000 30004 102505,102557,102531
 9.0000e-001 102730 -1.8082e+001 -1.4090e+001  5.1199e+000 30004 102583,102557,102704
 9.0000e-001 102753 -2.3745e+001 -8.0768e+000 -2.0290e+000 30004 102583,102704,102609
 9.0000e-001 103003 -1.0953e+001 -6.7726e-001  3.7989e+000 29564 103026,102804,102778
 9.0000e-001 102980 -1.0874e+001  7.4723e-001  4.3946e+000 29564 103026,102778,102908
 9.0000e-001 102957 -1.3537e+001 -4.5083e+000  2.4986e+000 29564 102856,102908,102882
 9.0000e-001 102934 -1.0100e+001 -2.5505e+000  3.0097e+000 29564 102804,102856,102830
 9.0000e-001 103052 -1.1488e+001 -1.5317e+000  2.8569e+000 29564 102856,102804,103026
 9.0000e-001 103075 -1.1083e+001 -2.4864e-001  3.5957e+000 29564 102856,103026,102908
 9.0000e-001 103634 -2.2950e+001 -6.5305e+000  9.0504e+000 29160 103657,103418,103392
 9.0000e-001 103611 -2.3408e+001 -6.5161e+000  1.6695e+000 29160 103657,103392,103314
 9.0000e-001 103588 -1.7527e+001  4.3317e-001 -8.4477e-001 29160 103314,103392,103366
 9.0000e-001 103565 -2.1839e+001 -4.6012e+000  1.0391e+000 29160 103314,103366,103340
 9.0000e-001 103542 -1.2299e+001 -7.8551e+000  5.6402e-001 29160 103262,103444,103314
 9.0000e-001 103519 -1.2107e+001 -7.5791e+000  8.1234e-001 29160 103262,103314,103288
 9.0000e-001 103496 -1.5049e+001 -5.8932e+000 -9.3715e-001 29160 103262,103470,103444
 9.0000e-001 103683 -1.3592e+001 -1.9116e+000  1.0698e+001 29160 103444,103418,103657
 9.0000e-001 103706 -1.7979e+001 -4.5698e+000  2.6277e+000 29160 103444,103657,103314
 9.0000e-001 104035 -8.7599e+000  5.0947e-001  9.0467e-002 28770 103836,103914,103862
 9.0000e-001 104012 -5.3027e+000  2.1839e+000  6.6559e-001 28770 103810,103914,103836
 9.0000e-001 103989 -1.2648e+001  7.4662e-001 -5.9735e-001 28770 103810,103940,103914
 9.0000e-001 103966 -6.3306e+000  5.9230e+000  1.1022e+000 28770 103862,103914,103888
 9.0000e-001 104185 -9.8093e+000 -2.2596e+000  1.6309e+000 28366 104208,104110,104084
 9.0000e-001 104162 -1.2601e+001 -6.4964e+000  2.0341e-001 28366 104280,104208,104084
 9.0000e-001 104234 -1.3788e+001 -8.9282e+000 -7.5778e-001 28366 104610,104208,104136
 9.0000e-001 104257 -7.8441e+000 -5.0680e+000 -3.7385e-001 28366 104538,104410,104208
 9.0000e-001 104306 -7.5952e+000 -4.9684e+000 -4.0913e-001 28366 104538,104208,104280
 9.0000e-001 104436 -9.9723e+000 -7.2137e+000  7.8900e-001 28366 104136,104208,104410
 9.0000e-001 104564 -7.5589e+000 -5.2522e+000 -2.1709e-001 28366 104058,104410,104538
 9.0000e-001 104587 -7.4435e+000 -5.2373e+000 -2.1920e-001 28366 104058,104538,104280
 9.0000e-001 104636 -7.7284e+000 -5.6881e+000  2.1613e+000 28366 104110,104208,104610
 9.0000e-001 105349 -3.9451e+000  3.2630e+000  5.0995e-001 27976 105516,105372,105107
 9.0000e-001 105326 -2.8887e+000  5.5429e+000  1.0097e+000 27976 105588,105372,105055
 9.0000e-001 105303  4.6927e+000  7.4561e+000  3.2348e+000 27976 105444,105159,105133
 9.0000e-001 105280 -6.3270e+000  4.6278e+000 -7.2005e-001 27976 105516,105107,105081
 9.0000e-001 105257 -2.6228e+000  8.6957e+000  1.6295e-001 27976 105588,105055,105029
 9.0000e-001 105234 -3.7897e+000  3.1748e+000  1.8797e+000 27976 105003,105185,105159
 9.0000e-001 105211 -1.3631e+000  3.1482e+000  1.5388e+000 27976 104977,105185,105003
 9.0000e-001 105398 -5.6209e+000  6.1655e+000  1.5968e+000 27976 105133,105107,105372
 9.0000e-001 105421 -1.2014e+000  8.2795e+000  2.4950e+000 27976 105444,105133,105372
 9.0000e-001 105470 -2.2831e+000  3.9963e+000  1.5341e+000 27976 105003,105159,105444
 9.0000e-001 105493 -5.0461e+000  6.8213e+000  8.8998e-001 27976 105003,105444,105372
 9.0000e-001 105542 -5.6539e+000  1.9888e+000 -1.1214e+000 27976 105055,105372,105516
 9.0000e-001 105565 -8.9053e+000  3.1290e+000 -2.2057e+000 27976 105055,105516,105081
 9.0000e-001 105614 -2.7122e+000  8.7663e+000 -6.6226e-001 27976 105003,105372,105588
 9.0000e-001 105637 -2.4139e+000  1.1500e+001 -1.7094e+000 27976 105003,105588,105029
 9.0000e-001 106143 -6.5815e+000 -5.3828e+000  9.4942e-001 27664 106166,105846,105820
 9.0000e-001 106120 -6.6633e+000 -4.3552e+000  1.0695e+000 27664 106310,106166,105820
 9.0000e-001 106097 -8.4389e+000 -7.7424e+000  2.3931e+000 27664 106382,106238,105950
 9.0000e-001 106074 -8.9172e+000 -2.3657e+000 -6.2353e-001 27664 106310,105820,106002
 9.0000e-001 106051 -9.4353e+000 -9.8983e+000  3.3997e-001 27664 106382,105950,105924
 9.0000e-001 106028 -4.7029e+000 -6.6793e+000  4.9981e+000 27664 105846,105898,105872
 9.0000e-001 106192 -5.1096e+000 -3.0411e+000  3.7787e+000 27664 105898,105846,106166
 9.0000e-001 106215 -8.0805e+000 -9.0502e+000  2.4448e+000 27664 106238,105898,106166
 9.0000e-001 106264 -8.1655e+000 -7.7343e+000  2.5160e+000 27664 105976,105950,106238
 9.0000e-001 106287 -9.2850e+000 -6.4252e+000  1.7385e+000 27664 105976,106238,106166
 9.0000e-001 106336 -8.7550e+000 -7.3573e+000  7.8808e-002 27664 105976,106166,106310
 9.0000e-001 106359 -1.1046e+001 -5.2953e+000 -1.6163e+000 27664 105976,106310,106002
 9.0000e-001 106408 -9.3974e+000 -1.2710e+001  1.0453e+000 27664 105898,106238,106382
 9.0000e-001 106431 -9.2541e+000 -1.3303e+001 -9.5253e-001 27664 105898,106382,105924
 9.0000e-001 106728 -9.9657e+000  4.5355e-001 -2.7733e+000 27153 106751,106506,106454
 9.0000e-001 106705 -1.0591e+001 -2.1849e+000 -3.9516e+000 27153 106751,106454,106610
 9.0000e-001 106682 -9.6958e+000  9.1813e+000 -4.8544e+000 27153 106454,106506,106480
 9.0000e-001 106659 -5.4668e+000 -1.2426e+000  1.2028e-001 27153 106532,106610,106584
 9.0000e-001 106636 -1.1049e+001 -4.6334e+000 -1.4810e+000 27153 106532,106584,106558
 9.0000e-001 106777 -9.0905e+000  5.0818e+000 -1.3003e+000 27153 106532,106506,106751
 9.0000e-001 106800 -1.0953e+001  3.4698e-001 -2.4784e+000 27153 106532,106751,106610
 9.0000e-001 107180 -4.8936e+000  1.1214e+001  4.2727e+000 26642 107203,106984,106958
 9.0000e-001 107157 -5.7554e+000  9.4412e+000 -1.0083e+000 26642 107203,106958,106932
 9.0000e-001 107134 -3.3889e+000  7.9726e+000 -9.1805e-001 26642 107275,107036,107010
 9.0000e-001 107111 -1.2861e+001  2.5619e+000  5.4132e-001 26642 106932,107062,107036
 9.0000e-001 107088 -1.2142e+001  4.7473e+000  6.6032e+000 26642 106906,107062,106932
 9.0000e-001 107229 -1.0120e+001  1.7792e-002  5.8166e+000 26642 107010,106984,107203
 9.0000e-001 107252 -3.9362e+000  1.0166e+001  3.1090e-001 26642 107275,107010,107203
 9.0000e-001 107301 -4.8613e+000  7.1594e+000 -1.4229e+000 26642 106932,107036,107275
 9.0000e-001 107324 -6.4383e+000  8.0472e+000 -5.9528e-001 26642 106932,107275,107203
 9.0000e-001 107675 -8.6919e+000  5.7852e+000 -3.2659e-001 26045 107450,107554,107476
 9.0000e-001 107652 -9.5145e+000  7.5487e+000 -1.5735e+000 26045 107450,107580,107554
 9.0000e-001 107629 -2.1168e+001  1.1802e+000 -9.3318e-001 26045 107476,107528,107502
 9.0000e-001 107606 -1.2377e+001  3.0363e+000 -2.0800e+000 26045 107476,107554,107528
 9.0000e-001 107874 -1.4494e+001  5.4624e+000 -1.0619e+000 25641 107750,107802,107776
 9.0000e-001 107851 -1.4914e+001 -7.6383e-001  2.2660e-001 25641 107724,107802,107750
 9.0000e-001 107828 -9.8421e+000  3.4118e+000  3.1738e+000 25641 107698,107802,107724
 9.0000e-001 108431 -1.3734e+001  1.8747e+000 -1.1201e-001 25023 108526,108267,108241
 9.0000e-001 108408 -1.3028e+001  2.1879e+000  5.6567e+000 25023 108059,108267,108085
 9.0000e-001 108385 -9.8645e+000  1.5684e+000  1.3868e+000 25023 108454,108163,108111
 9.0000e-001 108362 -1.2386e+001  1.5299e+000  2.3323e+000 25023 108454,108111,108085
 9.0000e-001 108339 -9.2320e+000  1.5240e-001  1.9690e+000 25023 108111,108163,108137
 9.0000e-001 108316 -5.1231e+000  2.1888e-002 -6.1445e-001 25023 108163,108241,108215
 9.0000e-001 108293 -9.3427e+000 -2.9084e+000 -6.4117e+000 25023 108163,108215,108189
 9.0000e-001 108480 -8.0512e+000  3.1677e+000 -1.4495e+000 25023 108241,108163,108454
 9.0000e-001 108503 -1.2306e+001  1.2816e+000  3.3979e-002 25023 108526,108241,108454
 9.0000e-001 108552 -1.2006e+001  2.0728e+000  7.0484e-001 25023 108085,108267,108526
 9.0000e-001 108575 -1.0501e+001  1.5750e+000  8.8681e-001 25023 108085,108526,108454
 9.0000e-001 108823 -2.0418e+001 -2.4601e+001 -2.5357e+000 24461 108624,108728,108650
 9.0000e-001 108800 -2.6469e+001 -2.5032e+001 -3.5585e+000 24461 108598,108728,108624
 9.0000e-001 108777 -1.8453e+001 -2.3269e+001 -1.8108e+000 24461 108650,108728,108676
 9.0000e-001 108754 -2.4978e+001 -2.5648e+001 -7.4327e+000 24461 108676,108728,108702
 9.0000e-001 109022 -3.7179e+000  5.4530e+000  7.5489e-001 24121 108872,108924,108898
 9.0000e-001 108999 -3.7368e+000  6.9018e+000  1.1375e+000 24121 108846,108924,108872
 9.0000e-001 108976 -8.1526e+000  5.8568e+000 -8.5544e-001 24121 108846,108950,108924
 9.0000e-001 109483 -1.8223e+001 -2.0402e+000  5.2819e+000 23717 109209,109339,109235
 9.0000e-001 109460 -1.5187e+001  2.5369e+000  3.9519e+000 23717 109209,109365,109339
 9.0000e-001 109437 -1.1769e+001 -4.5371e+000  2.5788e+000 23717 109287,109339,109313
 9.0000e-001 109414 -1.0405e+001 -3.1590e-001  5.9192e+000 23717 109235,109339,109287
 9.0000e-001 109391 -1.3465e+001 -7.4173e+000  5.0151e+000 23717 109235,109287,109261
 9.0000e-001 109910 -6.0180e+000  2.9885e+000  2.5773e-001 23305 109613,109743,109717
 9.0000e-001 109887 -6.6454e+000  2.3385e+000  2.2584e+000 23305 109613,109769,109743
 9.0000e-001 109864 -6.1854e+000 -1.8211e+000  9.0436e-001 23305 109613,109717,109639
 9.0000e-001 109841 -4.5491e+000  4.3439e+000  3.2873e+000 23305 109587,109769,109613
 9.0000e-001 109818 -6.9761e+000 -2.1387e+000 -2.3398e-001 23305 109639,109717,109691
 9.0000e-001 109795 -8.0300e+000 -2.5379e+000 -2.0922e-001 23305 109639,109691,109665
 9.0000e-001 110180 -9.2738e+000 -2.9040e-001  4.0178e-001 22851 110007,110059,110033
 9.0000e-001 110157 -6.2441e+000  6.6024e+000  8.6590e-001 22851 109981,110059,110007
 9.0000e-001 110134 -8.9954e+000  6.3274e+000  1.1298e+000 22851 109955,110059,109981
 9.0000e-001 110111 -8.0785e+000  1.0601e+001  7.5549e-001 22851 109955,110085,110059
 9.0000e-001 110737 -8.7606e+000 -5.6445e+000 -1.9898e+000 22333 110760,110469,110391
 9.0000e-001 110714 -1.3757e+001 -6.9266e+000 -1.3467e+000 22333 110760,110391,110365
 9.0000e-001 110691 -1.4284e+001 -7.4888e+000 -3.6123e+000 22333 110832,110521,110469
 9.0000e-001 110668 -9.0348e+000 -1.3194e+001 -2.9963e+000 22333 110417,110469,110443
 9.0000e-001 110645 -1.0589e+001 -1.1060e+001 -3.6527e+000 22333 110391,110469,110417
 9.0000e-001 110622 -2.1554e+001 -6.1969e+000 -1.4966e+001 22333 110469,110521,110495
 9.0000e-001 110599 -6.2626e+000  6.5334e+000 -4.9832e+000 22333 110365,110573,110547
 9.0000e-001 110786 -1.3403e+001 -7.2034e+000 -3.5948e+000 22333 110832,110469,110760
 9.0000e-001 110809 -1.3338e+001 -4.0340e+000 -1.5347e+000 22333 110547,110760,110365
 9.0000e-001 110858 -1.8191e+001 -6.3006e+000 -2.5114e+000 22333 110547,110521,110832
 9.0000e-001 110881 -1.4664e+001 -4.3990e+000 -1.7699e+000 22333 110547,110832,110760
 9.0000e-001 111308 -2.6182e+001 -7.4476e+000  5.4955e+000 21829 111331,111063,111011
 9.0000e-001 111285 -3.0077e+001 -6.8153e+000  2.6671e+000 21829 111331,111011,111167
 9.0000e-001 111262 -2.1930e+001 -1.7555e+001  3.5196e+000 21829 111403,111089,111063
 9.0000e-001 111239 -2.4169e+001  2.4629e+000  6.5510e+000 21829 111011,111063,111037
 9.0000e-001 111216 -3.4774e+001  8.6852e+000 -6.4976e-001 21829 110985,111167,111011
 9.0000e-001 111193  1.4503e+000  1.1672e-002 -3.9157e-001 21829 111089,111141,111115
 9.0000e-001 111357 -2.9086e+001 -1.1051e+001  3.7748e+000 21829 111403,111063,111331
 9.0000e-001 111380 -2.8601e+001 -1.1611e+001 -1.9262e+000 21829 111141,111331,111167
 9.0000e-001 111429 -4.4124e-001 -7.8105e+000  1.2277e+000 21829 111141,111089,111403
 9.0000e-001 111452 -1.7950e+001 -6.3303e+000  8.5247e-001 21829 111141,111403,111331
 9.0000e-001 112056 -9.9107e+000 -7.5150e+000 -6.8379e-002 21489 111687,111765,111739
 9.0000e-001 112033 -1.3452e+001 -9.6748e+000 -2.4599e-001 21489 112151,112079,111687
 9.0000e-001 112010 -5.6903e+000 -7.5514e+000  3.7527e+000 21489 111791,111843,111817
 9.0000e-001 111987 -6.5312e+000 -5.8514e+000  2.7488e+000 21489 112079,111843,111791
 9.0000e-001 111964 -1.6614e+001 -1.1215e+001 -2.1282e+000 21489 112151,111687,111661
 9.0000e-001 111941 -1.4555e+001 -1.6654e+001 -1.6830e+000 21489 111661,111869,111843
 9.0000e-001 111918 -1.6184e+001 -9.2078e+000 -1.1026e+000 21489 111687,111739,111713
 9.0000e-001 111895 -1.2058e+001 -1.0780e+001 -2.8143e-001 21489 111635,111869,111661
 9.0000e-001 112105 -8.4948e+000 -7.2591e+000  9.0289e-001 21489 111765,111687,112079
 9.0000e-001 112128 -7.7091e+000 -9.0774e+000  1.7128e-001 21489 111765,112079,111791
 9.0000e-001 112177 -8.2334e+000 -9.9739e+000  2.4151e+000 21489 111843,112079,112151
 9.0000e-001 112200 -1.1088e+001 -1.0551e+001  8.8204e-001 21489 111843,112151,111661
 9.0000e-001 112578 -1.8504e+001 -8.7901e+000  5.1428e-002 21177 112382,112434,112408
 9.0000e-001 112555 -1.9613e+001 -9.8002e+000 -6.6521e-001 21177 112330,112434,112382
 9.0000e-001 112532 -2.1314e+001 -1.1244e+001 -1.6628e+000 21177 112304,112434,112330
 9.0000e-001 112509 -2.1599e+001 -7.5244e+000  0.0000e+000 21177 112330,112382,112356
 9.0000e-001 112486 -1.7937e+001 -1.3976e+001 -8.8850e-001 21177 112304,112460,112434
 9.0000e-001 112679 -2.4842e+001 -1.3919e+001 -1.8922e+000 20666 112601,112653,112627
 9.0000e-001 112927 -1.3941e+001 -1.6675e+000  1.1926e+000 19762 112702,112754,112728
 9.0000e-001 112904 -1.0744e+001 -1.1347e+000  4.7532e-001 19762 112702,112832,112754
 9.0000e-001 112881 -1.0485e+001 -6.2287e-001  3.8161e-001 19762 112754,112832,112806
 9.0000e-001 112858 -7.4347e+000  9.6588e-001  4.0719e+000 19762 112754,112806,112780
 9.0000e-001 113297 -6.8359e+000  7.5763e+000 -1.1595e+000 19308 112974,113052,113026
 9.0000e-001 113274 -7.4300e+000  4.9748e+000 -6.3324e-001 19308 112974,113156,113052
 9.0000e-001 113251 -7.2100e+000  8.5414e+000  1.6840e+000 19308 113052,113130,113104
 9.0000e-001 113228 -7.5590e+000  4.1988e+000 -3.6640e-001 19308 113052,113156,113130
 9.0000e-001 113205 -6.5568e+000  6.6297e+000  0.0000e+000 19308 113052,113104,113078
 9.0000e-001 113182 -9.0586e+000  7.3434e+000 -2.8734e+000 19308 112974,113026,113000
 9.0000e-001 113547 -1.1476e+001  2.6698e+000  9.6612e-001 18711 113570,113374,113348
 9.0000e-001 113524 -9.7017e+000 -9.5072e-003  1.3657e-001 18711 113570,113348,113452
 9.0000e-001 113501 -1.1697e+001 -6.9779e+000  2.1756e+000 18711 113322,113452,113348
 9.0000e-001 113478 -1.1259e+001  3.1747e+000  2.9858e+000 18711 113374,113426,113400
 9.0000e-001 113596 -1.3047e+001 -1.0113e-001  1.8618e+000 18711 113426,113374,113570
 9.0000e-001 113619 -1.0495e+001 -1.9618e+000  5.3070e-001 18711 113426,113570,113452
 9.0000e-001 113771 -3.5122e+000  7.9896e+000  1.6875e+000 18307 113670,113722,113696
 9.0000e-001 113748 -5.7147e+000  4.9141e+000  6.0547e-001 18307 113644,113722,113670
 9.0000e-001 113972 -1.7010e+001  7.9326e+000  8.8973e-001 17945 113822,113874,113848
 9.0000e-001 113949 -1.2446e+001  7.4723e+000 -1.2215e-001 17945 113822,113900,113874
 9.0000e-001 113926 -1.2871e+001  1.6035e+000 -4.6013e+000 17945 113796,113900,113822
 9.0000e-001 114075 -1.0609e+001  1.1491e+001 -2.1518e+000 17482 113997,114049,114023
 9.0000e-001 114479 -6.7071e+000  7.9925e+000  6.8547e-001 17042 114257,114361,114335
 9.0000e-001 114456 -7.5585e+000  6.5211e+000  1.0315e+000 17042 114205,114361,114257
 9.0000e-001 114433 -5.6394e+000  9.7512e+000 -3.9664e-001 17042 114205,114257,114231
 9.0000e-001 114410 -6.1011e+000  1.5909e+001  5.1943e-001 17042 114283,114335,114309
 9.0000e-001 114387 -5.4135e+000  1.0842e+001  1.1064e+000 17042 114257,114335,114283
 9.0000e-001 114879 -9.4009e+000 -3.5999e+000 -8.5439e-003 16638 114631,114683,114657
 9.0000e-001 114856 -6.2001e+000 -2.8585e+000  3.2679e+000 16638 114605,114683,114631
 9.0000e-001 114833 -3.6069e+000 -1.3378e+000  1.1193e+000 16638 114605,114761,114683
 9.0000e-001 114810  7.6975e+000  9.9428e-002 -9.7988e-001 16638 114683,114735,114709
 9.0000e-001 114787 -1.6579e+000  2.1515e+000  1.9228e+000 16638 114683,114761,114735
 9.0000e-001 115078 -4.7686e+001 -1.6495e+001  3.1756e+000 16232 114954,115006,114980
 9.0000e-001 115055 -3.3157e+001 -1.0683e+001 -7.4021e-001 16232 114928,115006,114954
 9.0000e-001 115032 -4.7248e+001 -1.4301e+001 -5.5033e+000 16232 114902,115006,114928
 9.0000e-001 115228 -4.1079e+000  4.0746e+000  1.4787e+000 15482 115101,115153,115127
 9.0000e-001 115205 -1.1546e+001  3.3919e+000 -2.1119e-001 15482 115101,115179,115153
 9.0000e-001 115331 -1.3700e+001 -8.4276e+000  2.3857e-001 15163 115253,115305,115279
 9.0000e-001 115434 -9.2620e+000 -6.1114e+000  1.5677e+000 421 115356,115408,115382
 1.0000e+000 68213  1.4166e+001 -7.1781e+000 -1.0748e+000 67888 68112,68164,68138
 1.0000e+000 68190  9.4609e-001 -1.4604e+001  1.7926e+000 67888 68086,68164,68112
 1.0000e+000 68314  2.3129e+001 -1.6441e+000  4.0120e+000 67576 68236,68288,68262
 1.0000e+000 68584  1.3300e+001  6.9831e+000  2.7721e-001 67378 68385,68489,68463
 1.0000e+000 68561  1.1675e+001  6.0655e+000  8.2003e-001 67378 68359,68489,68385
 1.0000e+000 68538  1.3349e+001  6.8101e+000  2.9987e-001 67378 68385,68463,68411
 1.0000e+000 68515  1.5033e+001  8.6045e+000 -4.5472e-001 67378 68411,68463,68437
 1.0000e+000 68964  9.1140e+000  1.1633e+001 -3.0305e-001 67130 68690,68820,68716
 1.0000e+000 68941  9.1634e+000  1.2747e+001 -1.6704e-001 67130 68690,68846,68820
 1.0000e+000 68918  7.1215e+000  1.0376e+001  1.0010e+000 67130 68742,68820,68794
 1.0000e+000 68895  7.0072e+000  1.0860e+001  5.4976e-001 67130 68716,68820,68742
 1.0000e+000 68872  7.4032e+000  1.1086e+001  1.0228e+000 67130 68742,68794,68768
 1.0000e+000 69065  1.0398e+001 -9.7776e-001  1.4550e+000 66926 68987,69039,69013
 1.0000e+000 69445  7.9425e+000 -3.7773e+000  1.2180e+000 66614 69223,69301,69275
 1.0000e+000 69422  6.5064e+000 -3.2128e+000 -5.1777e-001 66614 69171,69301,69223
 1.0000e+000 69399  5.4681e+000 -2.5193e+000  2.0013e-002 66614 69171,69327,69301
 1.0000e+000 69376  8.7066e+000  2.1392e+000  2.6393e+000 66614 69223,69275,69249
 1.0000e+000 69353  7.2879e+000 -3.6954e+000 -3.9418e-001 66614 69171,69223,69197
 1.0000e+000 69546  7.5902e+000  1.1998e+001 -1.0102e+000 66416 69468,69520,69494
 1.0000e+000 69997  1.0428e+001  1.2058e+001  9.9284e-002 66104 69700,69830,69726
 1.0000e+000 69974  1.1356e+001  1.1532e+001 -2.3389e-002 66104 69700,69856,69830
 1.0000e+000 69951  1.1018e+001  1.1830e+001  4.4136e-001 66104 69726,69804,69778
 1.0000e+000 69928  1.0301e+001  1.2303e+001  3.7643e-001 66104 69726,69830,69804
 1.0000e+000 69905  9.9412e+000  1.1242e+001  2.1420e-001 66104 69726,69778,69752
 1.0000e+000 69882  1.7400e+001  1.1164e+001 -3.5171e+000 66104 69674,69856,69700
 1.0000e+000 70326  1.0422e+001  1.0946e+001 -1.0683e+000 65814 70349,70153,70127
 1.0000e+000 70303  1.0830e+001  1.1444e+001 -1.3953e+000 65814 70349,70127,70101
 1.0000e+000 70280  1.1012e+001  1.0090e+001 -1.1634e+000 65814 70101,70231,70205
 1.0000e+000 70257  9.4855e+000  1.0054e+001 -7.1389e-001 65814 70153,70205,70179
 1.0000e+000 70375  1.0479e+001  1.0221e+001 -6.2249e-001 65814 70205,70153,70349
 1.0000e+000 70398  1.1253e+001  1.0956e+001 -1.0336e+000 65814 70205,70349,70101
 1.0000e+000 70904  8.9830e+000  1.0424e+001 -4.0813e-001 65502 70607,70737,70685
 1.0000e+000 70881  6.4819e+000  9.0562e+000  1.7226e-001 65502 70581,70737,70607
 1.0000e+000 70858  6.3775e+000  1.0100e+001  9.2944e-001 65502 70581,70763,70737
 1.0000e+000 70835  3.0435e+000  7.9514e+000 -2.6676e-001 65502 70685,70737,70711
 1.0000e+000 70812  1.2853e+001  9.0078e+000  8.5604e-001 65502 70607,70659,70633
 1.0000e+000 70789  8.5663e+000  9.8493e+000  9.6168e-001 65502 70607,70685,70659
 1.0000e+000 71103  1.7225e+001  3.3053e+000 -6.0437e-001 65304 71126,70979,70953
 1.0000e+000 71080  1.4894e+001  3.0998e+000 -1.7342e-001 65304 71126,70953,70927
 1.0000e+000 71057  1.2818e+001  3.0655e+000  1.7529e+000 65304 70927,71031,71005
 1.0000e+000 71152  1.4827e+001  4.8739e+000 -1.2571e+000 65304 71005,70979,71126
 1.0000e+000 71175  1.2058e+001  4.1174e+000 -2.7733e-001 65304 71005,71126,70927
 1.0000e+000 71374  1.2042e+001  5.4382e+000 -2.0772e-001 65106 71198,71276,71224
 1.0000e+000 71351  1.3253e+001  5.3206e+000 -3.2091e-001 65106 71198,71302,71276
 1.0000e+000 71328  1.2269e+001  5.8516e+000 -1.5081e+000 65106 71224,71276,71250
 1.0000e+000 71756  8.4715e+000  7.9012e+000 -5.9417e-002 64652 71508,71638,71534
 1.0000e+000 71733  9.8546e+000  8.4368e+000 -1.0650e+000 64652 71482,71638,71508
 1.0000e+000 71710  7.6747e+000  6.7977e+000 -2.5546e-001 64652 71534,71586,71560
 1.0000e+000 71687  8.6181e+000  8.0909e+000 -7.7817e-001 64652 71534,71612,71586
 1.0000e+000 71664  6.1130e+000  7.3421e+000 -8.9260e-001 64652 71534,71638,71612
 1.0000e+000 72085  9.4468e+000  6.5150e+000 -4.1202e-001 64248 71886,71964,71912
 1.0000e+000 72062  1.0994e+001  6.9468e+000 -3.4899e-001 64248 71860,71964,71886
 1.0000e+000 72039  1.0038e+001  6.1804e+000 -3.3573e-001 64248 71912,71964,71938
 1.0000e+000 72016  8.5765e+000  7.9353e+000  3.6485e-001 64248 71860,71990,71964
 1.0000e+000 72235  8.1597e+000  1.0089e+001  4.3926e-001 63858 72588,72258,72134
 1.0000e+000 72212  8.9189e+000  1.0482e+001 -1.2219e-001 63858 72330,72258,72108
 1.0000e+000 72284  9.1634e+000  9.7125e+000  5.4712e-001 63858 72160,72134,72258
 1.0000e+000 72307  9.1392e+000  9.9748e+000 -9.1082e-004 63858 72460,72258,72186
 1.0000e+000 72356  9.3942e+000  1.0390e+001  3.4675e-001 63858 72186,72258,72330
 1.0000e+000 72486  9.0382e+000  9.3000e+000  4.4440e-001 63858 72160,72258,72460
 1.0000e+000 72614  8.4587e+000  1.0356e+001  4.1877e-002 63858 72108,72258,72588
 1.0000e+000 73248  8.5821e+000  9.8653e+000  8.8023e-001 63404 72902,72954,72928
 1.0000e+000 73225  6.8778e+000  9.0833e+000  1.0457e-001 63404 73271,72954,72902
 1.0000e+000 73202  6.9036e+000  1.0124e+001  1.7239e-001 63404 73271,72902,73032
 1.0000e+000 73179  5.1509e+000  9.3958e+000  3.0568e-001 63404 72902,73058,73032
 1.0000e+000 73156  6.7619e+000  1.0959e+001 -1.0346e+000 63404 72980,73032,73006
 1.0000e+000 73133  5.4105e+000  1.1731e+001  1.2734e+000 63404 72876,73058,72902
 1.0000e+000 73110 -9.6469e+000  4.8089e+000  3.7007e+000 63404 72876,73084,73058
 1.0000e+000 73297  6.9173e+000  8.8309e+000 -4.5553e-001 63404 72980,72954,73271
 1.0000e+000 73320  6.7287e+000  9.4592e+000 -3.2730e-001 63404 72980,73271,73032
 1.0000e+000 73470  1.0092e+001  1.3517e+001  8.3902e-001 63014 73343,73395,73369
 1.0000e+000 73447  7.6881e+000  1.1979e+001 -1.2825e-001 63014 73343,73421,73395
 1.0000e+000 73929  1.2935e+001  3.3921e-001 -2.4989e+000 62702 73759,73811,73785
 1.0000e+000 73906  1.3015e+001  8.0702e-001 -1.4373e+000 62702 73655,73811,73759
 1.0000e+000 73883  1.5430e+001  6.7745e-001 -2.4520e-001 62702 73655,73759,73681
 1.0000e+000 73860  1.7086e+001  3.6933e+000 -3.6863e+000 62702 73681,73759,73707
 1.0000e+000 73837  9.0343e+000  8.1863e-002 -3.9801e-001 62702 73707,73759,73733
 1.0000e+000 74209  9.0364e+000  4.4181e-001 -1.0297e-001 62404 74059,74137,74085
 1.0000e+000 74186  7.0802e+000 -3.4984e+000  1.7503e+000 62404 74033,74137,74059
 1.0000e+000 74163  1.4943e+001 -3.4183e+000  1.4861e+000 62404 74085,74137,74111
 1.0000e+000 74408  8.5032e+000  5.9319e+000 -1.2371e+000 62000 74258,74336,74284
 1.0000e+000 74385  1.1974e+001  7.6483e+000 -4.7126e-001 62000 74232,74336,74258
 1.0000e+000 74362  9.9928e+000  5.4786e+000 -7.5150e-001 62000 74284,74336,74310
 1.0000e+000 74509  6.1451e+000 -1.2098e+001  2.5063e+000 61802 74431,74483,74457
 1.0000e+000 74759  1.1385e+001  8.7518e-001  4.7810e-001 61554 74782,74586,74560
 1.0000e+000 74736  1.3649e+001  4.3751e-001 -3.7902e-001 61554 74782,74560,74664
 1.0000e+000 74713  9.9627e+000 -1.6305e+000  3.3536e+000 61554 74854,74612,74586
 1.0000e+000 74690  1.2627e+001 -1.0094e+000 -9.2072e-001 61554 74534,74664,74560
 1.0000e+000 74808  9.9605e+000 -5.1371e-001  1.2226e+000 61554 74854,74586,74782
 1.0000e+000 74831  1.2239e+001 -2.1521e+000  2.6951e-001 61554 74638,74782,74664
 1.0000e+000 74880  1.2785e+001 -1.0635e-001  2.5844e+000 61554 74638,74612,74854
 1.0000e+000 74903  1.3115e+001  1.0181e+000  7.0718e-001 61554 74638,74854,74782
 1.0000e+000 75285  9.1398e+000 -6.8601e+000  1.9813e-001 61356 75063,75167,75115
 1.0000e+000 75262  7.1478e+000 -1.0140e+001 -1.5780e+000 61356 75037,75167,75063
 1.0000e+000 75239  1.0902e+001 -6.4656e+000 -1.3275e-001 61356 75115,75167,75141
 1.0000e+000 75216  8.9469e+000 -6.7377e+000  3.2133e-001 61356 75063,75115,75089
 1.0000e+000 75193  7.9088e+000  5.6811e-001  3.8637e+000 61356 75011,75167,75037
 1.0000e+000 75631  4.0621e+000 -8.9358e+000  2.0086e-001 60952 75654,75412,75360
 1.0000e+000 75608  5.5582e+000 -1.0075e+001 -1.2310e-001 60952 75654,75360,75334
 1.0000e+000 75585  2.7800e+000 -1.1524e+001  4.1950e-001 60952 75726,75438,75412
 1.0000e+000 75562  7.7918e+000 -8.6392e+000 -2.3781e+000 60952 75308,75490,75334
 1.0000e+000 75539  6.3325e+000 -7.1423e+000 -1.9230e+000 60952 75360,75412,75386
 1.0000e+000 75516  7.2321e-001 -1.4257e+001  7.8424e-001 60952 75438,75490,75464
 1.0000e+000 75680  3.4718e+000 -9.9009e+000  4.5968e-001 60952 75726,75412,75654
 1.0000e+000 75703  4.3733e+000 -1.0494e+001  1.9327e-001 60952 75490,75654,75334
 1.0000e+000 75752  3.0698e+000 -9.6359e+000 -4.8091e-002 60952 75490,75438,75726
 1.0000e+000 75775  3.0750e+000 -9.5824e+000 -1.0349e-001 60952 75490,75726,75654
 1.0000e+000 76155  9.2834e+000  4.8894e+000  1.1696e+000 60754 75933,75985,75959
 1.0000e+000 76132  7.6392e+000  4.2669e+000  7.0154e-001 60754 75933,76037,75985
 1.0000e+000 76109  1.1146e+001  5.0486e+000 -2.5739e-001 60754 75985,76037,76011
 1.0000e+000 76086  8.6223e+000  6.2466e+000  1.1017e+000 60754 75881,76037,75933
 1.0000e+000 76063  5.9437e+000  2.7099e+000  2.6017e+000 60754 75881,75933,75907
 1.0000e+000 76612  6.8084e+000  1.1445e+001 -6.4991e-001 60350 76635,76442,76390
 1.0000e+000 76589  8.1808e+000  1.1500e+001 -2.2957e-001 60350 76635,76390,76364
 1.0000e+000 76566  7.7266e+000  1.3011e+001  9.8234e-001 60350 76364,76494,76468
 1.0000e+000 76543  8.7516e+000  1.1634e+001 -2.7344e+000 60350 76390,76442,76416
 1.0000e+000 76520  1.0986e+001  1.2956e+001  2.1592e+000 60350 76338,76494,76364
 1.0000e+000 76661  5.8833e+000  1.1604e+001 -7.4152e-001 60350 76468,76442,76635
 1.0000e+000 76684  6.7815e+000  1.1275e+001 -3.6939e-001 60350 76468,76635,76364
 1.0000e+000 76932  6.6244e+000 -5.0791e+000 -1.3705e-001 59946 76955,76733,76707
 1.0000e+000 76909  6.4099e+000 -5.5876e+000 -1.6437e-001 59946 77027,76955,76707
 1.0000e+000 76886  5.7424e+000 -6.0941e+000  1.0382e-001 59946 77027,76707,76837
 1.0000e+000 76863  5.6032e+000 -7.9588e+000 -1.1446e+000 59946 76733,76785,76759
 1.0000e+000 76981  4.8912e+000 -5.2470e+000 -8.9655e-001 59946 76785,76733,76955
 1.0000e+000 77004  6.2876e+000 -1.3735e+000 -8.9592e-001 59946 76785,76955,76811
 1.0000e+000 77053  5.2643e+000 -4.6313e+000  7.7121e-001 59946 76811,76955,77027
 1.0000e+000 77076  4.3799e+000 -5.7251e+000  1.1935e+000 59946 76811,77027,76837
 1.0000e+000 77226  5.3924e+000  1.5414e+001 -5.1166e-001 59542 77099,77151,77125
 1.0000e+000 77203  5.2227e+000  1.2372e+001 -1.9215e+000 59542 77099,77177,77151
 1.0000e+000 77427  7.5436e+000  6.7581e+000 -8.4115e-001 59030 77450,77277,77251
 1.0000e+000 77404  7.8808e+000  7.7335e+000 -7.2908e-001 59030 77450,77251,77355
 1.0000e+000 77381  8.0615e+000  6.6237e+000 -1.1691e+000 59030 77277,77329,77303
 1.0000e+000 77476  7.6974e+000  6.5040e+000 -1.1593e+000 59030 77329,77277,77450
 1.0000e+000 77499  7.7695e+000  7.0656e+000 -1.0540e+000 59030 77329,77450,77355
 1.0000e+000 77749  3.5061e+000  7.2147e+000  8.6739e-001 58426 77772,77628,77602
 1.0000e+000 77726  4.0336e+000  6.7386e+000  1.4809e+000 58426 77524,77654,77628
 1.0000e+000 77703  5.0990e+000  7.0475e+000  3.0746e-001 58426 77772,77602,77550
 1.0000e+000 77680  4.7128e+000  7.1029e+000 -1.3454e+000 58426 77550,77602,77576
 1.0000e+000 77798  5.3249e+000  7.5987e+000  1.0624e+000 58426 77524,77628,77772
 1.0000e+000 77821  6.0217e+000  6.8770e+000  2.5531e-001 58426 77524,77772,77550
 1.0000e+000 78071  2.9648e+000 -5.6229e+000  1.3097e+000 57922 78094,77924,77898
 1.0000e+000 78048  3.7826e+000 -4.2395e+000  1.7147e+000 57922 78094,77898,77872
 1.0000e+000 78025  3.6830e+000 -2.1148e+000  2.7478e+000 57922 78166,77846,77950
 1.0000e+000 78002  2.1220e+000 -1.6048e+000  2.1942e+000 57922 77846,77976,77950
 1.0000e+000 78120  1.7601e+000 -3.6920e+000  1.7860e+000 57922 77950,77924,78094
 1.0000e+000 78143  3.2100e+000 -2.5308e+000  2.3073e+000 57922 78166,77950,78094
 1.0000e+000 78192  4.3322e+000 -3.2240e+000  1.9895e+000 57922 77872,77846,78166
 1.0000e+000 78215  3.3306e+000 -4.1996e+000  1.4524e+000 57922 77872,78166,78094
 1.0000e+000 78416  6.6921e+000  3.8919e+000  6.6579e-001 57468 78439,78292,78240
 1.0000e+000 78393  7.7661e+000  5.1789e+000  2.0540e-001 57468 78439,78240,78344
 1.0000e+000 78370  7.2027e+000  2.7763e+000  1.2317e+000 57468 78240,78292,78266
 1.0000e+000 78465  7.8590e+000  3.9797e+000 -2.0762e-001 57468 78318,78292,78439
 1.0000e+000 78488  8.3236e+000  4.5309e+000 -4.4650e-001 57468 78318,78439,78344
 1.0000e+000 78689  7.0540e+000 -1.2472e+000 -1.2490e-001 57014 78712,78539,78513
 1.0000e+000 78666  6.0699e+000  9.9616e-002  6.8106e-001 57014 78712,78513,78617
 1.0000e+000 78643  5.7468e+000  2.0270e+000  4.2184e-001 57014 78565,78617,78591
 1.0000e+000 78738  5.7989e+000 -2.4883e+000 -6.2398e-001 57014 78565,78539,78712
 1.0000e+000 78761  5.2568e+000 -5.6397e-001  3.5944e-001 57014 78565,78712,78617
 1.0000e+000 79241  7.2076e+000  5.2643e+000  6.1642e-002 56652 79264,78895,78869
 1.0000e+000 79218  7.1257e+000  5.6605e+000  1.6353e-001 56652 79264,78869,79051
 1.0000e+000 79195  6.0476e+000  5.2187e+000  2.5078e-001 56652 78869,79077,79051
 1.0000e+000 79172  6.6769e+000  5.1457e+000 -8.6137e-001 56652 78895,78973,78947
 1.0000e+000 79149  8.4687e+000  5.0649e+000  5.6367e-001 56652 78973,79051,78999
 1.0000e+000 79126  6.6009e+000  4.5891e+000 -7.7828e-001 56652 78895,78947,78921
 1.0000e+000 79103  8.7655e+000  4.5746e+000 -9.0029e-001 56652 78999,79051,79025
 1.0000e+000 79290  7.2106e+000  4.9818e+000 -1.2891e-001 56652 78973,78895,79264
 1.0000e+000 79313  7.1588e+000  5.4627e+000 -5.2394e-002 56652 78973,79264,79051
 1.0000e+000 79512 -3.6501e+000  3.7532e+000 -1.9190e+000 56062 79388,79440,79414
 1.0000e+000 79489  1.8784e+000  4.5759e+000 -7.5936e-001 56062 79336,79440,79388
 1.0000e+000 79466  2.9848e+000  2.7785e+000 -8.1286e-001 56062 79336,79388,79362
 1.0000e+000 79941  1.9262e+000 -6.3192e+000 -5.0278e-001 55658 79964,79670,79644
 1.0000e+000 79918  2.7706e+000 -7.8555e+000 -2.4611e-001 55658 79964,79644,79800
 1.0000e+000 79895  9.5424e-001 -6.0273e+000  6.0851e-001 55658 80036,79696,79670
 1.0000e+000 79872  3.5334e-001 -3.3378e+000 -3.3460e-001 55658 80108,79722,79696
 1.0000e+000 79849 -1.9203e+000 -4.1631e+000  1.7091e+000 55658 79722,79774,79748
 1.0000e+000 79826  4.0172e+000 -7.3306e+000 -2.2716e-001 55658 79618,79800,79644
 1.0000e+000 79990  2.9546e+000 -5.3166e+000 -9.6699e-002 55658 80036,79670,79964
 1.0000e+000 80013  6.9889e+000 -5.3981e+000  1.8522e+000 55658 79774,79964,79800
 1.0000e+000 80062  1.4596e+000 -4.7026e+000  8.4625e-001 55658 80108,79696,80036
 1.0000e+000 80085  5.9825e-001 -8.0699e+000  1.4620e+000 55658 79774,80036,79964
 1.0000e+000 80134 -1.6806e+000 -4.8702e+000  3.4180e-001 55658 79774,79722,80108
 1.0000e+000 80157 -1.0318e+000 -6.3873e+000  1.5783e+000 55658 79774,80108,80036
 1.0000e+000 80307 -5.7380e-001 -2.9536e+000  2.0567e+000 55254 80402,80330,80206
 1.0000e+000 80284 -1.0948e+000 -1.1841e+001  2.2388e+000 55254 80330,80180,80258
 1.0000e+000 80356 -2.4089e+000 -7.1940e+000  2.5971e+000 55254 80232,80206,80330
 1.0000e+000 80379  2.3585e+000 -5.0616e+000  3.4305e+000 55254 80232,80330,80258
 1.0000e+000 80428 -1.4957e+000 -8.2806e+000  1.5500e-001 55254 80180,80330,80402
 1.0000e+000 80659  8.4065e+000  1.0343e+001  8.8248e-002 54850 80558,80610,80584
 1.0000e+000 80636  8.1793e+000  1.0456e+001  2.8547e-001 54850 80532,80610,80558
 1.0000e+000 80760 -4.2194e-001 -1.3673e+001  6.4208e-002 54652 80682,80734,80708
 1.0000e+000 81164 -6.6814e-001 -1.1153e+001 -1.1850e-001 54248 81187,80942,80890
 1.0000e+000 81141 -3.0288e-001 -1.2199e+001 -1.7844e-001 54248 81187,80890,81046
 1.0000e+000 81118 -2.0517e+000 -1.1597e+001  1.1446e+000 54248 80942,81020,80994
 1.0000e+000 81095 -2.5277e+000 -1.5210e+001 -5.3950e-001 54248 80890,80942,80916
 1.0000e+000 81072 -4.6453e-002 -7.8484e+000 -4.0102e-001 54248 80942,80994,80968
 1.0000e+000 81213 -4.6697e-001 -1.0652e+001  5.7412e-002 54248 81020,80942,81187
 1.0000e+000 81236  5.4986e-002 -1.1485e+001  2.4380e-002 54248 81020,81187,81046
 1.0000e+000 81663  4.3074e+000  7.2603e+000  1.4825e+000 53594 81340,81444,81366
 1.0000e+000 81640  6.6055e+000  7.9204e+000  2.6150e-001 53594 81340,81470,81444
 1.0000e+000 81617  5.4933e+000  7.5209e+000  1.3746e-001 53594 81340,81522,81470
 1.0000e+000 81594  3.8022e+000  7.8617e+000  9.1987e-001 53594 81392,81444,81418
 1.0000e+000 81571  3.6036e+000  7.2246e+000  7.6752e-001 53594 81366,81444,81392
 1.0000e+000 81548  9.7130e+000  7.8430e+000  4.3064e-001 53594 81470,81522,81496
 1.0000e+000 81943  3.4246e+000 -2.4285e-002  1.0746e+000 53104 81966,81845,81819
 1.0000e+000 81920  2.9054e+000  2.4500e-001  8.8528e-001 53104 81966,81819,81767
 1.0000e+000 81897  2.2741e+000  6.1358e-002 -8.4444e-001 53104 81767,81819,81793
 1.0000e+000 81992  3.8803e+000 -5.6403e-002  7.6068e-001 53104 81871,81845,81966
 1.0000e+000 82015  3.4472e+000  3.3281e-001  4.6513e-001 53104 81871,81966,81767
 1.0000e+000 82491  4.3633e+000  6.3663e+000 -8.6337e-001 52650 82145,82249,82171
 1.0000e+000 82468  6.1200e+000  6.6945e+000 -5.2170e-001 52650 82145,82301,82249
 1.0000e+000 82445  5.5638e+000  8.1356e+000  4.6522e-001 52650 82249,82301,82275
 1.0000e+000 82422  4.6507e+000  6.8123e+000 -6.9128e-001 52650 82119,82301,82145
 1.0000e+000 82399  3.6081e+000  5.5960e+000 -1.3078e+000 52650 82171,82249,82223
 1.0000e+000 82376  6.2677e+000  7.5160e+000 -9.0758e-001 52650 82119,82327,82301
 1.0000e+000 82353  1.2250e+000  7.4192e+000 -3.3502e+000 52650 82171,82223,82197
 1.0000e+000 82739  1.6976e+000  1.5337e+000  1.0150e-001 52246 82762,82540,82514
 1.0000e+000 82716  2.6899e+000  5.1073e-001 -4.9470e-002 52246 82762,82514,82644
 1.0000e+000 82693  3.3056e+000  9.2757e-001  9.7835e-002 52246 82540,82618,82592
 1.0000e+000 82670  1.0105e+001  2.2584e+000  2.0019e-001 52246 82540,82592,82566
 1.0000e+000 82788  2.5045e+000  1.2933e+000  5.1994e-001 52246 82618,82540,82762
 1.0000e+000 82811  4.2794e+000  1.3564e+000  8.4745e-001 52246 82618,82762,82644
 1.0000e+000 83059  4.7121e+000  2.6741e+000  4.9477e-001 51578 82860,82964,82938
 1.0000e+000 83036  4.5091e+000  2.6080e+000 -2.1248e+000 51578 82834,82964,82860
 1.0000e+000 83013  4.7979e+000  3.2766e+000  7.7583e-001 51578 82860,82938,82886
 1.0000e+000 82990  4.4999e+000  1.6282e+000  1.4450e+000 51578 82886,82938,82912
 1.0000e+000 83309  3.7767e+000  3.9814e+000  7.5071e-001 51138 83332,83162,83136
 1.0000e+000 83286  3.4686e+000  4.1688e+000  8.8303e-001 51138 83332,83136,83110
 1.0000e+000 83263  5.4312e+000  4.6213e+000  1.7704e+000 51138 83404,83214,83188
 1.0000e+000 83240  2.9464e+000  3.9289e+000  1.0202e+000 51138 83084,83214,83110
 1.0000e+000 83358  3.3504e+000  3.9708e+000  1.4178e+000 51138 83188,83162,83332
 1.0000e+000 83381  4.6466e+000  4.6045e+000  1.6231e+000 51138 83404,83188,83332
 1.0000e+000 83430  5.0257e+000  4.7176e+000  7.2767e-001 51138 83110,83214,83404
 1.0000e+000 83453  3.8973e+000  4.6187e+000  6.9182e-001 51138 83110,83404,83332
 1.0000e+000 83835  3.9816e+000  5.9190e+000  1.0818e-002 50734 83613,83717,83691
 1.0000e+000 83812  4.8749e+000  7.9688e+000 -1.8644e-001 50734 83561,83717,83613
 1.0000e+000 83789  3.6580e+000  8.0658e+000  1.1979e-001 50734 83561,83613,83587
 1.0000e+000 83766  5.8765e+000  7.1016e+000  6.5822e-001 50734 83613,83691,83639
 1.0000e+000 83743  6.3325e+000  8.3836e+000  1.2059e+000 50734 83639,83691,83665
 1.0000e+000 84034  1.2220e+000  1.0157e+000  4.2156e-001 50230 84057,83884,83858
 1.0000e+000 84011  1.2747e+000  1.2632e+000  6.1631e-001 50230 84129,84057,83858
 1.0000e+000 83988  4.8021e-001  1.3991e+000  8.2347e-001 50230 84129,83858,83962
 1.0000e+000 84083  8.7177e-001  8.9625e-001  3.4933e-001 50230 83910,83884,84057
 1.0000e+000 84106  1.0045e+000  1.4729e+000  2.2231e-001 50230 83910,84057,83936
 1.0000e+000 84155  2.3541e-001  9.6321e-001  4.4338e-001 50230 83936,84057,84129
 1.0000e+000 84178 -7.6390e-002  1.4536e+000  7.4560e-001 50230 83936,84129,83962
 1.0000e+000 84558  4.4138e+000  7.3880e+000  6.6320e-001 49768 84581,84388,84362
 1.0000e+000 84535  4.9350e+000  7.4110e+000  5.2131e-001 49768 84581,84362,84310
 1.0000e+000 84512  3.5760e+000  7.3929e+000  5.6420e-001 49768 84653,84440,84414
 1.0000e+000 84489  5.9456e+000  6.6882e+000  1.5412e+000 49768 84310,84362,84336
 1.0000e+000 84466  4.9830e+000  8.7223e+000  3.2596e+000 49768 84284,84440,84310
 1.0000e+000 84607  4.9162e+000  7.6148e+000  4.2853e-001 49768 84414,84388,84581
 1.0000e+000 84630  3.9463e+000  7.3185e+000  4.2555e-001 49768 84653,84414,84581
 1.0000e+000 84679  4.0775e+000  7.1703e+000  7.2555e-001 49768 84310,84440,84653
 1.0000e+000 84702  4.5586e+000  7.2092e+000  7.1638e-001 49768 84310,84653,84581
 1.0000e+000 85159 -1.3508e+000 -2.7802e+000  2.8533e+000 49192 84885,84937,84911
 1.0000e+000 85136  7.4451e-001 -3.6101e+000  2.7590e-001 49192 84885,85041,84937
 1.0000e+000 85113 -2.0435e+000 -7.2864e+000  1.5853e+000 49192 84963,85041,84989
 1.0000e+000 85090 -2.1380e+000 -8.8207e+000 -9.1397e-001 49192 84937,85041,84963
 1.0000e+000 85067  7.4245e-001 -6.7345e+000  1.8749e+000 49192 84989,85041,85015
 1.0000e+000 85714  8.9378e-001  4.5232e+000  7.8102e-001 48638 85368,85498,85394
 1.0000e+000 85691  2.5882e-001  5.3658e+000  1.0734e+000 48638 85368,85524,85498
 1.0000e+000 85668  1.9597e+000  3.7455e+000 -1.7308e-001 48638 85737,85420,85394
 1.0000e+000 85645  1.7459e+000  5.1586e+000  3.5774e-001 48638 85737,85394,85498
 1.0000e+000 85622 -2.9055e-001  5.1382e+000 -1.2253e+000 48638 85446,85498,85472
 1.0000e+000 85599 -1.6069e-001  4.3495e+000  3.3710e+000 48638 85342,85524,85368
 1.0000e+000 85576 -2.2103e+000  3.8541e+000  3.3615e+000 48638 85342,85550,85524
 1.0000e+000 85763  1.2926e+000  3.2232e+000 -1.0552e+000 48638 85446,85420,85737
 1.0000e+000 85786  1.4580e+000  4.2254e+000 -3.2768e-001 48638 85446,85737,85498
 1.0000e+000 86371  2.5219e+000  3.6579e+000  7.2346e-001 48084 86100,86230,86178
 1.0000e+000 86348  2.0390e+000  4.9198e+000  7.7772e-001 48084 86048,86230,86100
 1.0000e+000 86325  2.5033e+000  3.7354e+000  1.0773e+000 48084 86100,86178,86126
 1.0000e+000 86302  3.0493e+000  7.2827e+000  6.0376e-001 48084 86048,86100,86074
 1.0000e+000 86279  3.1484e+000  5.3091e+000  5.4744e-001 48084 86178,86230,86204
 1.0000e+000 86256  7.9220e-001  2.8488e+000  5.3987e-001 48084 86126,86178,86152
 1.0000e+000 86619 -1.0823e+000 -3.2551e+000 -1.0864e+000 47630 86642,86446,86420
 1.0000e+000 86596 -2.6857e-001 -2.8299e+000 -8.4705e-001 47630 86642,86420,86394
 1.0000e+000 86573 -2.3170e+000 -2.2053e+000  2.1079e-001 47630 86394,86524,86498
 1.0000e+000 86550 -7.3400e-001 -4.8400e+000 -7.0227e-001 47630 86446,86498,86472
 1.0000e+000 86668 -8.8772e-001 -2.9018e+000 -3.4406e-001 47630 86498,86446,86642
 1.0000e+000 86691 -2.4247e-001 -2.6054e+000 -1.3111e-001 47630 86498,86642,86394
 1.0000e+000 87022  6.2699e+000  6.3568e+000  3.0859e-001 47226 87045,86875,86849
 1.0000e+000 86999  5.6940e+000  6.9811e+000 -2.3222e-002 47226 87045,86849,86797
 1.0000e+000 86976  5.3779e+000  6.2301e+000  2.2789e-003 47226 86797,86849,86823
 1.0000e+000 86953  6.9403e+000  6.7612e+000 -2.8671e-001 47226 86875,86927,86901
 1.0000e+000 87071  6.9693e+000  6.7426e+000  2.5317e-002 47226 86927,86875,87045
 1.0000e+000 87094  6.2056e+000  7.1640e+000 -1.7677e-001 47226 86927,87045,86797
 1.0000e+000 87244  5.9487e+000  4.1035e+000 -4.2448e-001 46814 87267,87169,87143
 1.0000e+000 87221  6.5865e+000  5.2594e+000 -1.7571e-001 46814 87267,87143,87117
 1.0000e+000 87293  6.6932e+000  6.0903e+000  2.2087e-001 46814 87339,87267,87195
 1.0000e+000 87316  5.2043e+000  4.6791e+000  3.9856e-001 46814 87469,87267,87117
 1.0000e+000 87365  5.9289e+000  5.3373e+000 -6.8753e-001 46814 87169,87267,87339
 1.0000e+000 87495  6.4065e+000  6.1913e+000 -1.2173e-001 46814 87195,87267,87469
 1.0000e+000 88001 -3.1231e+000 -1.0038e+001 -9.3614e-001 46310 88024,87834,87808
 1.0000e+000 87978 -2.0311e+000 -9.6298e+000 -5.9654e-001 46310 88024,87808,87756
 1.0000e+000 87955 -3.3549e+000 -9.3135e+000  1.4705e-001 46310 88096,87730,87860
 1.0000e+000 87932 -4.4210e-001 -8.5193e+000  3.2597e-003 46310 87756,87808,87782
 1.0000e+000 87909 -4.1307e+000 -1.5432e+001  7.1294e-001 46310 87678,87860,87730
 1.0000e+000 87886 -2.2318e+000 -1.3072e+001 -5.2002e-001 46310 87678,87730,87704
 1.0000e+000 88050 -2.6704e+000 -8.9209e+000 -5.5810e-001 46310 87860,87834,88024
 1.0000e+000 88073 -3.1193e+000 -9.7829e+000 -2.0811e-001 46310 88096,87860,88024
 1.0000e+000 88122 -2.8282e+000 -9.1415e+000  1.6216e-001 46310 87756,87730,88096
 1.0000e+000 88145 -2.1944e+000 -9.3574e+000 -2.5131e-002 46310 87756,88096,88024
 1.0000e+000 88572 -1.0785e+000  2.0869e+000  5.7643e-001 45856 88249,88405,88275
 1.0000e+000 88549 -9.9802e-001  6.3315e+000 -1.0479e+000 45856 88249,88431,88405
 1.0000e+000 88526  4.0677e-001 -1.1667e-001  1.0899e+000 45856 88327,88405,88353
 1.0000e+000 88503  1.1079e+000  4.3201e+000  1.7643e+000 45856 88275,88405,88327
 1.0000e+000 88480  1.3559e+000  2.3034e+000  1.2371e+000 45856 88353,88405,88379
 1.0000e+000 88457 -5.3165e-001 -1.9693e+000  2.2463e+000 45856 88275,88327,88301
 1.0000e+000 88950 -2.9967e+000 -5.9496e+000  8.4129e-001 45658 88973,88754,88728
 1.0000e+000 88927 -3.8627e+000 -7.5458e+000  3.8518e-001 45658 88973,88728,88676
 1.0000e+000 88904 -4.3726e+000 -9.1627e+000  3.1757e-001 45658 88676,88832,88806
 1.0000e+000 88881 -3.8388e+000 -8.2189e+000 -6.7395e-001 45658 88676,88728,88702
 1.0000e+000 88858 -4.9823e-001 -4.3717e+000  1.9110e+000 45658 88754,88806,88780
 1.0000e+000 88999 -2.6114e+000 -7.6162e+000  5.4907e-001 45658 88806,88754,88973
 1.0000e+000 89022 -2.9121e+000 -8.5198e+000  2.2250e-001 45658 88806,88973,88676
 1.0000e+000 89351  4.5478e+000  6.5014e+000 -1.4599e-001 45254 89152,89230,89204
 1.0000e+000 89328  4.1517e+000  6.4737e+000  3.3004e-001 45254 89152,89256,89230
 1.0000e+000 89305  6.3526e+000  7.2965e+000  5.0661e-001 45254 89126,89256,89152
 1.0000e+000 89282  5.7726e+000  7.2950e+000 -6.7706e-001 45254 89152,89204,89178
 1.0000e+000 89523 -7.2919e+000 -1.6151e+001 -3.8065e-001 45006 89422,89474,89448
 1.0000e+000 89500 -6.4182e+000 -1.5781e+001  3.1798e-001 45006 89396,89474,89422
 1.0000e+000 89673  4.0377e+000  7.1425e+000 -7.0359e-003 44495 89572,89624,89598
 1.0000e+000 89650  4.0127e+000  7.4856e+000 -3.7899e-001 44495 89546,89624,89572
 1.0000e+000 90104 -1.6728e+000 -2.0585e+000 -1.7671e-001 44005 90199,90127,89937
 1.0000e+000 90081 -1.1001e+000 -2.2930e+000  6.1411e-002 44005 90271,90127,89859
 1.0000e+000 90058 -8.0640e-001 -3.3717e+000 -4.9988e-001 44005 90199,89937,89885
 1.0000e+000 90035 -5.7711e-001 -2.1113e+000 -2.0202e-001 44005 90271,89859,89807
 1.0000e+000 90012  5.5259e-001 -3.0563e+000  4.6060e-001 44005 89885,89937,89911
 1.0000e+000 89989 -7.8705e-001 -1.7346e+000 -5.9579e-001 44005 89807,89859,89833
 1.0000e+000 90153 -1.2403e+000 -1.8886e+000 -2.0521e-001 44005 89963,89937,90127
 1.0000e+000 90176 -1.4611e+000 -2.3564e+000 -2.8950e-001 44005 89963,90127,89781
 1.0000e+000 90225 -1.7376e+000 -3.9515e+000  1.3397e-001 44005 89859,90127,90199
 1.0000e+000 90248 -1.5801e+000 -6.2258e+000 -4.1609e-001 44005 89859,90199,89885
 1.0000e+000 90297 -3.0406e-001 -2.4374e+000 -2.2383e-001 44005 89781,90127,90271
 1.0000e+000 90320  2.9359e-002 -2.4067e+000 -4.8014e-001 44005 89781,90271,89807
 1.0000e+000 90470 -6.0597e+000 -1.2484e+001 -3.9848e-001 43601 90493,90369,90343
 1.0000e+000 90447 -5.3778e+000 -1.2558e+001 -8.3260e-001 43601 90493,90343,90421
 1.0000e+000 90519 -5.1254e+000 -1.2297e+001 -2.3845e-001 43601 90395,90369,90493
 1.0000e+000 90542 -4.7251e+000 -1.2447e+001 -8.5864e-001 43601 90395,90493,90421
 1.0000e+000 90922 -6.7523e+000 -9.7593e+000 -7.0165e-001 43154 90945,90700,90674
 1.0000e+000 90899 -6.2677e+000 -9.3052e+000  4.8503e-001 43154 90945,90674,90648
 1.0000e+000 90876 -5.4984e+000 -9.5295e+000  4.7967e-001 43154 90648,90778,90752
 1.0000e+000 90853 -5.3473e+000 -8.0038e+000 -1.8371e-001 43154 90700,90752,90726
 1.0000e+000 90830 -4.0478e+000 -9.8923e+000  1.2703e+000 43154 90648,90804,90778
 1.0000e+000 90971 -6.1908e+000 -8.6195e+000 -4.8154e-001 43154 90752,90700,90945
 1.0000e+000 90994 -5.9788e+000 -8.6490e+000  6.5138e-001 43154 90752,90945,90648
 1.0000e+000 91451 -4.2543e+000 -4.2065e+000  2.5457e+000 42650 91203,91255,91229
 1.0000e+000 91428  3.3254e+000 -9.6283e-001 -1.8106e-001 42650 91203,91333,91255
 1.0000e+000 91405 -3.1135e-001 -7.6877e-001 -6.2070e-001 42650 91177,91333,91203
 1.0000e+000 91382  4.5838e+000  1.2728e+000 -6.8099e-001 42650 91255,91333,91281
 1.0000e+000 91359  6.8628e+000  8.9448e-001  3.7977e-001 42650 91281,91333,91307
 1.0000e+000 91721  2.9341e+000  4.9432e+000  5.4504e-001 42288 91496,91600,91522
 1.0000e+000 91698  3.8773e+000  6.8717e+000  9.1075e-002 42288 91496,91626,91600
 1.0000e+000 91675  4.8944e+000  4.8140e+000  3.8492e-001 42288 91522,91574,91548
 1.0000e+000 91652  3.5933e+000  5.1860e+000  5.3638e-001 42288 91522,91600,91574
 1.0000e+000 92199  2.9796e+000  2.9977e+000 -6.8449e-001 41898 92222,91983,91879
 1.0000e+000 92176  2.5185e+000  3.9372e+000 -3.2939e-001 41898 92294,92222,91879
 1.0000e+000 92153  2.2019e+000  4.0013e+000 -5.5119e-001 41898 92294,91879,91853
 1.0000e+000 92130  3.4620e+000  3.1946e+000 -1.1366e+000 41898 91879,91957,91931
 1.0000e+000 92107  3.0505e+000  3.0443e+000 -8.1281e-001 41898 91879,91983,91957
 1.0000e+000 92084  3.9680e+000  3.0759e+000 -1.6081e+000 41898 91879,91931,91905
 1.0000e+000 92061  4.9338e+000  3.7529e+000 -3.0208e-001 41898 91827,92035,91853
 1.0000e+000 92248  2.6906e+000  4.3569e+000 -9.3127e-001 41898 92009,91983,92222
 1.0000e+000 92271  3.1895e+000  4.9422e+000  2.3283e-001 41898 92009,92222,92035
 1.0000e+000 92320  3.0372e+000  4.0760e+000 -2.9975e-001 41898 92035,92222,92294
 1.0000e+000 92343  2.8157e+000  4.2157e+000 -5.0121e-001 41898 92035,92294,91853
 1.0000e+000 92770 -5.0713e+000 -7.0185e+000  2.1015e-001 41437 92865,92793,92525
 1.0000e+000 92747 -5.2243e+000 -7.7728e+000  7.4775e-001 41437 92793,92473,92629
 1.0000e+000 92724 -6.2039e+000 -6.3577e+000  8.3721e-001 41437 92865,92525,92499
 1.0000e+000 92701 -4.4921e+000 -6.3257e+000  2.2092e-001 41437 92525,92603,92577
 1.0000e+000 92678 -5.3204e+000 -7.9977e+000  6.4825e-001 41437 92447,92629,92473
 1.0000e+000 92655 -5.0074e+000 -5.5385e+000  7.0546e-001 41437 92525,92577,92551
 1.0000e+000 92819 -4.9448e+000 -6.7223e+000  4.3857e-002 41437 92603,92525,92793
 1.0000e+000 92842 -4.2389e+000 -6.6035e+000  1.3863e+000 41437 92603,92793,92629
 1.0000e+000 92891 -6.8869e+000 -7.2292e+000  3.2748e-002 41437 92473,92793,92865
 1.0000e+000 92914 -8.2523e+000 -6.8054e+000  8.2464e-001 41437 92473,92865,92499
 1.0000e+000 93243  1.2102e+000  1.8923e-001 -8.5218e-001 41097 93044,93096,93070
 1.0000e+000 93220  2.5396e+000 -7.7272e-002  1.0494e+000 41097 93044,93122,93096
 1.0000e+000 93197 -1.7035e+000 -2.6510e+000  2.2456e+000 41097 93044,93148,93122
 1.0000e+000 93174 -1.8123e+000  1.6387e+000  4.8302e+000 41097 93018,93148,93044
 1.0000e+000 93393  1.5285e-001  2.2301e+000  1.6152e-001 40643 93416,93292,93344
 1.0000e+000 93370  1.3175e+000  3.2749e+000  6.0604e-001 40643 93266,93344,93292
 1.0000e+000 93442  3.3061e-001  1.7783e+000 -6.2146e-001 40643 93318,93292,93416
 1.0000e+000 93901 -9.7003e-001 -5.6576e+000 -3.2657e-001 40132 93924,93731,93705
 1.0000e+000 93878 -1.5074e+000 -4.6198e+000 -4.0499e-001 40132 93996,93924,93705
 1.0000e+000 93855 -1.7874e+000 -5.2818e+000 -3.3215e-001 40132 93996,93705,93653
 1.0000e+000 93832 -4.9431e+000 -6.6072e+000  4.0048e-001 40132 93653,93705,93679
 1.0000e+000 93809 -1.4050e+000 -2.9642e+000 -6.3848e-001 40132 93627,93783,93757
 1.0000e+000 93950 -1.7131e-001 -4.9413e+000 -7.1668e-001 40132 93757,93731,93924
 1.0000e+000 93973 -1.1423e+000 -3.8399e+000 -1.1831e-001 40132 93757,93924,93627
 1.0000e+000 94022 -1.7000e+000 -4.9346e+000  1.2082e-001 40132 93627,93924,93996
 1.0000e+000 94045 -1.7226e+000 -5.1915e+000  1.5801e-001 40132 93627,93996,93653
 1.0000e+000 94423  2.6198e+000  4.8125e+000 -6.0196e-001 39514 94149,94227,94175
 1.0000e+000 94400  1.7330e+000  2.5935e+000 -7.6859e-001 39514 94149,94305,94227
 1.0000e+000 94377  7.1440e-001  5.3099e+000 -1.8959e-001 39514 94175,94227,94201
 1.0000e+000 94354  2.0968e+000  3.1903e+000 -6.0194e-001 39514 94227,94305,94279
 1.0000e+000 94331  3.2897e+000  3.7282e+000 -4.2662e-001 39514 94227,94279,94253
 1.0000e+000 94573 -2.3292e+000 -4.2105e+000  7.6540e-001 38822 94596,94498,94472
 1.0000e+000 94550 -2.4357e+000 -4.9334e+000  9.5594e-001 38822 94596,94472,94446
 1.0000e+000 94622 -2.2040e+000 -4.2073e+000  1.5623e+000 38822 94524,94498,94596
 1.0000e+000 94645 -2.6541e+000 -5.4378e+000  1.7803e+000 38822 94524,94596,94446
 1.0000e+000 95025 -3.5539e+000 -3.6136e+000 -1.5902e-002 38418 95048,94829,94777
 1.0000e+000 95002 -3.7650e+000 -3.3299e+000  4.0878e-001 38418 95120,95048,94777
 1.0000e+000 94979 -4.0267e+000 -3.5530e+000  3.0781e-001 38418 95120,94777,94751
 1.0000e+000 94956 -4.5742e-001 -3.2236e+000  4.9283e-001 38418 95192,94881,94855
 1.0000e+000 94933 -4.2032e+000 -3.5589e+000  1.0397e-001 38418 94777,94829,94803
 1.0000e+000 95074 -3.3592e+000 -4.2105e+000  8.6534e-001 38418 94855,94829,95048
 1.0000e+000 95097 -8.2103e-001 -3.7689e+000  6.8242e-001 38418 95192,94855,95048
 1.0000e+000 95146 -2.5933e+000 -4.0728e+000  7.5926e-002 38418 94907,95048,95120
 1.0000e+000 95169 -3.4756e+000 -4.8211e+000 -2.5350e-001 38418 94907,95120,94751
 1.0000e+000 95218 -8.6962e-001 -1.8583e+000  5.3176e-001 38418 94907,94881,95192
 1.0000e+000 95241 -1.6747e+000 -2.9741e+000  9.0379e-001 38418 94907,95192,95048
 1.0000e+000 95511 -7.9746e+000 -1.1704e+001 -4.1298e-001 38049 95312,95390,95364
 1.0000e+000 95488 -9.1246e+000 -1.2319e+001 -1.0636e-003 38049 95312,95416,95390
 1.0000e+000 95465 -8.2773e+000 -1.1125e+001 -2.1454e-001 38049 95312,95364,95338
 1.0000e+000 95442 -8.3209e+000 -1.3463e+001 -6.3004e-002 38049 95286,95416,95312
 1.0000e+000 95808 -3.9091e+000 -3.0271e+000  1.1449e+000 37437 95831,95586,95560
 1.0000e+000 95785 -4.4295e+000 -2.5342e+000  1.3467e+000 37437 95831,95560,95534
 1.0000e+000 95762 -2.9599e+000 -2.0906e-001  4.0601e-002 37437 95586,95664,95638
 1.0000e+000 95739  7.9680e-001  1.7127e+000 -7.1450e-001 37437 95534,95690,95664
 1.0000e+000 95716 -2.0020e+000 -1.1552e+000  6.6997e-001 37437 95586,95638,95612
 1.0000e+000 95857 -3.6015e+000 -2.6619e+000  1.0007e+000 37437 95664,95586,95831
 1.0000e+000 95880 -4.1231e+000 -2.1578e+000  1.1997e+000 37437 95664,95831,95534
 1.0000e+000 96390  8.9285e-001  1.3711e+000  4.2433e-001 36883 96413,96145,96093
 1.0000e+000 96367  8.5553e-001  1.2514e+000  1.5838e-002 36883 96413,96093,96067
 1.0000e+000 96344  7.6820e-001  3.9883e-001  8.5819e-002 36883 96067,96249,96171
 1.0000e+000 96321  1.9906e+000  8.3640e-001  4.4292e-001 36883 96093,96145,96119
 1.0000e+000 96298  7.4158e-001  4.8143e-001 -3.3444e-001 36883 96171,96249,96197
 1.0000e+000 96275  2.0905e+000  7.1715e-001 -2.5833e-001 36883 96197,96249,96223
 1.0000e+000 96439  6.2131e-001  7.1536e-001  4.7853e-001 36883 96171,96145,96413
 1.0000e+000 96462  7.5431e-001  9.9945e-001  7.5942e-002 36883 96171,96413,96067
 1.0000e+000 96781  2.5185e+000  1.8602e+000 -4.1881e-002 36215 96559,96663,96637
 1.0000e+000 96758  3.0168e+000  1.2553e+000 -2.5386e-001 36215 96507,96663,96559
 1.0000e+000 96735  2.1776e+000  2.6609e+000  1.1540e-001 36215 96585,96637,96611
 1.0000e+000 96712  1.6994e+000  1.7073e+000 -8.2027e-002 36215 96559,96637,96585
 1.0000e+000 96689  2.0195e+000  1.2273e+000 -7.7861e-001 36215 96507,96559,96533
 1.0000e+000 97161  4.7442e-001  1.3653e+000 -2.9205e-001 35818 97184,96965,96939
 1.0000e+000 97138  5.6606e-001  1.0411e+000 -1.5517e-001 35818 97184,96939,96887
 1.0000e+000 97115  8.7250e-001  2.3314e+000 -2.7920e-001 35818 96965,97043,97017
 1.0000e+000 97092  8.8059e-001  8.4144e-002 -4.9169e-001 35818 96887,96939,96913
 1.0000e+000 97069  6.9737e-001  1.8500e+000 -4.3268e-001 35818 96965,97017,96991
 1.0000e+000 97210  3.4671e-001  1.1144e+000 -1.5952e-001 35818 97043,96965,97184
 1.0000e+000 97233  4.8505e-001  8.5157e-001 -2.5663e-002 35818 97043,97184,96887
 1.0000e+000 97739 -4.7403e+000 -3.2848e+000  1.6587e+000 35214 97416,97468,97442
 1.0000e+000 97716 -3.9102e+000 -4.3289e+000  4.3857e-001 35214 97416,97598,97468
 1.0000e+000 97693 -3.2750e+000 -5.2033e+000 -1.2697e-001 35214 97762,97520,97468
 1.0000e+000 97670 -3.7891e+000 -5.0945e+000  5.3698e-001 35214 97762,97468,97598
 1.0000e+000 97647 -1.9075e+000 -4.9581e+000  5.1264e-001 35214 97546,97598,97572
 1.0000e+000 97624 -3.1010e+000 -6.0731e+000  8.6069e-002 35214 97468,97520,97494
 1.0000e+000 97788 -2.9662e+000 -4.6315e+000 -4.0889e-001 35214 97546,97520,97762
 1.0000e+000 97811 -3.3343e+000 -4.4670e+000  2.3701e-001 35214 97546,97762,97598
 1.0000e+000 98189 -8.5270e+000 -9.4676e+000 -3.6684e-001 34760 98356,98212,97967
 1.0000e+000 98166 -8.5383e+000 -1.1813e+001 -3.8295e-001 34760 98284,98212,97941
 1.0000e+000 98143 -9.1013e+000 -1.1354e+001 -4.2147e-002 34760 98284,97941,97915
 1.0000e+000 98120 -8.3178e+000 -1.3664e+001  4.6806e-001 34760 98484,97993,97967
 1.0000e+000 98097 -6.7761e+000 -1.0098e+001 -5.7143e-001 34760 98556,98045,98019
 1.0000e+000 98238 -9.3061e+000 -1.2216e+001  4.4086e-001 34760 98484,97967,98212
 1.0000e+000 98261 -7.1840e+000 -1.0833e+001 -3.9965e-001 34760 98556,98019,98212
 1.0000e+000 98310 -8.1876e+000 -1.0961e+001 -5.0017e-001 34760 98071,98212,98284
 1.0000e+000 98333 -8.3858e+000 -9.8262e+000 -2.4236e-001 34760 98071,98284,97915
 1.0000e+000 98382 -9.0549e+000 -1.1693e+001 -1.1422e+000 34760 97941,98212,98356
 1.0000e+000 98510 -6.7909e+000 -1.2437e+001 -9.5780e-002 34760 98019,97993,98484
 1.0000e+000 98533 -8.3759e+000 -1.1485e+001  3.8640e-002 34760 98019,98484,98212
 1.0000e+000 98582 -7.2969e+000 -9.4950e+000 -2.2810e-001 34760 98071,98045,98556
 1.0000e+000 98605 -7.5576e+000 -1.0047e+001 -1.4872e-001 34760 98071,98556,98212
 1.0000e+000 99032 -1.4255e+000 -3.9575e-001  4.7372e-001 34156 98735,98891,98839
 1.0000e+000 99009 -2.1452e+000 -5.3789e-001  7.2300e-001 34156 98709,98891,98735
 1.0000e+000 98986 -1.4957e+000 -2.9254e-001  1.3837e-001 34156 98735,98813,98787
 1.0000e+000 98963 -2.0272e+000 -1.0151e+000  7.2805e-001 34156 98735,98839,98813
 1.0000e+000 98940 -3.1247e-001 -1.0879e+000  4.4482e-001 34156 98735,98787,98761
 1.0000e+000 98917 -1.0775e+000  4.3671e-001  4.1902e-001 34156 98839,98891,98865
 1.0000e+000 99231 -4.8141e+000 -3.9591e+000  1.6472e+000 33766 99055,99133,99107
 1.0000e+000 99208 -4.9437e+000 -9.9163e-001  1.3239e+000 33766 99055,99159,99133
 1.0000e+000 99185 -4.6554e+000 -2.5958e+000  1.4413e+000 33766 99055,99107,99081
 1.0000e+000 99818 -6.6411e+000 -7.4497e+000 -1.1088e+000 33248 99521,99651,99573
 1.0000e+000 99795 -7.0414e+000 -7.4141e+000 -7.7785e-001 33248 99521,99677,99651
 1.0000e+000 99772 -6.5350e+000 -7.8281e+000 -9.6109e-001 33248 99573,99651,99599
 1.0000e+000 99749 -7.6595e+000 -9.0030e+000 -9.9330e-001 33248 99495,99677,99521
 1.0000e+000 99726 -8.0306e+000 -5.7756e+000  6.7829e-001 33248 99599,99651,99625
 1.0000e+000 99703 -7.0693e+000 -8.1124e+000 -9.0671e-001 33248 99521,99573,99547
 1.0000e+000 100196 -6.0336e+000 -3.9894e+000  1.8455e+000 32794 100219,99948,99922
 1.0000e+000 100173 -6.2507e+000 -4.5722e+000  1.4030e+000 32794 100219,99922,100052
 1.0000e+000 100150 -5.1905e+000 -6.3772e+000  1.4337e+000 32794 99974,100052,100026
 1.0000e+000 100127 -7.3129e+000 -5.2290e+000  1.7070e+000 32794 99922,100078,100052
 1.0000e+000 100104 -5.0356e+000 -7.0879e+000  2.0533e+000 32794 99974,100026,100000
 1.0000e+000 100245 -5.5665e+000 -3.4184e+000  2.5094e+000 32794 99974,99948,100219
 1.0000e+000 100268 -6.1215e+000 -4.3982e+000  2.0216e+000 32794 99974,100219,100052
 1.0000e+000 100418  1.3123e+000  1.8879e+000 -5.3806e-001 32504 100571,100343,100317
 1.0000e+000 100395  1.1739e+000  1.8313e+000 -6.1330e-001 32504 100571,100317,100441
 1.0000e+000 100467  2.3344e+000  2.2121e+000 -9.9504e-001 32504 100291,100369,100441
 1.0000e+000 100597  1.3234e+000  1.7531e+000 -7.5712e-001 32504 100369,100343,100571
 1.0000e+000 100620  1.2529e+000  1.6824e+000 -8.2709e-001 32504 100369,100571,100441
 1.0000e+000 101020 -6.9784e+000 -9.9600e+000  3.2443e-001 32142 100772,100902,100876
 1.0000e+000 100997 -7.9778e+000 -1.0090e+001 -1.9755e-001 32142 100746,100902,100772
 1.0000e+000 100974 -8.5787e+000 -8.1391e-001  4.5888e+000 32142 101043,100824,100798
 1.0000e+000 100951 -1.1426e+001 -7.5439e+000  1.4588e+000 32142 101043,100798,100772
 1.0000e+000 100928 -6.8108e+000 -8.7960e+000  2.3486e+000 32142 101115,100876,100850
 1.0000e+000 101069 -1.1015e+001 -8.1413e+000  4.5358e+000 32142 100850,100824,101043
 1.0000e+000 101092 -7.7386e+000 -8.8744e+000  2.0596e+000 32142 101115,100850,101043
 1.0000e+000 101141 -7.8999e+000 -9.0874e+000  1.6973e+000 32142 100772,100876,101115
 1.0000e+000 101164 -8.5656e+000 -9.1281e+000  1.3476e+000 32142 100772,101115,101043
 1.0000e+000 101719  9.9578e-001  8.6317e-001  2.0485e-001 31538 101742,101477,101399
 1.0000e+000 101696  1.0426e+000  1.0161e+000  2.7886e-001 31538 101814,101742,101399
 1.0000e+000 101673  1.0590e+000  1.5223e+000  1.5478e-001 31538 101814,101399,101373
 1.0000e+000 101650  5.2602e-002  1.3387e+000  1.2335e+000 31538 101425,101477,101451
 1.0000e+000 101627  1.8155e-001  1.2740e-001  5.9259e-001 31538 101399,101477,101425
 1.0000e+000 101604  1.4707e+000  1.6998e-001  4.1809e-001 31538 101477,101529,101503
 1.0000e+000 101581  1.7574e+000  1.5893e+000 -4.1072e-001 31538 101347,101555,101373
 1.0000e+000 101768  1.1059e+000  1.1007e+000  1.7029e-001 31538 101529,101477,101742
 1.0000e+000 101791  9.0233e-001  9.5462e-001 -1.4005e-002 31538 101529,101742,101555
 1.0000e+000 101840  1.1500e+000  1.5684e+000 -7.0489e-003 31538 101555,101742,101814
 1.0000e+000 101863  1.0860e+000  1.9710e+000 -1.2630e-001 31538 101555,101814,101373
 1.0000e+000 102111  4.6734e-001  4.4833e-002  1.0264e-002 31112 101886,101990,101912
 1.0000e+000 102088  6.7658e-001  6.4738e-001  2.0440e-002 31112 101886,102016,101990
 1.0000e+000 102065  3.2047e-001 -3.7258e-001  5.1421e-001 31112 101912,101990,101964
 1.0000e+000 102042  7.4218e-001  3.2621e-001  3.2919e-001 31112 101912,101964,101938
 1.0000e+000 102408 -1.9719e+000 -9.6458e-001  4.5096e-001 30658 102431,102186,102160
 1.0000e+000 102385 -1.4816e+000 -4.4222e-001  6.2293e-002 30658 102431,102160,102264
 1.0000e+000 102362 -1.6502e+000 -1.1736e+000  1.0314e+000 30658 102186,102238,102212
 1.0000e+000 102339 -1.6785e+000 -1.1648e+000 -7.3981e-001 30658 102134,102264,102160
 1.0000e+000 102316  1.0310e-001 -3.0243e-001 -1.0178e+000 30658 102134,102290,102264
 1.0000e+000 102457 -1.2641e+000 -1.5485e+000  4.4486e-001 30658 102238,102186,102431
 1.0000e+000 102480 -8.1741e-001 -1.0937e+000  5.6406e-002 30658 102238,102431,102264
 1.0000e+000 102681 -5.8585e+000 -2.8787e+000  7.3017e-001 30004 102704,102557,102505
 1.0000e+000 102658 -6.0231e+000 -4.2528e-001 -3.7087e-001 30004 102704,102505,102609
 1.0000e+000 102635 -5.4623e+000 -3.0675e+000  5.5267e-003 30004 102505,102557,102531
 1.0000e+000 102730 -5.3967e+000 -5.3333e+000  1.2491e+000 30004 102583,102557,102704
 1.0000e+000 102753 -5.0897e+000 -3.2258e+000 -5.9444e-001 30004 102583,102704,102609
 1.0000e+000 103003 -2.2403e+000 -3.7238e-001  6.8193e-001 29564 103026,102804,102778
 1.0000e+000 102980 -2.5636e+000 -3.0611e-001  1.1411e+000 29564 103026,102778,102908
 1.0000e+000 102957 -3.8588e+000 -2.4826e+000  6.9460e-001 29564 102856,102908,102882
 1.0000e+000 102934 -2.7064e+000 -1.5232e+000  8.8594e-001 29564 102804,102856,102830
 1.0000e+000 103052 -2.9181e+000 -6.5261e-001  6.5106e-001 29564 102856,102804,103026
 1.0000e+000 103075 -2.9113e+000 -4.2410e-001  1.1296e+000 29564 102856,103026,102908
 1.0000e+000 103634 -9.5578e+000 -6.9091e+000  3.1378e+000 29160 103657,103418,103392
 1.0000e+000 103611 -9.7309e+000 -6.9260e+000  5.0673e-001 29160 103657,103392,103314
 1.0000e+000 103588 -7.8712e+000 -4.1081e+000 -3.6539e-001 29160 103314,103392,103366
 1.0000e+000 103565 -8.5516e+000 -5.8112e+000 -6.9509e-002 29160 103314,103366,103340
 1.0000e+000 103542 -5.9011e+000 -6.4867e+000  4.9021e-001 29160 103262,103444,103314
 1.0000e+000 103519 -8.3713e+000 -1.1645e+001 -4.5881e-001 29160 103262,103314,103288
 1.0000e+000 103496 -8.0561e+000 -7.4260e+000  8.0931e-001 29160 103262,103470,103444
 1.0000e+000 103683 -6.2151e+000 -5.3054e+000  3.6377e+000 29160 103444,103418,103657
 1.0000e+000 103706 -7.7524e+000 -6.1853e+000  7.6037e-001 29160 103444,103657,103314
 1.0000e+000 104035 -1.3648e+000  1.8289e-001  6.7901e-002 28770 103836,103914,103862
 1.0000e+000 104012 -3.8745e-001  6.9809e-001  2.6098e-001 28770 103810,103914,103836
 1.0000e+000 103989 -2.2174e+000  3.4353e-001 -5.7341e-002 28770 103810,103940,103914
 1.0000e+000 103966 -9.4592e-001 -1.0466e-001  2.7168e-001 28770 103862,103914,103888
 1.0000e+000 104185 -8.0102e+000 -6.8072e+000  3.5683e-001 28366 104208,104110,104084
 1.0000e+000 104162 -8.2957e+000 -7.7035e+000  3.8297e-001 28366 104280,104208,104084
 1.0000e+000 104234 -8.9175e+000 -8.6698e+000 -8.9762e-002 28366 104610,104208,104136
 1.0000e+000 104257 -6.9474e+000 -7.9362e+000 -2.4603e-001 28366 104538,104410,104208
 1.0000e+000 104306 -6.9179e+000 -7.6787e+000 -3.8625e-001 28366 104538,104208,104280
 1.0000e+000 104436 -8.0723e+000 -9.9643e+000  1.9470e-001 28366 104136,104208,104410
 1.0000e+000 104564 -6.9438e+000 -8.3282e+000 -2.2283e-001 28366 104058,104410,104538
 1.0000e+000 104587 -6.9765e+000 -8.1156e+000 -3.2959e-001 28366 104058,104538,104280
 1.0000e+000 104636 -7.7089e+000 -7.9979e+000  6.0533e-001 28366 104110,104208,104610
 1.0000e+000 105349  4.9310e-001  1.2003e-001  1.7460e-001 27976 105516,105372,105107
 1.0000e+000 105326  3.8420e-001  8.0662e-001  3.9424e-001 27976 105588,105372,105055
 1.0000e+000 105303  1.6401e+000  1.2801e+000  6.1845e-001 27976 105444,105159,105133
 1.0000e+000 105280  2.9037e-001  1.1507e-001  1.4904e-001 27976 105516,105107,105081
 1.0000e+000 105257  3.1890e-001  1.0845e+000  2.2724e-001 27976 105588,105055,105029
 1.0000e+000 105234  5.0341e-001  1.0736e+000  4.8273e-001 27976 105003,105185,105159
 1.0000e+000 105211  1.1436e+000  7.4506e-001  1.8749e-001 27976 104977,105185,105003
 1.0000e+000 105398  4.1583e-001  8.3438e-001  2.6339e-001 27976 105133,105107,105372
 1.0000e+000 105421  8.9061e-001  1.1436e+000  6.4837e-001 27976 105444,105133,105372
 1.0000e+000 105470  6.6228e-001  1.1267e+000  4.9166e-001 27976 105003,105159,105444
 1.0000e+000 105493  4.0221e-001  1.3283e+000  4.5160e-001 27976 105003,105444,105372
 1.0000e+000 105542  3.7206e-001  2.3081e-001 -3.9909e-002 27976 105055,105372,105516
 1.0000e+000 105565  2.3903e-002  1.5236e-001 -3.2832e-002 27976 105055,105516,105081
 1.0000e+000 105614  5.3447e-001  1.0769e+000  2.6216e-001 27976 105003,105372,105588
 1.0000e+000 105637  5.0721e-001  1.3464e+000  7.9121e-002 27976 105003,105588,105029
 1.0000e+000 106143 -4.8667e+000 -6.0768e+000  2.5881e-001 27664 106166,105846,105820
 1.0000e+000 106120 -5.6436e+000 -5.3673e+000  7.3465e-001 27664 106310,106166,105820
 1.0000e+000 106097 -7.1934e+000 -8.7073e+000  1.6920e+000 27664 106382,106238,105950
 1.0000e+000 106074 -7.1498e+000 -4.0230e+000 -4.0628e-001 27664 106310,105820,106002
 1.0000e+000 106051 -7.6732e+000 -8.7224e+000  1.8688e+000 27664 106382,105950,105924
 1.0000e+000 106028 -5.2243e+000 -6.8849e+000  2.0738e+000 27664 105846,105898,105872
 1.0000e+000 106192 -5.3051e+000 -5.4118e+000  1.6011e+000 27664 105898,105846,106166
 1.0000e+000 106215 -6.4907e+000 -8.0923e+000  1.4015e+000 27664 106238,105898,106166
 1.0000e+000 106264 -7.4947e+000 -8.2383e+000  9.2774e-001 27664 105976,105950,106238
 1.0000e+000 106287 -7.0745e+000 -6.6984e+000  1.0221e+000 27664 105976,106238,106166
 1.0000e+000 106336 -7.0565e+000 -7.3513e+000  5.6071e-002 27664 105976,106166,106310
 1.0000e+000 106359 -8.5883e+000 -5.9585e+000 -1.0853e+000 27664 105976,106310,106002
 1.0000e+000 106408 -6.8052e+000 -8.5545e+000  1.2164e+000 27664 105898,106238,106382
 1.0000e+000 106431 -7.2185e+000 -8.6544e+000  1.4413e+000 27664 105898,106382,105924
 1.0000e+000 106728 -4.1759e+000 -1.5076e+000 -8.0644e-001 27153 106751,106506,106454
 1.0000e+000 106705 -4.2972e+000 -1.6889e+000 -6.8979e-001 27153 106751,106454,106610
 1.0000e+000 106682 -3.8474e+000  1.4158e+000 -1.2967e+000 27153 106454,106506,106480
 1.0000e+000 106659 -3.1859e+000 -1.4161e+000  1.1784e-001 27153 106532,106610,106584
 1.0000e+000 106636 -5.8317e+000 -3.8181e+000 -8.8282e-001 27153 106532,106584,106558
 1.0000e+000 106777 -4.4188e+000 -1.0925e+000 -7.0946e-001 27153 106532,106506,106751
 1.0000e+000 106800 -4.6087e+000 -1.4864e+000 -5.4664e-001 27153 106532,106751,106610
 1.0000e+000 107180 -2.7920e+000 -3.5131e-001  1.5187e+000 26642 107203,106984,106958
 1.0000e+000 107157 -3.5981e+000 -1.2232e+000 -4.7672e-001 26642 107203,106958,106932
 1.0000e+000 107134 -3.9754e+000 -1.7173e+000 -4.3870e-001 26642 107275,107036,107010
 1.0000e+000 107111 -6.5162e+000 -3.1816e+000 -7.0671e-002 26642 106932,107062,107036
 1.0000e+000 107088 -5.0587e+000 -1.5807e+000  3.1419e+000 26642 106906,107062,106932
 1.0000e+000 107229 -4.2489e+000 -4.1077e+000  1.2572e+000 26642 107010,106984,107203
 1.0000e+000 107252 -3.7287e+000 -1.1522e+000 -4.9825e-001 26642 107275,107010,107203
 1.0000e+000 107301 -3.6968e+000 -1.7066e+000 -6.9347e-001 26642 106932,107036,107275
 1.0000e+000 107324 -3.7353e+000 -1.6504e+000 -6.7175e-001 26642 106932,107275,107203
 1.0000e+000 107675 -9.4152e-001  1.2397e+000  7.4588e-002 26045 107450,107554,107476
 1.0000e+000 107652 -2.5620e-001  2.1921e+000 -4.4468e-001 26045 107450,107580,107554
 1.0000e+000 107629 -2.6217e+000 -1.2944e-001  7.5825e-002 26045 107476,107528,107502
 1.0000e+000 107606 -9.3746e-001  8.7786e-001 -3.8227e-001 26045 107476,107554,107528
 1.0000e+000 107874 -4.2825e+000 -2.6688e+000  4.3298e-001 25641 107750,107802,107776
 1.0000e+000 107851 -4.1147e+000 -2.9729e+000  6.6014e-001 25641 107724,107802,107750
 1.0000e+000 107828 -3.1788e+000 -1.3698e+000  2.2705e+000 25641 107698,107802,107724
 1.0000e+000 108431 -2.2013e+000 -4.3064e-001  1.0224e-001 25023 108526,108267,108241
 1.0000e+000 108408 -2.0243e+000 -8.1074e-002  7.2048e-001 25023 108059,108267,108085
 1.0000e+000 108385 -1.6623e+000 -1.2149e+000 -2.9163e-002 25023 108454,108163,108111
 1.0000e+000 108362 -1.5506e+000 -8.4189e-001  3.4360e-001 25023 108454,108111,108085
 1.0000e+000 108339 -2.6667e+000 -9.7422e-001 -1.2055e-001 25023 108111,108163,108137
 1.0000e+000 108316 -1.0225e+000 -1.4036e+000  1.1122e-002 25023 108163,108241,108215
 1.0000e+000 108293 -1.0356e+000 -1.6181e+000 -1.0507e+000 25023 108163,108215,108189
 1.0000e+000 108480 -1.3885e+000 -5.8711e-001 -6.6104e-002 25023 108241,108163,108454
 1.0000e+000 108503 -1.8567e+000 -8.0037e-001  2.2065e-001 25023 108526,108241,108454
 1.0000e+000 108552 -1.8541e+000 -5.1866e-002  2.5680e-001 25023 108085,108267,108526
 1.0000e+000 108575 -1.4813e+000 -3.8267e-001  3.8759e-001 25023 108085,108526,108454
 1.0000e+000 108823 -1.0471e+001 -1.5866e+001 -1.0938e+000 24461 108624,108728,108650
 1.0000e+000 108800 -1.4342e+001 -1.7156e+001 -2.0046e+000 24461 108598,108728,108624
 1.0000e+000 108777 -1.1134e+001 -1.7171e+001 -1.4376e+000 24461 108650,108728,108676
 1.0000e+000 108754 -1.2799e+001 -1.4639e+001 -3.8779e+000 24461 108676,108728,108702
 1.0000e+000 109022 -2.2086e+000 -1.2507e+000  2.6931e-001 24121 108872,108924,108898
 1.0000e+000 108999 -1.1355e+000  6.1764e-002  7.6572e-001 24121 108846,108924,108872
 1.0000e+000 108976 -3.1211e+000 -3.3050e-001 -3.2865e-001 24121 108846,108950,108924
 1.0000e+000 109483 -6.9726e+000 -4.2728e+000  8.7541e-001 23717 109209,109339,109235
 1.0000e+000 109460 -7.1414e+000 -4.0232e+000  1.0173e+000 23717 109209,109365,109339
 1.0000e+000 109437 -5.4731e+000 -6.4231e+000  1.0079e+000 23717 109287,109339,109313
 1.0000e+000 109414 -5.4354e+000 -5.1643e+000  2.1036e+000 23717 109235,109339,109287
 1.0000e+000 109391 -7.0060e+000 -7.4375e+000  1.3847e+000 23717 109235,109287,109261
 1.0000e+000 109910 -5.4693e+000 -3.4365e+000  4.7175e-001 23305 109613,109743,109717
 1.0000e+000 109887 -5.2762e+000 -3.3360e+000  3.7486e-001 23305 109613,109769,109743
 1.0000e+000 109864 -4.2462e+000 -4.3261e+000  2.4045e-001 23305 109613,109717,109639
 1.0000e+000 109841 -3.1920e+000 -3.5419e+000  1.6220e+000 23305 109587,109769,109613
 1.0000e+000 109818 -3.9317e+000 -4.1775e+000 -5.3276e-001 23305 109639,109717,109691
 1.0000e+000 109795 -5.6489e+000 -5.0044e+000 -2.8823e-001 23305 109639,109691,109665
 1.0000e+000 110180 -1.8491e-001  6.4232e-002 -2.1206e-003 22851 110007,110059,110033
 1.0000e+000 110157 -7.0756e-002  3.4170e-001 -1.2381e-002 22851 109981,110059,110007
 1.0000e+000 110134 -5.8964e-001  5.7236e-001  2.3283e-001 22851 109955,110059,109981
 1.0000e+000 110111  6.7485e-002  2.4203e+000 -4.5942e-002 22851 109955,110085,110059
 1.0000e+000 110737 -7.3572e+000 -7.1316e+000 -1.3122e-001 22333 110760,110469,110391
 1.0000e+000 110714 -8.9270e+000 -6.3491e+000 -4.0550e-001 22333 110760,110391,110365
 1.0000e+000 110691 -8.6720e+000 -9.4156e+000 -1.2479e+000 22333 110832,110521,110469
 1.0000e+000 110668 -7.8049e+000 -1.1399e+001 -3.5343e-001 22333 110417,110469,110443
 1.0000e+000 110645 -8.0406e+000 -9.3540e+000 -1.0587e+000 22333 110391,110469,110417
 1.0000e+000 110622 -1.4331e+001 -1.0409e+001 -4.8193e+000 22333 110469,110521,110495
 1.0000e+000 110599 -6.6984e+000 -3.1942e+000 -1.2332e+000 22333 110365,110573,110547
 1.0000e+000 110786 -8.8687e+000 -8.9245e+000 -7.7682e-001 22333 110832,110469,110760
 1.0000e+000 110809 -8.7448e+000 -6.3805e+000 -2.7435e-001 22333 110547,110760,110365
 1.0000e+000 110858 -9.9327e+000 -8.0047e+000 -9.9262e-001 22333 110547,110521,110832
 1.0000e+000 110881 -8.8421e+000 -6.4903e+000 -1.6198e-001 22333 110547,110832,110760
 1.0000e+000 111308 -1.1174e+001 -7.0328e+000  9.2286e-001 21829 111331,111063,111011
 1.0000e+000 111285 -1.2402e+001 -7.3092e+000  6.7317e-001 21829 111331,111011,111167
 1.0000e+000 111262 -9.5134e+000 -9.9707e+000  3.4206e-001 21829 111403,111089,111063
 1.0000e+000 111239 -1.0911e+001 -5.9051e+000  1.0117e+000 21829 111011,111063,111037
 1.0000e+000 111216 -1.3614e+001 -1.7006e+000 -2.7179e-001 21829 110985,111167,111011
 1.0000e+000 111193  8.3702e-001 -2.1339e-001 -1.5731e-001 21829 111089,111141,111115
 1.0000e+000 111357 -1.1912e+001 -7.7820e+000  4.2932e-001 21829 111403,111063,111331
 1.0000e+000 111380 -1.1580e+001 -8.2518e+000 -9.7130e-001 21829 111141,111331,111167
 1.0000e+000 111429 -1.6342e+000 -6.6420e+000 -1.7756e-001 21829 111141,111089,111403
 1.0000e+000 111452 -7.9625e+000 -6.5925e+000 -4.9103e-001 21829 111141,111403,111331
 1.0000e+000 112056 -4.2217e+000 -8.9411e+000 -1.0710e-001 21489 111687,111765,111739
 1.0000e+000 112033 -8.9307e+000 -1.0039e+001  8.6345e-002 21489 112151,112079,111687
 1.0000e+000 112010 -5.1311e+000 -1.1034e+001  1.6004e+000 21489 111791,111843,111817
 1.0000e+000 111987 -6.4406e+000 -8.8610e+000  2.9796e-001 21489 112079,111843,111791
 1.0000e+000 111964 -1.0073e+001 -1.0496e+001 -6.0825e-001 21489 112151,111687,111661
 1.0000e+000 111941 -1.0146e+001 -1.2462e+001 -6.1667e-001 21489 111661,111869,111843
 1.0000e+000 111918 -9.9740e+000 -1.1562e+001  5.9997e-001 21489 111687,111739,111713
 1.0000e+000 111895 -9.1955e+000 -1.0237e+001 -4.5526e-001 21489 111635,111869,111661
 1.0000e+000 112105 -6.7434e+000 -1.0029e+001  2.0773e-001 21489 111765,111687,112079
 1.0000e+000 112128 -5.0027e+000 -9.6802e+000 -8.4765e-001 21489 111765,112079,111791
 1.0000e+000 112177 -7.0453e+000 -1.0045e+001  9.2263e-001 21489 111843,112079,112151
 1.0000e+000 112200 -8.1065e+000 -1.0202e+001  3.4907e-001 21489 111843,112151,111661
 1.0000e+000 112578 -1.0966e+001 -9.9774e+000  5.8178e-001 21177 112382,112434,112408
 1.0000e+000 112555 -1.2267e+001 -1.2349e+001  7.7953e-002 21177 112330,112434,112382
 1.0000e+000 112532 -1.2322e+001 -1.2532e+001 -1.1844e-001 21177 112304,112434,112330
 1.0000e+000 112509 -1.2310e+001 -1.0042e+001  0.0000e+000 21177 112330,112382,112356
 1.0000e+000 112486 -1.1084e+001 -1.4643e+001  5.6116e-001 21177 112304,112460,112434
 1.0000e+000 112679 -1.4673e+001 -1.7186e+001 -9.9228e-001 20666 112601,112653,112627
 1.0000e+000 112927 -3.9385e+000 -2.8115e+000  2.1531e-001 19762 112702,112754,112728
 1.0000e+000 112904 -2.9689e+000 -1.9713e+000 -1.4542e-001 19762 112702,112832,112754
 1.0000e+000 112881 -2.7233e+000 -1.2319e+000 -8.3029e-002 19762 112754,112832,112806
 1.0000e+000 112858 -1.9576e+000 -2.3967e-001  4.9996e-001 19762 112754,112806,112780
 1.0000e+000 113297 -6.4058e-001  5.1442e-002  6.1154e-002 19308 112974,113052,113026
 1.0000e+000 113274 -1.9060e-001 -1.2831e-001 -2.9934e-002 19308 112974,113156,113052
 1.0000e+000 113251  8.8004e-002  1.5295e-001  1.2912e-001 19308 113052,113130,113104
 1.0000e+000 113228  7.5733e-002  2.3151e-001  1.6671e-001 19308 113052,113156,113130
 1.0000e+000 113205  1.6685e-001  1.4627e-002  0.0000e+000 19308 113052,113104,113078
 1.0000e+000 113182 -1.4313e+000  1.0946e-001 -5.8004e-001 19308 112974,113026,113000
 1.0000e+000 113547 -5.3023e+000 -2.5161e+000  7.5147e-001 18711 113570,113374,113348
 1.0000e+000 113524 -5.4198e+000 -2.9663e+000  5.8542e-001 18711 113570,113348,113452
 1.0000e+000 113501 -7.1182e+000 -8.2125e+000  1.6635e+000 18711 113322,113452,113348
 1.0000e+000 113478 -4.1431e+000 -1.0071e+000  2.5783e-001 18711 113374,113426,113400
 1.0000e+000 113596 -4.7882e+000 -3.0579e+000  7.8033e-001 18711 113426,113374,113570
 1.0000e+000 113619 -5.0923e+000 -3.5929e+000  4.9919e-001 18711 113426,113570,113452
 1.0000e+000 113771 -1.8691e+000  3.3211e-001  1.1574e+000 18307 113670,113722,113696
 1.0000e+000 113748 -5.3232e+000 -4.0853e-001  3.9496e-001 18307 113644,113722,113670
 1.0000e+000 113972 -3.1036e+000  3.8552e-002 -3.3034e-001 17945 113822,113874,113848
 1.0000e+000 113949 -6.1158e+000 -9.6944e-001 -5.4536e-001 17945 113822,113900,113874
 1.0000e+000 113926 -6.0536e+000 -3.1214e+000 -2.6802e+000 17945 113796,113900,113822
 1.0000e+000 114075  7.8175e-002  7.4643e-001 -8.3949e-002 17482 113997,114049,114023
 1.0000e+000 114479 -1.9162e+000 -3.1987e-001 -7.8595e-002 17042 114257,114361,114335
 1.0000e+000 114456 -2.4608e+000 -1.1768e+000  1.5869e-001 17042 114205,114361,114257
 1.0000e+000 114433 -3.5066e+000 -1.5785e-001 -3.0374e-001 17042 114205,114257,114231
 1.0000e+000 114410 -4.3005e-001  1.0728e+000  2.3974e-002 17042 114283,114335,114309
 1.0000e+000 114387 -1.1913e+000 -7.2106e-002  3.8760e-001 17042 114257,114335,114283
 1.0000e+000 114879 -1.1280e+001 -7.6086e+000 -7.3827e-002 16638 114631,114683,114657
 1.0000e+000 114856 -8.0715e+000 -6.6604e+000  2.3190e+000 16638 114605,114683,114631
 1.0000e+000 114833 -5.9412e+000 -5.1830e+000  6.3317e-001 16638 114605,114761,114683
 1.0000e+000 114810 -1.6479e+000 -2.7764e+000  1.4653e+000 16638 114683,114735,114709
 1.0000e+000 114787 -3.4284e+000 -2.0975e+000  2.2122e+000 16638 114683,114761,114735
 1.0000e+000 115078 -1.5393e+001 -7.5264e+000  5.2536e-001 16232 114954,115006,114980
 1.0000e+000 115055 -1.2469e+001 -5.4807e+000 -4.5302e-001 16232 114928,115006,114954
 1.0000e+000 115032 -2.0782e+001 -6.0387e+000 -3.1106e+000 16232 114902,115006,114928
 1.0000e+000 115228 -7.4057e+000 -3.8401e+000  2.7399e-001 15482 115101,115153,115127
 1.0000e+000 115205 -6.9088e+000 -3.6304e+000  2.2900e-001 15482 115101,115179,115153
 1.0000e+000 115331 -9.3397e+000 -1.0141e+001 -3.7968e-004 15163 115253,115305,115279
 1.0000e+000 115434 -9.3870e+000 -1.0734e+001  3.2555e+000 421 115356,115408,115382
 1.1000e+000 68213  2.3286e+001 -1.3277e+001 -2.9508e+000 67888 68112,68164,68138
 1.1000e+000 68190 -9.3417e+000 -2.4889e+001 -2.9728e+000 67888 68086,68164,68112
 1.1000e+000 68314  3.1660e+001 -1.7189e+001  6.1772e+000 67576 68236,68288,68262
 1.1000e+000 68584  2.2022e+001  7.8529e-001  4.7552e-001 67378 68385,68489,68463
 1.1000e+000 68561  1.9599e+001 -4.8906e-001  1.0844e+000 67378 68359,68489,68385
 1.1000e+000 68538  2.2492e+001  1.4399e+000  6.8037e-001 67378 68385,68463,68411
 1.1000e+000 68515  2.8078e+001  1.0055e+000 -2.0147e+000 67378 68411,68463,68437
 1.1000e+000 68964  1.4859e+001  7.5557e+000  1.4881e+000 67130 68690,68820,68716
 1.1000e+000 68941  1.6910e+001  3.4839e+000  1.6610e+000 67130 68690,68846,68820
 1.1000e+000 68918  1.8069e+001  9.1596e+000 -9.2235e-001 67130 68742,68820,68794
 1.1000e+000 68895  2.1597e+001  1.0618e+001 -1.2561e+000 67130 68716,68820,68742
 1.1000e+000 68872  2.4613e+001  1.1858e+001 -1.5456e+001 67130 68742,68794,68768
 1.1000e+000 69065  1.2770e+001 -1.3767e+001  3.9509e+000 66926 68987,69039,69013
 1.1000e+000 69445  1.3062e+001 -1.3133e+001  1.9178e+000 66614 69223,69301,69275
 1.1000e+000 69422  1.0790e+001 -1.2457e+001 -4.9321e-001 66614 69171,69301,69223
 1.1000e+000 69399  9.0895e+000 -1.4666e+001  2.5537e-001 66614 69171,69327,69301
 1.1000e+000 69376  1.5975e+001  2.4547e+000  4.6913e+000 66614 69223,69275,69249
 1.1000e+000 69353  1.1152e+001 -1.5502e+001 -8.6465e-001 66614 69171,69223,69197
 1.1000e+000 69546  2.0467e+001  5.6956e+000  2.4037e+000 66416 69468,69520,69494
 1.1000e+000 69997  1.4251e+001  1.4345e+000 -6.0605e-001 66104 69700,69830,69726
 1.1000e+000 69974  1.3458e+001  1.9826e+000 -4.6577e-001 66104 69700,69856,69830
 1.1000e+000 69951  1.2395e+001  5.0891e+000 -1.4403e+000 66104 69726,69804,69778
 1.1000e+000 69928  1.5440e+001  3.7281e+000 -1.0436e+000 66104 69726,69830,69804
 1.1000e+000 69905  1.2121e+001  7.5653e+000  4.3971e-001 66104 69726,69778,69752
 1.1000e+000 69882  2.1141e+001  3.4950e-001 -5.0044e+000 66104 69674,69856,69700
 1.1000e+000 70326  1.4488e+001  3.0788e+000 -5.9893e-001 65814 70349,70153,70127
 1.1000e+000 70303  1.5542e+001  2.3822e+000  2.9783e-001 65814 70349,70127,70101
 1.1000e+000 70280  1.2915e+001  5.4278e+000  6.4336e+000 65814 70101,70231,70205
 1.1000e+000 70257  1.1730e+001  1.7612e+000 -1.2590e+000 65814 70153,70205,70179
 1.1000e+000 70375  1.5080e+001  4.0104e+000 -2.7027e-001 65814 70205,70153,70349
 1.1000e+000 70398  1.6212e+001  3.2105e+000  6.2231e-001 65814 70205,70349,70101
 1.1000e+000 70904  1.6101e+001  9.1823e+000  9.0180e-001 65502 70607,70737,70685
 1.1000e+000 70881  1.7986e+001  1.2159e+001 -4.6600e-001 65502 70581,70737,70607
 1.1000e+000 70858  1.6848e+001  9.9198e+000 -7.0050e-002 65502 70581,70763,70737
 1.1000e+000 70835  2.1751e+001  1.1123e+001 -8.7516e-001 65502 70685,70737,70711
 1.1000e+000 70812  1.1326e+001  5.9745e+000 -8.5381e-001 65502 70607,70659,70633
 1.1000e+000 70789  1.4687e+001  5.3306e+000 -9.3426e-001 65502 70607,70685,70659
 1.1000e+000 71103  2.6591e+001 -6.6782e+000 -1.6778e+000 65304 71126,70979,70953
 1.1000e+000 71080  2.2914e+001 -7.1072e+000 -9.7302e-001 65304 71126,70953,70927
 1.1000e+000 71057  1.6749e+001 -9.8276e+000 -6.6223e-001 65304 70927,71031,71005
 1.1000e+000 71152  2.2778e+001 -3.8324e+000 -2.6865e+000 65304 71005,70979,71126
 1.1000e+000 71175  1.8309e+001 -5.2612e+000 -1.0891e+000 65304 71005,71126,70927
 1.1000e+000 71374  1.2661e+001 -4.0701e+000 -1.3164e+000 65106 71198,71276,71224
 1.1000e+000 71351  2.2848e+001 -9.5737e-001 -2.1556e-001 65106 71198,71302,71276
 1.1000e+000 71328  1.2940e+001 -2.5553e+000  1.7426e+000 65106 71224,71276,71250
 1.1000e+000 71756  1.3158e+001 -1.6443e+000 -1.4398e+000 64652 71508,71638,71534
 1.1000e+000 71733  3.0692e+001  5.7732e+000 -3.6121e+000 64652 71482,71638,71508
 1.1000e+000 71710  1.0410e+001 -3.0032e+000  8.0082e-002 64652 71534,71586,71560
 1.1000e+000 71687  1.1436e+001 -1.1609e+000 -3.3367e-001 64652 71534,71612,71586
 1.1000e+000 71664  1.6759e+001  4.1642e-001 -7.5404e-002 64652 71534,71638,71612
 1.1000e+000 72085  1.6680e+001 -8.6440e-001 -2.0711e+000 64248 71886,71964,71912
 1.1000e+000 72062  1.8078e+001 -5.2981e-001 -1.9614e+000 64248 71860,71964,71886
 1.1000e+000 72039  2.0239e+001 -4.4177e+000 -1.8810e+000 64248 71912,71964,71938
 1.1000e+000 72016  1.3216e+001 -3.1484e+000 -1.4536e-001 64248 71860,71990,71964
 1.1000e+000 72235  1.9313e+001  6.5227e+000 -3.8411e-001 63858 72588,72258,72134
 1.1000e+000 72212  1.7272e+001  1.0114e+001  1.4442e+000 63858 72330,72258,72108
 1.1000e+000 72284  1.8159e+001  6.6490e+000 -5.7421e-001 63858 72160,72134,72258
 1.1000e+000 72307  1.2050e+001  6.4655e+000 -2.1330e+000 63858 72460,72258,72186
 1.1000e+000 72356  1.2916e+001  7.1501e+000 -1.7228e+000 63858 72186,72258,72330
 1.1000e+000 72486  1.9818e+001  8.7298e+000 -2.4344e+000 63858 72160,72258,72460
 1.1000e+000 72614  2.0229e+001  6.5031e+000  7.3076e-001 63858 72108,72258,72588
 1.1000e+000 73248  1.2363e+001 -2.3413e+000  3.8057e+000 63404 72902,72954,72928
 1.1000e+000 73225  8.4192e+000 -4.9537e-001  1.9813e+000 63404 73271,72954,72902
 1.1000e+000 73202  8.9509e+000  4.2619e+000  2.0618e+000 63404 73271,72902,73032
 1.1000e+000 73179  1.1117e+001  5.9669e+000  1.0407e+000 63404 72902,73058,73032
 1.1000e+000 73156  7.8600e+000  3.6556e-001 -9.4357e-001 63404 72980,73032,73006
 1.1000e+000 73133  1.8557e+001  5.2190e+000  8.6343e-001 63404 72876,73058,72902
 1.1000e+000 73110  1.3121e-001 -1.2467e+000  2.5933e+000 63404 72876,73084,73058
 1.1000e+000 73297  9.2682e+000 -1.4274e+000 -6.7845e-001 63404 72980,72954,73271
 1.1000e+000 73320  8.7329e+000  1.3398e+000 -2.6389e-001 63404 72980,73271,73032
 1.1000e+000 73470  2.0759e+001  5.8876e+000 -1.2523e+000 63014 73343,73395,73369
 1.1000e+000 73447  2.4404e+001  8.2720e+000  2.1208e-001 63014 73343,73421,73395
 1.1000e+000 73929  2.0569e+001 -1.1538e+001 -5.2136e+000 62702 73759,73811,73785
 1.1000e+000 73906  1.8088e+001 -1.1524e+001 -2.6125e+000 62702 73655,73811,73759
 1.1000e+000 73883  2.1264e+001 -1.1418e+001 -1.0561e+000 62702 73655,73759,73681
 1.1000e+000 73860  2.5475e+001 -3.3150e+000 -8.0471e+000 62702 73681,73759,73707
 1.1000e+000 73837  8.2887e+000 -1.1816e+001 -1.0046e+000 62702 73707,73759,73733
 1.1000e+000 74209  3.3939e+000 -1.1447e+001  5.5289e-001 62404 74059,74137,74085
 1.1000e+000 74186 -2.4217e+000 -2.0082e+001  4.5598e+000 62404 74033,74137,74059
 1.1000e+000 74163 -4.4720e+000 -1.5689e+001 -2.3319e+000 62404 74085,74137,74111
 1.1000e+000 74408  1.3179e+001 -4.8384e+000 -2.2471e+000 62000 74258,74336,74284
 1.1000e+000 74385  1.7585e+001 -3.3817e+000 -3.1545e+000 62000 74232,74336,74258
 1.1000e+000 74362  1.6174e+001 -2.9456e+000 -1.0786e+000 62000 74284,74336,74310
 1.1000e+000 74509  1.4636e+001 -2.8794e+001  5.8685e+000 61802 74431,74483,74457
 1.1000e+000 74759  1.8449e+001 -5.9257e+000  1.8643e+000 61554 74782,74586,74560
 1.1000e+000 74736  2.4253e+001 -5.7706e+000  6.8514e-001 61554 74782,74560,74664
 1.1000e+000 74713  1.7090e+001 -6.3415e+000  7.8278e+000 61554 74854,74612,74586
 1.1000e+000 74690  2.2346e+001 -1.0975e+001  5.4665e-001 61554 74534,74664,74560
 1.1000e+000 74808  1.5892e+001 -6.8588e+000  3.4386e+000 61554 74854,74586,74782
 1.1000e+000 74831  2.0561e+001 -1.2874e+001  2.3997e+000 61554 74638,74782,74664
 1.1000e+000 74880  2.2686e+001 -6.4796e+000  7.2195e+000 61554 74638,74612,74854
 1.1000e+000 74903  2.2989e+001 -5.0902e+000  3.5842e+000 61554 74638,74854,74782
 1.1000e+000 75285  1.9027e+001 -1.7588e+001 -7.3688e-002 61356 75063,75167,75115
 1.1000e+000 75262  1.6658e+001 -2.1844e+001 -1.7648e+000 61356 75037,75167,75063
 1.1000e+000 75239  2.1857e+001 -1.7916e+001 -3.3388e-001 61356 75115,75167,75141
 1.1000e+000 75216  1.7624e+001 -1.4373e+001  2.3907e+000 61356 75063,75115,75089
 1.1000e+000 75193  7.2947e+000 -8.2851e+000  5.6155e+000 61356 75011,75167,75037
 1.1000e+000 75631  1.1286e+001 -2.1793e+001  7.7442e-002 60952 75654,75412,75360
 1.1000e+000 75608  1.0946e+001 -2.3237e+001 -4.6210e-001 60952 75654,75360,75334
 1.1000e+000 75585  7.0141e+000 -3.1248e+001  2.1530e+000 60952 75726,75438,75412
 1.1000e+000 75562  1.6130e+001 -1.8871e+001 -4.9535e+000 60952 75308,75490,75334
 1.1000e+000 75539  1.0006e+001 -2.2136e+001 -4.0338e-001 60952 75360,75412,75386
 1.1000e+000 75516  2.9601e+000 -3.9517e+001  1.8059e+000 60952 75438,75490,75464
 1.1000e+000 75680  9.9276e+000 -2.4928e+001  6.8325e-001 60952 75726,75412,75654
 1.1000e+000 75703  1.1188e+001 -2.1617e+001 -8.4257e-001 60952 75490,75654,75334
 1.1000e+000 75752  1.0259e+001 -2.3853e+001 -6.2602e-002 60952 75490,75438,75726
 1.1000e+000 75775  1.0115e+001 -2.3204e+001 -1.3342e+000 60952 75490,75726,75654
 1.1000e+000 76155  1.7872e+001 -8.9638e-001  4.3287e+000 60754 75933,75985,75959
 1.1000e+000 76132  1.2756e+001 -2.5657e+000  1.2380e+000 60754 75933,76037,75985
 1.1000e+000 76109  1.9312e+001 -3.4876e+000 -1.6359e-001 60754 75985,76037,76011
 1.1000e+000 76086  1.0877e+001 -3.0244e+000  3.0451e-001 60754 75881,76037,75933
 1.1000e+000 76063  8.0658e-001  2.8126e+000  1.2470e+001 60754 75881,75933,75907
 1.1000e+000 76612  1.4170e+001  4.0922e+000 -1.3054e-001 60350 76635,76442,76390
 1.1000e+000 76589  1.4491e+001  4.1283e+000 -2.9739e-002 60350 76635,76390,76364
 1.1000e+000 76566  1.3332e+001  3.5179e+000 -3.7823e-001 60350 76364,76494,76468
 1.1000e+000 76543  1.4991e+001  4.8004e+000  1.0808e+000 60350 76390,76442,76416
 1.1000e+000 76520  1.2119e+001  7.8761e+000 -5.7517e-001 60350 76338,76494,76364
 1.1000e+000 76661  1.3952e+001  4.1614e+000 -1.6684e-001 60350 76468,76442,76635
 1.1000e+000 76684  1.4157e+001  4.0982e+000 -8.1647e-002 60350 76468,76635,76364
 1.1000e+000 76932  1.2679e+001 -1.6608e+001  4.2330e-001 59946 76955,76733,76707
 1.1000e+000 76909  1.3826e+001 -1.4488e+001 -1.9870e+000 59946 77027,76955,76707
 1.1000e+000 76886  1.1253e+001 -1.4957e+001 -1.0457e+000 59946 77027,76707,76837
 1.1000e+000 76863  1.6584e+001 -2.1494e+001 -4.1716e+000 59946 76733,76785,76759
 1.1000e+000 76981  1.2252e+001 -1.4844e+001 -2.4993e+000 59946 76785,76733,76955
 1.1000e+000 77004  1.3710e+001 -5.4816e+000 -4.7804e+000 59946 76785,76955,76811
 1.1000e+000 77053  1.0009e+001 -1.3692e+001 -6.5129e-001 59946 76811,76955,77027
 1.1000e+000 77076  7.6019e+000 -1.4857e+001  7.5867e-001 59946 76811,77027,76837
 1.1000e+000 77226  1.5857e+001  2.5192e+000  2.4330e-001 59542 77099,77151,77125
 1.1000e+000 77203  1.5469e+001  3.8068e+000  1.4957e+000 59542 77099,77177,77151
 1.1000e+000 77427  1.2638e+001  4.0910e-001 -5.3628e-001 59030 77450,77277,77251
 1.1000e+000 77404  1.3808e+001  3.0207e+000 -7.6620e-001 59030 77450,77251,77355
 1.1000e+000 77381  1.1994e+001 -3.7054e-001 -1.8009e+000 59030 77277,77329,77303
 1.1000e+000 77476  1.3578e+001 -2.1935e-001 -1.5199e+000 59030 77329,77277,77450
 1.1000e+000 77499  1.4198e+001  1.2393e+000 -1.6601e+000 59030 77329,77450,77355
 1.1000e+000 77749  1.3612e+001 -8.4845e-001 -2.7586e-002 58426 77772,77628,77602
 1.1000e+000 77726  1.9994e+001 -1.0734e+000  1.2357e+000 58426 77524,77654,77628
 1.1000e+000 77703  1.1593e+001 -7.5827e-002  6.4947e-001 58426 77772,77602,77550
 1.1000e+000 77680  1.2137e+001  1.5067e-001  6.9160e-001 58426 77550,77602,77576
 1.1000e+000 77798  1.1490e+001 -2.0289e+000 -5.5433e-001 58426 77524,77628,77772
 1.1000e+000 77821  1.0783e+001 -3.6364e-001  5.1597e-001 58426 77524,77772,77550
 1.1000e+000 78071  5.7926e+000 -2.1754e+001  1.8500e+000 57922 78094,77924,77898
 1.1000e+000 78048  9.1779e+000 -1.5909e+001  3.4689e+000 57922 78094,77898,77872
 1.1000e+000 78025  8.3355e+000 -1.0803e+001  5.4689e+000 57922 78166,77846,77950
 1.1000e+000 78002  7.6709e+000 -9.7136e+000  4.6653e+000 57922 77846,77976,77950
 1.1000e+000 78120  1.8878e+000 -1.4671e+001  3.3817e+000 57922 77950,77924,78094
 1.1000e+000 78143  6.3938e+000 -1.1912e+001  4.8287e+000 57922 78166,77950,78094
 1.1000e+000 78192  1.1034e+001 -1.2976e+001  2.8559e+000 57922 77872,77846,78166
 1.1000e+000 78215  7.7231e+000 -1.5179e+001  1.8577e+000 57922 77872,78166,78094
 1.1000e+000 78416  1.2397e+001 -5.3577e+000  5.1247e-001 57468 78439,78292,78240
 1.1000e+000 78393  1.3472e+001 -3.6566e+000  2.5156e-002 57468 78439,78240,78344
 1.1000e+000 78370  1.7120e+001 -1.1808e+001  4.9823e+000 57468 78240,78292,78266
 1.1000e+000 78465  1.3535e+001 -5.3803e+000 -5.8111e-001 57468 78318,78292,78439
 1.1000e+000 78488  1.4032e+001 -4.4899e+000 -7.7633e-001 57468 78318,78439,78344
 1.1000e+000 78689  1.3457e+001 -1.5728e+001 -1.9017e+000 57014 78712,78539,78513
 1.1000e+000 78666  1.1963e+001 -1.4878e+001 -8.3680e-001 57014 78712,78513,78617
 1.1000e+000 78643  1.3339e+001 -1.1762e+001  1.1692e+000 57014 78565,78617,78591
 1.1000e+000 78738  1.1593e+001 -1.5111e+001 -2.1078e+000 57014 78565,78539,78712
 1.1000e+000 78761  9.8455e+000 -1.4920e+001 -5.3554e-001 57014 78565,78712,78617
 1.1000e+000 79241  1.1985e+001 -4.1194e+000  2.3601e-001 56652 79264,78895,78869
 1.1000e+000 79218  1.1674e+001 -4.1036e+000  4.3324e-001 56652 79264,78869,79051
 1.1000e+000 79195  1.2804e+001 -3.5867e+000  2.8853e-001 56652 78869,79077,79051
 1.1000e+000 79172  1.4396e+001 -1.4220e+000 -2.4296e+000 56652 78895,78973,78947
 1.1000e+000 79149  1.1173e+001 -1.1035e+001  7.2427e-001 56652 78973,79051,78999
 1.1000e+000 79126  1.0424e+001 -8.3757e+000 -4.8728e-001 56652 78895,78947,78921
 1.1000e+000 79103  1.4164e+001 -3.0542e+000  1.6003e+000 56652 78999,79051,79025
 1.1000e+000 79290  1.1620e+001 -3.9900e+000  3.7895e-001 56652 78973,78895,79264
 1.1000e+000 79313  1.1211e+001 -4.0944e+000  6.0553e-001 56652 78973,79264,79051
 1.1000e+000 79512  1.1773e+001  1.0208e+000 -4.5860e-001 56062 79388,79440,79414
 1.1000e+000 79489  1.2757e+001  5.5520e+000  7.3354e-001 56062 79336,79440,79388
 1.1000e+000 79466  1.2809e+001  8.9196e-001 -5.0764e-002 56062 79336,79388,79362
 1.1000e+000 79941  7.2393e+000 -1.5193e+001  3.3538e-001 55658 79964,79670,79644
 1.1000e+000 79918  1.1227e+001 -1.6871e+001  1.5398e-001 55658 79964,79644,79800
 1.1000e+000 79895  8.6709e+000 -1.5549e+001  2.5362e+000 55658 80036,79696,79670
 1.1000e+000 79872  7.0256e+000 -8.4404e+000 -1.1606e+000 55658 80108,79722,79696
 1.1000e+000 79849  1.0361e+000 -1.3255e+001 -3.5942e-001 55658 79722,79774,79748
 1.1000e+000 79826  1.3321e+001 -1.6367e+001 -1.9081e+000 55658 79618,79800,79644
 1.1000e+000 79990  1.1707e+001 -1.4492e+001  1.3532e+000 55658 80036,79670,79964
 1.1000e+000 80013  2.1285e+001 -1.3735e+001  5.3524e+000 55658 79774,79964,79800
 1.1000e+000 80062  1.0175e+001 -1.2189e+001  2.1800e+000 55658 80108,79696,80036
 1.1000e+000 80085  7.2185e+000 -1.9601e+001  4.3768e+000 55658 79774,80036,79964
 1.1000e+000 80134  8.4700e-001 -1.2703e+001  7.6462e-001 55658 79774,79722,80108
 1.1000e+000 80157  2.6632e+000 -1.6942e+001  4.2277e+000 55658 79774,80108,80036
 1.1000e+000 80307 -2.4440e+000 -9.8200e+000  3.5185e+000 55254 80402,80330,80206
 1.1000e+000 80284 -4.7521e+000 -3.2880e+001  2.0608e+000 55254 80330,80180,80258
 1.1000e+000 80356 -8.2339e+000 -2.3189e+001  5.3908e+000 55254 80232,80206,80330
 1.1000e+000 80379  4.6258e+000 -1.7585e+001  6.3473e+000 55254 80232,80330,80258
 1.1000e+000 80428 -8.3698e+000 -2.5735e+001 -2.3849e+000 55254 80180,80330,80402
 1.1000e+000 80659  9.5494e+000 -1.2490e+000 -1.3089e+000 54850 80558,80610,80584
 1.1000e+000 80636  1.2340e+001  1.7663e+000  8.3603e-001 54850 80532,80610,80558
 1.1000e+000 80760  6.0034e+000 -2.5845e+001 -5.5618e-001 54652 80682,80734,80708
 1.1000e+000 81164  6.4519e+000 -2.3104e+001  3.2583e-001 54248 81187,80942,80890
 1.1000e+000 81141  6.2966e+000 -2.6214e+001  5.8336e-001 54248 81187,80890,81046
 1.1000e+000 81118  9.0651e-001 -2.3919e+001  4.3570e+000 54248 80942,81020,80994
 1.1000e+000 81095  3.9753e+000 -2.8135e+001 -5.0610e-001 54248 80890,80942,80916
 1.1000e+000 81072  7.3312e+000 -1.1780e+001 -6.4798e-001 54248 80942,80994,80968
 1.1000e+000 81213  5.4885e+000 -2.1102e+001  8.5802e-001 54248 81020,80942,81187
 1.1000e+000 81236  6.0245e+000 -2.3316e+001  1.0033e+000 54248 81020,81187,81046
 1.1000e+000 81663  9.6628e+000  2.0591e+000 -5.7832e-001 53594 81340,81444,81366
 1.1000e+000 81640  8.1296e+000 -9.1012e-002  9.8470e-002 53594 81340,81470,81444
 1.1000e+000 81617  1.1715e+001  3.0058e+000 -3.5409e+000 53594 81340,81522,81470
 1.1000e+000 81594  1.2541e+001  9.0575e-001 -1.9994e+000 53594 81392,81444,81418
 1.1000e+000 81571  1.2813e+001  3.6925e+000 -1.4796e+000 53594 81366,81444,81392
 1.1000e+000 81548  1.1069e+001 -3.3060e+000  2.3663e-001 53594 81470,81522,81496
 1.1000e+000 81943  1.0800e+001 -2.2381e+000  2.4027e+000 53104 81966,81845,81819
 1.1000e+000 81920  8.6303e+000 -4.6082e+000  1.4769e+000 53104 81966,81819,81767
 1.1000e+000 81897  7.9093e+000 -1.8023e+000 -4.4365e+000 53104 81767,81819,81793
 1.1000e+000 81992  1.2221e+001 -5.3985e+000  9.4377e-001 53104 81871,81845,81966
 1.1000e+000 82015  9.6391e+000 -8.5152e+000 -2.5760e-001 53104 81871,81966,81767
 1.1000e+000 82491  1.1596e+001  4.6028e-002 -1.9220e+000 52650 82145,82249,82171
 1.1000e+000 82468  9.4056e+000 -1.7447e+000 -7.5844e-001 52650 82145,82301,82249
 1.1000e+000 82445  8.4279e+000 -5.0108e+000 -8.4421e-001 52650 82249,82301,82275
 1.1000e+000 82422  5.7819e+000 -4.5022e+000 -1.9890e+000 52650 82119,82301,82145
 1.1000e+000 82399  6.7123e+000 -2.7656e-001 -1.0723e+000 52650 82171,82249,82223
 1.1000e+000 82376  1.1151e+001 -2.2570e+000 -1.2452e+000 52650 82119,82327,82301
 1.1000e+000 82353  9.5116e+000  4.7892e+000 -4.5415e+000 52650 82171,82223,82197
 1.1000e+000 82739  6.7018e+000 -4.4585e+000 -2.9845e-001 52246 82762,82540,82514
 1.1000e+000 82716  8.7721e+000 -4.9025e+000 -8.2328e-001 52246 82762,82514,82644
 1.1000e+000 82693  1.4238e+001 -4.6962e+000  9.6273e-002 52246 82540,82618,82592
 1.1000e+000 82670  3.0851e+001 -1.4387e+001  8.9636e+000 52246 82540,82592,82566
 1.1000e+000 82788  8.5404e+000 -5.3932e+000  6.7373e-001 52246 82618,82540,82762
 1.1000e+000 82811  1.1434e+001 -4.8336e+000  8.5441e-001 52246 82618,82762,82644
 1.1000e+000 83059  1.1683e+001 -4.9397e+000 -3.9218e-001 51578 82860,82964,82938
 1.1000e+000 83036  1.0580e+001 -7.0002e+000 -3.7330e+000 51578 82834,82964,82860
 1.1000e+000 83013  1.0422e+001 -5.2273e+000 -4.9740e-001 51578 82860,82938,82886
 1.1000e+000 82990  1.0453e+001 -8.0184e+000  1.6170e+000 51578 82886,82938,82912
 1.1000e+000 83309  3.9862e+000 -8.6540e+000 -8.4841e-001 51138 83332,83162,83136
 1.1000e+000 83286  6.3408e+000 -6.7444e+000  2.4016e-002 51138 83332,83136,83110
 1.1000e+000 83263  9.6401e+000 -4.8923e+000  3.5521e+000 51138 83404,83214,83188
 1.1000e+000 83240  1.1956e+001 -2.5460e+000 -2.1464e-001 51138 83084,83214,83110
 1.1000e+000 83358  1.9828e+000 -7.6063e+000  2.9626e+000 51138 83188,83162,83332
 1.1000e+000 83381  7.8745e+000 -5.0739e+000  3.3301e+000 51138 83404,83188,83332
 1.1000e+000 83430  8.6974e+000 -3.7675e+000  2.6117e-001 51138 83110,83214,83404
 1.1000e+000 83453  5.7246e+000 -4.4122e+000  3.7925e-001 51138 83110,83404,83332
 1.1000e+000 83835  1.1386e+001  3.2053e+000  5.5264e-002 50734 83613,83717,83691
 1.1000e+000 83812  9.8682e+000 -5.3017e-001 -9.3870e-001 50734 83561,83717,83613
 1.1000e+000 83789  1.2783e+001 -9.4538e-001 -1.6467e+000 50734 83561,83613,83587
 1.1000e+000 83766  9.4591e+000  1.4350e+000 -6.9298e-001 50734 83613,83691,83639
 1.1000e+000 83743  8.6159e+000 -4.2584e-001 -3.9154e-001 50734 83639,83691,83665
 1.1000e+000 84034  6.0175e+000 -9.6218e+000  2.8918e+000 50230 84057,83884,83858
 1.1000e+000 84011  7.3598e+000 -7.7129e+000  8.7625e-001 50230 84129,84057,83858
 1.1000e+000 83988  9.0710e+000 -6.6699e+000  2.6564e-001 50230 84129,83858,83962
 1.1000e+000 84083  1.0105e+001 -7.7798e+000  2.4953e+000 50230 83910,83884,84057
 1.1000e+000 84106  8.3783e+000 -1.0397e+001  1.4431e+000 50230 83910,84057,83936
 1.1000e+000 84155  9.8421e+000 -8.7187e+000  6.8522e-001 50230 83936,84057,84129
 1.1000e+000 84178  1.0711e+001 -8.2920e+000  1.4824e-001 50230 83936,84129,83962
 1.1000e+000 84558  9.1002e+000  9.9456e-001 -3.8042e-001 49768 84581,84388,84362
 1.1000e+000 84535  6.4271e+000  1.1105e+000  5.7383e-001 49768 84581,84362,84310
 1.1000e+000 84512  1.0959e+001  1.4660e+000 -5.7732e-001 49768 84653,84440,84414
 1.1000e+000 84489  6.7055e+000 -9.8502e-001  1.3207e+000 49768 84310,84362,84336
 1.1000e+000 84466  1.4175e+001  4.1481e+000 -1.7517e+000 49768 84284,84440,84310
 1.1000e+000 84607  1.0560e+001  1.7881e+000 -1.0578e+000 49768 84414,84388,84581
 1.1000e+000 84630  1.0028e+001  6.4224e-001 -1.8790e-001 49768 84653,84414,84581
 1.1000e+000 84679  9.6804e+000  2.6953e+000 -9.4629e-001 49768 84310,84440,84653
 1.1000e+000 84702  8.9313e+000  2.2251e+000 -7.4282e-001 49768 84310,84653,84581
 1.1000e+000 85159 -4.7190e+000 -2.2801e+001 -4.3172e+000 49192 84885,84937,84911
 1.1000e+000 85136 -3.7890e+000 -1.9972e+001 -4.2573e+000 49192 84885,85041,84937
 1.1000e+000 85113 -6.3616e+000 -2.3651e+001  2.8293e+000 49192 84963,85041,84989
 1.1000e+000 85090 -2.8500e+000 -1.8863e+001 -3.8309e+000 49192 84937,85041,84963
 1.1000e+000 85067 -5.4071e+000 -2.4654e+001  4.0117e+000 49192 84989,85041,85015
 1.1000e+000 85714  8.6466e+000  1.0136e+000 -8.3772e-001 48638 85368,85498,85394
 1.1000e+000 85691  6.3367e+000  1.0296e+000  1.9888e-001 48638 85368,85524,85498
 1.1000e+000 85668  3.5386e+000 -3.0727e+000  4.4892e+000 48638 85737,85420,85394
 1.1000e+000 85645  7.5572e+000 -1.2014e+000  1.5825e+000 48638 85737,85394,85498
 1.1000e+000 85622  9.7968e+000 -3.6895e+000  8.7407e-001 48638 85446,85498,85472
 1.1000e+000 85599  1.3800e+001  5.1187e+000 -2.5048e+000 48638 85342,85524,85368
 1.1000e+000 85576  1.3830e+001  3.0878e-001  8.3826e-001 48638 85342,85550,85524
 1.1000e+000 85763  8.9399e+000 -1.1000e+000  3.3846e+000 48638 85446,85420,85737
 1.1000e+000 85786  9.6180e+000 -1.7032e+000  7.0651e-001 48638 85446,85737,85498
 1.1000e+000 86371  9.1840e+000  2.2320e+000  2.6969e-001 48084 86100,86230,86178
 1.1000e+000 86348  8.5916e+000  3.8114e+000  3.4062e-001 48084 86048,86230,86100
 1.1000e+000 86325  1.4346e+001  4.6368e+000  1.1898e+000 48084 86100,86178,86126
 1.1000e+000 86302  8.1785e+000  2.8787e+000 -6.6764e-001 48084 86048,86100,86074
 1.1000e+000 86279  7.8878e+000 -1.6764e-001  7.7563e-001 48084 86178,86230,86204
 1.1000e+000 86256  1.1901e+001  4.1219e-001 -1.0367e-001 48084 86126,86178,86152
 1.1000e+000 86619  5.7070e+000 -8.3771e+000 -6.2727e-001 47630 86642,86446,86420
 1.1000e+000 86596  7.6580e+000 -8.2648e+000 -2.5641e+000 47630 86642,86420,86394
 1.1000e+000 86573  6.1378e+000 -1.3199e+001 -1.2529e-001 47630 86394,86524,86498
 1.1000e+000 86550  5.3028e+000 -1.0117e+001  1.1820e+000 47630 86446,86498,86472
 1.1000e+000 86668  4.9233e+000 -1.0433e+001  1.0415e+000 47630 86498,86446,86642
 1.1000e+000 86691  6.8461e+000 -9.7916e+000 -9.3433e-001 47630 86498,86642,86394
 1.1000e+000 87022  1.1776e+001 -2.3085e+000 -1.0788e+000 47226 87045,86875,86849
 1.1000e+000 86999  1.2184e+001  4.3286e-001 -1.0200e+000 47226 87045,86849,86797
 1.1000e+000 86976  1.3067e+001  1.1655e+000 -2.1963e+000 47226 86797,86849,86823
 1.1000e+000 86953  1.0486e+001 -1.9187e+000 -4.7868e+000 47226 86875,86927,86901
 1.1000e+000 87071  1.1864e+001  3.4835e-001 -1.2178e+000 47226 86927,86875,87045
 1.1000e+000 87094  1.1573e+001  2.1495e+000 -1.1407e+000 47226 86927,87045,86797
 1.1000e+000 87244  9.5919e+000 -9.0026e+000  3.0953e-001 46814 87267,87169,87143
 1.1000e+000 87221  9.9084e+000 -7.4512e+000  2.3488e-001 46814 87267,87143,87117
 1.1000e+000 87293  1.8087e+001 -1.2901e+000  2.1301e+000 46814 87339,87267,87195
 1.1000e+000 87316  2.0242e+000 -1.0749e+001  3.9644e+000 46814 87469,87267,87117
 1.1000e+000 87365  7.7726e+000 -6.4599e+000  9.6438e-002 46814 87169,87267,87339
 1.1000e+000 87495  1.6549e+001  6.2208e+000 -2.2695e+000 46814 87195,87267,87469
 1.1000e+000 88001  2.4314e+000 -2.0415e+001 -2.3699e+000 46310 88024,87834,87808
 1.1000e+000 87978  3.6698e+000 -2.0289e+001  1.4769e-002 46310 88024,87808,87756
 1.1000e+000 87955  9.1457e-001 -1.8371e+001  2.1939e-001 46310 88096,87730,87860
 1.1000e+000 87932  5.0656e+000 -2.0619e+001  4.0400e-001 46310 87756,87808,87782
 1.1000e+000 87909  8.1063e-001 -3.0358e+001  2.3524e+000 46310 87678,87860,87730
 1.1000e+000 87886  4.5643e+000 -2.9820e+001 -1.7711e+000 46310 87678,87730,87704
 1.1000e+000 88050  5.2661e+000 -1.3947e+001 -3.3349e+000 46310 87860,87834,88024
 1.1000e+000 88073  1.6533e+000 -1.9886e+001 -9.0595e-001 46310 88096,87860,88024
 1.1000e+000 88122  2.5305e+000 -1.7664e+001  4.1366e-001 46310 87756,87730,88096
 1.1000e+000 88145  4.5961e+000 -1.8267e+001 -2.0471e-001 46310 87756,88096,88024
 1.1000e+000 88572  3.8057e-001 -3.8287e+000 -1.4703e+000 45856 88249,88405,88275
 1.1000e+000 88549  4.4651e-002 -1.0198e+000 -2.5311e+000 45856 88249,88431,88405
 1.1000e+000 88526  2.8708e+000 -7.4817e+000 -2.9805e+000 45856 88327,88405,88353
 1.1000e+000 88503  3.3920e+000 -4.6166e+000 -2.5234e+000 45856 88275,88405,88327
 1.1000e+000 88480  2.7338e+000 -1.0164e+001 -5.6061e+000 45856 88353,88405,88379
 1.1000e+000 88457  3.0006e+000 -1.3878e+001 -2.8622e+000 45856 88275,88327,88301
 1.1000e+000 88950  8.1074e-001 -1.6765e+001  1.2445e+000 45658 88973,88754,88728
 1.1000e+000 88927  1.0503e+000 -1.5936e+001  1.4269e+000 45658 88973,88728,88676
 1.1000e+000 88904  6.0854e+000 -1.6155e+001  7.9246e+000 45658 88676,88832,88806
 1.1000e+000 88881 -2.0590e-001 -2.0883e+001 -1.3902e+000 45658 88676,88728,88702
 1.1000e+000 88858  4.1739e+000 -5.9500e+000  4.7515e-001 45658 88754,88806,88780
 1.1000e+000 88999  8.3002e-001 -1.5803e+001  1.2895e+000 45658 88806,88754,88973
 1.1000e+000 89022  7.7969e-001 -1.5350e+001  1.4377e+000 45658 88806,88973,88676
 1.1000e+000 89351  9.0189e+000 -1.1428e+000  1.6711e-001 45254 89152,89230,89204
 1.1000e+000 89328  7.8313e+000 -1.9250e+000 -8.0449e-001 45254 89152,89256,89230
 1.1000e+000 89305  9.9969e+000 -2.5114e-001  2.4059e-002 45254 89126,89256,89152
 1.1000e+000 89282  9.1296e+000 -4.7232e+000  1.3398e-001 45254 89152,89204,89178
 1.1000e+000 89523 -3.4249e+000 -2.6363e+001  2.7234e-001 45006 89422,89474,89448
 1.1000e+000 89500  6.2504e-001 -2.4633e+001  3.5148e+000 45006 89396,89474,89422
 1.1000e+000 89673  1.0016e+001  1.6646e-001  2.9290e-001 44495 89572,89624,89598
 1.1000e+000 89650  1.0512e+001 -2.3190e-001  1.7726e+000 44495 89546,89624,89572
 1.1000e+000 90104  7.1117e+000 -6.2335e+000  3.1605e-001 44005 90199,90127,89937
 1.1000e+000 90081  5.7416e+000 -7.9565e+000  5.8972e-001 44005 90271,90127,89859
 1.1000e+000 90058  8.6126e+000 -7.8078e+000 -2.5841e-002 44005 90199,89937,89885
 1.1000e+000 90035  6.2796e+000 -8.7831e+000  2.5697e-001 44005 90271,89859,89807
 1.1000e+000 90012  1.0056e+001 -1.3122e+001  2.1115e+000 44005 89885,89937,89911
 1.1000e+000 89989  8.0071e+000 -7.5176e+000 -3.9565e-001 44005 89807,89859,89833
 1.1000e+000 90153  7.0238e+000 -5.7925e+000  1.6558e+000 44005 89963,89937,90127
 1.1000e+000 90176  6.0933e+000 -7.8749e+000  1.4634e+000 44005 89963,90127,89781
 1.1000e+000 90225  5.8203e+000 -8.1750e+000  9.3582e-001 44005 89859,90127,90199
 1.1000e+000 90248  7.1322e+000 -1.0397e+001  5.7177e-001 44005 89859,90199,89885
 1.1000e+000 90297  6.4017e+000 -7.1077e+000  1.1101e+000 44005 89781,90127,90271
 1.1000e+000 90320  6.6794e+000 -8.0366e+000  6.8680e-001 44005 89781,90271,89807
 1.1000e+000 90470 -2.2405e+000 -2.4056e+001 -8.1871e-001 43601 90493,90369,90343
 1.1000e+000 90447 -7.5221e-001 -2.4909e+001 -1.8518e+000 43601 90493,90343,90421
 1.1000e+000 90519 -1.5262e-001 -2.3090e+001 -2.9993e-001 43601 90395,90369,90493
 1.1000e+000 90542  3.9223e-001 -2.4531e+001 -1.7745e+000 43601 90395,90493,90421
 1.1000e+000 90922  2.8135e-001 -2.0956e+001  1.4718e+000 43154 90945,90700,90674
 1.1000e+000 90899 -1.6409e+000 -2.1796e+001  1.3587e+000 43154 90945,90674,90648
 1.1000e+000 90876 -3.0665e+000 -1.8934e+001  8.0084e-001 43154 90648,90778,90752
 1.1000e+000 90853  1.6145e+000 -2.2174e+001  5.3459e-001 43154 90700,90752,90726
 1.1000e+000 90830  5.1965e+000 -1.9174e+001  3.5926e+000 43154 90648,90804,90778
 1.1000e+000 90971 -2.1086e-001 -2.0988e+001  3.4235e-001 43154 90752,90700,90945
 1.1000e+000 90994 -1.5938e+000 -2.1572e+001  2.7580e-001 43154 90752,90945,90648
 1.1000e+000 91451  3.9711e+000 -1.0720e+001 -1.3437e+000 42650 91203,91255,91229
 1.1000e+000 91428  8.8451e+000 -8.6282e+000 -1.2022e-001 42650 91203,91333,91255
 1.1000e+000 91405  3.1619e+000 -1.0671e+001 -1.4371e+000 42650 91177,91333,91203
 1.1000e+000 91382  6.1079e+000 -1.1954e+001  1.3059e+000 42650 91255,91333,91281
 1.1000e+000 91359  1.4406e+001 -9.8427e+000  1.8547e+000 42650 91281,91333,91307
 1.1000e+000 91721  8.6351e+000 -2.4885e+000  2.2867e-002 42288 91496,91600,91522
 1.1000e+000 91698  8.9394e+000 -2.1797e+000 -5.6525e-001 42288 91496,91626,91600
 1.1000e+000 91675  8.7051e+000 -3.4715e+000 -4.0486e-002 42288 91522,91574,91548
 1.1000e+000 91652  7.8788e+000 -2.8172e+000 -3.6654e-002 42288 91522,91600,91574
 1.1000e+000 92199  1.9960e+000 -4.2357e+000 -2.1113e-001 41898 92222,91983,91879
 1.1000e+000 92176  7.5109e-001 -8.1302e+000 -1.7833e+000 41898 92294,92222,91879
 1.1000e+000 92153 -1.6387e+000 -7.9360e+000 -3.4151e+000 41898 92294,91879,91853
 1.1000e+000 92130  2.0350e+000  1.8077e+000  9.7355e-001 41898 91879,91957,91931
 1.1000e+000 92107  1.8453e+000 -4.2988e+000 -2.2077e-001 41898 91879,91983,91957
 1.1000e+000 92084  1.0178e+000 -9.2004e-002  1.3881e+000 41898 91879,91931,91905
 1.1000e+000 92061  1.0704e+001 -9.8931e+000 -2.5944e+000 41898 91827,92035,91853
 1.1000e+000 92248  9.6902e-002 -9.1186e+000  1.2060e+000 41898 92009,91983,92222
 1.1000e+000 92271  4.0579e+000 -8.1742e+000 -9.9007e-001 41898 92009,92222,92035
 1.1000e+000 92320  4.5999e+000 -7.2582e+000 -1.4113e+000 41898 92035,92222,92294
 1.1000e+000 92343  2.9411e+000 -6.4338e+000 -2.8744e+000 41898 92035,92294,91853
 1.1000e+000 92770 -1.6166e+000 -1.8198e+001  8.4387e-001 41437 92865,92793,92525
 1.1000e+000 92747 -1.6340e+000 -1.7163e+001  5.0617e-001 41437 92793,92473,92629
 1.1000e+000 92724 -2.9510e+000 -1.7649e+001  1.5688e+000 41437 92865,92525,92499
 1.1000e+000 92701 -1.7622e+000 -1.6361e+001  1.1132e+000 41437 92525,92603,92577
 1.1000e+000 92678  1.7340e+000 -1.8718e+001 -2.1944e-001 41437 92447,92629,92473
 1.1000e+000 92655  1.2171e+000 -1.6761e+001  6.8253e-001 41437 92525,92577,92551
 1.1000e+000 92819 -1.4822e+000 -1.7884e+001  9.7658e-001 41437 92603,92525,92793
 1.1000e+000 92842 -9.4878e-001 -1.7725e+001  1.4854e+000 41437 92603,92793,92629
 1.1000e+000 92891 -4.0430e+000 -1.8106e+001  7.4162e-001 41437 92473,92793,92865
 1.1000e+000 92914 -5.7794e+000 -1.8015e+001  1.7116e+000 41437 92473,92865,92499
 1.1000e+000 93243  7.0985e+000 -6.2539e+000  2.2826e+000 41097 93044,93096,93070
 1.1000e+000 93220  6.3787e+000 -8.1234e+000  2.2516e+000 41097 93044,93122,93096
 1.1000e+000 93197  8.7163e+000 -7.0705e+000  1.7138e+000 41097 93044,93148,93122
 1.1000e+000 93174  8.5769e+000 -4.1975e+000  3.4520e+000 41097 93018,93148,93044
 1.1000e+000 93393  6.8892e+000 -7.2133e+000  3.6291e-002 40643 93416,93292,93344
 1.1000e+000 93370  4.3964e+000 -5.9027e+000 -2.7604e-001 40643 93266,93344,93292
 1.1000e+000 93442  4.2273e+000 -7.7546e+000  7.6554e-001 40643 93318,93292,93416
 1.1000e+000 93901  1.8048e-001 -1.4364e+001  1.4020e-001 40132 93924,93731,93705
 1.1000e+000 93878 -1.5694e+000 -1.4805e+001 -4.6011e-001 40132 93996,93924,93705
 1.1000e+000 93855 -1.0884e+000 -1.3512e+001 -1.9128e+000 40132 93996,93705,93653
 1.1000e+000 93832 -6.1164e+000 -1.8799e+001  2.1328e-001 40132 93653,93705,93679
 1.1000e+000 93809  5.1129e-003 -1.7673e+001  1.0062e+000 40132 93627,93783,93757
 1.1000e+000 93950  7.0692e-001 -1.4376e+001 -1.6058e-001 40132 93757,93731,93924
 1.1000e+000 93973  6.2916e-001 -1.4965e+001 -4.5283e-001 40132 93757,93924,93627
 1.1000e+000 94022  1.6037e+000 -1.3248e+001 -1.0397e+000 40132 93627,93924,93996
 1.1000e+000 94045  1.3490e-001 -1.3030e+001 -2.2226e+000 40132 93627,93996,93653
 1.1000e+000 94423  6.7114e+000 -5.5748e+000 -4.2706e-001 39514 94149,94227,94175
 1.1000e+000 94400  8.2227e+000 -1.7880e+000 -1.3538e-001 39514 94149,94305,94227
 1.1000e+000 94377  1.3355e+001 -6.4718e+000 -1.9854e+000 39514 94175,94227,94201
 1.1000e+000 94354  8.1047e+000 -2.5426e+000 -2.2669e-001 39514 94227,94305,94279
 1.1000e+000 94331  6.6107e+000 -3.0674e+000  4.1500e-001 39514 94227,94279,94253
 1.1000e+000 94573 -4.1042e+000 -1.7348e+001 -6.5027e-001 38822 94596,94498,94472
 1.1000e+000 94550 -3.0826e+000 -1.7665e+001  7.5256e-001 38822 94596,94472,94446
 1.1000e+000 94622 -5.2803e+000 -1.7858e+001 -5.2677e-001 38822 94524,94498,94596
 1.1000e+000 94645 -5.1342e+000 -1.8623e+001  1.0100e+000 38822 94524,94596,94446
 1.1000e+000 95025  3.0547e+000 -1.2539e+001 -7.8062e-001 38418 95048,94829,94777
 1.1000e+000 95002  2.7281e+000 -1.1502e+001  5.8289e-001 38418 95120,95048,94777
 1.1000e+000 94979  2.5481e+000 -1.2153e+001  4.5159e-001 38418 95120,94777,94751
 1.1000e+000 94956  3.4234e+000 -1.0705e+001  1.2150e+000 38418 95192,94881,94855
 1.1000e+000 94933  1.0120e+000 -1.8773e+001  8.6071e-001 38418 94777,94829,94803
 1.1000e+000 95074  4.1672e+000 -9.3442e+000 -1.1426e+000 38418 94855,94829,95048
 1.1000e+000 95097  3.7662e+000 -1.2389e+001  2.0636e-001 38418 95192,94855,95048
 1.1000e+000 95146  4.1220e+000 -1.2930e+001  2.3004e-001 38418 94907,95048,95120
 1.1000e+000 95169  3.0966e+000 -1.4339e+001 -2.4693e-001 38418 94907,95120,94751
 1.1000e+000 95218  4.3966e+000 -9.3788e+000  1.6514e+000 38418 94907,94881,95192
 1.1000e+000 95241  5.2565e+000 -1.0926e+001  8.1651e-001 38418 94907,95192,95048
 1.1000e+000 95511 -2.7040e+000 -2.0872e+001 -8.6706e-001 38049 95312,95390,95364
 1.1000e+000 95488 -5.0752e+000 -2.2093e+001 -1.5809e-001 38049 95312,95416,95390
 1.1000e+000 95465 -5.1693e+000 -2.0368e+001  4.7593e-001 38049 95312,95364,95338
 1.1000e+000 95442 -3.0623e+000 -2.3950e+001 -1.1483e-001 38049 95286,95416,95312
 1.1000e+000 95808  3.4148e+000 -1.1104e+001 -1.6024e-001 37437 95831,95586,95560
 1.1000e+000 95785  6.4598e+000 -8.9094e+000  7.9788e-001 37437 95831,95560,95534
 1.1000e+000 95762  3.8940e-001 -1.0290e+001  1.5394e+000 37437 95586,95664,95638
 1.1000e+000 95739  9.4892e+000 -4.9232e+000  2.6706e+000 37437 95534,95690,95664
 1.1000e+000 95716 -5.6541e-001 -1.2022e+001  1.1544e+000 37437 95586,95638,95612
 1.1000e+000 95857  1.1501e+000 -8.4118e+000  1.4852e+000 37437 95664,95586,95831
 1.1000e+000 95880  4.4578e+000 -6.0259e+000  2.5274e+000 37437 95664,95831,95534
 1.1000e+000 96390  6.6530e+000 -1.3544e+000 -1.6727e+000 36883 96413,96145,96093
 1.1000e+000 96367  5.9016e+000 -1.1716e+000  2.9952e-001 36883 96413,96093,96067
 1.1000e+000 96344  6.4839e+000 -1.0389e+000 -9.9058e-001 36883 96067,96249,96171
 1.1000e+000 96321  5.2137e+000 -7.8542e+000  3.5276e-001 36883 96093,96145,96119
 1.1000e+000 96298  4.8021e+000 -5.5742e+000  7.2695e-001 36883 96171,96249,96197
 1.1000e+000 96275  6.7347e+000 -3.9829e+000 -7.2636e-002 36883 96197,96249,96223
 1.1000e+000 96439  7.8495e+000  1.9013e+000 -2.9772e+000 36883 96171,96145,96413
 1.1000e+000 96462  6.3365e+000  1.4400e-001 -9.6229e-001 36883 96171,96413,96067
 1.1000e+000 96781  7.2485e+000 -2.2370e+000 -8.8828e-001 36215 96559,96663,96637
 1.1000e+000 96758  8.9655e+000 -1.1640e+000 -4.0875e-001 36215 96507,96663,96559
 1.1000e+000 96735  6.3251e+000 -5.3459e+000  3.9896e-001 36215 96585,96637,96611
 1.1000e+000 96712  5.2156e+000 -3.6756e+000 -2.1997e-001 36215 96559,96637,96585
 1.1000e+000 96689  6.3060e+000 -1.7792e+000 -1.7806e+000 36215 96507,96559,96533
 1.1000e+000 97161  6.8227e+000  8.8858e-001 -1.2710e+000 35818 97184,96965,96939
 1.1000e+000 97138  6.8369e+000 -1.0216e+000 -8.6562e-001 35818 97184,96939,96887
 1.1000e+000 97115  5.0222e+000  9.9119e-002  1.3236e+000 35818 96965,97043,97017
 1.1000e+000 97092  6.4311e+000 -7.3020e+000 -1.4693e+000 35818 96887,96939,96913
 1.1000e+000 97069  1.6423e+000 -9.9585e-001  5.7870e-001 35818 96965,97017,96991
 1.1000e+000 97210  6.6035e+000 -5.2818e-001 -4.7579e-001 35818 97043,96965,97184
 1.1000e+000 97233  6.8769e+000 -2.0562e+000 -5.5747e-002 35818 97043,97184,96887
 1.1000e+000 97739 -7.5686e+000 -1.9607e+001 -1.1769e+000 35214 97416,97468,97442
 1.1000e+000 97716 -5.6244e+000 -1.3089e+001 -8.9860e-001 35214 97416,97598,97468
 1.1000e+000 97693 -7.3418e-001 -1.2636e+001  2.5336e+000 35214 97762,97520,97468
 1.1000e+000 97670 -2.1108e+000 -1.3966e+001  9.2244e-001 35214 97762,97468,97598
 1.1000e+000 97647 -2.2397e+000 -1.5960e+001 -1.0163e-001 35214 97546,97598,97572
 1.1000e+000 97624  3.9433e+000 -1.4650e+001  2.4798e+000 35214 97468,97520,97494
 1.1000e+000 97788 -1.2971e+000 -1.4696e+001  1.2414e+000 35214 97546,97520,97762
 1.1000e+000 97811 -1.9097e+000 -1.5662e+001 -2.3331e-001 35214 97546,97762,97598
 1.1000e+000 98189 -1.9344e-001 -1.4748e+001  3.3507e+000 34760 98356,98212,97967
 1.1000e+000 98166 -5.5304e+000 -2.0688e+001  1.6980e+000 34760 98284,98212,97941
 1.1000e+000 98143 -7.3558e+000 -1.9917e+001  2.3688e+000 34760 98284,97941,97915
 1.1000e+000 98120 -2.0856e+000 -1.9194e+001  2.3178e-001 34760 98484,97993,97967
 1.1000e+000 98097 -7.6083e+000 -1.9530e+001  1.7172e+000 34760 98556,98045,98019
 1.1000e+000 98238 -2.8951e+000 -1.8031e+001  2.0501e-001 34760 98484,97967,98212
 1.1000e+000 98261 -5.4310e+000 -1.8981e+001  6.6593e-001 34760 98556,98019,98212
 1.1000e+000 98310 -3.4359e+000 -1.9602e+001  5.6206e-001 34760 98071,98212,98284
 1.1000e+000 98333 -5.1591e+000 -1.7839e+001  7.4966e-001 34760 98071,98284,97915
 1.1000e+000 98382 -7.5982e+000 -2.1080e+001  6.5313e-001 34760 97941,98212,98356
 1.1000e+000 98510 -8.7895e-001 -1.8122e+001 -2.3018e-001 34760 98019,97993,98484
 1.1000e+000 98533 -2.1514e+000 -1.7339e+001 -1.1723e-001 34760 98019,98484,98212
 1.1000e+000 98582 -4.6987e+000 -1.9621e+001  1.5031e+000 34760 98071,98045,98556
 1.1000e+000 98605 -3.6522e+000 -1.9935e+001  4.4886e-001 34760 98071,98556,98212
 1.1000e+000 99032 -8.9367e-001 -8.5237e+000  1.9606e+000 34156 98735,98891,98839
 1.1000e+000 99009 -1.1625e+000 -7.8557e+000  3.0938e+000 34156 98709,98891,98735
 1.1000e+000 98986  2.3804e+000 -9.6498e+000  1.9307e+000 34156 98735,98813,98787
 1.1000e+000 98963  1.8930e+000 -1.0409e+001  2.3705e+000 34156 98735,98839,98813
 1.1000e+000 98940  4.0343e+000 -1.3662e+001  2.0963e+000 34156 98735,98787,98761
 1.1000e+000 98917 -1.2842e+000 -9.5327e+000  2.5058e+000 34156 98839,98891,98865
 1.1000e+000 99231  1.4701e+000 -9.5462e+000  1.0297e+000 33766 99055,99133,99107
 1.1000e+000 99208  6.9264e-001 -9.7710e+000  1.2773e+000 33766 99055,99159,99133
 1.1000e+000 99185 -1.6992e+000 -1.6295e+001  4.6435e-002 33766 99055,99107,99081
 1.1000e+000 99818 -4.4474e+000 -1.5754e+001 -1.9158e-001 33248 99521,99651,99573
 1.1000e+000 99795 -3.1860e-001 -1.2900e+001  1.8958e+000 33248 99521,99677,99651
 1.1000e+000 99772 -5.8193e+000 -1.8873e+001 -6.0949e-001 33248 99573,99651,99599
 1.1000e+000 99749 -2.5284e+000 -2.0204e+001  1.2468e+000 33248 99495,99677,99521
 1.1000e+000 99726 -3.9188e+000 -1.7832e+001 -1.8854e+000 33248 99599,99651,99625
 1.1000e+000 99703 -6.2264e+000 -1.8483e+001  6.4485e-001 33248 99521,99573,99547
 1.1000e+000 100196 -2.1704e-002 -1.3385e+001 -2.3084e+000 32794 100219,99948,99922
 1.1000e+000 100173  4.2688e-001 -1.1698e+001  1.4120e+000 32794 100219,99922,100052
 1.1000e+000 100150 -4.3127e-001 -1.1020e+001  3.7510e-001 32794 99974,100052,100026
 1.1000e+000 100127  3.9237e+000 -1.1522e+001  1.0409e+000 32794 99922,100078,100052
 1.1000e+000 100104 -6.1439e-001 -1.4663e+001  3.3291e+000 32794 99974,100026,100000
 1.1000e+000 100245 -4.3411e+000 -1.6295e+001 -4.3745e+000 32794 99974,99948,100219
 1.1000e+000 100268 -1.7690e+000 -1.2975e+001 -3.8373e-001 32794 99974,100219,100052
 1.1000e+000 100418  4.8121e+000 -6.0515e+000  6.5847e-001 32504 100571,100343,100317
 1.1000e+000 100395  2.0364e+000 -7.3368e+000  3.1993e+000 32504 100571,100317,100441
 1.1000e+000 100467  8.1159e+000  1.3490e-002 -1.0411e+000 32504 100291,100369,100441
 1.1000e+000 100597  6.3993e+000 -3.7364e+000 -1.3431e+000 32504 100369,100343,100571
 1.1000e+000 100620  5.2766e+000 -2.7959e+000  8.9332e-001 32504 100369,100571,100441
 1.1000e+000 101020 -3.6677e+000 -1.7029e+001  1.5829e+000 32142 100772,100902,100876
 1.1000e+000 100997 -6.5521e+000 -2.3508e+001  4.7567e-001 32142 100746,100902,100772
 1.1000e+000 100974 -6.5300e+000 -1.7373e+001  1.1757e+000 32142 101043,100824,100798
 1.1000e+000 100951 -5.7207e+000 -1.9361e+001  2.0224e-001 32142 101043,100798,100772
 1.1000e+000 100928 -1.1654e+001 -2.1624e+001 -2.9304e+000 32142 101115,100876,100850
 1.1000e+000 101069 -5.5696e+000 -1.9321e+001 -5.0538e-001 32142 100850,100824,101043
 1.1000e+000 101092 -8.6791e+000 -2.1507e+001 -1.8288e+000 32142 101115,100850,101043
 1.1000e+000 101141 -8.0298e+000 -2.0635e+001 -7.7017e-001 32142 100772,100876,101115
 1.1000e+000 101164 -5.9306e+000 -2.0630e+001  5.3265e-001 32142 100772,101115,101043
 1.1000e+000 101719  1.4107e+000 -5.4565e+000  7.1624e-001 31538 101742,101477,101399
 1.1000e+000 101696 -2.3868e-001 -8.3326e+000 -6.4410e-001 31538 101814,101742,101399
 1.1000e+000 101673 -1.9032e+000 -7.1371e+000 -2.4463e+000 31538 101814,101399,101373
 1.1000e+000 101650  9.8783e-001 -2.7353e+000  1.8482e+000 31538 101425,101477,101451
 1.1000e+000 101627  1.7543e+000 -5.1398e+000  5.4797e-001 31538 101399,101477,101425
 1.1000e+000 101604  1.6412e+000 -1.1728e+001  2.7752e+000 31538 101477,101529,101503
 1.1000e+000 101581  8.5454e+000 -4.6286e+000 -2.2789e+000 31538 101347,101555,101373
 1.1000e+000 101768 -4.4127e-001 -8.5404e+000  1.4968e+000 31538 101529,101477,101742
 1.1000e+000 101791  2.6037e+000 -7.6536e+000  3.3425e-001 31538 101529,101742,101555
 1.1000e+000 101840  3.2905e+000 -7.3629e+000 -9.2972e-001 31538 101555,101742,101814
 1.1000e+000 101863  1.3021e+000 -6.3044e+000 -2.5553e+000 31538 101555,101814,101373
 1.1000e+000 102111  4.3245e+000 -8.6291e+000  1.7614e+000 31112 101886,101990,101912
 1.1000e+000 102088  7.1290e+000 -3.6566e+000  5.5223e-001 31112 101886,102016,101990
 1.1000e+000 102065  6.2855e+000 -7.1870e+000  7.8542e-001 31112 101912,101990,101964
 1.1000e+000 102042  4.3757e-001 -8.8619e+000  4.1856e+000 31112 101912,101964,101938
 1.1000e+000 102408  7.3760e-001 -9.4877e+000  1.5527e-001 30658 102431,102186,102160
 1.1000e+000 102385  2.1981e+000 -8.5446e+000 -3.2261e-001 30658 102431,102160,102264
 1.1000e+000 102362  1.8081e+000 -1.0218e+001  7.6522e-001 30658 102186,102238,102212
 1.1000e+000 102339  3.6918e+000 -7.5376e+000  2.4948e-001 30658 102134,102264,102160
 1.1000e+000 102316  2.4639e+000 -6.3098e+000 -3.0606e+000 30658 102134,102290,102264
 1.1000e+000 102457  2.5413e+000 -1.0389e+001  2.7155e-001 30658 102238,102186,102431
 1.1000e+000 102480  3.9526e+000 -9.5218e+000 -1.8388e-001 30658 102238,102431,102264
 1.1000e+000 102681  1.3498e+000 -1.1254e+001 -4.1010e-001 30004 102704,102557,102505
 1.1000e+000 102658  1.9448e+000 -1.2773e+001  2.7397e-001 30004 102704,102505,102609
 1.1000e+000 102635  1.4620e+000 -1.1891e+001 -9.6595e-001 30004 102505,102557,102531
 1.1000e+000 102730  1.4244e+000 -1.0075e+001 -4.8266e-001 30004 102583,102557,102704
 1.1000e+000 102753  2.2721e+000 -1.1021e+001  6.3307e-001 30004 102583,102704,102609
 1.1000e+000 103003  2.0504e+000 -9.5537e+000  4.8053e-001 29564 103026,102804,102778
 1.1000e+000 102980  2.1089e+000 -8.4230e+000  9.5972e-001 29564 103026,102778,102908
 1.1000e+000 102957  1.2689e+000 -8.2795e+000  7.3531e-002 29564 102856,102908,102882
 1.1000e+000 102934  2.4981e+000 -1.1295e+001 -6.3424e-002 29564 102804,102856,102830
 1.1000e+000 103052  1.6192e+000 -1.0243e+001 -2.8058e-001 29564 102856,102804,103026
 1.1000e+000 103075  1.9382e+000 -9.2293e+000  3.1275e-001 29564 102856,103026,102908
 1.1000e+000 103634 -3.3310e+000 -1.5347e+001  1.9397e-001 29160 103657,103418,103392
 1.1000e+000 103611 -2.7915e+000 -1.4151e+001  6.2080e-001 29160 103657,103392,103314
 1.1000e+000 103588 -2.7793e+000 -1.4778e+001  6.9304e-001 29160 103314,103392,103366
 1.1000e+000 103565 -2.1174e+000 -1.6354e+001  3.9917e-001 29160 103314,103366,103340
 1.1000e+000 103542 -2.0682e+000 -1.0011e+001  6.5583e-001 29160 103262,103444,103314
 1.1000e+000 103519 -5.7790e+000 -1.5052e+001 -4.2509e+000 29160 103262,103314,103288
 1.1000e+000 103496  2.4151e+000 -1.3616e+001  3.3361e+000 29160 103262,103470,103444
 1.1000e+000 103683 -4.3288e+000 -1.6754e+001 -1.7349e+000 29160 103444,103418,103657
 1.1000e+000 103706 -2.7690e+000 -1.3545e+001 -1.1546e+000 29160 103444,103657,103314
 1.1000e+000 104035  2.8171e+000 -6.9680e+000  7.2460e-001 28770 103836,103914,103862
 1.1000e+000 104012  2.9680e+000 -6.9495e+000  7.0977e-001 28770 103810,103914,103836
 1.1000e+000 103989  7.9161e+000 -4.7616e+000  2.0671e-001 28770 103810,103940,103914
 1.1000e+000 103966  4.5594e+000 -5.7156e+000  1.5134e+000 28770 103862,103914,103888
 1.1000e+000 104185 -3.4924e+000 -1.8125e+001  1.2551e+000 28366 104208,104110,104084
 1.1000e+000 104162 -3.0378e-001 -1.3213e+001  2.8574e+000 28366 104280,104208,104084
 1.1000e+000 104234 -1.2532e+000 -1.5333e+001  7.0703e-001 28366 104610,104208,104136
 1.1000e+000 104257 -4.8126e+000 -1.7138e+001  1.0468e+000 28366 104538,104410,104208
 1.1000e+000 104306 -6.2774e+000 -1.6883e+001  7.8854e-001 28366 104538,104208,104280
 1.1000e+000 104436 -3.0980e+000 -1.6184e+001 -4.1271e-002 28366 104136,104208,104410
 1.1000e+000 104564 -6.3293e+000 -1.7715e+001  2.9927e-001 28366 104058,104410,104538
 1.1000e+000 104587 -7.3264e+000 -1.7193e+001 -2.8874e-003 28366 104058,104538,104280
 1.1000e+000 104636 -3.2760e+000 -1.6182e+001  7.4022e-001 28366 104110,104208,104610
 1.1000e+000 105349  4.2429e+000 -6.7985e+000 -1.7944e-001 27976 105516,105372,105107
 1.1000e+000 105326  2.1381e+000 -7.5893e+000  2.0066e+000 27976 105588,105372,105055
 1.1000e+000 105303 -2.9560e+000 -7.6344e+000 -1.8871e+000 27976 105444,105159,105133
 1.1000e+000 105280  6.7582e+000 -7.6604e+000  7.4173e-001 27976 105516,105107,105081
 1.1000e+000 105257  2.3067e+000 -7.6417e+000  2.2011e+000 27976 105588,105055,105029
 1.1000e+000 105234  3.6340e+000 -3.2770e+000 -6.3919e-001 27976 105003,105185,105159
 1.1000e+000 105211  2.9641e+000 -3.3549e+000 -5.9762e-001 27976 104977,105185,105003
 1.1000e+000 105398  5.3668e+000 -7.3257e+000 -8.1346e-001 27976 105133,105107,105372
 1.1000e+000 105421  1.3175e+000 -9.0604e+000 -9.2551e-001 27976 105444,105133,105372
 1.1000e+000 105470  1.8055e+000 -4.1722e+000 -3.5678e-001 27976 105003,105159,105444
 1.1000e+000 105493  4.1013e+000 -6.7823e+000  2.6035e-001 27976 105003,105444,105372
 1.1000e+000 105542  5.9474e+000 -6.6058e+000  1.9770e+000 27976 105055,105372,105516
 1.1000e+000 105565  9.7743e+000 -6.9390e+000  2.6326e+000 27976 105055,105516,105081
 1.1000e+000 105614  1.8762e+000 -7.6438e+000  2.0196e+000 27976 105003,105372,105588
 1.1000e+000 105637  1.9788e+000 -7.7384e+000  2.2152e+000 27976 105003,105588,105029
 1.1000e+000 106143 -5.3830e+000 -1.8187e+001 -1.0870e-001 27664 106166,105846,105820
 1.1000e+000 106120 -5.8593e+000 -1.7081e+001  2.3258e-001 27664 106310,106166,105820
 1.1000e+000 106097 -5.3913e+000 -1.7062e+001 -9.6683e-001 27664 106382,106238,105950
 1.1000e+000 106074 -4.0831e+000 -1.7511e+001  7.9433e-001 27664 106310,105820,106002
 1.1000e+000 106051 -3.7248e+000 -1.6672e+001 -1.1945e+000 27664 106382,105950,105924
 1.1000e+000 106028 -7.2332e+000 -2.1143e+001 -5.3465e-001 27664 105846,105898,105872
 1.1000e+000 106192 -6.6375e+000 -1.9338e+001 -1.1669e+000 27664 105898,105846,106166
 1.1000e+000 106215 -5.5320e+000 -1.8097e+001  4.9276e-001 27664 106238,105898,106166
 1.1000e+000 106264 -9.7500e+000 -1.8401e+001 -1.3412e+000 27664 105976,105950,106238
 1.1000e+000 106287 -6.3759e+000 -1.8151e+001  5.9096e-001 27664 105976,106238,106166
 1.1000e+000 106336 -4.1173e+000 -1.6650e+001  1.5235e+000 27664 105976,106166,106310
 1.1000e+000 106359 -2.1623e+000 -1.7013e+001  2.0471e+000 27664 105976,106310,106002
 1.1000e+000 106408 -6.6116e+000 -1.6970e+001  8.4241e-001 27664 105898,106238,106382
 1.1000e+000 106431 -5.3663e+000 -1.6574e+001  4.5873e-001 27664 105898,106382,105924
 1.1000e+000 106728  9.8268e-001 -1.0171e+001  4.6101e-001 27153 106751,106506,106454
 1.1000e+000 106705  8.6767e-001 -1.0760e+001  1.3626e-001 27153 106751,106454,106610
 1.1000e+000 106682  2.0418e-001 -1.1047e+001  1.5421e-002 27153 106454,106506,106480
 1.1000e+000 106659  8.4507e-001 -1.0849e+001  5.0097e-001 27153 106532,106610,106584
 1.1000e+000 106636 -3.7629e-001 -8.3178e+000  1.1583e+000 27153 106532,106584,106558
 1.1000e+000 106777  1.2213e+000 -9.1173e+000  8.0055e-001 27153 106532,106506,106751
 1.1000e+000 106800  8.1125e-001 -1.0183e+001  4.6925e-001 27153 106532,106751,106610
 1.1000e+000 107180 -2.0890e+000 -1.4434e+001 -1.7319e+000 26642 107203,106984,106958
 1.1000e+000 107157 -1.4555e+000 -1.3731e+001 -9.7128e-002 26642 107203,106958,106932
 1.1000e+000 107134 -5.1904e+000 -1.3730e+001  9.9411e-001 26642 107275,107036,107010
 1.1000e+000 107111  5.5930e-001 -1.0861e+001 -1.3319e-001 26642 106932,107062,107036
 1.1000e+000 107088  2.3083e+000 -1.0050e+001  1.6374e-001 26642 106906,107062,106932
 1.1000e+000 107229  2.8137e-001 -9.7031e+000 -2.8142e+000 26642 107010,106984,107203
 1.1000e+000 107252 -3.9057e+000 -1.4356e+001 -4.5111e-001 26642 107275,107010,107203
 1.1000e+000 107301 -2.9883e+000 -1.2923e+001  7.4971e-001 26642 106932,107036,107275
 1.1000e+000 107324 -1.4490e+000 -1.3693e+001 -5.3919e-002 26642 106932,107275,107203
 1.1000e+000 107675  6.6823e+000 -4.8493e+000  1.2239e+000 26045 107450,107554,107476
 1.1000e+000 107652  7.1323e+000 -4.5524e+000  1.0942e+000 26045 107450,107580,107554
 1.1000e+000 107629  1.4507e+001 -4.8777e+000  1.5663e+000 26045 107476,107528,107502
 1.1000e+000 107606  9.6168e+000 -3.6491e+000  1.3774e+000 26045 107476,107554,107528
 1.1000e+000 107874  8.7238e-001 -1.2063e+001  3.1176e-001 25641 107750,107802,107776
 1.1000e+000 107851  5.3518e-001 -1.0182e+001 -4.8153e-001 25641 107724,107802,107750
 1.1000e+000 107828  2.3311e+000 -9.0859e+000  7.5198e-002 25641 107698,107802,107724
 1.1000e+000 108431  4.6256e-001 -9.6136e+000  1.3934e+000 25023 108526,108267,108241
 1.1000e+000 108408  3.2751e+000 -9.3848e+000  6.0606e-001 25023 108059,108267,108085
 1.1000e+000 108385 -7.9663e-002 -1.0586e+001  6.0305e-002 25023 108454,108163,108111
 1.1000e+000 108362  3.3147e-001 -9.6565e+000  9.3768e-001 25023 108454,108111,108085
 1.1000e+000 108339  1.8394e+000 -1.0370e+001 -5.8533e-002 25023 108111,108163,108137
 1.1000e+000 108316 -3.1576e+000 -9.1826e+000 -1.4393e+000 25023 108163,108241,108215
 1.1000e+000 108293  2.9602e+000 -6.0375e+000  1.3340e+000 25023 108163,108215,108189
 1.1000e+000 108480  7.5837e-001 -8.6360e+000 -2.3446e-002 25023 108241,108163,108454
 1.1000e+000 108503  2.1257e-001 -8.9223e+000  1.1519e+000 25023 108526,108241,108454
 1.1000e+000 108552  3.3643e-001 -1.0548e+001  1.3592e+000 25023 108085,108267,108526
 1.1000e+000 108575  4.9019e-002 -9.9144e+000  1.1019e+000 25023 108085,108526,108454
 1.1000e+000 108823 -3.4298e+000 -1.1644e+001  1.1850e+000 24461 108624,108728,108650
 1.1000e+000 108800 -5.9254e+000 -2.1620e+001 -1.7019e+000 24461 108598,108728,108624
 1.1000e+000 108777 -7.3158e+000 -1.8696e+001 -7.5534e-001 24461 108650,108728,108676
 1.1000e+000 108754 -7.9204e+000 -2.1778e+001 -3.3765e-001 24461 108676,108728,108702
 1.1000e+000 109022  2.1015e+000 -9.9182e+000 -5.6698e-001 24121 108872,108924,108898
 1.1000e+000 108999  1.1922e+000 -9.5141e+000 -5.8402e-001 24121 108846,108924,108872
 1.1000e+000 108976  6.0906e-001 -1.0026e+001  1.0598e-001 24121 108846,108950,108924
 1.1000e+000 109483  1.8367e+000 -1.0337e+001 -1.7522e+000 23717 109209,109339,109235
 1.1000e+000 109460 -5.1922e-001 -1.4432e+001 -7.9434e-001 23717 109209,109365,109339
 1.1000e+000 109437  4.8701e-001 -1.2314e+001 -3.0771e-001 23717 109287,109339,109313
 1.1000e+000 109414 -3.5761e+000 -1.3598e+001 -3.3989e-001 23717 109235,109339,109287
 1.1000e+000 109391  1.5693e+000 -1.5343e+001  3.7253e+000 23717 109235,109287,109261
 1.1000e+000 109910  6.6688e-002 -1.0461e+001  2.7877e-002 23305 109613,109743,109717
 1.1000e+000 109887  1.5144e+000 -9.7658e+000 -3.8922e-001 23305 109613,109769,109743
 1.1000e+000 109864 -2.7399e+000 -1.0040e+001  7.6155e-001 23305 109613,109717,109639
 1.1000e+000 109841  1.0819e+000 -1.3187e+001 -2.9386e-001 23305 109587,109769,109613
 1.1000e+000 109818  3.5264e+000 -7.3183e+000 -1.0588e+000 23305 109639,109717,109691
 1.1000e+000 109795  1.6537e+000 -1.0042e+001  1.2914e+000 23305 109639,109691,109665
 1.1000e+000 110180  7.9556e+000 -2.3479e+000 -1.4422e-001 22851 110007,110059,110033
 1.1000e+000 110157  4.5711e+000 -9.8736e+000 -9.3413e-001 22851 109981,110059,110007
 1.1000e+000 110134  5.2275e+000 -8.9915e+000 -4.3230e-001 22851 109955,110059,109981
 1.1000e+000 110111  6.8758e+000 -7.1474e+000 -1.1554e+000 22851 109955,110085,110059
 1.1000e+000 110737 -4.6295e+000 -1.4848e+001  2.0766e-002 22333 110760,110469,110391
 1.1000e+000 110714 -3.6403e+000 -1.4415e+001 -1.7859e-001 22333 110760,110391,110365
 1.1000e+000 110691 -2.8176e+000 -1.5471e+001 -3.9982e-001 22333 110832,110521,110469
 1.1000e+000 110668 -5.6524e+000 -1.9638e+001 -5.3574e-002 22333 110417,110469,110443
 1.1000e+000 110645 -6.1776e+000 -1.8750e+001 -3.2899e-001 22333 110391,110469,110417
 1.1000e+000 110622 -4.1178e+000 -1.5652e+001 -1.3476e+000 22333 110469,110521,110495
 1.1000e+000 110599 -5.5358e+000 -1.3768e+001  1.4140e+000 22333 110365,110573,110547
 1.1000e+000 110786 -3.8714e+000 -1.5041e+001  2.4005e-001 22333 110832,110469,110760
 1.1000e+000 110809 -4.0161e+000 -1.4931e+001 -3.5362e-001 22333 110547,110760,110365
 1.1000e+000 110858 -1.0680e+000 -1.4681e+001 -1.0219e+000 22333 110547,110521,110832
 1.1000e+000 110881 -2.7384e+000 -1.4310e+001 -5.4800e-001 22333 110547,110832,110760
 1.1000e+000 111308 -3.5378e+000 -1.4610e+001 -4.2455e-001 21829 111331,111063,111011
 1.1000e+000 111285 -1.2674e+000 -1.3535e+001 -7.2621e-001 21829 111331,111011,111167
 1.1000e+000 111262 -3.2010e+000 -1.4326e+001  4.2293e-001 21829 111403,111089,111063
 1.1000e+000 111239 -5.6960e+000 -1.7808e+001  6.3051e-001 21829 111011,111063,111037
 1.1000e+000 111216  8.3925e-002 -1.3884e+001 -4.7745e-003 21829 110985,111167,111011
 1.1000e+000 111193 -7.8772e+000 -2.5712e+001  3.0392e+000 21829 111089,111141,111115
 1.1000e+000 111357 -2.7842e+000 -1.4765e+001  3.9419e-001 21829 111403,111063,111331
 1.1000e+000 111380 -2.3055e+000 -1.3520e+001  7.2981e-001 21829 111141,111331,111167
 1.1000e+000 111429 -5.7889e+000 -1.5019e+001  6.4661e-002 21829 111141,111089,111403
 1.1000e+000 111452 -3.8616e+000 -1.4256e+001  4.4491e-001 21829 111141,111403,111331
 1.1000e+000 112056  1.4307e+000 -1.5831e+001 -4.9026e-001 21489 111687,111765,111739
 1.1000e+000 112033 -6.0386e+000 -1.8351e+001 -7.8780e-002 21489 112151,112079,111687
 1.1000e+000 112010 -3.7054e+000 -2.0509e+001  7.5635e-001 21489 111791,111843,111817
 1.1000e+000 111987 -5.9780e+000 -1.8357e+001 -6.1076e-001 21489 112079,111843,111791
 1.1000e+000 111964 -5.9632e+000 -1.9067e+001  7.9949e-002 21489 112151,111687,111661
 1.1000e+000 111941 -9.5695e+000 -1.8142e+001  1.0211e+000 21489 111661,111869,111843
 1.1000e+000 111918 -3.2707e+000 -1.8227e+001  5.0760e-001 21489 111687,111739,111713
 1.1000e+000 111895 -1.0660e+001 -2.0779e+001 -2.0197e+000 21489 111635,111869,111661
 1.1000e+000 112105 -5.5595e+000 -1.8742e+001 -1.9564e-001 21489 111765,111687,112079
 1.1000e+000 112128 -4.0450e+000 -1.8287e+001 -1.0945e+000 21489 111765,112079,111791
 1.1000e+000 112177 -6.3639e+000 -1.8877e+001  4.1547e-001 21489 111843,112079,112151
 1.1000e+000 112200 -6.1541e+000 -1.9401e+001  5.7308e-001 21489 111843,112151,111661
 1.1000e+000 112578 -7.5824e+000 -2.1697e+001  6.3568e-001 21177 112382,112434,112408
 1.1000e+000 112555 -8.2982e+000 -2.2442e+001  2.0006e-001 21177 112330,112434,112382
 1.1000e+000 112532 -5.9455e+000 -2.0338e+001  1.7125e+000 21177 112304,112434,112330
 1.1000e+000 112509 -7.8211e+000 -2.2010e+001  0.0000e+000 21177 112330,112382,112356
 1.1000e+000 112486 -4.9693e+000 -2.3486e+001  2.7784e+000 21177 112304,112460,112434
 1.1000e+000 112679 -9.6230e+000 -3.2237e+001 -2.0516e+000 20666 112601,112653,112627
 1.1000e+000 112927  5.4950e-001 -1.0830e+001  4.6640e-001 19762 112702,112754,112728
 1.1000e+000 112904  1.2090e+000 -8.4716e+000 -1.5566e-001 19762 112702,112832,112754
 1.1000e+000 112881 -3.4817e-001 -1.1093e+001  6.7866e-001 19762 112754,112832,112806
 1.1000e+000 112858 -5.6368e-001 -1.3181e+001  1.5743e+000 19762 112754,112806,112780
 1.1000e+000 113297  2.4213e+000 -1.0228e+001  6.6854e-001 19308 112974,113052,113026
 1.1000e+000 113274  5.0335e+000 -9.7097e+000 -8.3416e-002 19308 112974,113156,113052
 1.1000e+000 113251  5.7338e+000 -1.2146e+001 -1.5080e+000 19308 113052,113130,113104
 1.1000e+000 113228  6.7580e+000 -6.9482e+000  9.3057e-001 19308 113052,113156,113130
 1.1000e+000 113205  5.2179e+000 -1.0416e+001  0.0000e+000 19308 113052,113104,113078
 1.1000e+000 113182  1.2850e+000 -9.2485e+000 -4.5406e-001 19308 112974,113026,113000
 1.1000e+000 113547 -1.6638e+000 -1.3423e+001 -1.0725e-001 18711 113570,113374,113348
 1.1000e+000 113524 -1.4653e+000 -1.2716e+001  1.5436e-001 18711 113570,113348,113452
 1.1000e+000 113501 -3.8209e-001 -6.6968e+000 -3.1155e+000 18711 113322,113452,113348
 1.1000e+000 113478 -3.8384e+000 -1.5123e+001 -8.8469e-001 18711 113374,113426,113400
 1.1000e+000 113596 -2.4962e+000 -1.2572e+001 -1.4789e-001 18711 113426,113374,113570
 1.1000e+000 113619 -1.9954e+000 -1.1726e+001  2.9520e-001 18711 113426,113570,113452
 1.1000e+000 113771  1.9723e-001 -1.1595e+001 -2.4075e-001 18307 113670,113722,113696
 1.1000e+000 113748  4.9200e-001 -1.3905e+001 -7.1936e-001 18307 113644,113722,113670
 1.1000e+000 113972  1.2789e+000 -1.0621e+001  4.5291e-002 17945 113822,113874,113848
 1.1000e+000 113949  1.1671e-001 -1.0732e+001  1.4954e-001 17945 113822,113900,113874
 1.1000e+000 113926 -2.2948e+000 -1.4375e+001  2.2346e+000 17945 113796,113900,113822
 1.1000e+000 114075  9.2350e+000 -1.3834e+001  2.3476e+000 17482 113997,114049,114023
 1.1000e+000 114479  3.9665e-001 -1.0000e+001 -2.9419e-002 17042 114257,114361,114335
 1.1000e+000 114456  2.3486e+000 -7.7139e+000 -1.0292e+000 17042 114205,114361,114257
 1.1000e+000 114433  7.2157e-001 -1.0393e+001  1.5488e-001 17042 114205,114257,114231
 1.1000e+000 114410  2.6627e+000 -1.2976e+001 -1.2033e+000 17042 114283,114335,114309
 1.1000e+000 114387 -7.1723e-001 -1.0568e+001 -7.1357e-001 17042 114257,114335,114283
 1.1000e+000 114879 -1.4563e+001 -1.9127e+001 -9.7275e-001 16638 114631,114683,114657
 1.1000e+000 114856 -6.3427e+000 -1.5951e+001  9.9789e-001 16638 114605,114683,114631
 1.1000e+000 114833 -4.2477e+000 -1.3259e+001 -2.2537e-001 16638 114605,114761,114683
 1.1000e+000 114810 -1.4921e+000 -1.4967e+001  2.9489e-001 16638 114683,114735,114709
 1.1000e+000 114787 -4.6534e+000 -1.5730e+001  2.7741e-001 16638 114683,114761,114735
 1.1000e+000 115078 -2.2312e+000 -1.2087e+001 -1.0842e-002 16232 114954,115006,114980
 1.1000e+000 115055 -3.7383e+000 -1.5232e+001  9.4994e-001 16232 114928,115006,114954
 1.1000e+000 115032 -7.0445e+000 -1.8733e+001 -4.1982e-001 16232 114902,115006,114928
 1.1000e+000 115228 -4.8206e+000 -1.5855e+001  1.9275e-001 15482 115101,115153,115127
 1.1000e+000 115205 -2.8036e+000 -1.5340e+001  3.3326e-001 15482 115101,115179,115153
 1.1000e+000 115331 -8.9924e+000 -2.1631e+001 -1.2495e+000 15163 115253,115305,115279
 1.1000e+000 115434 -1.0621e+001 -2.2303e+001  3.8066e+000 421 115356,115408,115382
 1.2000e+000 68213  3.6534e+001 -1.4164e+001 -4.3803e+000 67888 68112,68164,68138
 1.2000e+000 68190 -1.2021e+001 -3.1577e+001 -4.1675e+000 67888 68086,68164,68112
 1.2000e+000 68314  4.2159e+001 -2.6913e+001  8.7617e+000 67576 68236,68288,68262
 1.2000e+000 68584  9.7464e+000 -2.1695e+001  2.6099e+000 67378 68385,68489,68463
 1.2000e+000 68561  3.5037e+001 -1.2184e+001  4.3919e+000 67378 68359,68489,68385
 1.2000e+000 68538  1.0794e+001 -1.4203e+001  3.0373e+000 67378 68385,68463,68411
 1.2000e+000 68515  8.5754e+000 -9.1618e-001  4.5115e+000 67378 68411,68463,68437
 1.2000e+000 68964  1.4434e+001 -6.8347e+000  4.5207e+000 67130 68690,68820,68716
 1.2000e+000 68941  2.9699e+001 -6.9875e+000  9.0683e+000 67130 68690,68846,68820
 1.2000e+000 68918  1.1535e+001  1.9865e+000  2.1527e+000 67130 68742,68820,68794
 1.2000e+000 68895  1.7948e+001  3.1764e+000  2.8150e+000 67130 68716,68820,68742
 1.2000e+000 68872  1.3135e+001  5.5443e+000  1.7960e+000 67130 68742,68794,68768
 1.2000e+000 69065  2.1330e+001 -2.0597e+001  5.0865e+000 66926 68987,69039,69013
 1.2000e+000 69445  1.5663e+001 -2.4346e+001  2.7408e+000 66614 69223,69301,69275
 1.2000e+000 69422  1.2629e+001 -2.3219e+001 -8.2913e-001 66614 69171,69301,69223
 1.2000e+000 69399  8.7762e+000 -2.5954e+001  9.5920e-001 66614 69171,69327,69301
 1.2000e+000 69376  2.2117e+001  5.4936e+000  7.0977e+000 66614 69223,69275,69249
 1.2000e+000 69353  1.4622e+001 -2.4273e+001 -4.9011e-001 66614 69171,69223,69197
 1.2000e+000 69546  1.3715e+001 -4.2908e+000  2.4101e-001 66416 69468,69520,69494
 1.2000e+000 69997  1.9688e+001 -1.0220e+001 -2.4030e+000 66104 69700,69830,69726
 1.2000e+000 69974  1.8721e+001 -1.0837e+001 -2.6822e+000 66104 69700,69856,69830
 1.2000e+000 69951  1.9914e+001  2.0520e+000 -2.2875e+000 66104 69726,69804,69778
 1.2000e+000 69928  2.2266e+001 -4.5350e+000 -3.0142e+000 66104 69726,69830,69804
 1.2000e+000 69905  1.7134e+001  1.9318e+000 -1.8429e+000 66104 69726,69778,69752
 1.2000e+000 69882  4.3678e+001 -1.9954e+001 -1.7666e+001 66104 69674,69856,69700
 1.2000e+000 70326  2.7441e+001  4.7408e+000  4.3518e-001 65814 70349,70153,70127
 1.2000e+000 70303  2.6236e+001  5.8323e+000 -8.4937e-001 65814 70349,70127,70101
 1.2000e+000 70280  1.5410e+001  2.9347e+000  1.2047e+001 65814 70101,70231,70205
 1.2000e+000 70257  1.6878e+001 -2.8765e+000 -2.6093e+000 65814 70153,70205,70179
 1.2000e+000 70375  2.6645e+001  3.2657e+000  1.0641e-001 65814 70205,70153,70349
 1.2000e+000 70398  2.5427e+001  4.5568e+000 -1.1975e+000 65814 70205,70349,70101
 1.2000e+000 70904  1.7537e+001  1.2757e+001 -3.6459e-001 65502 70607,70737,70685
 1.2000e+000 70881  2.2191e+001  1.4559e+001 -1.0879e+000 65502 70581,70737,70607
 1.2000e+000 70858  2.8476e+001  1.9717e+001 -7.6434e+000 65502 70581,70763,70737
 1.2000e+000 70835  3.5660e+001  1.8389e+001 -8.4713e+000 65502 70685,70737,70711
 1.2000e+000 70812  1.3362e+001  1.1698e+001  8.2845e-001 65502 70607,70659,70633
 1.2000e+000 70789  1.6323e+001  1.0133e+001  3.8398e-001 65502 70607,70685,70659
 1.2000e+000 71103  3.3736e+001 -1.5960e+001 -2.0653e+000 65304 71126,70979,70953
 1.2000e+000 71080  2.9923e+001 -1.7331e+001 -1.1148e+000 65304 71126,70953,70927
 1.2000e+000 71057  2.3855e+001 -1.8948e+001  1.6090e+000 65304 70927,71031,71005
 1.2000e+000 71152  2.9345e+001 -1.1204e+001 -3.1021e+000 65304 71005,70979,71126
 1.2000e+000 71175  2.4087e+001 -1.4394e+001 -1.1010e+000 65304 71005,71126,70927
 1.2000e+000 71374  2.2027e+001 -1.0888e+001 -3.6988e-001 65106 71198,71276,71224
 1.2000e+000 71351  3.1640e+001 -9.4418e+000 -7.6622e-002 65106 71198,71302,71276
 1.2000e+000 71328  2.3914e+001 -6.0215e+000  7.4029e-001 65106 71224,71276,71250
 1.2000e+000 71756 -3.9326e-002 -1.1677e-001 -1.7982e+000 64652 71508,71638,71534
 1.2000e+000 71733  1.6861e-001 -4.0379e-003  6.7710e-001 64652 71482,71638,71508
 1.2000e+000 71710 -3.4980e+000 -2.1549e+001  3.6107e+000 64652 71534,71586,71560
 1.2000e+000 71687  4.6272e+000 -1.2536e+001 -1.6488e+000 64652 71534,71612,71586
 1.2000e+000 71664 -2.7552e+000 -1.3090e+001 -3.7267e+000 64652 71534,71638,71612
 1.2000e+000 72085  2.5484e+001 -8.9751e+000 -3.1789e+000 64248 71886,71964,71912
 1.2000e+000 72062  2.5594e+001 -7.4177e+000 -4.6170e+000 64248 71860,71964,71886
 1.2000e+000 72039  3.2537e+001 -1.8633e+001 -3.2595e+000 64248 71912,71964,71938
 1.2000e+000 72016  2.0601e+001 -4.4514e+000 -3.2202e+000 64248 71860,71990,71964
 1.2000e+000 72235  3.1117e+001  7.4701e+000  2.6619e-001 63858 72588,72258,72134
 1.2000e+000 72212  2.6346e+001  1.1909e+001  8.2309e-001 63858 72330,72258,72108
 1.2000e+000 72284  3.0035e+001  4.5925e+000 -5.4875e-001 63858 72160,72134,72258
 1.2000e+000 72307  1.5758e+001  5.9920e+000 -5.0488e+000 63858 72460,72258,72186
 1.2000e+000 72356  2.0512e+001  8.8973e+000 -3.6993e+000 63858 72186,72258,72330
 1.2000e+000 72486  3.4604e+001  1.0744e+001 -5.2728e+000 63858 72160,72258,72460
 1.2000e+000 72614  3.1596e+001  7.9955e+000 -6.3968e-001 63858 72108,72258,72588
 1.2000e+000 73248  1.1576e+001 -2.4464e+001  1.2450e+001 63404 72902,72954,72928
 1.2000e+000 73225  4.1228e-001 -1.5525e+001  7.2701e+000 63404 73271,72954,72902
 1.2000e+000 73202  4.6662e+000 -4.1791e+000  5.8152e+000 63404 73271,72902,73032
 1.2000e+000 73179  4.4247e+000 -5.3119e-001  1.8475e+000 63404 72902,73058,73032
 1.2000e+000 73156  3.5610e+000 -1.3047e+001 -3.4873e+000 63404 72980,73032,73006
 1.2000e+000 73133  3.4708e+000  4.3734e+000  3.8532e+000 63404 72876,73058,72902
 1.2000e+000 73110  2.5872e+000  8.7612e+000  9.8493e-001 63404 72876,73084,73058
 1.2000e+000 73297  5.5850e+000 -1.6832e+001  1.7133e-001 63404 72980,72954,73271
 1.2000e+000 73320  6.8465e+000 -1.0904e+001 -1.6682e-001 63404 72980,73271,73032
 1.2000e+000 73470  4.0424e+001 -2.0780e+001  1.5008e+001 63014 73343,73395,73369
 1.2000e+000 73447  2.5825e+000 -3.5805e+001  2.9839e-001 63014 73343,73421,73395
 1.2000e+000 73929  2.5191e+001 -2.1931e+001 -6.1525e+000 62702 73759,73811,73785
 1.2000e+000 73906  2.1741e+001 -2.1996e+001 -2.7330e+000 62702 73655,73811,73759
 1.2000e+000 73883  2.4480e+001 -2.0920e+001 -1.4292e+000 62702 73655,73759,73681
 1.2000e+000 73860  3.0466e+001 -9.3772e+000 -1.1235e+001 62702 73681,73759,73707
 1.2000e+000 73837  6.8516e+000 -2.1255e+001 -1.5545e+000 62702 73707,73759,73733
 1.2000e+000 74209 -5.2018e-001 -2.2160e+001  5.6516e-001 62404 74059,74137,74085
 1.2000e+000 74186 -7.5333e+000 -3.3602e+001  5.9010e+000 62404 74033,74137,74059
 1.2000e+000 74163 -8.9402e+000 -2.1920e+001 -2.1027e+000 62404 74085,74137,74111
 1.2000e+000 74408  1.5722e+001 -1.4107e+001 -3.0036e+000 62000 74258,74336,74284
 1.2000e+000 74385  2.3410e+001 -1.2173e+001 -6.1944e+000 62000 74232,74336,74258
 1.2000e+000 74362  1.9560e+001 -1.3381e+001 -1.6222e+000 62000 74284,74336,74310
 1.2000e+000 74509  1.9200e+001 -4.3229e+001  9.2086e+000 61802 74431,74483,74457
 1.2000e+000 74759  2.3776e+001 -1.2890e+001  2.0188e+000 61554 74782,74586,74560
 1.2000e+000 74736  3.3642e+001 -1.3063e+001 -3.3054e-001 61554 74782,74560,74664
 1.2000e+000 74713  2.0820e+001 -1.5342e+001  1.0928e+001 61554 74854,74612,74586
 1.2000e+000 74690  3.1975e+001 -1.6335e+001 -8.9808e-001 61554 74534,74664,74560
 1.2000e+000 74808  1.9546e+001 -1.4989e+001  4.5370e+000 61554 74854,74586,74782
 1.2000e+000 74831  2.6752e+001 -2.4222e+001  2.7700e+000 61554 74638,74782,74664
 1.2000e+000 74880  2.9030e+001 -1.4179e+001  9.6386e+000 61554 74638,74612,74854
 1.2000e+000 74903  2.9599e+001 -1.1844e+001  4.2476e+000 61554 74638,74854,74782
 1.2000e+000 75285  2.6587e+001 -2.6132e+001  1.9141e-001 61356 75063,75167,75115
 1.2000e+000 75262  2.3130e+001 -3.1683e+001 -3.0585e+000 61356 75037,75167,75063
 1.2000e+000 75239  3.1297e+001 -2.8851e+001  3.7014e-001 61356 75115,75167,75141
 1.2000e+000 75216  2.5272e+001 -2.1690e+001  3.4922e+000 61356 75063,75115,75089
 1.2000e+000 75193  1.2876e+001 -1.5845e+001  5.5210e+000 61356 75011,75167,75037
 1.2000e+000 75631  1.7253e+001 -3.1202e+001  6.9054e-001 60952 75654,75412,75360
 1.2000e+000 75608  1.7914e+001 -3.4937e+001 -6.1590e-001 60952 75654,75360,75334
 1.2000e+000 75585  7.9529e+000 -5.1365e+001  4.8711e+000 60952 75726,75438,75412
 1.2000e+000 75562  2.2870e+001 -2.8615e+001 -7.5095e+000 60952 75308,75490,75334
 1.2000e+000 75539  1.8340e+001 -2.9662e+001 -2.0122e+000 60952 75360,75412,75386
 1.2000e+000 75516  4.5920e+000 -5.6886e+001  2.2378e+000 60952 75438,75490,75464
 1.2000e+000 75680  1.4128e+001 -3.7852e+001  2.0795e+000 60952 75726,75412,75654
 1.2000e+000 75703  1.7073e+001 -3.2100e+001 -1.0363e+000 60952 75490,75654,75334
 1.2000e+000 75752  1.4108e+001 -3.5639e+001  2.8856e-001 60952 75490,75438,75726
 1.2000e+000 75775  1.3785e+001 -3.4407e+001 -2.2733e+000 60952 75490,75726,75654
 1.2000e+000 76155  2.2489e+001 -5.8729e+000  7.8932e+000 60754 75933,75985,75959
 1.2000e+000 76132  1.5577e+001 -7.8970e+000  2.3220e+000 60754 75933,76037,75985
 1.2000e+000 76109  2.5275e+001 -9.1153e+000  2.2303e-001 60754 75985,76037,76011
 1.2000e+000 76086  1.0495e+001 -7.7784e+000 -2.7198e-001 60754 75881,76037,75933
 1.2000e+000 76063 -2.7957e+000 -4.3009e-001  1.5678e+001 60754 75881,75933,75907
 1.2000e+000 76612  2.4833e+001 -4.1426e-001  3.4872e-001 60350 76635,76442,76390
 1.2000e+000 76589  2.5344e+001 -3.1018e+000  2.1866e-001 60350 76635,76390,76364
 1.2000e+000 76566  1.5119e+001 -1.1009e+001 -1.2411e+000 60350 76364,76494,76468
 1.2000e+000 76543  2.3911e+001 -4.2968e-001  1.5857e+000 60350 76390,76442,76416
 1.2000e+000 76520  1.8744e+001  1.0426e+000  7.4502e-001 60350 76338,76494,76364
 1.2000e+000 76661  2.4911e+001 -2.5136e+000  1.3233e+000 60350 76468,76442,76635
 1.2000e+000 76684  2.5512e+001 -4.7053e+000  1.5475e+000 60350 76468,76635,76364
 1.2000e+000 76932  1.5159e+001 -3.0046e+001  1.5766e+000 59946 76955,76733,76707
 1.2000e+000 76909  1.7706e+001 -2.5288e+001 -3.5268e+000 59946 77027,76955,76707
 1.2000e+000 76886  1.3202e+001 -2.5665e+001 -1.9082e+000 59946 77027,76707,76837
 1.2000e+000 76863  2.2270e+001 -3.6355e+001 -5.6277e+000 59946 76733,76785,76759
 1.2000e+000 76981  1.6715e+001 -2.6085e+001 -3.5140e+000 59946 76785,76733,76955
 1.2000e+000 77004  1.8054e+001 -1.1011e+001 -8.3893e+000 59946 76785,76955,76811
 1.2000e+000 77053  1.1219e+001 -2.4476e+001 -1.6635e+000 59946 76811,76955,77027
 1.2000e+000 77076  7.2443e+000 -2.5717e+001  7.5920e-001 59946 76811,77027,76837
 1.2000e+000 77226 -1.1197e+000 -7.6243e+000  7.6716e-002 59542 77099,77151,77125
 1.2000e+000 77203 -6.2472e+000 -1.3022e+001  4.4749e+000 59542 77099,77177,77151
 1.2000e+000 77427  1.8601e+001 -8.0555e+000 -7.5115e+000 59030 77450,77277,77251
 1.2000e+000 77404  1.7497e+001 -1.1044e+001 -7.7125e+000 59030 77450,77251,77355
 1.2000e+000 77381  1.2551e+001 -9.3542e+000 -6.0283e+000 59030 77277,77329,77303
 1.2000e+000 77476  1.7807e+001 -7.2912e+000 -6.4382e+000 59030 77329,77277,77450
 1.2000e+000 77499  1.7517e+001 -8.9253e+000 -6.6687e+000 59030 77329,77450,77355
 1.2000e+000 77749  1.7163e+001 -1.4755e+001 -3.9902e-001 58426 77772,77628,77602
 1.2000e+000 77726  3.3547e+001 -1.9004e+001  2.2588e+000 58426 77524,77654,77628
 1.2000e+000 77703  1.4719e+001 -1.0697e+001  2.3504e-001 58426 77772,77602,77550
 1.2000e+000 77680  1.4973e+001 -1.0558e+001  1.2682e-002 58426 77550,77602,77576
 1.2000e+000 77798  1.5087e+001 -2.0081e+001 -2.6120e+000 58426 77524,77628,77772
 1.2000e+000 77821  1.5227e+001 -1.3864e+001 -1.0562e+000 58426 77524,77772,77550
 1.2000e+000 78071  5.6604e+000 -3.9198e+001  2.3829e+000 57922 78094,77924,77898
 1.2000e+000 78048  1.1798e+001 -2.7241e+001  4.6178e+000 57922 78094,77898,77872
 1.2000e+000 78025  8.5262e+000 -2.0013e+001  7.1539e+000 57922 78166,77846,77950
 1.2000e+000 78002  7.6106e+000 -1.7071e+001  5.1074e+000 57922 77846,77976,77950
 1.2000e+000 78120  2.5211e+000 -2.6330e+001  3.5131e+000 57922 77950,77924,78094
 1.2000e+000 78143  7.1448e+000 -2.1460e+001  5.4125e+000 57922 78166,77950,78094
 1.2000e+000 78192  1.0944e+001 -2.3504e+001  4.4737e+000 57922 77872,77846,78166
 1.2000e+000 78215  7.6323e+000 -2.7068e+001  2.4419e+000 57922 77872,78166,78094
 1.2000e+000 78416  1.4659e+001 -1.8086e+001  2.1120e+000 57468 78439,78292,78240
 1.2000e+000 78393  1.9198e+001 -1.6201e+001  3.9308e-001 57468 78439,78240,78344
 1.2000e+000 78370  2.4581e+001 -1.9240e+001  9.3320e+000 57468 78240,78292,78266
 1.2000e+000 78465  1.9328e+001 -1.6705e+001  9.2823e-001 57468 78318,78292,78439
 1.2000e+000 78488  2.1288e+001 -1.6784e+001 -5.5865e-001 57468 78318,78439,78344
 1.2000e+000 78689  1.1495e+001 -2.8513e+001 -5.0854e-001 57014 78712,78539,78513
 1.2000e+000 78666  9.9271e+000 -2.9412e+001  3.7221e-001 57014 78712,78513,78617
 1.2000e+000 78643  1.2494e+001 -2.8106e+001  5.1893e+000 57014 78565,78617,78591
 1.2000e+000 78738  9.4079e+000 -2.4614e+001 -4.1267e-002 57014 78565,78539,78712
 1.2000e+000 78761  6.2888e+000 -2.8280e+001  1.7015e+000 57014 78565,78712,78617
 1.2000e+000 79241  1.7456e+001 -1.4402e+001  5.0345e-001 56652 79264,78895,78869
 1.2000e+000 79218  1.5713e+001 -1.3140e+001  1.7574e+000 56652 79264,78869,79051
 1.2000e+000 79195  1.3832e+001 -1.6481e+001  4.3593e+000 56652 78869,79077,79051
 1.2000e+000 79172  2.0359e+001 -9.8918e+000 -5.3469e+000 56652 78895,78973,78947
 1.2000e+000 79149  1.1148e+001 -2.9365e+001  9.3125e-001 56652 78973,79051,78999
 1.2000e+000 79126  1.8221e+001 -1.8433e+001 -3.7763e+000 56652 78895,78947,78921
 1.2000e+000 79103  1.8342e+001 -1.2113e+001  8.2591e-001 56652 78999,79051,79025
 1.2000e+000 79290  1.5812e+001 -1.4751e+001  5.2010e-001 56652 78973,78895,79264
 1.2000e+000 79313  1.3729e+001 -1.3749e+001  1.8236e+000 56652 78973,79264,79051
 1.2000e+000 79512  1.2751e+001 -1.3588e+001 -9.5070e-001 56062 79388,79440,79414
 1.2000e+000 79489  1.2260e+001  6.8277e+000  3.5350e+000 56062 79336,79440,79388
 1.2000e+000 79466  2.1371e+001 -1.3203e+001  2.2079e+000 56062 79336,79388,79362
 1.2000e+000 79941  1.4461e+001 -2.1991e+001  9.4573e-001 55658 79964,79670,79644
 1.2000e+000 79918  2.0136e+001 -2.5675e+001  1.0146e+000 55658 79964,79644,79800
 1.2000e+000 79895  1.6611e+001 -2.3838e+001  4.0424e+000 55658 80036,79696,79670
 1.2000e+000 79872  1.4011e+001 -1.6086e+001 -4.2844e-001 55658 80108,79722,79696
 1.2000e+000 79849  5.0514e+000 -2.1581e+001  1.2784e+000 55658 79722,79774,79748
 1.2000e+000 79826  2.2238e+001 -2.5014e+001 -1.9701e-001 55658 79618,79800,79644
 1.2000e+000 79990  2.0692e+001 -2.2494e+001  2.0627e+000 55658 80036,79670,79964
 1.2000e+000 80013  3.6577e+001 -1.8961e+001  9.4016e+000 55658 79774,79964,79800
 1.2000e+000 80062  1.8308e+001 -1.9933e+001  3.8470e+000 55658 80108,79696,80036
 1.2000e+000 80085  1.4778e+001 -2.7869e+001  6.5878e+000 55658 79774,80036,79964
 1.2000e+000 80134  5.3828e+000 -2.0390e+001  1.7335e+000 55658 79774,79722,80108
 1.2000e+000 80157  7.8011e+000 -2.5193e+001  6.0369e+000 55658 79774,80108,80036
 1.2000e+000 80307 -2.9144e+000 -1.9303e+001  4.4646e+000 55254 80402,80330,80206
 1.2000e+000 80284 -9.6874e+000 -5.4226e+001  1.4555e+000 55254 80330,80180,80258
 1.2000e+000 80356 -1.1137e+001 -3.8507e+001  4.2618e+000 55254 80232,80206,80330
 1.2000e+000 80379  3.6952e+000 -3.1817e+001  7.3786e+000 55254 80232,80330,80258
 1.2000e+000 80428 -1.9211e+001 -4.4128e+001 -5.2406e+000 55254 80180,80330,80402
 1.2000e+000 80659  1.3155e+001 -1.3677e+001 -8.3679e-001 54850 80558,80610,80584
 1.2000e+000 80636  1.7400e+001 -8.7706e+000  2.7594e+000 54850 80532,80610,80558
 1.2000e+000 80760  1.1707e+001 -3.5473e+001 -6.0200e-001 54652 80682,80734,80708
 1.2000e+000 81164  1.3458e+001 -3.0782e+001  4.3083e-002 54248 81187,80942,80890
 1.2000e+000 81141  1.3852e+001 -3.4584e+001  1.5326e-001 54248 81187,80890,81046
 1.2000e+000 81118  4.6555e+000 -3.3273e+001  6.5426e+000 54248 80942,81020,80994
 1.2000e+000 81095  1.0714e+001 -3.7098e+001 -3.4576e-001 54248 80890,80942,80916
 1.2000e+000 81072  1.3968e+001 -1.5173e+001 -9.1484e-001 54248 80942,80994,80968
 1.2000e+000 81213  1.3010e+001 -2.8295e+001  7.7645e-001 54248 81020,80942,81187
 1.2000e+000 81236  1.4188e+001 -3.1059e+001  8.1963e-001 54248 81020,81187,81046
 1.2000e+000 81663  1.1247e+001 -7.2398e+000 -1.1540e+000 53594 81340,81444,81366
 1.2000e+000 81640  7.5670e+000 -1.4594e+001  2.9372e-001 53594 81340,81470,81444
 1.2000e+000 81617  1.4322e+001 -7.4800e+000 -9.4070e+000 53594 81340,81522,81470
 1.2000e+000 81594  2.2605e+001 -1.0232e+001 -4.3083e+000 53594 81392,81444,81418
 1.2000e+000 81571  2.0906e+001 -2.4066e+000 -3.4291e+000 53594 81366,81444,81392
 1.2000e+000 81548  2.1736e+001 -2.0499e+001 -5.9601e-001 53594 81470,81522,81496
 1.2000e+000 81943  1.3673e+001 -5.3067e+000 -5.5127e-001 53104 81966,81845,81819
 1.2000e+000 81920  1.3215e+001 -1.1192e+001 -9.5501e-001 53104 81966,81819,81767
 1.2000e+000 81897  1.3201e+001 -4.7200e+000 -9.4611e+000 53104 81767,81819,81793
 1.2000e+000 81992  1.3914e+001 -1.0838e+001 -1.5799e+000 53104 81871,81845,81966
 1.2000e+000 82015  1.2077e+001 -1.8889e+001 -1.8309e+000 53104 81871,81966,81767
 1.2000e+000 82491  1.3011e+001 -9.1109e+000 -5.3447e+000 52650 82145,82249,82171
 1.2000e+000 82468  9.9225e+000 -1.1850e+001 -3.4595e+000 52650 82145,82301,82249
 1.2000e+000 82445  6.9585e+000 -1.6745e+001 -2.1445e+000 52650 82249,82301,82275
 1.2000e+000 82422 -5.7145e-001 -1.8649e+001 -6.7066e+000 52650 82119,82301,82145
 1.2000e+000 82399  3.4035e+000 -1.0215e+001 -4.0482e+000 52650 82171,82249,82223
 1.2000e+000 82376  1.0955e+001 -1.3797e+001 -5.5259e+000 52650 82119,82327,82301
 1.2000e+000 82353  1.3946e+001 -1.3736e-001 -9.7803e+000 52650 82171,82223,82197
 1.2000e+000 82739 -4.8564e+000 -1.5575e+001  1.6916e+000 52246 82762,82540,82514
 1.2000e+000 82716  1.0196e+000 -1.2837e+001 -2.9668e-001 52246 82762,82514,82644
 1.2000e+000 82693  7.4177e-001 -1.1115e+001  1.1148e+001 52246 82540,82618,82592
 1.2000e+000 82670 -4.0427e+000 -4.3677e+000  5.9484e+000 52246 82540,82592,82566
 1.2000e+000 82788  4.2765e-001 -2.0104e+001  4.5677e+000 52246 82618,82540,82762
 1.2000e+000 82811  6.7024e+000 -1.7536e+001  3.9100e+000 52246 82618,82762,82644
 1.2000e+000 83059  1.8157e+001 -1.8855e+001  1.3400e-002 51578 82860,82964,82938
 1.2000e+000 83036  2.0295e+001 -1.3713e+001 -9.2383e-001 51578 82834,82964,82860
 1.2000e+000 83013  1.5694e+001 -2.1738e+001 -1.2817e+000 51578 82860,82938,82886
 1.2000e+000 82990  1.8343e+001 -2.0676e+001  2.8084e+000 51578 82886,82938,82912
 1.2000e+000 83309  3.6119e+000 -1.1202e+001  3.5394e+000 51138 83332,83162,83136
 1.2000e+000 83286  1.4897e+000 -1.2800e+001  2.8230e+000 51138 83332,83136,83110
 1.2000e+000 83263  1.5804e+001 -9.9082e+000  9.4263e+000 51138 83404,83214,83188
 1.2000e+000 83240  1.9555e+001 -5.6790e+000 -1.9281e+000 51138 83084,83214,83110
 1.2000e+000 83358 -1.4193e+000 -1.4730e+001  9.3217e+000 51138 83188,83162,83332
 1.2000e+000 83381  1.1027e+001 -1.0237e+001  8.7038e+000 51138 83404,83188,83332
 1.2000e+000 83430  1.3181e+001 -7.4886e+000  9.4578e-001 51138 83110,83214,83404
 1.2000e+000 83453  5.3480e+000 -8.9049e+000  1.0979e+000 51138 83110,83404,83332
 1.2000e+000 83835  1.4732e+001 -3.8657e+000  1.6639e+000 50734 83613,83717,83691
 1.2000e+000 83812  1.1481e+001 -1.2201e+001 -2.2454e+000 50734 83561,83717,83613
 1.2000e+000 83789  1.4804e+001 -1.0128e+001 -3.4096e+000 50734 83561,83613,83587
 1.2000e+000 83766  1.1119e+001 -6.1455e+000  4.2684e-001 50734 83613,83691,83639
 1.2000e+000 83743  7.8802e+000 -1.3683e+001  5.8847e-001 50734 83639,83691,83665
 1.2000e+000 84034  2.2325e+001  2.0820e+000 -3.5549e-001 50230 84057,83884,83858
 1.2000e+000 84011  1.9152e+001 -5.6502e+000 -6.7947e-001 50230 84129,84057,83858
 1.2000e+000 83988  2.0587e+001 -8.5609e+000 -7.2588e-001 50230 84129,83858,83962
 1.2000e+000 84083  2.7609e+001  1.2591e+000  8.0289e+000 50230 83910,83884,84057
 1.2000e+000 84106  2.1248e+001 -1.0998e+001  5.5947e+000 50230 83910,84057,83936
 1.2000e+000 84155  2.0144e+001 -1.2695e+000  9.2272e-001 50230 83936,84057,84129
 1.2000e+000 84178  2.0415e+001 -4.9532e+000  1.0359e-001 50230 83936,84129,83962
 1.2000e+000 84558  1.1190e+001 -8.7813e+000 -1.3438e+000 49768 84581,84388,84362
 1.2000e+000 84535  5.5813e+000 -8.4378e+000  7.5557e-001 49768 84581,84362,84310
 1.2000e+000 84512  1.6041e+001 -7.7332e+000 -1.3382e+000 49768 84653,84440,84414
 1.2000e+000 84489  6.1649e+000 -1.5816e+001  3.0463e+000 49768 84310,84362,84336
 1.2000e+000 84466  2.5606e+001 -6.4931e-001 -3.4226e+000 49768 84284,84440,84310
 1.2000e+000 84607  1.3346e+001 -6.9076e+000 -2.3219e+000 49768 84414,84388,84581
 1.2000e+000 84630  1.3726e+001 -8.9545e+000 -4.0363e-001 49768 84653,84414,84581
 1.2000e+000 84679  1.2917e+001 -5.2766e+000 -2.2765e+000 49768 84310,84440,84653
 1.2000e+000 84702  1.0665e+001 -6.1510e+000 -1.9144e+000 49768 84310,84653,84581
 1.2000e+000 85159 -7.9340e+000 -3.3337e+001 -1.0611e+001 49192 84885,84937,84911
 1.2000e+000 85136 -5.4713e+000 -2.2510e+001 -9.2128e+000 49192 84885,85041,84937
 1.2000e+000 85113 -3.1163e+000 -2.0697e+001 -2.2560e+000 49192 84963,85041,84989
 1.2000e+000 85090 -3.3788e+000 -2.4321e+001 -7.9792e+000 49192 84937,85041,84963
 1.2000e+000 85067 -4.3376e+000 -2.7694e+001  3.7976e+000 49192 84989,85041,85015
 1.2000e+000 85714  1.8383e+001  1.3641e-001 -3.5488e+000 48638 85368,85498,85394
 1.2000e+000 85691  9.5126e+000 -4.7215e+000  3.9040e-001 48638 85368,85524,85498
 1.2000e+000 85668  8.4572e+000 -1.1770e+000  7.0816e+000 48638 85737,85420,85394
 1.2000e+000 85645  1.4330e+001 -4.9406e+000  1.2177e+000 48638 85737,85394,85498
 1.2000e+000 85622  1.5256e+001 -1.1883e+001  2.0685e+000 48638 85446,85498,85472
 1.2000e+000 85599  2.6225e+001  4.6096e+000 -6.1134e+000 48638 85342,85524,85368
 1.2000e+000 85576  2.3315e+001 -9.6022e+000  3.2727e+000 48638 85342,85550,85524
 1.2000e+000 85763  1.7987e+001  3.4930e+000  9.4855e+000 48638 85446,85420,85737
 1.2000e+000 85786  1.8110e+001 -1.5684e+000  3.0630e+000 48638 85446,85737,85498
 1.2000e+000 86371  9.7996e+000  2.2867e-001  4.8073e-001 48084 86100,86230,86178
 1.2000e+000 86348  7.4801e+000 -2.1857e+000 -4.6698e-001 48084 86048,86230,86100
 1.2000e+000 86325  6.2981e+000 -1.0992e+000  1.1137e+000 48084 86100,86178,86126
 1.2000e+000 86302  6.9261e+000 -3.3405e+000 -4.8166e+000 48084 86048,86100,86074
 1.2000e+000 86279  9.3029e-001 -1.4391e+001  4.1956e+000 48084 86178,86230,86204
 1.2000e+000 86256  4.7398e+000  7.1427e+000  2.2303e+000 48084 86126,86178,86152
 1.2000e+000 86619 -1.7065e+000 -1.6991e+001  4.6436e+000 47630 86642,86446,86420
 1.2000e+000 86596 -8.0899e+000 -2.1193e+001  3.5246e-001 47630 86642,86420,86394
 1.2000e+000 86573 -1.2109e+001 -1.4116e+001 -6.4923e+000 47630 86394,86524,86498
 1.2000e+000 86550  6.3125e+000 -2.1337e+001  1.3038e+000 47630 86446,86498,86472
 1.2000e+000 86668 -4.2642e+000 -2.2217e+001 -9.8314e-001 47630 86498,86446,86642
 1.2000e+000 86691 -9.0298e+000 -2.4638e+001 -5.0518e+000 47630 86498,86642,86394
 1.2000e+000 87022  2.1158e+001 -2.8601e+000 -1.5470e+000 47226 87045,86875,86849
 1.2000e+000 86999  2.2868e+001  2.3984e+000 -9.5541e-001 47226 87045,86849,86797
 1.2000e+000 86976  2.3899e+001  2.3215e+000 -3.0833e+000 47226 86797,86849,86823
 1.2000e+000 86953  1.7759e+001 -2.2056e+000 -7.1269e+000 47226 86875,86927,86901
 1.2000e+000 87071  2.0469e+001  2.6227e+000 -1.4993e+000 47226 86927,86875,87045
 1.2000e+000 87094  2.0883e+001  6.0579e+000 -1.0457e+000 47226 86927,87045,86797
 1.2000e+000 87244  1.2282e+001 -2.5649e+001  1.0687e+000 46814 87267,87169,87143
 1.2000e+000 87221  1.4233e+001 -1.8091e+001  1.0143e+000 46814 87267,87143,87117
 1.2000e+000 87293  2.7579e+001 -8.4248e+000  3.9658e+000 46814 87339,87267,87195
 1.2000e+000 87316  1.0900e+000 -2.3618e+001  5.8186e+000 46814 87469,87267,87117
 1.2000e+000 87365  8.5349e+000 -1.8014e+001  1.1619e-001 46814 87169,87267,87339
 1.2000e+000 87495  2.4404e+001  4.6829e+000 -4.2328e+000 46814 87195,87267,87469
 1.2000e+000 88001  9.8537e+000 -2.7054e+001 -2.3750e+000 46310 88024,87834,87808
 1.2000e+000 87978  1.0520e+001 -2.7282e+001  6.5591e-001 46310 88024,87808,87756
 1.2000e+000 87955  5.4984e+000 -2.5091e+001  5.9588e-001 46310 88096,87730,87860
 1.2000e+000 87932  8.6297e+000 -3.1495e+001 -3.5718e-001 46310 87756,87808,87782
 1.2000e+000 87909  4.3989e+000 -4.3676e+001  3.2209e+000 46310 87678,87860,87730
 1.2000e+000 87886  1.1671e+001 -4.6662e+001 -6.4059e+000 46310 87678,87730,87704
 1.2000e+000 88050  1.4688e+001 -1.6267e+001 -5.5623e+000 46310 87860,87834,88024
 1.2000e+000 88073  7.0895e+000 -2.6561e+001 -1.3018e+000 46310 88096,87860,88024
 1.2000e+000 88122  8.7158e+000 -2.4553e+001  2.6584e-001 46310 87756,87730,88096
 1.2000e+000 88145  1.2023e+001 -2.5241e+001 -7.4818e-001 46310 87756,88096,88024
 1.2000e+000 88572 -5.9603e-001 -6.8102e+000 -1.1264e+000 45856 88249,88405,88275
 1.2000e+000 88549 -4.3565e-001 -3.2533e+000 -2.4943e+000 45856 88249,88431,88405
 1.2000e+000 88526  2.7674e+000 -1.3711e+001 -5.2328e+000 45856 88327,88405,88353
 1.2000e+000 88503  5.3631e+000 -9.5085e+000 -4.0061e+000 45856 88275,88405,88327
 1.2000e+000 88480  6.4608e+000 -1.0381e+001 -1.1458e+001 45856 88353,88405,88379
 1.2000e+000 88457 -1.4388e+000 -3.9800e+001 -2.2286e+000 45856 88275,88327,88301
 1.2000e+000 88950  7.2420e+000 -2.2412e+001 -3.0303e-001 45658 88973,88754,88728
 1.2000e+000 88927  8.1925e+000 -1.8480e+001  5.1724e-001 45658 88973,88728,88676
 1.2000e+000 88904  1.2661e+001 -2.0233e+001  1.4368e+001 45658 88676,88832,88806
 1.2000e+000 88881  4.6598e+000 -2.9307e+001 -2.9645e+000 45658 88676,88728,88702
 1.2000e+000 88858  1.0651e+001 -5.2053e+000 -3.1379e+000 45658 88754,88806,88780
 1.2000e+000 88999  7.3262e+000 -1.8513e+001 -1.2508e-001 45658 88806,88754,88973
 1.2000e+000 89022  6.9948e+000 -1.6258e+001  6.0799e-001 45658 88806,88973,88676
 1.2000e+000 89351  1.2421e+001 -5.4862e+000  1.2630e+000 45254 89152,89230,89204
 1.2000e+000 89328  9.5969e+000 -7.4578e+000 -1.4325e+000 45254 89152,89256,89230
 1.2000e+000 89305  1.2696e+001 -5.9398e+000 -9.1181e-001 45254 89126,89256,89152
 1.2000e+000 89282  8.7297e+000 -1.4830e+001  2.8912e+000 45254 89152,89204,89178
 1.2000e+000 89523  3.1643e+000 -3.0668e+001 -7.2391e-001 45006 89422,89474,89448
 1.2000e+000 89500  1.0855e+001 -2.7382e+001  5.4337e+000 45006 89396,89474,89422
 1.2000e+000 89673  1.3774e+001 -5.1398e+000  4.5526e-001 44495 89572,89624,89598
 1.2000e+000 89650  1.3825e+001 -7.5017e+000  2.7376e+000 44495 89546,89624,89572
 1.2000e+000 90104  1.0724e+001 -1.5007e+001 -1.4262e+000 44005 90199,90127,89937
 1.2000e+000 90081  1.5229e+001 -1.8241e+001  7.1145e-001 44005 90271,90127,89859
 1.2000e+000 90058  1.0552e+001 -1.6220e+001 -1.8197e+000 44005 90199,89937,89885
 1.2000e+000 90035  1.4870e+001 -1.8819e+001  8.6440e-001 44005 90271,89859,89807
 1.2000e+000 90012  5.0381e+000 -2.2133e+001 -4.7709e+000 44005 89885,89937,89911
 1.2000e+000 89989  1.0845e+001 -2.2542e+001  3.0474e+000 44005 89807,89859,89833
 1.2000e+000 90153  1.4708e+001 -1.1588e+001  3.5014e+000 44005 89963,89937,90127
 1.2000e+000 90176  9.5709e+000 -2.4259e+001  4.1921e+000 44005 89963,90127,89781
 1.2000e+000 90225  1.4134e+001 -1.7944e+001 -1.8045e+000 44005 89859,90127,90199
 1.2000e+000 90248  1.1319e+001 -2.1614e+001 -3.1508e+000 44005 89859,90199,89885
 1.2000e+000 90297  1.4664e+001 -1.7721e+001  1.2393e+000 44005 89781,90127,90271
 1.2000e+000 90320  1.4400e+001 -1.8181e+001  1.3458e+000 44005 89781,90271,89807
 1.2000e+000 90470  3.7648e+000 -3.4463e+001 -1.3127e+000 43601 90493,90369,90343
 1.2000e+000 90447  5.8159e+000 -3.5269e+001 -2.6907e+000 43601 90493,90343,90421
 1.2000e+000 90519  6.6037e+000 -3.3519e+001 -7.1645e-001 43601 90395,90369,90493
 1.2000e+000 90542  7.5505e+000 -3.4868e+001 -2.6897e+000 43601 90395,90493,90421
 1.2000e+000 90922  8.2349e+000 -2.9320e+001  2.5144e+000 43154 90945,90700,90674
 1.2000e+000 90899  4.2984e+000 -3.1274e+001  1.1637e+000 43154 90945,90674,90648
 1.2000e+000 90876  8.6437e-001 -2.7891e+001  2.4502e-001 43154 90648,90778,90752
 1.2000e+000 90853  9.2429e+000 -3.5216e+001 -4.5360e-002 43154 90700,90752,90726
 1.2000e+000 90830  9.0050e+000 -2.7624e+001  2.5128e+000 43154 90648,90804,90778
 1.2000e+000 90971  6.7906e+000 -3.0506e+001  2.5381e-001 43154 90752,90700,90945
 1.2000e+000 90994  4.0931e+000 -3.1531e+001 -9.6035e-001 43154 90752,90945,90648
 1.2000e+000 91451  1.4324e+001 -1.4418e+001 -3.8734e+000 42650 91203,91255,91229
 1.2000e+000 91428  1.8386e+001 -1.2669e+001  2.4559e-001 42650 91203,91333,91255
 1.2000e+000 91405  1.0089e+001 -1.8947e+001 -2.5606e+000 42650 91177,91333,91203
 1.2000e+000 91382  1.1854e+001 -2.2408e+001  3.2504e+000 42650 91255,91333,91281
 1.2000e+000 91359  2.3278e+001 -1.8092e+001  2.6648e+000 42650 91281,91333,91307
 1.2000e+000 91721  9.3447e+000 -1.1784e+001  7.7406e-001 42288 91496,91600,91522
 1.2000e+000 91698  1.1125e+001 -8.4250e+000 -4.6402e-001 42288 91496,91626,91600
 1.2000e+000 91675  1.4213e+001 -1.3304e+001  6.3335e-001 42288 91522,91574,91548
 1.2000e+000 91652  1.0813e+001 -1.1222e+001  7.8355e-001 42288 91522,91600,91574
 1.2000e+000 92199 -1.0493e+001 -1.9600e+001 -8.9675e-001 41898 92222,91983,91879
 1.2000e+000 92176 -1.1321e+001 -2.6972e+001 -3.8233e+000 41898 92294,92222,91879
 1.2000e+000 92153 -1.3174e+001 -2.5936e+001 -5.2231e+000 41898 92294,91879,91853
 1.2000e+000 92130 -5.3916e+000 -3.3659e+000  2.1339e+000 41898 91879,91957,91931
 1.2000e+000 92107 -5.7724e+000 -1.7604e+001 -7.4055e-001 41898 91879,91983,91957
 1.2000e+000 92084 -9.8236e+000 -5.2671e+000  5.7035e+000 41898 91879,91931,91905
 1.2000e+000 92061 -1.0983e+001 -1.6782e+001 -3.9531e+000 41898 91827,92035,91853
 1.2000e+000 92248 -6.8079e+000 -2.8551e+001  4.1692e-001 41898 92009,91983,92222
 1.2000e+000 92271 -9.9616e+000 -3.2243e+001 -6.8715e+000 41898 92009,92222,92035
 1.2000e+000 92320 -8.1473e+000 -2.5447e+001 -4.2943e+000 41898 92035,92222,92294
 1.2000e+000 92343 -9.5494e+000 -2.4264e+001 -5.6338e+000 41898 92035,92294,91853
 1.2000e+000 92770  3.4518e+000 -3.0982e+001  3.5882e-001 41437 92865,92793,92525
 1.2000e+000 92747  3.4519e+000 -2.9653e+001  3.1464e-001 41437 92793,92473,92629
 1.2000e+000 92724  1.6259e+000 -3.0152e+001  1.3553e+000 41437 92865,92525,92499
 1.2000e+000 92701 -1.3922e+001 -3.0178e+001 -4.4547e+000 41437 92525,92603,92577
 1.2000e+000 92678  7.6158e+000 -3.3968e+001 -1.6547e+000 41437 92447,92629,92473
 1.2000e+000 92655 -8.9409e+000 -3.1149e+001 -5.3409e+000 41437 92525,92577,92551
 1.2000e+000 92819  3.8395e+000 -3.0076e+001  2.9497e-001 41437 92603,92525,92793
 1.2000e+000 92842  4.4306e+000 -2.9991e+001  1.5333e+000 41437 92603,92793,92629
 1.2000e+000 92891  9.7149e-002 -3.0542e+001  3.3009e-001 41437 92473,92793,92865
 1.2000e+000 92914 -2.3456e+000 -3.0455e+001  1.6909e+000 41437 92473,92865,92499
 1.2000e+000 93243  1.5297e+001 -2.3184e+001  1.2940e+001 41097 93044,93096,93070
 1.2000e+000 93220  1.1803e+001 -2.1538e+001  7.4735e+000 41097 93044,93122,93096
 1.2000e+000 93197  2.4976e+001 -1.2128e+001  3.2892e+000 41097 93044,93148,93122
 1.2000e+000 93174  2.1445e+001 -9.6827e+000  5.1421e+000 41097 93018,93148,93044
 1.2000e+000 93393  1.5062e+001 -1.8253e+001  1.6286e+000 40643 93416,93292,93344
 1.2000e+000 93370  6.3201e+000 -1.9155e+001 -4.5694e-001 40643 93266,93344,93292
 1.2000e+000 93442  1.2489e+001 -1.7926e+001  3.6153e+000 40643 93318,93292,93416
 1.2000e+000 93901 -6.2361e+000 -2.6245e+001 -2.6965e-001 40132 93924,93731,93705
 1.2000e+000 93878 -8.7147e+000 -2.4987e+001 -9.4963e-001 40132 93996,93924,93705
 1.2000e+000 93855 -7.8544e+000 -2.2734e+001 -3.0497e+000 40132 93996,93705,93653
 1.2000e+000 93832 -9.5501e+000 -3.0317e+001 -5.7987e-001 40132 93653,93705,93679
 1.2000e+000 93809  1.1629e+000 -2.3865e+001 -1.1392e+000 40132 93627,93783,93757
 1.2000e+000 93950 -4.7553e+000 -2.4526e+001 -9.5769e-001 40132 93757,93731,93924
 1.2000e+000 93973 -5.6140e+000 -2.4919e+001 -1.1152e+000 40132 93757,93924,93627
 1.2000e+000 94022 -4.2211e+000 -2.2634e+001 -2.1002e+000 40132 93627,93924,93996
 1.2000e+000 94045 -6.2917e+000 -2.2164e+001 -3.8024e+000 40132 93627,93996,93653
 1.2000e+000 94423  8.4862e+000 -2.0485e+001  1.6806e-001 39514 94149,94227,94175
 1.2000e+000 94400  1.2108e+001 -1.1729e+001  3.8901e-001 39514 94149,94305,94227
 1.2000e+000 94377  2.7358e+001 -2.1536e+001 -4.4723e+000 39514 94175,94227,94201
 1.2000e+000 94354  1.1277e+001 -1.2210e+001  6.6603e-002 39514 94227,94305,94279
 1.2000e+000 94331  1.0392e+001 -1.2355e+001  1.4001e+000 39514 94227,94279,94253
 1.2000e+000 94573 -1.1113e+001 -3.0738e+001  6.2108e-001 38822 94596,94498,94472
 1.2000e+000 94550 -9.4483e+000 -3.4332e+001  4.2978e+000 38822 94596,94472,94446
 1.2000e+000 94622 -1.3213e+001 -3.1874e+001  4.2815e+000 38822 94524,94498,94596
 1.2000e+000 94645 -1.4768e+001 -3.8528e+001  8.3530e+000 38822 94524,94596,94446
 1.2000e+000 95025  9.8923e+000 -1.9233e+001 -4.7132e+000 38418 95048,94829,94777
 1.2000e+000 95002  8.9935e+000 -1.6540e+001 -1.1446e+000 38418 95120,95048,94777
 1.2000e+000 94979  8.6962e+000 -1.6683e+001 -1.2455e+000 38418 95120,94777,94751
 1.2000e+000 94956  1.7851e+001 -1.6436e+001 -4.6424e+000 38418 95192,94881,94855
 1.2000e+000 94933  6.4829e+000 -2.9032e+001 -2.0950e+000 38418 94777,94829,94803
 1.2000e+000 95074  1.2186e+001 -1.4736e+001 -3.7554e+000 38418 94855,94829,95048
 1.2000e+000 95097  1.6043e+001 -1.6813e+001 -2.8172e+000 38418 95192,94855,95048
 1.2000e+000 95146  1.0127e+001 -1.7003e+001 -1.4870e+000 38418 94907,95048,95120
 1.2000e+000 95169  9.2862e+000 -1.7582e+001 -1.7773e+000 38418 94907,95120,94751
 1.2000e+000 95218  1.4546e+001 -1.2085e+001 -5.0981e+000 38418 94907,94881,95192
 1.2000e+000 95241  1.0201e+001 -1.5139e+001 -2.6181e+000 38418 94907,95192,95048
 1.2000e+000 95511  5.0634e+000 -2.9085e+001 -1.7665e+000 38049 95312,95390,95364
 1.2000e+000 95488 -1.2355e+000 -3.2063e+001 -7.0460e-001 38049 95312,95416,95390
 1.2000e+000 95465  9.7835e-001 -2.8149e+001  4.6519e-001 38049 95312,95364,95338
 1.2000e+000 95442  4.1585e+000 -3.3768e+001  5.5268e-002 38049 95286,95416,95312
 1.2000e+000 95808  4.6486e-001 -2.4503e+001 -1.0757e+000 37437 95831,95586,95560
 1.2000e+000 95785  6.4812e-001 -2.1612e+001  1.4526e-001 37437 95831,95560,95534
 1.2000e+000 95762 -1.4649e+000 -2.6911e+001  1.0667e+000 37437 95586,95664,95638
 1.2000e+000 95739 -2.6501e-001 -9.2704e+000 -6.4309e+000 37437 95534,95690,95664
 1.2000e+000 95716 -2.2758e+000 -2.8365e+001  7.3860e-001 37437 95586,95638,95612
 1.2000e+000 95857 -1.2755e-002 -2.1936e+001 -5.1011e-001 37437 95664,95586,95831
 1.2000e+000 95880  3.2276e-001 -1.8898e+001  7.5117e-001 37437 95664,95831,95534
 1.2000e+000 96390  1.0212e+001 -8.9244e+000 -5.3442e+000 36883 96413,96145,96093
 1.2000e+000 96367  8.6162e+000 -8.6523e+000 -1.6139e+000 36883 96413,96093,96067
 1.2000e+000 96344  7.8148e+000 -1.2576e+001 -3.3010e+000 36883 96067,96249,96171
 1.2000e+000 96321  7.5531e+000 -2.2706e+001 -1.0937e+000 36883 96093,96145,96119
 1.2000e+000 96298  4.2621e+000 -2.2279e+001  7.0012e-001 36883 96171,96249,96197
 1.2000e+000 96275  9.3305e+000 -1.9236e+001 -5.7366e-001 36883 96197,96249,96223
 1.2000e+000 96439  1.2459e+001 -2.7573e+000 -7.9426e+000 36883 96171,96145,96413
 1.2000e+000 96462  9.4323e+000 -6.1525e+000 -4.1185e+000 36883 96171,96413,96067
 1.2000e+000 96781  9.5017e+000 -1.2916e+001 -1.8588e+000 36215 96559,96663,96637
 1.2000e+000 96758  1.4344e+001 -1.0407e+001 -7.0474e-001 36215 96507,96663,96559
 1.2000e+000 96735  8.2564e+000 -1.8522e+001  1.1889e+000 36215 96585,96637,96611
 1.2000e+000 96712  5.0196e+000 -1.5898e+001 -5.2354e-001 36215 96559,96637,96585
 1.2000e+000 96689  7.9529e+000 -1.1431e+001 -4.0404e+000 36215 96507,96559,96533
 1.2000e+000 97161  1.4817e+001  1.9352e-001 -3.5122e+000 35818 97184,96965,96939
 1.2000e+000 97138  1.4810e+001 -8.4625e+000 -1.7367e+000 35818 97184,96939,96887
 1.2000e+000 97115  1.0196e+001 -5.0518e+000  4.4980e+000 35818 96965,97043,97017
 1.2000e+000 97092  1.6791e+001 -1.7666e+001 -4.2923e+000 35818 96887,96939,96913
 1.2000e+000 97069  1.6094e+000 -5.0263e+000  3.3681e+000 35818 96965,97017,96991
 1.2000e+000 97210  1.3982e+001 -6.4391e+000  2.2542e-001 35818 97043,96965,97184
 1.2000e+000 97233  1.5176e+001 -1.3308e+001  2.0870e+000 35818 97043,97184,96887
 1.2000e+000 97739 -1.3695e+001 -3.6790e+001 -8.8790e+000 35214 97416,97468,97442
 1.2000e+000 97716 -1.2058e+001 -2.2062e+001 -5.4135e+000 35214 97416,97598,97468
 1.2000e+000 97693 -1.1317e+001 -2.5642e+001 -2.1893e+000 35214 97762,97520,97468
 1.2000e+000 97670 -9.3706e+000 -2.5660e+001 -3.8788e+000 35214 97762,97468,97598
 1.2000e+000 97647 -8.7020e+000 -2.1562e+001 -5.4371e+000 35214 97546,97598,97572
 1.2000e+000 97624 -1.0281e+001 -2.1017e+001 -3.5982e+000 35214 97468,97520,97494
 1.2000e+000 97788 -1.2165e+001 -2.7037e+001 -1.1068e+000 35214 97546,97520,97762
 1.2000e+000 97811 -1.0793e+001 -2.7286e+001 -2.7648e+000 35214 97546,97762,97598
 1.2000e+000 98189  9.1142e+000 -1.7963e+001  5.8063e+000 34760 98356,98212,97967
 1.2000e+000 98166  8.9230e-003 -3.0839e+001  2.7621e+000 34760 98284,98212,97941
 1.2000e+000 98143 -3.2459e+000 -2.9401e+001  3.9948e+000 34760 98284,97941,97915
 1.2000e+000 98120  5.8633e+000 -2.4133e+001  9.1016e-001 34760 98484,97993,97967
 1.2000e+000 98097 -5.3441e+000 -2.8262e+001  2.9787e+000 34760 98556,98045,98019
 1.2000e+000 98238  4.4966e+000 -2.3775e+001  6.2157e-001 34760 98484,97967,98212
 1.2000e+000 98261 -4.4751e-001 -2.8362e+001  5.6305e-001 34760 98556,98019,98212
 1.2000e+000 98310  3.6624e+000 -2.8838e+001  7.9286e-001 34760 98071,98212,98284
 1.2000e+000 98333  6.6537e-001 -2.5546e+001  1.1737e+000 34760 98071,98284,97915
 1.2000e+000 98382 -6.1948e+000 -3.2124e+001 -1.2178e-001 34760 97941,98212,98356
 1.2000e+000 98510  8.9982e+000 -2.4657e+001  2.4739e-001 34760 98019,97993,98484
 1.2000e+000 98533  6.4272e+000 -2.5235e+001 -1.8981e-001 34760 98019,98484,98212
 1.2000e+000 98582  1.0035e+000 -2.7305e+001  3.1119e+000 34760 98071,98045,98556
 1.2000e+000 98605  3.2337e+000 -2.9288e+001  4.8203e-001 34760 98071,98556,98212
 1.2000e+000 99032 -1.0343e+000 -1.8451e+001  4.0823e+000 34156 98735,98891,98839
 1.2000e+000 99009 -5.2158e-002 -1.7366e+001  5.1420e+000 34156 98709,98891,98735
 1.2000e+000 98986  6.0700e+000 -1.8486e+001  3.6868e+000 34156 98735,98813,98787
 1.2000e+000 98963  4.2123e+000 -2.1899e+001  4.8192e+000 34156 98735,98839,98813
 1.2000e+000 98940  9.2726e+000 -3.0566e+001  3.6133e+000 34156 98735,98787,98761
 1.2000e+000 98917 -2.1875e+000 -2.1353e+001  5.1897e+000 34156 98839,98891,98865
 1.2000e+000 99231  4.7574e+000 -1.6263e+001  2.5252e+000 33766 99055,99133,99107
 1.2000e+000 99208  9.7437e-001 -1.5869e+001  3.5527e+000 33766 99055,99159,99133
 1.2000e+000 99185 -3.9731e-001 -2.9367e+001  1.4530e+000 33766 99055,99107,99081
 1.2000e+000 99818 -1.8563e+000 -2.1082e+001  2.0916e+000 33248 99521,99651,99573
 1.2000e+000 99795 -2.6803e-001 -1.9394e+001  3.9006e+000 33248 99521,99677,99651
 1.2000e+000 99772 -3.8247e+000 -2.5893e+001  1.5548e+000 33248 99573,99651,99599
 1.2000e+000 99749  1.8083e+001 -2.4356e+001  1.4328e+001 33248 99495,99677,99521
 1.2000e+000 99726 -1.2495e+000 -1.4678e+001  2.0050e+000 33248 99599,99651,99625
 1.2000e+000 99703 -4.9626e+000 -2.7872e+001  3.7985e+000 33248 99521,99573,99547
 1.2000e+000 100196  1.6763e+000 -1.7010e+001 -8.3488e+000 32794 100219,99948,99922
 1.2000e+000 100173  6.4051e-001 -1.8363e+001 -1.9867e+000 32794 100219,99922,100052
 1.2000e+000 100150 -4.0521e+000 -1.4439e+001  1.0803e+000 32794 99974,100052,100026
 1.2000e+000 100127  6.9139e+000 -2.2828e+001 -1.1216e+000 32794 99922,100078,100052
 1.2000e+000 100104 -5.9645e+000 -1.5096e+001  1.1587e+000 32794 99974,100026,100000
 1.2000e+000 100245 -5.6665e+000 -1.9402e+001 -7.4702e+000 32794 99974,99948,100219
 1.2000e+000 100268 -3.9941e+000 -2.0110e+001 -8.1411e-001 32794 99974,100219,100052
 1.2000e+000 100418  5.9731e+000 -1.9760e+001  7.1747e-001 32504 100571,100343,100317
 1.2000e+000 100395 -6.6471e-001 -2.2829e+001  6.6670e+000 32504 100571,100317,100441
 1.2000e+000 100467  1.3130e+001 -6.0362e+000 -3.0464e+000 32504 100291,100369,100441
 1.2000e+000 100597  9.6816e+000 -1.4375e+001 -3.9937e+000 32504 100369,100343,100571
 1.2000e+000 100620  6.9396e+000 -1.2217e+001  1.2342e+000 32504 100369,100571,100441
 1.2000e+000 101020  5.0464e+000 -2.3014e+001  3.3211e+000 32142 100772,100902,100876
 1.2000e+000 100997 -1.4252e+000 -3.2295e+001  4.9144e-001 32142 100746,100902,100772
 1.2000e+000 100974 -2.1884e+000 -2.8185e+001  9.5628e-001 32142 101043,100824,100798
 1.2000e+000 100951  1.0707e+000 -2.8813e+001  5.6073e-001 32142 101043,100798,100772
 1.2000e+000 100928 -1.2741e+001 -3.2637e+001 -5.7086e+000 32142 101115,100876,100850
 1.2000e+000 101069  6.7326e-001 -2.8495e+001 -2.1212e+000 32142 100850,100824,101043
 1.2000e+000 101092 -6.6173e+000 -3.2307e+001 -3.5489e+000 32142 101115,100850,101043
 1.2000e+000 101141 -5.2770e+000 -3.0675e+001 -1.2507e+000 32142 100772,100876,101115
 1.2000e+000 101164 -9.8253e-001 -3.0609e+001  1.3232e+000 32142 100772,101115,101043
 1.2000e+000 101719  3.1108e+000 -1.1675e+001  1.9622e+000 31538 101742,101477,101399
 1.2000e+000 101696 -3.1506e-001 -1.8276e+001 -1.1759e+000 31538 101814,101742,101399
 1.2000e+000 101673 -4.0743e+000 -1.4754e+001 -5.4713e+000 31538 101814,101399,101373
 1.2000e+000 101650 -2.8894e-001 -5.9960e+000  4.2759e+000 31538 101425,101477,101451
 1.2000e+000 101627  1.9299e+000 -1.1241e+001  1.4118e+000 31538 101399,101477,101425
 1.2000e+000 101604  1.2092e+000 -2.0885e+001  5.7478e+000 31538 101477,101529,101503
 1.2000e+000 101581  1.8572e+001 -9.4587e+000 -5.9942e+000 31538 101347,101555,101373
 1.2000e+000 101768 -1.6414e+000 -1.8815e+001  4.1351e+000 31538 101529,101477,101742
 1.2000e+000 101791  5.9451e+000 -1.6679e+001  1.0121e+000 31538 101529,101742,101555
 1.2000e+000 101840  7.9880e+000 -1.5253e+001 -2.2417e+000 31538 101555,101742,101814
 1.2000e+000 101863  3.3786e+000 -1.2190e+001 -6.1220e+000 31538 101555,101814,101373
 1.2000e+000 102111  6.4598e+000 -2.5413e+001  4.4090e+000 31112 101886,101990,101912
 1.2000e+000 102088  1.2800e+001 -1.6435e+001  6.9125e-001 31112 101886,102016,101990
 1.2000e+000 102065  8.5679e+000 -2.6317e+001  6.7790e+000 31112 101912,101990,101964
 1.2000e+000 102042  2.1584e+000 -2.5386e+001  1.0839e+001 31112 101912,101964,101938
 1.2000e+000 102408  7.7194e+000 -1.6322e+001 -8.0444e-001 30658 102431,102186,102160
 1.2000e+000 102385  7.8772e+000 -1.5227e+001 -1.9605e+000 30658 102431,102160,102264
 1.2000e+000 102362  4.1844e+000 -1.9391e+001 -1.1019e+000 30658 102186,102238,102212
 1.2000e+000 102339  8.7412e+000 -1.5559e+001 -2.7601e+000 30658 102134,102264,102160
 1.2000e+000 102316  1.1111e+001 -1.0957e+001 -9.7506e+000 30658 102134,102290,102264
 1.2000e+000 102457  8.4242e+000 -1.7808e+001 -1.0136e+000 30658 102238,102186,102431
 1.2000e+000 102480  8.4413e+000 -1.6925e+001 -2.2022e+000 30658 102238,102431,102264
 1.2000e+000 102681  8.1149e-001 -2.1017e+001  2.0092e+000 30004 102704,102557,102505
 1.2000e+000 102658  2.4612e+000 -2.0293e+001  1.6973e+000 30004 102704,102505,102609
 1.2000e+000 102635  3.3778e+000 -1.3565e+001  2.5003e+000 30004 102505,102557,102531
 1.2000e+000 102730  2.2467e+000 -2.2995e+001  3.0483e+000 30004 102583,102557,102704
 1.2000e+000 102753  5.9408e+000 -2.1122e+001  2.4029e+000 30004 102583,102704,102609
 1.2000e+000 103003  6.4567e+000 -1.4946e+001 -5.6093e-001 29564 103026,102804,102778
 1.2000e+000 102980  5.7424e+000 -1.5113e+001  3.0069e-001 29564 103026,102778,102908
 1.2000e+000 102957  2.4392e+000 -1.1881e+001 -5.1741e-001 29564 102856,102908,102882
 1.2000e+000 102934  3.4816e+000 -1.7509e+001  3.9886e-001 29564 102804,102856,102830
 1.2000e+000 103052  5.1707e+000 -1.5346e+001 -4.2770e-001 29564 102856,102804,103026
 1.2000e+000 103075  5.0952e+000 -1.5137e+001  4.4745e-001 29564 102856,103026,102908
 1.2000e+000 103634 -6.8707e+000 -2.2007e+001 -4.3777e+000 29160 103657,103418,103392
 1.2000e+000 103611 -6.1724e+000 -2.0560e+001 -3.1520e+000 29160 103657,103392,103314
 1.2000e+000 103588 -4.7722e-002 -2.1500e+001 -4.7684e+000 29160 103314,103392,103366
 1.2000e+000 103565 -2.3583e+000 -2.5712e+001 -3.7610e+000 29160 103314,103366,103340
 1.2000e+000 103542 -8.4169e+000 -1.6522e+001 -3.2909e+000 29160 103262,103444,103314
 1.2000e+000 103519 -1.1802e+001 -2.2360e+001 -6.1660e+000 29160 103262,103314,103288
 1.2000e+000 103496 -5.1613e+000 -1.7876e+001 -2.1145e+000 29160 103262,103470,103444
 1.2000e+000 103683 -8.9911e+000 -2.4090e+001 -6.7403e+000 29160 103444,103418,103657
 1.2000e+000 103706 -6.7348e+000 -2.0083e+001 -5.2634e+000 29160 103444,103657,103314
 1.2000e+000 104035  8.2480e+000 -1.0927e+001  1.6677e+000 28770 103836,103914,103862
 1.2000e+000 104012  7.3020e+000 -1.1429e+001  1.4787e+000 28770 103810,103914,103836
 1.2000e+000 103989  1.6777e+001 -7.8198e+000  1.1589e+000 28770 103810,103940,103914
 1.2000e+000 103966  1.0537e+001 -7.7478e+000  2.6673e+000 28770 103862,103914,103888
 1.2000e+000 104185  1.9787e+000 -2.7154e+001  1.0274e+000 28366 104208,104110,104084
 1.2000e+000 104162  8.8854e+000 -1.7341e+001  4.8036e+000 28366 104280,104208,104084
 1.2000e+000 104234  5.7266e+000 -2.0873e+001  1.5333e-001 28366 104610,104208,104136
 1.2000e+000 104257 -8.9946e-001 -2.4434e+001  9.5212e-001 28366 104538,104410,104208
 1.2000e+000 104306 -3.8258e+000 -2.4804e+001  9.2387e-001 28366 104538,104208,104280
 1.2000e+000 104436  2.6226e+000 -2.1387e+001 -1.0727e+000 28366 104136,104208,104410
 1.2000e+000 104564 -3.9021e+000 -2.4142e+001 -6.0367e-001 28366 104058,104410,104538
 1.2000e+000 104587 -5.6781e+000 -2.3817e+001 -8.4079e-001 28366 104058,104538,104280
 1.2000e+000 104636 -2.8713e-001 -2.3354e+001  4.3623e-001 28366 104110,104208,104610
 1.2000e+000 105349  6.2077e+000 -1.5496e+001 -7.7267e-001 27976 105516,105372,105107
 1.2000e+000 105326  2.4762e+000 -1.6162e+001  3.4774e+000 27976 105588,105372,105055
 1.2000e+000 105303 -9.6388e+000 -1.6737e+001 -5.0865e+000 27976 105444,105159,105133
 1.2000e+000 105280  1.0871e+001 -1.7221e+001  1.0200e+000 27976 105516,105107,105081
 1.2000e+000 105257  3.7816e+000 -1.7632e+001  5.3610e+000 27976 105588,105055,105029
 1.2000e+000 105234 -1.0456e-001 -9.8708e+000  1.2564e-001 27976 105003,105185,105159
 1.2000e+000 105211 -1.2516e+000 -5.3107e+000  3.1993e+000 27976 104977,105185,105003
 1.2000e+000 105398  9.4718e+000 -1.6331e+001 -2.5664e+000 27976 105133,105107,105372
 1.2000e+000 105421 -2.9340e-001 -2.0466e+001 -2.6686e+000 27976 105444,105133,105372
 1.2000e+000 105470  4.9382e-001 -8.4295e+000 -1.5134e+000 27976 105003,105159,105444
 1.2000e+000 105493  5.7684e+000 -1.4513e+001 -6.6709e-002 27976 105003,105444,105372
 1.2000e+000 105542  9.3840e+000 -1.4819e+001  3.0897e+000 27976 105055,105372,105516
 1.2000e+000 105565  1.6355e+001 -1.5651e+001  4.4222e+000 27976 105055,105516,105081
 1.2000e+000 105614  2.7022e-001 -1.7491e+001  4.0399e+000 27976 105003,105372,105588
 1.2000e+000 105637  1.0026e+000 -1.9209e+001  5.9941e+000 27976 105003,105588,105029
 1.2000e+000 106143 -8.4663e-001 -2.7749e+001 -4.2386e-001 27664 106166,105846,105820
 1.2000e+000 106120 -1.6543e+000 -2.3877e+001  3.0428e-001 27664 106310,106166,105820
 1.2000e+000 106097  3.0697e-001 -2.4483e+001 -3.3359e+000 27664 106382,106238,105950
 1.2000e+000 106074  2.8892e+000 -2.4853e+001  1.6625e+000 27664 106310,105820,106002
 1.2000e+000 106051  4.5049e+000 -2.3012e+001 -3.3547e+000 27664 106382,105950,105924
 1.2000e+000 106028 -3.0127e+000 -3.7858e+001 -2.8822e+000 27664 105846,105898,105872
 1.2000e+000 106192 -4.6035e+000 -3.1959e+001 -4.8203e+000 27664 105898,105846,106166
 1.2000e+000 106215 -5.6131e-001 -2.6464e+001  1.1440e-001 27664 106238,105898,106166
 1.2000e+000 106264 -9.7578e+000 -2.7584e+001 -4.1874e+000 27664 105976,105950,106238
 1.2000e+000 106287 -1.7081e+000 -2.7119e+001  4.3009e-001 27664 105976,106238,106166
 1.2000e+000 106336  2.7800e+000 -2.3189e+001  3.6791e+000 27664 105976,106166,106310
 1.2000e+000 106359  7.7926e+000 -2.3984e+001  4.9313e+000 27664 105976,106310,106002
 1.2000e+000 106408 -2.3133e+000 -2.2906e+001  1.3119e+000 27664 105898,106238,106382
 1.2000e+000 106431  5.8926e-001 -2.1824e+001  9.0572e-001 27664 105898,106382,105924
 1.2000e+000 106728  9.0043e+000 -1.1323e+001  1.3509e+000 27153 106751,106506,106454
 1.2000e+000 106705  8.4209e+000 -1.3867e+001  1.6680e-001 27153 106751,106454,106610
 1.2000e+000 106682  1.0261e+001 -5.8887e+000  1.0031e+000 27153 106454,106506,106480
 1.2000e+000 106659  5.7068e+000 -1.6100e+001  5.7720e-001 27153 106532,106610,106584
 1.2000e+000 106636  8.1763e+000 -8.4607e+000  3.1767e+000 27153 106532,106584,106558
 1.2000e+000 106777  9.9343e+000 -6.7939e+000  2.8003e+000 27153 106532,106506,106751
 1.2000e+000 106800  8.1385e+000 -1.1378e+001  1.6083e+000 27153 106532,106751,106610
 1.2000e+000 107180 -6.0637e+000 -2.1677e+001 -5.8560e-001 26642 107203,106984,106958
 1.2000e+000 107157 -8.1655e+000 -2.2737e+001 -1.2373e+000 26642 107203,106958,106932
 1.2000e+000 107134 -1.2757e+001 -2.7250e+001 -1.3085e+000 26642 107275,107036,107010
 1.2000e+000 107111 -8.1197e+000 -2.2556e+001 -5.6030e+000 26642 106932,107062,107036
 1.2000e+000 107088  2.4594e-001 -1.6620e+001  2.2322e+000 26642 106906,107062,106932
 1.2000e+000 107229 -2.5556e+000 -1.7264e+001 -5.0077e+000 26642 107010,106984,107203
 1.2000e+000 107252 -1.0112e+001 -2.2845e+001 -2.4738e+000 26642 107275,107010,107203
 1.2000e+000 107301 -9.8061e+000 -2.6957e+001 -3.5587e+000 26642 106932,107036,107275
 1.2000e+000 107324 -9.3183e+000 -2.6811e+001 -3.7960e+000 26642 106932,107275,107203
 1.2000e+000 107675  1.6144e+001 -5.8265e+000  3.8853e+000 26045 107450,107554,107476
 1.2000e+000 107652  1.6739e+001 -1.9940e+000  1.5021e+000 26045 107450,107580,107554
 1.2000e+000 107629  3.4129e+001 -7.5656e+000  2.1952e+000 26045 107476,107528,107502
 1.2000e+000 107606  2.2539e+001 -5.0597e+000  1.8938e+000 26045 107476,107554,107528
 1.2000e+000 107874  4.5559e+000 -2.4728e+001  1.2949e+000 25641 107750,107802,107776
 1.2000e+000 107851  6.2481e+000 -1.7848e+001  9.4331e-001 25641 107724,107802,107750
 1.2000e+000 107828  2.1342e+000 -1.8505e+001  2.0504e+000 25641 107698,107802,107724
 1.2000e+000 108431  2.1158e+000 -2.1833e+001  3.6399e+000 25023 108526,108267,108241
 1.2000e+000 108408  7.9308e+000 -2.2039e+001  1.6065e+000 25023 108059,108267,108085
 1.2000e+000 108385 -4.9381e-002 -2.2772e+001  9.0249e-001 25023 108454,108163,108111
 1.2000e+000 108362  6.7741e-002 -2.1321e+001  2.4801e+000 25023 108454,108111,108085
 1.2000e+000 108339  5.0004e+000 -2.1616e+001  3.4822e-001 25023 108111,108163,108137
 1.2000e+000 108316 -5.7015e+000 -1.7567e+001 -2.1746e+000 25023 108163,108241,108215
 1.2000e+000 108293  5.3276e+000 -1.1755e+001  3.5347e+000 25023 108163,108215,108189
 1.2000e+000 108480  1.7041e+000 -1.9072e+001  3.3964e-001 25023 108241,108163,108454
 1.2000e+000 108503  8.5473e-001 -1.9550e+001  2.8654e+000 25023 108526,108241,108454
 1.2000e+000 108552  1.1637e+000 -2.4739e+001  3.2675e+000 25023 108085,108267,108526
 1.2000e+000 108575 -2.3773e-001 -2.2661e+001  2.4324e+000 25023 108085,108526,108454
 1.2000e+000 108823  4.5237e+000 -1.3991e+001  3.1948e+000 24461 108624,108728,108650
 1.2000e+000 108800  6.1013e-002 -3.3175e+001 -2.2984e+000 24461 108598,108728,108624
 1.2000e+000 108777 -3.3285e+000 -3.1959e+001 -1.1448e+000 24461 108650,108728,108676
 1.2000e+000 108754  1.7234e+000 -4.1284e+001  6.8356e+000 24461 108676,108728,108702
 1.2000e+000 109022  8.4452e+000 -1.9024e+001 -1.3640e+000 24121 108872,108924,108898
 1.2000e+000 108999  4.7693e+000 -1.8215e+001 -1.6515e+000 24121 108846,108924,108872
 1.2000e+000 108976  9.3778e-001 -2.0051e+001 -1.0116e+000 24121 108846,108950,108924
 1.2000e+000 109483  8.7565e+000 -1.8892e+001 -4.5787e+000 23717 109209,109339,109235
 1.2000e+000 109460  6.5018e-001 -3.3614e+001 -1.3681e+000 23717 109209,109365,109339
 1.2000e+000 109437  4.9434e+000 -2.3617e+001 -8.4774e-001 23717 109287,109339,109313
 1.2000e+000 109414 -5.1363e+000 -2.7050e+001 -1.1440e+000 23717 109235,109339,109287
 1.2000e+000 109391  4.0529e+000 -2.8712e+001  5.8405e+000 23717 109235,109287,109261
 1.2000e+000 109910  4.7624e+000 -2.2145e+001  3.4820e-001 23305 109613,109743,109717
 1.2000e+000 109887  7.3033e+000 -2.1013e+001  7.3309e-002 23305 109613,109769,109743
 1.2000e+000 109864 -1.7853e+000 -2.0640e+001  1.9955e+000 23305 109613,109717,109639
 1.2000e+000 109841  1.0130e+001 -2.9247e+001  2.5719e+000 23305 109587,109769,109613
 1.2000e+000 109818  1.1667e+001 -1.4779e+001 -2.5430e+000 23305 109639,109717,109691
 1.2000e+000 109795  8.5410e+000 -2.1834e+001  4.2459e+000 23305 109639,109691,109665
 1.2000e+000 110180  1.6942e+001 -5.5652e+000 -6.9218e-001 22851 110007,110059,110033
 1.2000e+000 110157  9.6115e+000 -2.1811e+001 -2.4874e+000 22851 109981,110059,110007
 1.2000e+000 110134  1.3238e+001 -2.0028e+001 -1.8527e+000 22851 109955,110059,109981
 1.2000e+000 110111  1.5524e+001 -2.0207e+001 -2.8783e+000 22851 109955,110085,110059
 1.2000e+000 110737  6.2602e-001 -2.2347e+001 -1.2184e+000 22333 110760,110469,110391
 1.2000e+000 110714  3.5893e+000 -2.0847e+001 -1.8972e+000 22333 110760,110391,110365
 1.2000e+000 110691  6.2965e+000 -2.1761e+001 -1.6690e+000 22333 110832,110521,110469
 1.2000e+000 110668  2.3641e+000 -3.6039e+001 -1.3714e+000 22333 110417,110469,110443
 1.2000e+000 110645 -3.8460e+000 -3.3413e+001 -1.9163e+000 22333 110391,110469,110417
 1.2000e+000 110622  6.8228e+000 -2.1405e+001 -2.0348e+000 22333 110469,110521,110495
 1.2000e+000 110599  3.4687e+000 -1.6836e+001 -4.2111e+000 22333 110365,110573,110547
 1.2000e+000 110786  3.3599e+000 -2.0967e+001 -2.2954e-001 22333 110832,110469,110760
 1.2000e+000 110809  5.7839e-001 -2.3583e+001 -3.5290e+000 22333 110547,110760,110365
 1.2000e+000 110858  1.2955e+001 -2.0860e+001 -3.8335e+000 22333 110547,110521,110832
 1.2000e+000 110881  6.7736e+000 -2.1335e+001 -3.2789e+000 22333 110547,110832,110760
 1.2000e+000 111308 -1.1309e+001 -2.7526e+001  8.1131e-001 21829 111331,111063,111011
 1.2000e+000 111285 -1.2800e+001 -2.7238e+001 -3.3316e-001 21829 111331,111011,111167
 1.2000e+000 111262 -1.2057e+001 -2.8281e+001  2.0085e-001 21829 111403,111089,111063
 1.2000e+000 111239 -1.5695e+001 -3.3780e+001  3.0280e+000 21829 111011,111063,111037
 1.2000e+000 111216 -9.4790e+000 -2.1401e+001  1.0596e+000 21829 110985,111167,111011
 1.2000e+000 111193 -1.6284e+001 -4.9439e+001  5.8743e+000 21829 111089,111141,111115
 1.2000e+000 111357 -1.2216e+001 -2.8324e+001  1.6330e-001 21829 111403,111063,111331
 1.2000e+000 111380 -1.2821e+001 -2.8471e+001 -9.5537e-001 21829 111141,111331,111167
 1.2000e+000 111429 -1.2125e+001 -2.8124e+001 -3.9325e-002 21829 111141,111089,111403
 1.2000e+000 111452 -1.2130e+001 -2.7892e+001  4.5409e-002 21829 111141,111403,111331
 1.2000e+000 112056  1.2269e+001 -2.2637e+001  2.4691e-002 21489 111687,111765,111739
 1.2000e+000 112033  6.0290e-001 -2.7725e+001  1.0266e+000 21489 112151,112079,111687
 1.2000e+000 112010  2.6929e-001 -3.5201e+001  8.4085e-001 21489 111791,111843,111817
 1.2000e+000 111987 -3.6729e+000 -3.1038e+001 -1.7725e+000 21489 112079,111843,111791
 1.2000e+000 111964  2.4169e+000 -2.6912e+001  2.1158e+000 21489 112151,111687,111661
 1.2000e+000 111941 -4.4481e+000 -2.1029e+001  2.8887e+000 21489 111661,111869,111843
 1.2000e+000 111918  7.7303e+000 -2.6003e+001  2.6131e+000 21489 111687,111739,111713
 1.2000e+000 111895 -5.3899e+000 -2.3553e+001 -7.0259e+000 21489 111635,111869,111661
 1.2000e+000 112105 -1.9941e+000 -2.8636e+001  5.5499e-001 21489 111765,111687,112079
 1.2000e+000 112128 -1.3131e+000 -2.8126e+001  1.9049e-001 21489 111765,112079,111791
 1.2000e+000 112177 -2.3928e+000 -2.7556e+001 -4.9234e-001 21489 111843,112079,112151
 1.2000e+000 112200 -7.4560e-001 -2.7287e+001  3.9512e-001 21489 111843,112151,111661
 1.2000e+000 112578 -3.3353e+000 -3.2675e+001  1.3749e+000 21177 112382,112434,112408
 1.2000e+000 112555 -4.5138e+000 -3.3014e+001  4.0646e-001 21177 112330,112434,112382
 1.2000e+000 112532  1.3541e-001 -2.8847e+001  3.4045e+000 21177 112304,112434,112330
 1.2000e+000 112509 -3.5399e+000 -3.2173e+001  0.0000e+000 21177 112330,112382,112356
 1.2000e+000 112486  4.4182e+000 -3.1506e+001  4.0987e+000 21177 112304,112460,112434
 1.2000e+000 112679 -6.8655e+000 -5.2679e+001 -3.0941e+000 20666 112601,112653,112627
 1.2000e+000 112927  5.2319e+000 -2.2219e+001  1.3651e+000 19762 112702,112754,112728
 1.2000e+000 112904  4.5067e+000 -1.8026e+001  6.1863e-001 19762 112702,112832,112754
 1.2000e+000 112881  1.0011e+000 -2.4499e+001  2.1563e+000 19762 112754,112832,112806
 1.2000e+000 112858  7.7180e-001 -2.8148e+001  3.9394e+000 19762 112754,112806,112780
 1.2000e+000 113297  3.6829e+000 -2.1581e+001  1.2725e+000 19308 112974,113052,113026
 1.2000e+000 113274  9.6797e+000 -1.9897e+001 -5.2402e-001 19308 112974,113156,113052
 1.2000e+000 113251  1.1625e+001 -2.6792e+001 -3.7620e+000 19308 113052,113130,113104
 1.2000e+000 113228  1.2501e+001 -1.5839e+001  1.4130e+000 19308 113052,113156,113130
 1.2000e+000 113205  1.0139e+001 -2.2535e+001  0.0000e+000 19308 113052,113104,113078
 1.2000e+000 113182  2.1953e+000 -1.9980e+001 -2.6933e-001 19308 112974,113026,113000
 1.2000e+000 113547 -1.7883e+000 -2.5734e+001 -8.1503e-001 18711 113570,113374,113348
 1.2000e+000 113524 -6.8700e-001 -2.6708e+001 -1.0877e+000 18711 113570,113348,113452
 1.2000e+000 113501  1.3156e+000 -1.5743e+001 -6.9760e+000 18711 113322,113452,113348
 1.2000e+000 113478 -5.6498e+000 -3.3000e+001  2.6405e-001 18711 113374,113426,113400
 1.2000e+000 113596 -3.2386e+000 -2.6584e+001 -3.6762e-001 18711 113426,113374,113570
 1.2000e+000 113619 -1.4863e+000 -2.6998e+001 -7.7995e-001 18711 113426,113570,113452
 1.2000e+000 113771  3.6556e+000 -2.6439e+001 -7.1592e-001 18307 113670,113722,113696
 1.2000e+000 113748  6.9631e+000 -3.1182e+001 -1.2372e+000 18307 113644,113722,113670
 1.2000e+000 113972  4.6481e+000 -2.4094e+001  2.5289e-001 17945 113822,113874,113848
 1.2000e+000 113949  5.4373e+000 -2.2737e+001  1.0442e+000 17945 113822,113900,113874
 1.2000e+000 113926 -2.4659e-001 -3.0159e+001  7.0463e+000 17945 113796,113900,113822
 1.2000e+000 114075  1.9655e+001 -3.2664e+001  5.1101e+000 17482 113997,114049,114023
 1.2000e+000 114479  2.1331e+000 -2.0649e+001  3.9571e-001 17042 114257,114361,114335
 1.2000e+000 114456  7.0687e+000 -1.5776e+001 -2.3056e+000 17042 114205,114361,114257
 1.2000e+000 114433  4.3927e+000 -2.2218e+001  5.4926e-001 17042 114205,114257,114231
 1.2000e+000 114410  4.5892e+000 -2.7959e+001 -2.5004e+000 17042 114283,114335,114309
 1.2000e+000 114387 -1.4395e+000 -2.2011e+001 -1.8755e+000 17042 114257,114335,114283
 1.2000e+000 114879 -1.5670e+001 -3.3327e+001 -1.0369e+000 16638 114631,114683,114657
 1.2000e+000 114856  6.0115e-001 -2.6450e+001 -3.5862e-001 16638 114605,114683,114631
 1.2000e+000 114833  3.9129e+000 -1.7492e+001 -6.3781e-001 16638 114605,114761,114683
 1.2000e+000 114810  2.0962e-002 -3.1501e+001 -8.5085e-001 16638 114683,114735,114709
 1.2000e+000 114787 -4.3243e+000 -3.5395e+001 -2.8217e+000 16638 114683,114761,114735
 1.2000e+000 115078 -6.3195e+000 -1.9665e+001  2.2312e+000 16232 114954,115006,114980
 1.2000e+000 115055 -2.4841e+000 -2.8492e+001  3.4588e+000 16232 114928,115006,114954
 1.2000e+000 115032  3.0598e+000 -4.2491e+001  3.8512e+000 16232 114902,115006,114928
 1.2000e+000 115228 -1.0970e+001 -2.7246e+001 -1.2268e-001 15482 115101,115153,115127
 1.2000e+000 115205 -6.6339e+000 -2.4585e+001 -1.3237e+000 15482 115101,115179,115153
 1.2000e+000 115331 -6.3938e+000 -3.2262e+001 -3.4638e+000 15163 115253,115305,115279
 1.2000e+000 115434 -8.8306e+000 -3.5807e+001  5.4552e+000 421 115356,115408,115382
 1.3000e+000 68213  4.9156e+001 -1.8892e+001 -6.6297e+000 67888 68112,68164,68138
 1.3000e+000 68190 -2.3067e+001 -4.2096e+001 -9.1705e+000 67888 68086,68164,68112
 1.3000e+000 68314  5.6441e+001 -3.9563e+001  1.0850e+001 67576 68236,68288,68262
 1.3000e+000 68584  7.2978e+000 -4.1344e+001  4.3594e+000 67378 68385,68489,68463
 1.3000e+000 68561  4.1501e+001 -2.8359e+001  6.5099e+000 67378 68359,68489,68385
 1.3000e+000 68538  9.8369e+000 -2.8603e+001  5.4203e+000 67378 68385,68463,68411
 1.3000e+000 68515  1.0087e+001 -9.4507e+000  5.8867e+000 67378 68411,68463,68437
 1.3000e+000 68964  1.2207e+001 -2.0745e+001  6.9405e+000 67130 68690,68820,68716
 1.3000e+000 68941  3.3015e+001 -2.2697e+001  1.2952e+001 67130 68690,68846,68820
 1.3000e+000 68918  8.4329e+000 -6.6901e+000  3.4041e+000 67130 68742,68820,68794
 1.3000e+000 68895  1.7924e+001 -4.6821e+000  4.1706e+000 67130 68716,68820,68742
 1.3000e+000 68872  1.1054e+001 -2.2531e+000  1.2741e+000 67130 68742,68794,68768
 1.3000e+000 69065  1.1780e+001 -2.9628e+001  3.9850e+000 66926 68987,69039,69013
 1.3000e+000 69445  1.9037e+001 -3.1932e+001  2.9475e+000 66614 69223,69301,69275
 1.3000e+000 69422  1.0359e+001 -3.1718e+001 -2.6180e+000 66614 69171,69301,69223
 1.3000e+000 69399  2.4601e+000 -3.4321e+001  1.1670e+000 66614 69171,69327,69301
 1.3000e+000 69376  2.7700e+001  7.2059e+000  8.4226e+000 66614 69223,69275,69249
 1.3000e+000 69353  1.7970e+001 -3.5558e+001 -1.2998e+000 66614 69171,69223,69197
 1.3000e+000 69546  1.1309e+001 -1.5530e+001  6.3051e-001 66416 69468,69520,69494
 1.3000e+000 69997  2.3164e+001 -2.5503e+001 -3.1530e+000 66104 69700,69830,69726
 1.3000e+000 69974  1.8974e+001 -2.6461e+001 -3.7618e+000 66104 69700,69856,69830
 1.3000e+000 69951  2.1612e+001 -6.0743e+000 -4.2370e+000 66104 69726,69804,69778
 1.3000e+000 69928  2.7854e+001 -1.6325e+001 -4.8164e+000 66104 69726,69830,69804
 1.3000e+000 69905  1.6628e+001 -6.4756e+000 -3.5787e+000 66104 69726,69778,69752
 1.3000e+000 69882  5.5002e+001 -3.9541e+001 -2.5341e+001 66104 69674,69856,69700
 1.3000e+000 70326  3.1778e+001 -1.8625e+000  6.6697e-001 65814 70349,70153,70127
 1.3000e+000 70303  3.0688e+001  2.3668e-001 -1.4743e+000 65814 70349,70127,70101
 1.3000e+000 70280  1.5694e+001 -2.3614e+000  1.9100e+001 65814 70101,70231,70205
 1.3000e+000 70257  1.7610e+001 -1.6067e+001 -3.9017e+000 65814 70153,70205,70179
 1.3000e+000 70375  3.0813e+001 -4.9183e+000  9.1653e-001 65814 70205,70153,70349
 1.3000e+000 70398  3.0268e+001 -2.1953e+000 -1.3789e+000 65814 70205,70349,70101
 1.3000e+000 70904  1.8365e+001  9.2216e+000 -7.8229e-001 65502 70607,70737,70685
 1.3000e+000 70881  2.5365e+001  1.2065e+001 -1.9341e+000 65502 70581,70737,70607
 1.3000e+000 70858  3.3466e+001  1.8799e+001 -1.0321e+001 65502 70581,70763,70737
 1.3000e+000 70835  5.0283e+001  1.9622e+001 -1.3159e+001 65502 70685,70737,70711
 1.3000e+000 70812  9.5372e+000  5.6384e+000  1.6144e+000 65502 70607,70659,70633
 1.3000e+000 70789  1.5755e+001  3.6854e+000  1.1822e+000 65502 70607,70685,70659
 1.3000e+000 71103  4.1461e+001 -2.8874e+001 -3.1520e+000 65304 71126,70979,70953
 1.3000e+000 71080  3.4831e+001 -2.9927e+001 -1.8150e+000 65304 71126,70953,70927
 1.3000e+000 71057  2.5202e+001 -3.2261e+001  4.0008e-003 65304 70927,71031,71005
 1.3000e+000 71152  3.4526e+001 -2.3424e+001 -4.9660e+000 65304 71005,70979,71126
 1.3000e+000 71175  2.6338e+001 -2.6443e+001 -2.0088e+000 65304 71005,71126,70927
 1.3000e+000 71374  2.2440e+001 -2.2345e+001  5.6228e-001 65106 71198,71276,71224
 1.3000e+000 71351  3.4048e+001 -2.1705e+001  3.6399e-001 65106 71198,71302,71276
 1.3000e+000 71328  2.5477e+001 -1.3984e+001  5.2334e+000 65106 71224,71276,71250
 1.3000e+000 71756 -1.8467e+000 -9.4847e+000 -1.9285e+000 64652 71508,71638,71534
 1.3000e+000 71733 -4.2818e-001 -8.8676e+000  3.0074e-001 64652 71482,71638,71508
 1.3000e+000 71710 -8.7354e+000 -3.3188e+001  6.0240e+000 64652 71534,71586,71560
 1.3000e+000 71687  1.6655e+000 -2.3703e+001 -1.4294e+000 64652 71534,71612,71586
 1.3000e+000 71664 -8.2012e+000 -2.3546e+001 -5.1587e+000 64652 71534,71638,71612
 1.3000e+000 72085  3.1091e+001 -1.9135e+001 -4.5558e+000 64248 71886,71964,71912
 1.3000e+000 72062  3.1981e+001 -1.6082e+001 -7.1701e+000 64248 71860,71964,71886
 1.3000e+000 72039  3.9857e+001 -2.9543e+001 -4.3753e+000 64248 71912,71964,71938
 1.3000e+000 72016  2.3928e+001 -1.3604e+001 -4.7266e+000 64248 71860,71990,71964
 1.3000e+000 72235  3.9398e+001  8.9553e-001  1.4423e-002 63858 72588,72258,72134
 1.3000e+000 72212  3.2476e+001  7.9629e+000  1.9214e+000 63858 72330,72258,72108
 1.3000e+000 72284  3.7364e+001 -3.0934e+000 -1.2153e+000 63858 72160,72134,72258
 1.3000e+000 72307  1.7311e+001 -3.2261e-001 -9.0725e+000 63858 72460,72258,72186
 1.3000e+000 72356  2.1410e+001  3.1231e+000 -6.9103e+000 63858 72186,72258,72330
 1.3000e+000 72486  4.4978e+001  6.7502e+000 -9.4647e+000 63858 72160,72258,72460
 1.3000e+000 72614  4.1247e+001  1.8707e+000 -5.5928e-001 63858 72108,72258,72588
 1.3000e+000 73248  1.0447e+001 -4.4411e+001  1.6281e+001 63404 72902,72954,72928
 1.3000e+000 73225 -6.4849e+000 -3.0784e+001  8.4261e+000 63404 73271,72954,72902
 1.3000e+000 73202 -2.4331e+000 -1.4795e+001  7.4422e+000 63404 73271,72902,73032
 1.3000e+000 73179 -5.4884e-001 -9.1206e+000  2.0938e+000 63404 72902,73058,73032
 1.3000e+000 73156 -2.5405e+000 -2.5632e+001 -2.1632e+000 63404 72980,73032,73006
 1.3000e+000 73133 -1.3827e+000 -2.5804e+000  4.7747e+000 63404 72876,73058,72902
 1.3000e+000 73110  1.5573e+000  2.8873e+000  1.7026e+000 63404 72876,73084,73058
 1.3000e+000 73297 -1.1307e+000 -3.3207e+001 -1.1321e+000 63404 72980,72954,73271
 1.3000e+000 73320 -1.0256e+000 -2.4442e+001 -7.3436e-001 63404 72980,73271,73032
 1.3000e+000 73470  5.0056e+001 -4.2077e+001  2.1806e+001 63014 73343,73395,73369
 1.3000e+000 73447 -4.5435e+000 -6.2896e+001  6.4357e-001 63014 73343,73421,73395
 1.3000e+000 73929  2.8693e+001 -3.5427e+001 -9.6507e+000 62702 73759,73811,73785
 1.3000e+000 73906  2.2774e+001 -3.5738e+001 -4.2565e+000 62702 73655,73811,73759
 1.3000e+000 73883  2.6815e+001 -3.5698e+001 -2.2727e+000 62702 73655,73759,73681
 1.3000e+000 73860  3.4820e+001 -2.0574e+001 -1.6560e+001 62702 73681,73759,73707
 1.3000e+000 73837  4.2562e+000 -3.2922e+001 -4.1299e+000 62702 73707,73759,73733
 1.3000e+000 74209 -4.0071e+000 -3.3969e+001 -5.8391e-001 62404 74059,74137,74085
 1.3000e+000 74186 -1.3577e+001 -5.1541e+001  7.6553e+000 62404 74033,74137,74059
 1.3000e+000 74163 -1.3461e+001 -2.7033e+001 -2.9958e+000 62404 74085,74137,74111
 1.3000e+000 74408  2.0038e+001 -2.2001e+001 -4.4788e+000 62000 74258,74336,74284
 1.3000e+000 74385  2.7795e+001 -2.0979e+001 -1.0093e+001 62000 74232,74336,74258
 1.3000e+000 74362  2.4818e+001 -2.2979e+001 -2.8844e+000 62000 74284,74336,74310
 1.3000e+000 74509  2.8837e+001 -5.0323e+001  1.0864e+001 61802 74431,74483,74457
 1.3000e+000 74759  4.7877e+000 -3.2650e+001 -4.9833e+000 61554 74782,74586,74560
 1.3000e+000 74736  2.1067e+001 -2.2107e+001 -2.4620e-001 61554 74782,74560,74664
 1.3000e+000 74713  4.1238e+000 -7.6130e+000  2.1773e+001 61554 74854,74612,74586
 1.3000e+000 74690  1.9830e+001 -2.5362e+001 -3.7402e-001 61554 74534,74664,74560
 1.3000e+000 74808 -5.6685e+000 -2.1006e+001  3.8622e+000 61554 74854,74586,74782
 1.3000e+000 74831  1.3172e+001 -3.3913e+001  3.2602e+000 61554 74638,74782,74664
 1.3000e+000 74880  2.7288e+001 -2.1144e+001  2.2930e+001 61554 74638,74612,74854
 1.3000e+000 74903  2.7103e+001 -1.8932e+001  9.2322e+000 61554 74638,74854,74782
 1.3000e+000 75285  3.4408e+001 -3.6408e+001  6.6764e-001 61356 75063,75167,75115
 1.3000e+000 75262  3.0221e+001 -4.2829e+001 -3.6277e+000 61356 75037,75167,75063
 1.3000e+000 75239  4.1742e+001 -3.6203e+001 -3.0075e-001 61356 75115,75167,75141
 1.3000e+000 75216  3.4908e+001 -2.7566e+001  6.7133e+000 61356 75063,75115,75089
 1.3000e+000 75193  1.4633e+001 -2.0502e+001  8.4775e+000 61356 75011,75167,75037
 1.3000e+000 75631  2.0408e+001 -3.8339e+001 -1.2569e+000 60952 75654,75412,75360
 1.3000e+000 75608  2.6100e+001 -3.6102e+001 -1.2299e-001 60952 75654,75360,75334
 1.3000e+000 75585  1.9722e+001 -2.5311e+001  7.7779e+000 60952 75726,75438,75412
 1.3000e+000 75562  3.4078e+001 -3.5420e+001 -1.1827e+001 60952 75308,75490,75334
 1.3000e+000 75539  2.3862e+001 -3.6547e+001 -2.1920e+000 60952 75360,75412,75386
 1.3000e+000 75516  1.4577e+001 -7.8329e+001  4.7484e+000 60952 75438,75490,75464
 1.3000e+000 75680  1.6834e+001 -3.4621e+001  2.1326e-001 60952 75726,75412,75654
 1.3000e+000 75703  2.3863e+001 -4.1870e+001  1.4984e+000 60952 75490,75654,75334
 1.3000e+000 75752  2.9590e+001 -3.4206e+001  7.9807e+000 60952 75490,75438,75726
 1.3000e+000 75775  2.8613e+001 -3.3310e+001  3.8350e+000 60952 75490,75726,75654
 1.3000e+000 76155  3.2033e+001 -1.0707e+001  1.2243e+001 60754 75933,75985,75959
 1.3000e+000 76132  1.6440e+001 -1.6017e+001  4.1477e+000 60754 75933,76037,75985
 1.3000e+000 76109  3.1975e+001 -1.3489e+001  5.2830e-002 60754 75985,76037,76011
 1.3000e+000 76086  1.1733e+001 -7.8763e+000  1.3329e+000 60754 75881,76037,75933
 1.3000e+000 76063 -3.7805e-001  3.4157e+000  1.7403e+001 60754 75881,75933,75907
 1.3000e+000 76612  3.0652e+001 -1.2373e+001  2.8913e+000 60350 76635,76442,76390
 1.3000e+000 76589  2.8413e+001 -1.5358e+001  1.9004e+000 60350 76635,76390,76364
 1.3000e+000 76566  1.4502e+001 -2.7210e+001 -1.2620e+000 60350 76364,76494,76468
 1.3000e+000 76543  3.2050e+001 -9.8341e+000  9.3791e+000 60350 76390,76442,76416
 1.3000e+000 76520  2.1644e+001 -7.2430e+000  2.4402e+000 60350 76338,76494,76364
 1.3000e+000 76661  3.2634e+001 -1.4923e+001  4.1106e+000 60350 76468,76442,76635
 1.3000e+000 76684  3.1458e+001 -1.6598e+001  3.5967e+000 60350 76468,76635,76364
 1.3000e+000 76932  9.1048e+000 -2.9800e+001 -4.0635e+000 59946 76955,76733,76707
 1.3000e+000 76909  8.1859e+000 -3.0329e+001  2.6981e+000 59946 77027,76955,76707
 1.3000e+000 76886  6.1155e+000 -2.9360e+001  3.3704e+000 59946 77027,76707,76837
 1.3000e+000 76863  4.2072e+001 -2.9527e+001 -2.4417e+001 59946 76733,76785,76759
 1.3000e+000 76981 -2.7537e+000 -3.3115e+001 -5.9987e+000 59946 76785,76733,76955
 1.3000e+000 77004  4.0170e+000 -2.9079e+001  3.4953e-001 59946 76785,76955,76811
 1.3000e+000 77053  5.6663e+000 -3.1945e+001  1.9882e+000 59946 76811,76955,77027
 1.3000e+000 77076  4.5611e+000 -3.0266e+001  2.9520e+000 59946 76811,77027,76837
 1.3000e+000 77226 -1.1403e+001 -2.8218e+001  1.7941e-001 59542 77099,77151,77125
 1.3000e+000 77203 -1.7291e+001 -3.1823e+001  6.6410e+000 59542 77099,77177,77151
 1.3000e+000 77427  2.6310e+001 -1.8212e+001 -1.0533e+001 59030 77450,77277,77251
 1.3000e+000 77404  2.4525e+001 -2.3111e+001 -1.0914e+001 59030 77450,77251,77355
 1.3000e+000 77381  1.7222e+001 -2.3514e+001 -5.2349e+000 59030 77277,77329,77303
 1.3000e+000 77476  2.5092e+001 -1.6970e+001 -8.8148e+000 59030 77329,77277,77450
 1.3000e+000 77499  2.4643e+001 -1.9681e+001 -9.2271e+000 59030 77329,77450,77355
 1.3000e+000 77749  2.0687e+001 -2.9645e+001 -2.5093e-001 58426 77772,77628,77602
 1.3000e+000 77726  4.2547e+001 -3.6809e+001  3.2469e+000 58426 77524,77654,77628
 1.3000e+000 77703  1.7449e+001 -2.3359e+001  5.3391e-001 58426 77772,77602,77550
 1.3000e+000 77680  1.8714e+001 -2.3094e+001  2.5908e+000 58426 77550,77602,77576
 1.3000e+000 77798  1.7995e+001 -3.7832e+001 -3.6414e+000 58426 77524,77628,77772
 1.3000e+000 77821  1.8472e+001 -2.8371e+001 -1.5053e+000 58426 77524,77772,77550
 1.3000e+000 78071 -1.4784e+000 -4.7196e+001 -4.6185e-001 57922 78094,77924,77898
 1.3000e+000 78048  3.3941e+000 -3.9023e+001  1.9914e+000 57922 78094,77898,77872
 1.3000e+000 78025 -3.5136e+000 -3.7118e+001  1.9968e+000 57922 78166,77846,77950
 1.3000e+000 78002  2.2425e+001 -3.4762e+001  4.1608e+000 57922 77846,77976,77950
 1.3000e+000 78120  4.9533e-002 -3.9724e+001 -1.2040e+000 57922 77950,77924,78094
 1.3000e+000 78143 -8.5478e-002 -3.7123e+001 -7.0291e-001 57922 78166,77950,78094
 1.3000e+000 78192 -6.3852e+000 -3.9148e+001  3.8124e+000 57922 77872,77846,78166
 1.3000e+000 78215 -3.5345e+000 -4.1278e+001  1.6113e+000 57922 77872,78166,78094
 1.3000e+000 78416  2.1596e+001 -2.8585e+001  2.5752e+000 57468 78439,78292,78240
 1.3000e+000 78393  2.6148e+001 -2.6440e+001  8.3646e-001 57468 78439,78240,78344
 1.3000e+000 78370  3.7647e+001 -3.1556e+001  1.4444e+001 57468 78240,78292,78266
 1.3000e+000 78465  2.6180e+001 -2.7380e+001  1.0815e+000 57468 78318,78292,78439
 1.3000e+000 78488  2.8115e+001 -2.7374e+001 -3.6796e-001 57468 78318,78439,78344
 1.3000e+000 78689  1.3803e+001 -4.5470e+001 -2.8454e+000 57014 78712,78539,78513
 1.3000e+000 78666  1.1741e+001 -4.9011e+001 -2.0006e+000 57014 78712,78513,78617
 1.3000e+000 78643  1.4579e+001 -4.4336e+001  6.1022e+000 57014 78565,78617,78591
 1.3000e+000 78738  1.1202e+001 -3.6014e+001 -1.2649e+000 57014 78565,78539,78712
 1.3000e+000 78761  5.4874e+000 -4.5852e+001  1.0998e+000 57014 78565,78712,78617
 1.3000e+000 79241  2.0340e+001 -2.3851e+001  2.3259e-001 56652 79264,78895,78869
 1.3000e+000 79218  1.4107e+001 -2.6354e+001  3.8230e+000 56652 79264,78869,79051
 1.3000e+000 79195  1.4850e+001 -2.8442e+001  6.0453e+000 56652 78869,79077,79051
 1.3000e+000 79172  5.4580e+000 -2.0338e+001 -3.9421e+000 56652 78895,78973,78947
 1.3000e+000 79149  7.3175e+000 -5.9700e+001  8.8096e+000 56652 78973,79051,78999
 1.3000e+000 79126  4.7563e+001 -1.3278e+001 -1.7170e+001 56652 78895,78947,78921
 1.3000e+000 79103  1.9888e+001 -2.9639e+001  8.5673e+000 56652 78999,79051,79025
 1.3000e+000 79290  1.4110e+001 -2.0601e+001  3.3552e+000 56652 78973,78895,79264
 1.3000e+000 79313  6.0511e+000 -2.5472e+001  7.5437e+000 56652 78973,79264,79051
 1.3000e+000 79512  1.8692e+001 -3.2462e+001 -5.8489e-001 56062 79388,79440,79414
 1.3000e+000 79489  1.4885e+001  5.2859e+000  7.1727e+000 56062 79336,79440,79388
 1.3000e+000 79466  4.1018e+001 -2.7871e+001  7.5315e+000 56062 79336,79388,79362
 1.3000e+000 79941  2.6504e+001 -3.7889e+001  8.7592e+000 55658 79964,79670,79644
 1.3000e+000 79918  9.7948e+000 -4.3528e+001  1.2718e+001 55658 79964,79644,79800
 1.3000e+000 79895  9.9688e+000 -3.3859e+001  6.6092e+000 55658 80036,79696,79670
 1.3000e+000 79872  5.6822e+000 -2.3909e+001 -2.3924e+000 55658 80108,79722,79696
 1.3000e+000 79849 -6.4957e+000 -3.2820e+001 -7.4179e+000 55658 79722,79774,79748
 1.3000e+000 79826  6.5477e+001 -2.1988e+001  3.2089e-001 55658 79618,79800,79644
 1.3000e+000 79990  8.8199e+000 -3.4462e+001  6.0206e+000 55658 80036,79670,79964
 1.3000e+000 80013  1.6101e+000 -3.4649e+001  7.7228e+000 55658 79774,79964,79800
 1.3000e+000 80062  1.2637e+001 -2.8840e+001  4.2365e+000 55658 80108,79696,80036
 1.3000e+000 80085  6.3763e+000 -3.2854e+001  9.4168e+000 55658 79774,80036,79964
 1.3000e+000 80134 -7.8871e+000 -2.8932e+001  4.5009e-001 55658 79774,79722,80108
 1.3000e+000 80157 -4.0164e+000 -3.5724e+001  7.0041e+000 55658 79774,80108,80036
 1.3000e+000 80307 -2.3925e+000 -2.1186e+001  7.5818e+000 55254 80402,80330,80206
 1.3000e+000 80284 -5.9552e+000 -5.2252e+001  4.5955e+000 55254 80330,80180,80258
 1.3000e+000 80356 -1.0708e+001 -4.0397e+001  1.0205e+001 55254 80232,80206,80330
 1.3000e+000 80379  6.6785e+000 -3.2899e+001  1.0790e+001 55254 80232,80330,80258
 1.3000e+000 80428 -1.2067e+001 -4.3727e+001 -8.7273e-001 55254 80180,80330,80402
 1.3000e+000 80659  8.2222e+000 -3.1438e+001 -4.6372e+000 54850 80558,80610,80584
 1.3000e+000 80636  1.5356e+001 -2.1879e+001  2.7664e+000 54850 80532,80610,80558
 1.3000e+000 80760  1.6685e+001 -3.9567e+001  3.0923e-001 54652 80682,80734,80708
 1.3000e+000 81164  1.6632e+001 -3.7765e+001 -2.4547e-001 54248 81187,80942,80890
 1.3000e+000 81141  2.0301e+001 -3.4780e+001 -1.7271e+000 54248 81187,80890,81046
 1.3000e+000 81118  7.1628e+000 -4.9483e+001  1.1679e+001 54248 80942,81020,80994
 1.3000e+000 81095  1.5533e+001 -4.0014e+001 -5.8678e-001 54248 80890,80942,80916
 1.3000e+000 81072  2.4381e+001 -2.1878e+001  2.1699e-001 54248 80942,80994,80968
 1.3000e+000 81213  2.1062e+001 -4.0502e+001 -6.7382e-001 54248 81020,80942,81187
 1.3000e+000 81236  2.3694e+001 -3.8829e+001 -1.6118e+000 54248 81020,81187,81046
 1.3000e+000 81663  3.8066e+000 -1.4442e+001  2.8998e+000 53594 81340,81444,81366
 1.3000e+000 81640 -7.9864e+000 -3.7843e+001  7.5527e+000 53594 81340,81470,81444
 1.3000e+000 81617  1.0411e+001 -2.1936e+001 -1.1116e+001 53594 81340,81522,81470
 1.3000e+000 81594 -3.9503e+000 -6.7831e+000  1.7053e+000 53594 81392,81444,81418
 1.3000e+000 81571 -3.1279e+000 -1.6401e+001  3.2590e-001 53594 81366,81444,81392
 1.3000e+000 81548  2.3708e+001 -4.3784e+001  3.7638e+000 53594 81470,81522,81496
 1.3000e+000 81943  1.4858e+001 -1.7153e+000  2.8756e+000 53104 81966,81845,81819
 1.3000e+000 81920  1.3118e+001 -9.4893e+000  1.9061e+000 53104 81966,81819,81767
 1.3000e+000 81897  1.3568e+001 -1.1464e+000 -7.6073e+000 53104 81767,81819,81793
 1.3000e+000 81992  1.5958e+001 -9.5166e+000  9.1284e-001 53104 81871,81845,81966
 1.3000e+000 82015  1.2476e+001 -2.0081e+001 -4.7550e-002 53104 81871,81966,81767
 1.3000e+000 82491  1.4074e+001 -1.5243e+001 -6.0892e+000 52650 82145,82249,82171
 1.3000e+000 82468  1.3873e+001 -1.7622e+001 -3.4376e+000 52650 82145,82301,82249
 1.3000e+000 82445  9.0954e+000 -2.8074e+001 -2.1224e+000 52650 82249,82301,82275
 1.3000e+000 82422 -2.2714e+000 -3.2008e+001 -9.4800e+000 52650 82119,82301,82145
 1.3000e+000 82399  6.2183e+000 -1.3970e+001 -3.2867e+000 52650 82171,82249,82223
 1.3000e+000 82376  1.8135e+001 -2.3542e+001 -5.5077e+000 52650 82119,82327,82301
 1.3000e+000 82353  1.6097e+001 -2.9467e-001 -1.2090e+001 52650 82171,82223,82197
 1.3000e+000 82739 -8.2169e+000 -1.5170e+001  3.6623e+000 52246 82762,82540,82514
 1.3000e+000 82716  1.7071e+000 -9.3821e+000  1.6158e-001 52246 82762,82514,82644
 1.3000e+000 82693  1.0740e+000 -1.2777e+001  1.6180e+001 52246 82540,82618,82592
 1.3000e+000 82670 -3.8960e+000 -1.2867e+000  7.8153e+000 52246 82540,82592,82566
 1.3000e+000 82788  6.6084e-001 -2.3253e+001  8.5196e+000 52246 82618,82540,82762
 1.3000e+000 82811  1.0709e+001 -1.8618e+001  7.0624e+000 52246 82618,82762,82644
 1.3000e+000 83059  2.4156e+001 -2.5781e+001  8.6885e-001 51578 82860,82964,82938
 1.3000e+000 83036  2.5956e+001 -2.0866e+001 -3.8015e+000 51578 82834,82964,82860
 1.3000e+000 83013  1.8925e+001 -2.6321e+001  7.3634e-001 51578 82860,82938,82886
 1.3000e+000 82990  3.4065e+001 -4.5758e+000  1.2601e+001 51578 82886,82938,82912
 1.3000e+000 83309  2.5963e-001 -1.8598e+001  6.9299e+000 51138 83332,83162,83136
 1.3000e+000 83286  8.6765e+000 -1.8191e+001  6.4291e+000 51138 83332,83136,83110
 1.3000e+000 83263  4.5401e+000 -1.7365e+001  9.6859e+000 51138 83404,83214,83188
 1.3000e+000 83240  6.9739e+001  7.4227e+000  9.4587e-001 51138 83084,83214,83110
 1.3000e+000 83358 -2.6971e+000 -1.8592e+001  1.1614e+001 51138 83188,83162,83332
 1.3000e+000 83381  4.0382e+000 -1.7253e+001  9.4992e+000 51138 83404,83188,83332
 1.3000e+000 83430  4.1150e+000 -1.7746e+001  9.0605e+000 51138 83110,83214,83404
 1.3000e+000 83453  3.4470e+000 -1.7609e+001  8.9321e+000 51138 83110,83404,83332
 1.3000e+000 83835  2.1217e+001 -8.0478e+000  2.5601e+000 50734 83613,83717,83691
 1.3000e+000 83812  1.6246e+001 -2.0724e+001 -3.0241e+000 50734 83561,83717,83613
 1.3000e+000 83789  2.1519e+001 -1.7647e+001 -4.8412e+000 50734 83561,83613,83587
 1.3000e+000 83766  8.4885e+000 -9.8823e+000 -8.1449e-001 50734 83613,83691,83639
 1.3000e+000 83743  8.8672e+000 -7.4689e+000  3.1820e+000 50734 83639,83691,83665
 1.3000e+000 84034  2.6121e+001 -1.7569e+000  2.8283e+000 50230 84057,83884,83858
 1.3000e+000 84011  2.5052e+001 -6.6243e+000 -8.7641e-001 50230 84129,84057,83858
 1.3000e+000 83988  2.9446e+001 -7.9672e+000 -1.9494e+000 50230 84129,83858,83962
 1.3000e+000 84083  3.8990e+001  5.0582e-001  1.1382e+001 50230 83910,83884,84057
 1.3000e+000 84106  2.8960e+001 -1.8128e+001  7.1599e+000 50230 83910,84057,83936
 1.3000e+000 84155  3.0756e+001 -3.9263e+000  4.4116e-001 50230 83936,84057,84129
 1.3000e+000 84178  3.2417e+001 -7.2397e+000 -1.2910e+000 50230 83936,84129,83962
 1.3000e+000 84558  1.9940e+001 -1.7820e+000 -8.5920e+000 49768 84581,84388,84362
 1.3000e+000 84535  1.9474e+001 -5.8367e-001 -7.2886e+000 49768 84581,84362,84310
 1.3000e+000 84512  2.4613e+001 -4.4388e+000 -6.2523e+000 49768 84653,84440,84414
 1.3000e+000 84489  1.5277e+001  3.0034e+000 -1.1658e+001 49768 84310,84362,84336
 1.3000e+000 84466  5.2565e+001  3.8372e+000 -7.2336e+000 49768 84284,84440,84310
 1.3000e+000 84607  2.6358e+001  8.3445e+000 -1.1360e+001 49768 84414,84388,84581
 1.3000e+000 84630  2.3786e+001  1.7151e+000 -6.1864e+000 49768 84653,84414,84581
 1.3000e+000 84679  2.3560e+001 -7.7805e+000 -6.8383e+000 49768 84310,84440,84653
 1.3000e+000 84702  1.9769e+001 -5.6482e+000 -7.8968e+000 49768 84310,84653,84581
 1.3000e+000 85159 -1.1681e+001 -4.7428e+001 -1.7799e+001 49192 84885,84937,84911
 1.3000e+000 85136 -1.2316e+001 -3.9048e+001 -1.3970e+001 49192 84885,85041,84937
 1.3000e+000 85113 -8.4459e+000 -3.1588e+001 -3.9124e+000 49192 84963,85041,84989
 1.3000e+000 85090 -7.8337e+000 -3.4328e+001 -1.1896e+001 49192 84937,85041,84963
 1.3000e+000 85067 -5.9555e+000 -4.2970e+001  7.2510e+000 49192 84989,85041,85015
 1.3000e+000 85714  1.9071e+000 -4.5010e+000 -1.1487e+000 48638 85368,85498,85394
 1.3000e+000 85691  6.7077e+000 -1.6876e+000 -3.2768e+000 48638 85368,85524,85498
 1.3000e+000 85668 -4.6313e+000 -7.1889e+000  1.5831e+001 48638 85737,85420,85394
 1.3000e+000 85645  9.9077e+000 -5.4024e+000  4.0824e+000 48638 85737,85394,85498
 1.3000e+000 85622  9.7034e+000 -2.2090e+001 -8.7908e-002 48638 85446,85498,85472
 1.3000e+000 85599  1.4929e+000 -4.2676e+000 -2.1522e+000 48638 85342,85524,85368
 1.3000e+000 85576  5.2375e+000  1.2712e+000 -5.3994e+000 48638 85342,85550,85524
 1.3000e+000 85763  1.6255e+001  1.3500e+000  1.4880e+001 48638 85446,85420,85737
 1.3000e+000 85786  1.8013e+001 -4.0853e+000  3.2891e+000 48638 85446,85737,85498
 1.3000e+000 86371  1.3645e+001  4.2893e+000 -1.5789e+000 48084 86100,86230,86178
 1.3000e+000 86348  1.4876e+001  3.1079e+000 -1.4275e+000 48084 86048,86230,86100
 1.3000e+000 86325  1.4229e+001  4.3330e+000 -2.4213e+000 48084 86100,86178,86126
 1.3000e+000 86302  1.2740e+001 -1.7090e+000 -6.8074e+000 48084 86048,86100,86074
 1.3000e+000 86279  9.9876e+000 -1.9033e+000 -7.0337e-002 48084 86178,86230,86204
 1.3000e+000 86256  1.2121e+001  1.4148e+001 -1.1485e+000 48084 86126,86178,86152
 1.3000e+000 86619 -2.0700e+000 -2.5804e+001  6.9612e+000 47630 86642,86446,86420
 1.3000e+000 86596 -1.1353e+001 -3.2202e+001 -8.8343e-002 47630 86642,86420,86394
 1.3000e+000 86573 -1.8084e+001 -2.2628e+001 -9.9214e+000 47630 86394,86524,86498
 1.3000e+000 86550  7.8349e+000 -3.3015e+001  1.7108e+000 47630 86446,86498,86472
 1.3000e+000 86668 -6.1084e+000 -3.4140e+001 -1.2976e+000 47630 86498,86446,86642
 1.3000e+000 86691 -1.2922e+001 -3.7687e+001 -8.0209e+000 47630 86498,86642,86394
 1.3000e+000 87022  3.0150e+001 -3.6744e+000 -3.8035e+000 47226 87045,86875,86849
 1.3000e+000 86999  3.2967e+001  3.6998e-001 -2.5740e+000 47226 87045,86849,86797
 1.3000e+000 86976  3.6067e+001  3.0170e+000 -6.6455e+000 47226 86797,86849,86823
 1.3000e+000 86953  2.5518e+001 -2.7598e+000 -1.0097e+001 47226 86875,86927,86901
 1.3000e+000 87071  2.8068e+001  1.3448e+000 -3.2015e+000 47226 86927,86875,87045
 1.3000e+000 87094  2.9908e+001  3.9055e+000 -2.3800e+000 47226 86927,87045,86797
 1.3000e+000 87244  2.0824e+001 -3.2640e+001  3.1251e+000 46814 87267,87169,87143
 1.3000e+000 87221  2.2793e+001 -1.9709e+001  1.9934e+000 46814 87267,87143,87117
 1.3000e+000 87293  4.3954e+001 -9.9121e+000  5.5186e+000 46814 87339,87267,87195
 1.3000e+000 87316  7.8930e+000 -2.6016e+001  5.4778e+000 46814 87469,87267,87117
 1.3000e+000 87365  1.5866e+001 -2.3019e+001  1.9704e+000 46814 87169,87267,87339
 1.3000e+000 87495  3.7846e+001  7.2708e+000 -7.3031e+000 46814 87195,87267,87469
 1.3000e+000 88001  1.4448e+001 -3.4522e+001  9.0153e-001 46310 88024,87834,87808
 1.3000e+000 87978  1.3525e+001 -3.4991e+001  1.3568e+000 46310 88024,87808,87756
 1.3000e+000 87955  8.8917e+000 -3.6084e+001  1.1003e+000 46310 88096,87730,87860
 1.3000e+000 87932  4.8658e+000 -4.7602e+001 -2.5884e+000 46310 87756,87808,87782
 1.3000e+000 87909  7.8974e+000 -6.3178e+001  5.3645e+000 46310 87678,87860,87730
 1.3000e+000 87886  1.9614e+001 -6.8190e+001 -1.0219e+001 46310 87678,87730,87704
 1.3000e+000 88050  1.8294e+001 -2.6264e+001 -3.6656e+000 46310 87860,87834,88024
 1.3000e+000 88073  1.0836e+001 -3.4466e+001 -2.1851e-001 46310 88096,87860,88024
 1.3000e+000 88122  1.2114e+001 -3.7032e+001 -4.5621e-001 46310 87756,87730,88096
 1.3000e+000 88145  1.4116e+001 -3.6503e+001 -1.1518e+000 46310 87756,88096,88024
 1.3000e+000 88572  7.1773e-001 -7.8396e+000 -3.4712e+000 45856 88249,88405,88275
 1.3000e+000 88549 -1.4089e+000 -4.1812e+000 -4.7849e+000 45856 88249,88431,88405
 1.3000e+000 88526  8.0109e+000 -1.6517e+001 -1.0062e+001 45856 88327,88405,88353
 1.3000e+000 88503  1.0661e+001 -1.3255e+001 -8.9166e+000 45856 88275,88405,88327
 1.3000e+000 88480  1.4243e+001 -1.2188e+001 -2.2013e+001 45856 88353,88405,88379
 1.3000e+000 88457  8.6715e-001 -5.4864e+001 -6.2455e+000 45856 88275,88327,88301
 1.3000e+000 88950  6.5220e+000 -2.6795e+001 -2.6068e+000 45658 88973,88754,88728
 1.3000e+000 88927  7.9218e+000 -2.3752e+001 -1.8021e+000 45658 88973,88728,88676
 1.3000e+000 88904  1.2618e+001 -2.6199e+001  1.3528e+001 45658 88676,88832,88806
 1.3000e+000 88881  1.6327e+000 -4.2104e+001 -6.6805e+000 45658 88676,88728,88702
 1.3000e+000 88858  8.8859e+000 -9.8944e+000 -6.1945e+000 45658 88754,88806,88780
 1.3000e+000 88999  6.0574e+000 -2.3535e+001 -2.1797e+000 45658 88806,88754,88973
 1.3000e+000 89022  6.3904e+000 -2.1827e+001 -1.5789e+000 45658 88806,88973,88676
 1.3000e+000 89351  2.2533e+001 -7.0004e+000 -3.3220e+000 45254 89152,89230,89204
 1.3000e+000 89328  2.1775e+001 -6.7301e+000 -1.3083e+000 45254 89152,89256,89230
 1.3000e+000 89305  1.3276e+001 -1.1118e+001 -2.9073e+000 45254 89126,89256,89152
 1.3000e+000 89282  1.2234e+001 -2.4717e+001  1.1872e+000 45254 89152,89204,89178
 1.3000e+000 89523  7.6711e+000 -4.1872e+001 -8.4257e-001 45006 89422,89474,89448
 1.3000e+000 89500  1.9218e+001 -3.6939e+001  8.4002e+000 45006 89396,89474,89422
 1.3000e+000 89673 -1.3271e+001 -2.6093e+001  2.0637e+000 44495 89572,89624,89598
 1.3000e+000 89650 -1.5309e+001 -3.2533e+001  3.3973e+000 44495 89546,89624,89572
 1.3000e+000 90104  1.4297e+001 -2.4176e+001 -1.0933e+000 44005 90199,90127,89937
 1.3000e+000 90081  1.7340e+001 -2.9142e+001  1.5817e+000 44005 90271,90127,89859
 1.3000e+000 90058  1.4770e+001 -2.5604e+001 -1.4905e+000 44005 90199,89937,89885
 1.3000e+000 90035  1.8417e+001 -3.0487e+001  9.3499e-001 44005 90271,89859,89807
 1.3000e+000 90012  4.5008e+000 -3.1500e+001 -8.0111e+000 44005 89885,89937,89911
 1.3000e+000 89989  1.6663e+001 -3.1813e+001  1.6210e+000 44005 89807,89859,89833
 1.3000e+000 90153  1.8831e+001 -1.9751e+001  6.0102e+000 44005 89963,89937,90127
 1.3000e+000 90176  1.1228e+001 -3.8825e+001  7.5159e+000 44005 89963,90127,89781
 1.3000e+000 90225  1.6769e+001 -2.7202e+001 -1.2280e+000 44005 89859,90127,90199
 1.3000e+000 90248  1.4968e+001 -3.0880e+001 -2.4245e+000 44005 89859,90199,89885
 1.3000e+000 90297  1.8624e+001 -2.7676e+001  2.4497e+000 44005 89781,90127,90271
 1.3000e+000 90320  1.9211e+001 -2.9221e+001  1.6473e+000 44005 89781,90271,89807
 1.3000e+000 90470  8.6316e+000 -4.7656e+001 -2.0774e+000 43601 90493,90369,90343
 1.3000e+000 90447  1.1040e+001 -4.7803e+001 -3.5964e+000 43601 90493,90343,90421
 1.3000e+000 90519  1.1905e+001 -4.8458e+001 -1.9467e+000 43601 90395,90369,90493
 1.3000e+000 90542  1.3711e+001 -4.8124e+001 -4.2286e+000 43601 90395,90493,90421
 1.3000e+000 90922  1.4047e+001 -4.3340e+001  4.0164e+000 43154 90945,90700,90674
 1.3000e+000 90899  7.7408e+000 -4.6762e+001  4.6763e-001 43154 90945,90674,90648
 1.3000e+000 90876  7.4230e+000 -3.4039e+001 -3.3081e+000 43154 90648,90778,90752
 1.3000e+000 90853  2.0897e+001 -5.6676e+001  7.8007e-001 43154 90700,90752,90726
 1.3000e+000 90830  8.0808e+000 -3.7986e+001  6.6222e-001 43154 90648,90804,90778
 1.3000e+000 90971  1.1241e+001 -4.6513e+001  4.6257e-001 43154 90752,90700,90945
 1.3000e+000 90994  7.0860e+000 -4.7946e+001 -2.8210e+000 43154 90752,90945,90648
 1.3000e+000 91451  2.5807e+001 -1.8857e+001 -9.7885e+000 42650 91203,91255,91229
 1.3000e+000 91428  2.7160e+001 -1.8265e+001 -2.1456e-001 42650 91203,91333,91255
 1.3000e+000 91405  1.5632e+001 -2.7762e+001 -4.3211e+000 42650 91177,91333,91203
 1.3000e+000 91382  1.7920e+001 -3.2811e+001  3.8657e+000 42650 91255,91333,91281
 1.3000e+000 91359  3.3448e+001 -2.3889e+001  1.5480e-001 42650 91281,91333,91307
 1.3000e+000 91721 -1.4774e+000 -2.8285e+001  2.9131e+000 42288 91496,91600,91522
 1.3000e+000 91698  1.2621e+001  4.1707e+000  1.2938e+000 42288 91496,91626,91600
 1.3000e+000 91675  1.4817e+001 -2.5936e+001  1.3754e+000 42288 91522,91574,91548
 1.3000e+000 91652  7.2762e+000 -2.5223e+001  2.5720e+000 42288 91522,91600,91574
 1.3000e+000 92199 -1.9621e+001 -3.2810e+001 -8.6195e-001 41898 92222,91983,91879
 1.3000e+000 92176 -2.0959e+001 -4.3789e+001 -5.2260e+000 41898 92294,92222,91879
 1.3000e+000 92153 -2.3498e+001 -4.4899e+001 -6.7573e+000 41898 92294,91879,91853
 1.3000e+000 92130 -1.4146e+001 -9.2479e+000  5.3788e+000 41898 91879,91957,91931
 1.3000e+000 92107 -1.2805e+001 -2.9965e+001 -3.4163e-001 41898 91879,91983,91957
 1.3000e+000 92084 -2.0692e+001 -1.1988e+001  1.0666e+001 41898 91879,91931,91905
 1.3000e+000 92061 -1.9484e+001 -3.3069e+001 -2.1382e+000 41898 91827,92035,91853
 1.3000e+000 92248 -1.4263e+001 -4.6300e+001  1.1543e+000 41898 92009,91983,92222
 1.3000e+000 92271 -1.8387e+001 -5.0840e+001 -7.4791e+000 41898 92009,92222,92035
 1.3000e+000 92320 -1.7169e+001 -4.4251e+001 -3.5866e+000 41898 92035,92222,92294
 1.3000e+000 92343 -1.8732e+001 -4.4127e+001 -4.8251e+000 41898 92035,92294,91853
 1.3000e+000 92770 -6.2414e+000 -5.1679e+001 -5.7140e+000 41437 92865,92793,92525
 1.3000e+000 92747 -3.6850e+000 -4.5661e+001 -2.6113e+000 41437 92793,92473,92629
 1.3000e+000 92724 -4.5246e+000 -5.5262e+001 -6.8139e+000 41437 92865,92525,92499
 1.3000e+000 92701 -1.9160e+001 -3.6955e+001 -7.8975e+000 41437 92525,92603,92577
 1.3000e+000 92678  1.8955e+000 -5.1505e+001 -5.2797e+000 41437 92447,92629,92473
 1.3000e+000 92655 -2.3201e+001 -3.5572e+001 -6.8193e+000 41437 92525,92577,92551
 1.3000e+000 92819 -3.6066e+000 -4.5531e+001 -4.9254e+000 41437 92603,92525,92793
 1.3000e+000 92842 -2.5512e+000 -4.5561e+001 -1.3913e+000 41437 92603,92793,92629
 1.3000e+000 92891 -4.6051e+000 -4.5064e+001 -3.2252e+000 41437 92473,92793,92865
 1.3000e+000 92914 -4.0357e+000 -5.0742e+001 -3.9962e+000 41437 92473,92865,92499
 1.3000e+000 93243  2.2719e+001 -3.5660e+001  1.9057e+001 41097 93044,93096,93070
 1.3000e+000 93220  1.6817e+001 -3.1630e+001  9.2298e+000 41097 93044,93122,93096
 1.3000e+000 93197  3.9625e+001 -1.7324e+001  2.6431e+000 41097 93044,93148,93122
 1.3000e+000 93174  3.3592e+001 -1.5642e+001  4.3125e+000 41097 93018,93148,93044
 1.3000e+000 93393  2.6511e+001 -3.0386e+001  2.3649e+000 40643 93416,93292,93344
 1.3000e+000 93370  7.5609e+000 -3.4465e+001 -2.5361e+000 40643 93266,93344,93292
 1.3000e+000 93442  2.0911e+001 -3.0108e+001  6.0403e+000 40643 93318,93292,93416
 1.3000e+000 93901 -6.6611e+000 -3.7858e+001 -2.4470e+000 40132 93924,93731,93705
 1.3000e+000 93878 -1.0600e+001 -3.5351e+001 -3.4793e+000 40132 93996,93924,93705
 1.3000e+000 93855 -9.1835e+000 -3.1640e+001 -6.9001e+000 40132 93996,93705,93653
 1.3000e+000 93832 -9.5974e+000 -3.9322e+001 -4.5360e+000 40132 93653,93705,93679
 1.3000e+000 93809  4.9499e+000 -3.3860e+001 -3.0831e+000 40132 93627,93783,93757
 1.3000e+000 93950 -4.3973e+000 -3.4404e+001 -3.4241e+000 40132 93757,93731,93924
 1.3000e+000 93973 -5.3793e+000 -3.4653e+001 -3.5033e+000 40132 93757,93924,93627
 1.3000e+000 94022 -3.1437e+000 -3.1414e+001 -5.4579e+000 40132 93627,93924,93996
 1.3000e+000 94045 -6.5219e+000 -3.0675e+001 -8.2268e+000 40132 93627,93996,93653
 1.3000e+000 94423  8.4356e+000 -3.2930e+001 -2.7954e-001 39514 94149,94227,94175
 1.3000e+000 94400  1.1531e+001 -2.6194e+001 -1.2096e+000 39514 94149,94305,94227
 1.3000e+000 94377  3.4911e+001 -3.5196e+001 -6.6668e+000 39514 94175,94227,94201
 1.3000e+000 94354  1.6200e+001 -2.1353e+001  7.4258e-001 39514 94227,94305,94279
 1.3000e+000 94331  1.0361e+001 -2.3557e+001  2.3648e+000 39514 94227,94279,94253
 1.3000e+000 94573 -1.5890e+001 -4.4376e+001  3.5440e-001 38822 94596,94498,94472
 1.3000e+000 94550 -1.3002e+001 -4.7673e+001  5.4059e+000 38822 94596,94472,94446
 1.3000e+000 94622 -1.9370e+001 -4.6060e+001  3.3595e+000 38822 94524,94498,94596
 1.3000e+000 94645 -2.0341e+001 -5.2418e+001  8.9298e+000 38822 94524,94596,94446
 1.3000e+000 95025  1.6028e+001 -2.4704e+001 -7.2698e+000 38418 95048,94829,94777
 1.3000e+000 95002  1.5714e+001 -2.1737e+001 -3.6200e+000 38418 95120,95048,94777
 1.3000e+000 94979  1.5720e+001 -2.3407e+001 -3.8270e+000 38418 95120,94777,94751
 1.3000e+000 94956  2.6490e+001 -2.2565e+001 -5.8334e+000 38418 95192,94881,94855
 1.3000e+000 94933  1.0601e+001 -3.5324e+001 -4.0823e+000 38418 94777,94829,94803
 1.3000e+000 95074  1.8677e+001 -2.0497e+001 -5.3625e+000 38418 94855,94829,95048
 1.3000e+000 95097  2.4800e+001 -2.3090e+001 -4.1898e+000 38418 95192,94855,95048
 1.3000e+000 95146  1.7572e+001 -2.4770e+001 -4.0043e+000 38418 94907,95048,95120
 1.3000e+000 95169  1.6226e+001 -2.7728e+001 -4.8248e+000 38418 94907,95120,94751
 1.3000e+000 95218  2.3309e+001 -1.7812e+001 -6.2030e+000 38418 94907,94881,95192
 1.3000e+000 95241  1.9116e+001 -2.1076e+001 -3.8585e+000 38418 94907,95192,95048
 1.3000e+000 95511  7.7900e+000 -3.8656e+001 -2.0538e-001 38049 95312,95390,95364
 1.3000e+000 95488  5.4016e+000 -3.9834e+001  3.4860e-001 38049 95312,95416,95390
 1.3000e+000 95465  7.1413e+000 -3.3551e+001  4.7380e-001 38049 95312,95364,95338
 1.3000e+000 95442  9.6555e+000 -4.2465e+001  6.9431e-001 38049 95286,95416,95312
 1.3000e+000 95808  4.7811e+000 -3.4404e+001 -2.0152e+000 37437 95831,95586,95560
 1.3000e+000 95785  4.4449e+000 -2.9808e+001 -7.7552e-002 37437 95831,95560,95534
 1.3000e+000 95762  1.9063e+000 -3.7955e+001  1.3222e-001 37437 95586,95664,95638
 1.3000e+000 95739  1.8411e+000 -1.1470e+001 -1.0205e+001 37437 95534,95690,95664
 1.3000e+000 95716  1.1300e+000 -4.1340e+001 -9.0478e-003 37437 95586,95638,95612
 1.3000e+000 95857  4.4400e+000 -3.0421e+001 -1.3740e+000 37437 95664,95586,95831
 1.3000e+000 95880  4.3155e+000 -2.5609e+001  6.1687e-001 37437 95664,95831,95534
 1.3000e+000 96390  1.2380e+001 -1.5657e+001 -6.5758e+000 36883 96413,96145,96093
 1.3000e+000 96367  9.0852e+000 -1.5828e+001 -1.7503e+000 36883 96413,96093,96067
 1.3000e+000 96344  8.0095e+000 -2.2614e+001 -4.9761e+000 36883 96067,96249,96171
 1.3000e+000 96321  8.3099e+000 -3.6222e+001 -2.2203e-001 36883 96093,96145,96119
 1.3000e+000 96298  2.7849e+000 -3.6890e+001  9.4133e-001 36883 96171,96249,96197
 1.3000e+000 96275  1.1439e+001 -3.2636e+001 -5.4922e-001 36883 96197,96249,96223
 1.3000e+000 96439  1.5153e+001 -7.5811e+000 -1.1113e+001 36883 96171,96145,96413
 1.3000e+000 96462  1.0076e+001 -1.2487e+001 -6.0723e+000 36883 96171,96413,96067
 1.3000e+000 96781  8.9389e+000 -2.2532e+001 -2.2559e+000 36215 96559,96663,96637
 1.3000e+000 96758  1.8331e+001 -1.6425e+001  4.5784e-001 36215 96507,96663,96559
 1.3000e+000 96735  8.2683e+000 -3.0119e+001  1.6892e+000 36215 96585,96637,96611
 1.3000e+000 96712  4.1057e+000 -2.6129e+001 -5.3868e-001 36215 96559,96637,96585
 1.3000e+000 96689  9.0808e+000 -2.1487e+001 -4.1324e+000 36215 96507,96559,96533
 1.3000e+000 97161  2.3043e+001 -1.1054e+000 -5.8634e+000 35818 97184,96965,96939
 1.3000e+000 97138  2.2564e+001 -1.4176e+001 -3.5510e+000 35818 97184,96939,96887
 1.3000e+000 97115  1.6007e+001 -1.0823e+001  6.5027e+000 35818 96965,97043,97017
 1.3000e+000 97092  2.7112e+001 -2.4647e+001 -7.9564e+000 35818 96887,96939,96913
 1.3000e+000 97069  2.0892e+000 -9.7981e+000  4.9435e+000 35818 96965,97017,96991
 1.3000e+000 97210  2.2449e+001 -1.1208e+001 -1.1376e-001 35818 97043,96965,97184
 1.3000e+000 97233  2.3795e+001 -2.1518e+001  2.3741e+000 35818 97043,97184,96887
 1.3000e+000 97739 -1.8108e+001 -4.3013e+001 -1.3959e+001 35214 97416,97468,97442
 1.3000e+000 97716 -1.8159e+001 -2.9331e+001 -9.1162e+000 35214 97416,97598,97468
 1.3000e+000 97693 -1.2418e+001 -2.9709e+001 -2.5690e+000 35214 97762,97520,97468
 1.3000e+000 97670 -1.0250e+001 -3.0029e+001 -5.0840e+000 35214 97762,97468,97598
 1.3000e+000 97647 -1.0490e+001 -2.1813e+001 -8.9452e+000 35214 97546,97598,97572
 1.3000e+000 97624 -1.0567e+001 -2.6618e+001 -3.6616e+000 35214 97468,97520,97494
 1.3000e+000 97788 -1.3598e+001 -3.1890e+001 -1.4853e+000 35214 97546,97520,97762
 1.3000e+000 97811 -1.1989e+001 -3.2423e+001 -3.9320e+000 35214 97546,97762,97598
 1.3000e+000 98189  2.2062e+001 -1.7251e+001  6.0297e+000 34760 98356,98212,97967
 1.3000e+000 98166  8.0429e+000 -3.2524e+001  2.4836e+000 34760 98284,98212,97941
 1.3000e+000 98143  3.7108e+000 -3.0136e+001  4.4094e+000 34760 98284,97941,97915
 1.3000e+000 98120  1.7678e+001 -3.2763e+001  1.0688e-001 34760 98484,97993,97967
 1.3000e+000 98097  1.0737e+001 -2.4035e+001 -7.3058e-002 34760 98556,98045,98019
 1.3000e+000 98238  1.4645e+001 -2.8915e+001 -6.7297e-002 34760 98484,97967,98212
 1.3000e+000 98261  1.2671e+001 -2.9288e+001 -1.2371e+000 34760 98556,98019,98212
 1.3000e+000 98310  1.1946e+001 -2.8320e+001  6.0464e-001 34760 98071,98212,98284
 1.3000e+000 98333  8.9196e+000 -2.2478e+001  1.6231e+000 34760 98071,98284,97915
 1.3000e+000 98382 -2.5086e+000 -3.4965e+001 -1.8370e+000 34760 97941,98212,98356
 1.3000e+000 98510  2.2509e+001 -2.9526e+001 -1.5730e+000 34760 98019,97993,98484
 1.3000e+000 98533  1.7615e+001 -2.7193e+001 -1.3462e+000 34760 98019,98484,98212
 1.3000e+000 98582  1.2747e+001 -1.8817e+001  2.5211e+000 34760 98071,98045,98556
 1.3000e+000 98605  1.3176e+001 -2.4528e+001  4.6162e-001 34760 98071,98556,98212
 1.3000e+000 99032 -2.2353e+000 -2.7295e+001  6.5826e+000 34156 98735,98891,98839
 1.3000e+000 99009 -2.5119e-001 -2.6160e+001  7.1903e+000 34156 98709,98891,98735
 1.3000e+000 98986  8.9176e+000 -2.6079e+001  5.4949e+000 34156 98735,98813,98787
 1.3000e+000 98963  6.4203e+000 -3.0663e+001  7.0223e+000 34156 98735,98839,98813
 1.3000e+000 98940  1.4501e+001 -4.4567e+001  5.5951e+000 34156 98735,98787,98761
 1.3000e+000 98917 -4.7803e+000 -3.3735e+001  9.1301e+000 34156 98839,98891,98865
 1.3000e+000 99231  1.0367e+001 -2.3171e+001  4.1308e+000 33766 99055,99133,99107
 1.3000e+000 99208  5.9126e+000 -2.1816e+001  5.2358e+000 33766 99055,99159,99133
 1.3000e+000 99185  4.0826e+000 -3.8858e+001  2.7491e+000 33766 99055,99107,99081
 1.3000e+000 99818 -8.3249e+000 -2.5550e+001  3.1120e-001 33248 99521,99651,99573
 1.3000e+000 99795 -9.2549e+000 -2.4240e+001  3.1805e+000 33248 99521,99677,99651
 1.3000e+000 99772 -1.5424e+001 -3.8034e+001 -2.5333e+000 33248 99573,99651,99599
 1.3000e+000 99749 -1.0359e+001 -2.9842e+001  3.0077e+000 33248 99495,99677,99521
 1.3000e+000 99726 -7.6283e+000 -2.7268e+001 -6.3180e+000 33248 99599,99651,99625
 1.3000e+000 99703 -1.4785e+001 -3.7826e+001  3.6341e+000 33248 99521,99573,99547
 1.3000e+000 100196  6.4944e+000 -1.9402e+001 -1.1961e+001 32794 100219,99948,99922
 1.3000e+000 100173  4.3925e+000 -2.2935e+001 -3.5646e+000 32794 100219,99922,100052
 1.3000e+000 100150 -4.4644e+000 -1.7822e+001  1.9431e+000 32794 99974,100052,100026
 1.3000e+000 100127  1.5018e+001 -2.7144e+001 -3.1809e+000 32794 99922,100078,100052
 1.3000e+000 100104 -7.1297e+000 -1.9342e+001  2.5511e+000 32794 99974,100026,100000
 1.3000e+000 100245 -3.1384e+000 -2.1498e+001 -9.0074e+000 32794 99974,99948,100219
 1.3000e+000 100268 -2.0463e+000 -2.5057e+001 -2.9354e-001 32794 99974,100219,100052
 1.3000e+000 100418  5.2342e+000 -3.0989e+001  1.2021e+000 32504 100571,100343,100317
 1.3000e+000 100395 -3.8943e+000 -3.5207e+001  9.3283e+000 32504 100571,100317,100441
 1.3000e+000 100467  1.5987e+001 -1.1895e+001 -3.9826e+000 32504 100291,100369,100441
 1.3000e+000 100597  1.0307e+001 -2.3629e+001 -5.2530e+000 32504 100369,100343,100571
 1.3000e+000 100620  6.5172e+000 -2.0699e+001  1.8824e+000 32504 100369,100571,100441
 1.3000e+000 101020  1.1628e+001 -2.4261e+001  3.2884e+000 32142 100772,100902,100876
 1.3000e+000 100997  5.7982e+000 -3.0503e+001  6.0093e-001 32142 100746,100902,100772
 1.3000e+000 100974  5.3132e+000 -3.5927e+001  4.8650e-001 32142 101043,100824,100798
 1.3000e+000 100951  8.9923e+000 -3.5189e+001  7.2994e-001 32142 101043,100798,100772
 1.3000e+000 100928 -1.0941e+001 -4.0465e+001 -1.0500e+001 32142 101115,100876,100850
 1.3000e+000 101069  9.5778e+000 -3.5563e+001 -3.8106e+000 32142 100850,100824,101043
 1.3000e+000 101092 -1.8997e+000 -4.1323e+001 -5.7535e+000 32142 101115,100850,101043
 1.3000e+000 101141  2.4980e-001 -3.4813e+001 -4.1707e+000 32142 100772,100876,101115
 1.3000e+000 101164  7.1617e+000 -3.5412e+001  1.0884e+000 32142 100772,101115,101043
 1.3000e+000 101719  2.7903e+000 -1.8990e+001  3.4945e+000 31538 101742,101477,101399
 1.3000e+000 101696 -9.8247e-001 -2.7441e+001 -5.5025e-001 31538 101814,101742,101399
 1.3000e+000 101673 -5.4349e+000 -2.3053e+001 -5.6957e+000 31538 101814,101399,101373
 1.3000e+000 101650 -1.8878e+000 -9.6298e+000  6.8553e+000 31538 101425,101477,101451
 1.3000e+000 101627  1.7350e+000 -1.7783e+001  2.3961e+000 31538 101399,101477,101425
 1.3000e+000 101604 -4.0443e-001 -3.2041e+001  8.2743e+000 31538 101477,101529,101503
 1.3000e+000 101581  2.3699e+001 -1.5850e+001 -6.2365e+000 31538 101347,101555,101373
 1.3000e+000 101768 -3.5156e+000 -2.8253e+001  6.4243e+000 31538 101529,101477,101742
 1.3000e+000 101791  6.2947e+000 -2.5579e+001  2.1122e+000 31538 101529,101742,101555
 1.3000e+000 101840  8.9143e+000 -2.3614e+001 -1.9393e+000 31538 101555,101742,101814
 1.3000e+000 101863  3.4208e+000 -1.9815e+001 -6.5903e+000 31538 101555,101814,101373
 1.3000e+000 102111  6.3369e+000 -3.8398e+001  6.3766e+000 31112 101886,101990,101912
 1.3000e+000 102088  1.5283e+001 -2.5669e+001  1.1551e+000 31112 101886,102016,101990
 1.3000e+000 102065  9.8844e+000 -3.9447e+001  9.7055e+000 31112 101912,101990,101964
 1.3000e+000 102042  7.5014e-001 -3.9511e+001  1.5330e+001 31112 101912,101964,101938
 1.3000e+000 102408  1.2657e+001 -2.2863e+001 -6.6281e-001 30658 102431,102186,102160
 1.3000e+000 102385  1.2948e+001 -2.1062e+001 -2.5503e+000 30658 102431,102160,102264
 1.3000e+000 102362  8.5389e+000 -2.6451e+001 -1.2347e-001 30658 102186,102238,102212
 1.3000e+000 102339  1.5727e+001 -2.1694e+001 -4.5907e+000 30658 102134,102264,102160
 1.3000e+000 102316  1.8603e+001 -1.5225e+001 -1.4733e+001 30658 102134,102290,102264
 1.3000e+000 102457  1.3893e+001 -2.5306e+001 -9.9404e-001 30658 102238,102186,102431
 1.3000e+000 102480  1.3952e+001 -2.3853e+001 -2.9333e+000 30658 102238,102431,102264
 1.3000e+000 102681  7.3598e+000 -2.7065e+001  4.8326e+000 30004 102704,102557,102505
 1.3000e+000 102658  9.4001e+000 -2.5710e+001  4.2412e+000 30004 102704,102505,102609
 1.3000e+000 102635  1.1873e+001 -1.5631e+001  4.7025e+000 30004 102505,102557,102531
 1.3000e+000 102730  9.2660e+000 -3.0014e+001  6.2418e+000 30004 102583,102557,102704
 1.3000e+000 102753  1.3975e+001 -2.7268e+001  5.0913e+000 30004 102583,102704,102609
 1.3000e+000 103003  8.9579e+000 -2.2203e+001  1.0970e+000 29564 103026,102804,102778
 1.3000e+000 102980  8.4780e+000 -2.2510e+001  1.5797e+000 29564 103026,102778,102908
 1.3000e+000 102957  4.5863e+000 -1.8247e+001  5.3894e-001 29564 102856,102908,102882
 1.3000e+000 102934  5.1683e+000 -2.7474e+001  3.1588e+000 29564 102804,102856,102830
 1.3000e+000 103052  8.1185e+000 -2.2372e+001  1.3169e+000 29564 102856,102804,103026
 1.3000e+000 103075  8.0145e+000 -2.2410e+001  1.7856e+000 29564 102856,103026,102908
 1.3000e+000 103634 -9.3276e+000 -3.4485e+001 -9.9899e+000 29160 103657,103418,103392
 1.3000e+000 103611 -8.2734e+000 -3.2433e+001 -7.2658e+000 29160 103657,103392,103314
 1.3000e+000 103588  1.7315e+000 -3.1461e+001 -1.0213e+001 29160 103314,103392,103366
 1.3000e+000 103565 -2.0748e+000 -3.6629e+001 -8.5506e+000 29160 103314,103366,103340
 1.3000e+000 103542 -1.5195e+001 -2.9680e+001 -8.9921e+000 29160 103262,103444,103314
 1.3000e+000 103519 -1.8421e+001 -3.2791e+001 -1.4867e+001 29160 103262,103314,103288
 1.3000e+000 103496 -1.0270e+001 -2.8141e+001 -9.3788e+000 29160 103262,103470,103444
 1.3000e+000 103683 -1.3588e+001 -3.8127e+001 -1.3694e+001 29160 103444,103418,103657
 1.3000e+000 103706 -9.7379e+000 -3.1946e+001 -1.0518e+001 29160 103444,103657,103314
 1.3000e+000 104035  1.1365e+001 -1.7879e+001  3.6155e+000 28770 103836,103914,103862
 1.3000e+000 104012  8.9363e+000 -1.8649e+001  3.5084e+000 28770 103810,103914,103836
 1.3000e+000 103989  2.2280e+001 -1.3135e+001  2.5796e+000 28770 103810,103940,103914
 1.3000e+000 103966  1.4457e+001 -1.3540e+001  4.9653e+000 28770 103862,103914,103888
 1.3000e+000 104185 -1.2672e+000 -3.7758e+001 -1.1584e+000 28366 104208,104110,104084
 1.3000e+000 104162  8.2629e+000 -2.5952e+001  4.6898e+000 28366 104280,104208,104084
 1.3000e+000 104234  3.8435e+000 -2.9374e+001 -1.6599e+000 28366 104610,104208,104136
 1.3000e+000 104257 -7.9924e+000 -3.5109e+001  6.8288e-001 28366 104538,104410,104208
 1.3000e+000 104306 -1.0368e+001 -3.5694e+001  8.1775e-001 28366 104538,104208,104280
 1.3000e+000 104436 -6.9379e-001 -2.8087e+001 -3.3778e+000 28366 104136,104208,104410
 1.3000e+000 104564 -1.0552e+001 -3.4604e+001 -6.5456e-001 28366 104058,104410,104538
 1.3000e+000 104587 -1.1915e+001 -3.4580e+001 -7.2331e-001 28366 104058,104538,104280
 1.3000e+000 104636 -6.6399e+000 -3.3735e+001 -1.3219e+000 28366 104110,104208,104610
 1.3000e+000 105349  7.8581e+000 -2.4480e+001 -6.6755e-001 27976 105516,105372,105107
 1.3000e+000 105326  2.5702e+000 -2.5246e+001  5.4531e+000 27976 105588,105372,105055
 1.3000e+000 105303 -1.4729e+001 -2.6201e+001 -6.6366e+000 27976 105444,105159,105133
 1.3000e+000 105280  1.4615e+001 -2.7055e+001  1.9813e+000 27976 105516,105107,105081
 1.3000e+000 105257  4.6109e+000 -2.7794e+001  8.4851e+000 27976 105588,105055,105029
 1.3000e+000 105234 -1.2904e+000 -1.6389e+001  4.7362e-001 27976 105003,105185,105159
 1.3000e+000 105211 -3.1553e+000 -1.0285e+001  4.6311e+000 27976 104977,105185,105003
 1.3000e+000 105398  1.2749e+001 -2.5490e+001 -3.3383e+000 27976 105133,105107,105372
 1.3000e+000 105421 -1.4424e+000 -3.1427e+001 -3.2357e+000 27976 105444,105133,105372
 1.3000e+000 105470 -2.9755e-001 -1.4487e+001 -1.5872e+000 27976 105003,105159,105444
 1.3000e+000 105493  7.1684e+000 -2.3089e+001  4.5882e-001 27976 105003,105444,105372
 1.3000e+000 105542  1.2470e+001 -2.3356e+001  4.8701e+000 27976 105055,105372,105516
 1.3000e+000 105565  2.2513e+001 -2.4680e+001  6.8658e+000 27976 105055,105516,105081
 1.3000e+000 105614 -9.1617e-001 -2.7580e+001  6.4643e+000 27976 105003,105372,105588
 1.3000e+000 105637  2.1869e-001 -3.0490e+001  9.6231e+000 27976 105003,105588,105029
 1.3000e+000 106143  4.7175e+000 -3.9178e+001  6.7075e-001 27664 106166,105846,105820
 1.3000e+000 106120  1.3824e+000 -3.4689e+001  2.8258e+000 27664 106310,106166,105820
 1.3000e+000 106097  4.8080e+000 -3.0883e+001 -4.1598e+000 27664 106382,106238,105950
 1.3000e+000 106074  9.1464e+000 -3.7730e+001  6.0706e+000 27664 106310,105820,106002
 1.3000e+000 106051  1.1025e+001 -2.8110e+001 -3.5104e+000 27664 106382,105950,105924
 1.3000e+000 106028  1.4546e+000 -6.1546e+001 -4.0534e+000 27664 105846,105898,105872
 1.3000e+000 106192 -4.6807e+000 -4.8404e+001 -8.2530e+000 27664 105898,105846,106166
 1.3000e+000 106215  4.5616e+000 -3.3736e+001  5.2065e-001 27664 106238,105898,106166
 1.3000e+000 106264 -8.8611e+000 -3.5477e+001 -4.8091e+000 27664 105976,105950,106238
 1.3000e+000 106287  2.4209e+000 -3.7531e+001  1.9094e+000 27664 105976,106238,106166
 1.3000e+000 106336  8.8480e+000 -3.0984e+001  7.9290e+000 27664 105976,106166,106310
 1.3000e+000 106359  1.7217e+001 -3.3872e+001  1.1043e+001 27664 105976,106310,106002
 1.3000e+000 106408  1.4639e+000 -2.7063e+001  2.7862e+000 27664 105898,106238,106382
 1.3000e+000 106431  5.4941e+000 -2.5349e+001  2.8748e+000 27664 105898,106382,105924
 1.3000e+000 106728  1.7550e+001 -1.4531e+001  4.4008e+000 27153 106751,106506,106454
 1.3000e+000 106705  1.6604e+001 -1.8808e+001  2.3215e+000 27153 106751,106454,106610
 1.3000e+000 106682  2.1092e+001 -6.7033e+000  5.4083e+000 27153 106454,106506,106480
 1.3000e+000 106659  1.2693e+001 -2.2276e+001  3.1878e+000 27153 106532,106610,106584
 1.3000e+000 106636  1.6068e+001 -1.1696e+001  6.7802e+000 27153 106532,106584,106558
 1.3000e+000 106777  1.9258e+001 -7.0449e+000  6.8151e+000 27153 106532,106506,106751
 1.3000e+000 106800  1.6284e+001 -1.4681e+001  4.6970e+000 27153 106532,106751,106610
 1.3000e+000 107180 -9.9882e+000 -3.4269e+001 -6.1933e-001 26642 107203,106984,106958
 1.3000e+000 107157 -1.2602e+001 -3.5789e+001 -2.1920e+000 26642 107203,106958,106932
 1.3000e+000 107134 -2.0676e+001 -4.4640e+001 -1.4445e+000 26642 107275,107036,107010
 1.3000e+000 107111 -1.2135e+001 -3.4537e+001 -1.0337e+001 26642 106932,107062,107036
 1.3000e+000 107088 -3.1133e-001 -2.5386e+001  3.1325e+000 26642 106906,107062,106932
 1.3000e+000 107229 -4.3069e+000 -2.6772e+001 -7.3900e+000 26642 107010,106984,107203
 1.3000e+000 107252 -1.5871e+001 -3.5710e+001 -3.2663e+000 26642 107275,107010,107203
 1.3000e+000 107301 -1.5585e+001 -4.4325e+001 -5.7826e+000 26642 106932,107036,107275
 1.3000e+000 107324 -1.5111e+001 -4.3724e+001 -5.9927e+000 26642 106932,107275,107203
 1.3000e+000 107675  2.0109e+001 -1.1397e+001  5.5610e+000 26045 107450,107554,107476
 1.3000e+000 107652  2.1020e+001 -6.1336e+000  2.3014e+000 26045 107450,107580,107554
 1.3000e+000 107629  4.5284e+001 -1.4305e+001  3.6255e+000 26045 107476,107528,107502
 1.3000e+000 107606  2.9534e+001 -1.0046e+001  2.9028e+000 26045 107476,107554,107528
 1.3000e+000 107874  7.5148e+000 -3.8727e+001  3.3304e+000 25641 107750,107802,107776
 1.3000e+000 107851  1.1189e+001 -2.7819e+001  3.6355e+000 25641 107724,107802,107750
 1.3000e+000 107828  4.2387e+000 -2.8624e+001  5.8914e+000 25641 107698,107802,107724
 1.3000e+000 108431  3.6503e+000 -3.3335e+001  6.3897e+000 25023 108526,108267,108241
 1.3000e+000 108408  1.2373e+001 -3.3282e+001  2.3065e+000 25023 108059,108267,108085
 1.3000e+000 108385  7.3671e-001 -3.5732e+001  1.9523e+000 25023 108454,108163,108111
 1.3000e+000 108362  1.0160e+000 -3.3059e+001  4.8355e+000 25023 108454,108111,108085
 1.3000e+000 108339  8.9155e+000 -3.3750e+001  1.0096e+000 25023 108111,108163,108137
 1.3000e+000 108316 -7.4514e+000 -2.6164e+001 -2.4469e+000 25023 108163,108241,108215
 1.3000e+000 108293  8.3402e+000 -1.7693e+001  6.4627e+000 25023 108163,108215,108189
 1.3000e+000 108480  3.5968e+000 -2.9503e+001  1.2316e+000 25023 108241,108163,108454
 1.3000e+000 108503  2.0476e+000 -3.0357e+001  5.3775e+000 25023 108526,108241,108454
 1.3000e+000 108552  2.4394e+000 -3.7122e+001  5.9184e+000 25023 108085,108267,108526
 1.3000e+000 108575  6.5553e-001 -3.4410e+001  4.8280e+000 25023 108085,108526,108454
 1.3000e+000 108823  1.2670e+001 -1.5267e+001  4.5093e+000 24461 108624,108728,108650
 1.3000e+000 108800  9.5002e+000 -4.0476e+001 -2.2966e+000 24461 108598,108728,108624
 1.3000e+000 108777  4.7179e+000 -3.9730e+001 -5.9293e-001 24461 108650,108728,108676
 1.3000e+000 108754  1.7391e+001 -5.3567e+001  1.6283e+001 24461 108676,108728,108702
 1.3000e+000 109022  1.2904e+001 -3.0533e+001 -4.4263e-001 24121 108872,108924,108898
 1.3000e+000 108999  8.2672e+000 -2.8062e+001 -4.1795e-001 24121 108846,108924,108872
 1.3000e+000 108976  1.7374e+000 -3.1352e+001  1.0864e+000 24121 108846,108950,108924
 1.3000e+000 109483  1.7659e+001 -2.8085e+001 -7.7963e+000 23717 109209,109339,109235
 1.3000e+000 109460  1.0464e+000 -5.6395e+001 -9.6448e-001 23717 109209,109365,109339
 1.3000e+000 109437  7.7857e+000 -3.6284e+001 -2.1655e+000 23717 109287,109339,109313
 1.3000e+000 109414 -6.1852e+000 -4.1188e+001 -2.7057e+000 23717 109235,109339,109287
 1.3000e+000 109391  6.6779e+000 -4.1351e+001  6.6681e+000 23717 109235,109287,109261
 1.3000e+000 109910  8.1083e+000 -3.6355e+001  8.3852e-001 23305 109613,109743,109717
 1.3000e+000 109887  1.3033e+001 -3.4289e+001  9.8339e-001 23305 109613,109769,109743
 1.3000e+000 109864 -4.7915e-001 -3.1164e+001  2.5976e+000 23305 109613,109717,109639
 1.3000e+000 109841  1.9714e+001 -4.8463e+001  6.3483e+000 23305 109587,109769,109613
 1.3000e+000 109818  1.8015e+001 -2.3088e+001 -4.2274e+000 23305 109639,109717,109691
 1.3000e+000 109795  1.3268e+001 -3.2844e+001  4.9819e+000 23305 109639,109691,109665
 1.3000e+000 110180  2.2774e+001 -9.7595e+000 -1.1469e+000 22851 110007,110059,110033
 1.3000e+000 110157  1.2072e+001 -3.3637e+001 -3.5182e+000 22851 109981,110059,110007
 1.3000e+000 110134  1.6955e+001 -3.0873e+001 -2.4117e+000 22851 109955,110059,109981
 1.3000e+000 110111  2.0354e+001 -2.9989e+001 -3.9266e+000 22851 109955,110085,110059
 1.3000e+000 110737  1.1568e+000 -3.1037e+001 -2.1647e+000 22333 110760,110469,110391
 1.3000e+000 110714  5.5857e+000 -2.7426e+001 -3.7287e+000 22333 110760,110391,110365
 1.3000e+000 110691  9.2191e+000 -2.9098e+001 -1.9859e+000 22333 110832,110521,110469
 1.3000e+000 110668  1.0831e+001 -5.0752e+001 -9.3111e-001 22333 110417,110469,110443
 1.3000e+000 110645 -6.3735e+000 -4.8050e+001 -8.2633e-001 22333 110391,110469,110417
 1.3000e+000 110622  1.2763e+001 -2.7948e+001 -1.1521e+000 22333 110469,110521,110495
 1.3000e+000 110599  5.3085e+000 -2.6169e+001 -8.9967e+000 22333 110365,110573,110547
 1.3000e+000 110786  5.6304e+000 -2.8470e+001 -5.1764e-001 22333 110832,110469,110760
 1.3000e+000 110809  2.2564e-001 -3.3486e+001 -6.4359e+000 22333 110547,110760,110365
 1.3000e+000 110858  1.8734e+001 -2.8907e+001 -4.9746e+000 22333 110547,110521,110832
 1.3000e+000 110881  1.0026e+001 -3.0663e+001 -4.8977e+000 22333 110547,110832,110760
 1.3000e+000 111308 -1.7877e+001 -4.0168e+001  1.3879e+000 21829 111331,111063,111011
 1.3000e+000 111285 -2.0505e+001 -3.9434e+001 -9.3345e-001 21829 111331,111011,111167
 1.3000e+000 111262 -1.8994e+001 -4.2124e+001  1.8658e-001 21829 111403,111089,111063
 1.3000e+000 111239 -2.3893e+001 -4.8418e+001  4.5263e+000 21829 111011,111063,111037
 1.3000e+000 111216 -1.6138e+001 -3.5806e+001  1.1248e+000 21829 110985,111167,111011
 1.3000e+000 111193 -2.3591e+001 -6.9572e+001  7.5148e+000 21829 111089,111141,111115
 1.3000e+000 111357 -1.9557e+001 -4.1669e+001  1.9312e-001 21829 111403,111063,111331
 1.3000e+000 111380 -2.0616e+001 -4.2110e+001 -2.1945e+000 21829 111141,111331,111167
 1.3000e+000 111429 -1.8114e+001 -4.1427e+001 -3.0020e-001 21829 111141,111089,111403
 1.3000e+000 111452 -1.8936e+001 -4.0804e+001 -1.1502e-001 21829 111141,111403,111331
 1.3000e+000 112056  2.0719e+001 -3.0727e+001 -6.0922e-002 21489 111687,111765,111739
 1.3000e+000 112033  8.8257e+000 -3.8144e+001  1.2391e+000 21489 112151,112079,111687
 1.3000e+000 112010  5.1981e+000 -5.8762e+001  1.6539e+000 21489 111791,111843,111817
 1.3000e+000 111987 -3.1950e+000 -4.7437e+001 -5.2740e+000 21489 112079,111843,111791
 1.3000e+000 111964  1.3783e+001 -3.5671e+001  4.1739e+000 21489 112151,111687,111661
 1.3000e+000 111941  3.1310e+000 -2.1628e+001  5.5453e+000 21489 111661,111869,111843
 1.3000e+000 111918  1.9868e+001 -3.4824e+001  5.8454e+000 21489 111687,111739,111713
 1.3000e+000 111895 -4.5372e-002 -2.9582e+001 -1.1268e+001 21489 111635,111869,111661
 1.3000e+000 112105  6.8922e-001 -3.9094e+001  4.5835e-001 21489 111765,111687,112079
 1.3000e+000 112128 -4.8742e-002 -3.9685e+001  8.4889e-001 21489 111765,112079,111791
 1.3000e+000 112177  6.3109e-001 -3.7615e+001 -2.9817e+000 21489 111843,112079,112151
 1.3000e+000 112200  5.1058e+000 -3.6661e+001 -5.9511e-001 21489 111843,112151,111661
 1.3000e+000 112578  2.0861e+000 -4.7521e+001  6.4397e-001 21177 112382,112434,112408
 1.3000e+000 112555  3.4618e+000 -4.1760e+001  2.5918e-001 21177 112330,112434,112382
 1.3000e+000 112532  8.8576e+000 -3.6010e+001  4.8449e+000 21177 112304,112434,112330
 1.3000e+000 112509  4.5559e+000 -4.5680e+001  0.0000e+000 21177 112330,112382,112356
 1.3000e+000 112486  1.7460e+001 -3.6124e+001  4.3707e+000 21177 112304,112460,112434
 1.3000e+000 112679  2.9678e-001 -6.2576e+001 -4.2166e+000 20666 112601,112653,112627
 1.3000e+000 112927  1.0345e+001 -3.4923e+001  2.6839e+000 19762 112702,112754,112728
 1.3000e+000 112904  8.5248e+000 -2.8032e+001  1.5760e+000 19762 112702,112832,112754
 1.3000e+000 112881  2.6326e+000 -3.8841e+001  4.2037e+000 19762 112754,112832,112806
 1.3000e+000 112858  2.4102e+000 -4.4291e+001  7.0421e+000 19762 112754,112806,112780
 1.3000e+000 113297  5.2362e+000 -3.3590e+001  2.1518e+000 19308 112974,113052,113026
 1.3000e+000 113274  1.3122e+001 -3.0794e+001 -2.9348e-001 19308 112974,113156,113052
 1.3000e+000 113251  1.5671e+001 -4.0657e+001 -5.4237e+000 19308 113052,113130,113104
 1.3000e+000 113228  1.7125e+001 -2.4569e+001  2.1744e+000 19308 113052,113156,113130
 1.3000e+000 113205  1.3594e+001 -3.4504e+001  0.0000e+000 19308 113052,113104,113078
 1.3000e+000 113182  3.5559e+000 -3.1947e+001  4.4658e-001 19308 112974,113026,113000
 1.3000e+000 113547 -3.8645e+000 -3.8140e+001 -1.7485e+000 18711 113570,113374,113348
 1.3000e+000 113524 -2.7140e+000 -3.9934e+001 -2.3072e+000 18711 113570,113348,113452
 1.3000e+000 113501  8.4532e-002 -2.4190e+001 -1.0946e+001 18711 113322,113452,113348
 1.3000e+000 113478 -8.9598e+000 -5.1400e+001  3.5129e-001 18711 113374,113426,113400
 1.3000e+000 113596 -4.8341e+000 -4.0015e+001 -1.1592e+000 18711 113426,113374,113570
 1.3000e+000 113619 -3.1974e+000 -4.1285e+001 -2.0586e+000 18711 113426,113570,113452
 1.3000e+000 113771  6.5123e+000 -4.0551e+001 -1.5356e+000 18307 113670,113722,113696
 1.3000e+000 113748  1.1225e+001 -4.6933e+001 -2.1941e+000 18307 113644,113722,113670
 1.3000e+000 113972  8.2622e+000 -3.7450e+001  4.6639e-001 17945 113822,113874,113848
 1.3000e+000 113949  9.6704e+000 -3.5797e+001  1.3612e+000 17945 113822,113900,113874
 1.3000e+000 113926  1.8379e+000 -4.5372e+001  1.0247e+001 17945 113796,113900,113822
 1.3000e+000 114075  2.7579e+001 -4.8740e+001  7.3647e+000 17482 113997,114049,114023
 1.3000e+000 114479  4.5477e+000 -3.2142e+001  6.6954e-001 17042 114257,114361,114335
 1.3000e+000 114456  1.2264e+001 -2.4847e+001 -3.6168e+000 17042 114205,114361,114257
 1.3000e+000 114433  8.6755e+000 -3.4777e+001  7.8718e-001 17042 114205,114257,114231
 1.3000e+000 114410  6.6554e+000 -4.5140e+001 -3.6342e+000 17042 114283,114335,114309
 1.3000e+000 114387 -1.5199e+000 -3.4681e+001 -3.1470e+000 17042 114257,114335,114283
 1.3000e+000 114879 -1.7096e+001 -4.5631e+001 -1.7428e+000 16638 114631,114683,114657
 1.3000e+000 114856  6.4016e+000 -3.5497e+001 -1.9469e+000 16638 114605,114683,114631
 1.3000e+000 114833  8.1189e+000 -2.5200e+001 -9.9197e-002 16638 114605,114761,114683
 1.3000e+000 114810  1.0728e+000 -4.3444e+001 -1.4007e+000 16638 114683,114735,114709
 1.3000e+000 114787 -5.2566e+000 -5.0380e+001 -5.1365e+000 16638 114683,114761,114735
 1.3000e+000 115078 -1.0312e+001 -2.8918e+001  3.0715e+000 16232 114954,115006,114980
 1.3000e+000 115055 -4.4992e+000 -4.2545e+001  4.9860e+000 16232 114928,115006,114954
 1.3000e+000 115032  7.4547e+000 -6.2113e+001  6.8448e+000 16232 114902,115006,114928
 1.3000e+000 115228 -1.8506e+001 -4.0349e+001 -6.7534e-001 15482 115101,115153,115127
 1.3000e+000 115205 -1.2189e+001 -3.6308e+001 -2.5832e+000 15482 115101,115179,115153
 1.3000e+000 115331 -3.4575e+000 -4.3977e+001 -5.1321e+000 15163 115253,115305,115279
 1.3000e+000 115434 -8.3399e+000 -4.8435e+001  6.4721e+000 421 115356,115408,115382
 1.4000e+000 68213  5.8714e+001 -2.5469e+001 -8.4106e+000 67888 68112,68164,68138
 1.4000e+000 68190 -3.3100e+001 -5.5191e+001 -1.1336e+001 67888 68086,68164,68112
 1.4000e+000 68314  6.3871e+001 -5.5207e+001  1.4009e+001 67576 68236,68288,68262
 1.4000e+000 68584  5.2800e+000 -5.4370e+001  4.8941e+000 67378 68385,68489,68463
 1.4000e+000 68561  4.8195e+001 -3.8084e+001  7.6090e+000 67378 68359,68489,68385
 1.4000e+000 68538  8.3305e+000 -3.8696e+001  6.1664e+000 67378 68385,68463,68411
 1.4000e+000 68515  6.9299e+000 -1.7983e+001  7.4734e+000 67378 68411,68463,68437
 1.4000e+000 68964  1.2045e+001 -3.5534e+001  1.0236e+001 67130 68690,68820,68716
 1.4000e+000 68941  5.8024e+001 -3.3017e+001  2.4244e+001 67130 68690,68846,68820
 1.4000e+000 68918  6.6795e+000 -1.4708e+001  3.8404e+000 67130 68742,68820,68794
 1.4000e+000 68895  2.2195e+001 -1.1862e+001  5.4752e+000 67130 68716,68820,68742
 1.4000e+000 68872  1.0623e+001 -8.4147e+000  2.1682e-001 67130 68742,68794,68768
 1.4000e+000 69065  8.3148e+000 -3.9448e+001 -1.7006e+000 66926 68987,69039,69013
 1.4000e+000 69445  1.0500e+001 -3.7959e+001 -1.4745e-001 66614 69223,69301,69275
 1.4000e+000 69422  7.9290e+000 -3.8901e+001 -2.3124e-001 66614 69171,69301,69223
 1.4000e+000 69399  4.1462e+000 -4.3425e+001  1.4512e+000 66614 69171,69327,69301
 1.4000e+000 69376  1.7836e+001 -3.5662e+000  5.0080e+000 66614 69223,69275,69249
 1.4000e+000 69353  6.1890e+000 -4.4815e+001 -1.5643e+000 66614 69171,69223,69197
 1.4000e+000 69546  1.2515e+001 -2.8249e+001  1.8134e+000 66416 69468,69520,69494
 1.4000e+000 69997  2.2563e+001 -4.0549e+001 -3.9793e+000 66104 69700,69830,69726
 1.4000e+000 69974  1.6322e+001 -4.2303e+001 -5.0006e+000 66104 69700,69856,69830
 1.4000e+000 69951  2.1976e+001 -1.5379e+001 -5.1535e+000 66104 69726,69804,69778
 1.4000e+000 69928  2.8634e+001 -2.8944e+001 -6.2635e+000 66104 69726,69830,69804
 1.4000e+000 69905  1.6378e+001 -1.5669e+001 -4.2958e+000 66104 69726,69778,69752
 1.4000e+000 69882  5.8279e+001 -5.8926e+001 -3.0232e+001 66104 69674,69856,69700
 1.4000e+000 70326  3.4235e+001 -1.0037e+001  8.3855e-001 65814 70349,70153,70127
 1.4000e+000 70303  3.2946e+001 -7.8414e+000 -1.4412e+000 65814 70349,70127,70101
 1.4000e+000 70280  1.5090e+001 -8.8991e+000  2.3878e+001 65814 70101,70231,70205
 1.4000e+000 70257  1.5596e+001 -2.8390e+001 -5.5184e+000 65814 70153,70205,70179
 1.4000e+000 70375  3.3174e+001 -1.3227e+001  1.0252e+000 65814 70205,70153,70349
 1.4000e+000 70398  3.2410e+001 -1.0396e+001 -1.4060e+000 65814 70205,70349,70101
 1.4000e+000 70904  2.0533e+001  7.3967e+000  1.0833e+000 65502 70607,70737,70685
 1.4000e+000 70881  2.5232e+001  8.7399e+000  5.8059e-001 65502 70581,70737,70607
 1.4000e+000 70858  2.6216e+001  2.2106e+001  6.9502e+000 65502 70581,70763,70737
 1.4000e+000 70835  5.8576e+001  1.9506e+001 -1.4888e+001 65502 70685,70737,70711
 1.4000e+000 70812  6.6930e+000 -1.8730e+000  3.0289e+000 65502 70607,70659,70633
 1.4000e+000 70789  1.5270e+001 -4.5273e+000  2.4497e+000 65502 70607,70685,70659
 1.4000e+000 71103  4.5917e+001 -4.0867e+001 -4.3717e+000 65304 71126,70979,70953
 1.4000e+000 71080  3.7050e+001 -4.1935e+001 -2.6638e+000 65304 71126,70953,70927
 1.4000e+000 71057  2.5029e+001 -4.2598e+001 -1.2425e+000 65304 70927,71031,71005
 1.4000e+000 71152  3.6780e+001 -3.4126e+001 -6.8006e+000 65304 71005,70979,71126
 1.4000e+000 71175  2.6023e+001 -3.7575e+001 -2.9592e+000 65304 71005,71126,70927
 1.4000e+000 71374  1.9812e+001 -3.2771e+001  5.6242e-001 65106 71198,71276,71224
 1.4000e+000 71351  3.3252e+001 -3.1693e+001  5.0218e-001 65106 71198,71302,71276
 1.4000e+000 71328  2.3389e+001 -2.3544e+001  3.3135e+000 65106 71224,71276,71250
 1.4000e+000 71756 -5.7386e+000 -1.7772e+001 -1.4101e+000 64652 71508,71638,71534
 1.4000e+000 71733 -3.9211e-001 -1.5493e+001  3.5830e-001 64652 71482,71638,71508
 1.4000e+000 71710 -1.4861e+001 -4.4395e+001  1.0923e+001 64652 71534,71586,71560
 1.4000e+000 71687 -1.6292e+000 -3.7128e+001 -2.6055e-001 64652 71534,71612,71586
 1.4000e+000 71664 -1.3456e+001 -3.6262e+001 -5.4442e+000 64652 71534,71638,71612
 1.4000e+000 72085  2.7382e+001 -2.7869e+001 -6.1601e+000 64248 71886,71964,71912
 1.4000e+000 72062  3.2747e+001 -2.3352e+001 -8.7949e+000 64248 71860,71964,71886
 1.4000e+000 72039  4.3568e+001 -3.6325e+001 -3.9582e+000 64248 71912,71964,71938
 1.4000e+000 72016  2.0173e+001 -2.2374e+001 -4.7419e+000 64248 71860,71990,71964
 1.4000e+000 72235  4.5150e+001 -5.8542e+000 -1.2129e+000 63858 72588,72258,72134
 1.4000e+000 72212  3.7254e+001  4.0605e+000  1.7196e+000 63858 72330,72258,72108
 1.4000e+000 72284  4.3300e+001 -1.0295e+001 -2.5048e+000 63858 72160,72134,72258
 1.4000e+000 72307  1.8041e+001 -7.1088e+000 -1.2261e+001 63858 72460,72258,72186
 1.4000e+000 72356  2.3531e+001 -2.2722e+000 -9.1286e+000 63858 72186,72258,72330
 1.4000e+000 72486  5.2545e+001  1.5388e+000 -1.2634e+001 63858 72160,72258,72460
 1.4000e+000 72614  4.8019e+001 -4.6540e+000 -1.2336e+000 63858 72108,72258,72588
 1.4000e+000 73248  6.7865e+000 -6.7990e+001  2.3632e+001 63404 72902,72954,72928
 1.4000e+000 73225 -1.6696e+001 -4.9059e+001  1.2756e+001 63404 73271,72954,72902
 1.4000e+000 73202 -1.0358e+001 -2.7631e+001  1.0938e+001 63404 73271,72902,73032
 1.4000e+000 73179 -7.8334e+000 -2.0239e+001  3.9992e+000 63404 72902,73058,73032
 1.4000e+000 73156 -9.9702e+000 -4.1321e+001 -2.6836e+000 63404 72980,73032,73006
 1.4000e+000 73133 -8.7357e+000 -1.1460e+001  7.6027e+000 63404 72876,73058,72902
 1.4000e+000 73110 -4.9113e+000 -7.3255e+000  5.4671e+000 63404 72876,73084,73058
 1.4000e+000 73297 -8.6847e+000 -5.2059e+001 -2.5515e-001 63404 72980,72954,73271
 1.4000e+000 73320 -7.7452e+000 -4.0480e+001 -1.3433e-001 63404 72980,73271,73032
 1.4000e+000 73470 -6.1565e+000 -7.3336e+001  4.8693e+000 63014 73343,73395,73369
 1.4000e+000 73447 -3.2911e+001 -1.1204e+002 -6.9749e+000 63014 73343,73421,73395
 1.4000e+000 73929  3.2206e+001 -4.5671e+001 -9.1054e+000 62702 73759,73811,73785
 1.4000e+000 73906  2.4702e+001 -4.7254e+001 -5.3145e+000 62702 73655,73811,73759
 1.4000e+000 73883  2.8760e+001 -4.8673e+001 -3.2668e+000 62702 73655,73759,73681
 1.4000e+000 73860  3.9246e+001 -2.9258e+001 -2.3438e+001 62702 73681,73759,73707
 1.4000e+000 73837  2.7773e+000 -3.7776e+001 -8.8119e+000 62702 73707,73759,73733
 1.4000e+000 74209 -1.8082e+001 -5.0261e+001 -1.0234e+000 62404 74059,74137,74085
 1.4000e+000 74186 -2.3290e+001 -7.1934e+001  9.3820e+000 62404 74033,74137,74059
 1.4000e+000 74163 -1.8034e+001 -3.2902e+001  5.5913e-001 62404 74085,74137,74111
 1.4000e+000 74408  2.4621e+001 -3.0406e+001 -6.1240e+000 62000 74258,74336,74284
 1.4000e+000 74385  2.9493e+001 -3.0211e+001 -1.0760e+001 62000 74232,74336,74258
 1.4000e+000 74362  2.8712e+001 -2.9925e+001 -4.6688e+000 62000 74284,74336,74310
 1.4000e+000 74509  3.6975e+001 -6.7758e+001  1.7463e+001 61802 74431,74483,74457
 1.4000e+000 74759 -2.4425e+000 -4.4228e+001 -3.0846e+000 61554 74782,74586,74560
 1.4000e+000 74736  9.7499e+000 -3.2393e+001  3.6077e+000 61554 74782,74560,74664
 1.4000e+000 74713  6.9960e-001 -1.1777e+001  2.9892e+001 61554 74854,74612,74586
 1.4000e+000 74690  4.4084e+000 -3.7672e+001 -5.2115e-002 61554 74534,74664,74560
 1.4000e+000 74808 -1.3203e+001 -3.1530e+001  6.1618e+000 61554 74854,74586,74782
 1.4000e+000 74831  8.5579e+000 -4.7816e+001  4.7818e+000 61554 74638,74782,74664
 1.4000e+000 74880  3.1318e+001 -3.2219e+001  3.2099e+001 61554 74638,74612,74854
 1.4000e+000 74903  3.0845e+001 -2.9804e+001  1.4170e+001 61554 74638,74854,74782
 1.4000e+000 75285  4.4576e+001 -4.5506e+001 -4.0287e-001 61356 75063,75167,75115
 1.4000e+000 75262  3.8847e+001 -5.6079e+001 -4.1638e+000 61356 75037,75167,75063
 1.4000e+000 75239  4.8776e+001 -5.0161e+001  3.8246e-001 61356 75115,75167,75141
 1.4000e+000 75216  3.9567e+001 -4.5354e+001  5.3922e-001 61356 75063,75115,75089
 1.4000e+000 75193  1.5617e+001 -3.1251e+001  9.5699e+000 61356 75011,75167,75037
 1.4000e+000 75631  3.5722e+001 -2.1588e+001  7.6389e+000 60952 75654,75412,75360
 1.4000e+000 75608  3.4239e+001 -3.9139e+001  1.2385e+000 60952 75654,75360,75334
 1.4000e+000 75585  2.9254e+001 -6.5980e+001 -8.2093e-001 60952 75726,75438,75412
 1.4000e+000 75562  4.9450e+001 -3.3513e+001 -1.2750e+001 60952 75308,75490,75334
 1.4000e+000 75539  3.2897e+001 -1.9390e+001 -6.3792e-001 60952 75360,75412,75386
 1.4000e+000 75516  5.0250e+000 -7.4537e+001  1.9689e-001 60952 75438,75490,75464
 1.4000e+000 75680  3.8152e+001 -4.2387e+001  6.8636e+000 60952 75726,75412,75654
 1.4000e+000 75703  3.4684e+001 -4.2097e+001  1.7603e+000 60952 75490,75654,75334
 1.4000e+000 75752  2.1744e+001 -4.0481e+001 -5.2005e+000 60952 75490,75438,75726
 1.4000e+000 75775  2.2643e+001 -4.0992e+001 -1.7716e+000 60952 75490,75726,75654
 1.4000e+000 76155  1.4846e+001 -2.1173e+001 -7.3399e+000 60754 75933,75985,75959
 1.4000e+000 76132  1.3557e+001 -2.3959e+001  5.9329e+000 60754 75933,76037,75985
 1.4000e+000 76109  3.6976e+001 -2.1393e+001 -3.9332e-002 60754 75985,76037,76011
 1.4000e+000 76086  1.7409e+000 -1.3291e+001 -6.3312e-001 60754 75881,76037,75933
 1.4000e+000 76063 -4.7933e+000 -1.2835e+001  6.0940e+000 60754 75881,75933,75907
 1.4000e+000 76612  3.4029e+001 -2.3676e+001  4.2001e+000 60350 76635,76442,76390
 1.4000e+000 76589  3.1454e+001 -2.8119e+001  2.9528e+000 60350 76635,76390,76364
 1.4000e+000 76566  1.2331e+001 -4.4816e+001 -1.4938e+000 60350 76364,76494,76468
 1.4000e+000 76543  3.8851e+001 -1.9099e+001  1.2686e+001 60350 76390,76442,76416
 1.4000e+000 76520  2.2409e+001 -1.6423e+001  3.7435e+000 60350 76338,76494,76364
 1.4000e+000 76661  3.6453e+001 -2.7420e+001  5.9813e+000 60350 76468,76442,76635
 1.4000e+000 76684  3.5199e+001 -3.0122e+001  5.4212e+000 60350 76468,76635,76364
 1.4000e+000 76932  1.4223e+000 -4.3408e+001  3.6291e+000 59946 76955,76733,76707
 1.4000e+000 76909  2.4488e-001 -4.5601e+001  6.0364e+000 59946 77027,76955,76707
 1.4000e+000 76886  3.8237e-001 -4.6187e+001  6.0241e+000 59946 77027,76707,76837
 1.4000e+000 76863  4.1080e+000 -4.8929e+001  1.4458e-001 59946 76733,76785,76759
 1.4000e+000 76981 -3.8025e+000 -4.5235e+001  3.3403e+000 59946 76785,76733,76955
 1.4000e+000 77004 -6.8018e-001 -4.2259e+001  5.7823e+000 59946 76785,76955,76811
 1.4000e+000 77053  1.2242e-001 -4.4383e+001  6.9668e+000 59946 76811,76955,77027
 1.4000e+000 77076 -1.9023e-001 -4.5626e+001  6.9925e+000 59946 76811,77027,76837
 1.4000e+000 77226 -1.7922e+001 -4.3905e+001  3.5352e-001 59542 77099,77151,77125
 1.4000e+000 77203 -2.6924e+001 -4.7986e+001  1.1017e+001 59542 77099,77177,77151
 1.4000e+000 77427  2.6364e+001 -3.2364e+001 -1.0914e+001 59030 77450,77277,77251
 1.4000e+000 77404  2.6273e+001 -3.4618e+001 -1.2536e+001 59030 77450,77251,77355
 1.4000e+000 77381  2.2071e+001 -3.8324e+001 -6.0475e+000 59030 77277,77329,77303
 1.4000e+000 77476  2.6870e+001 -3.1745e+001 -1.0450e+001 59030 77329,77277,77450
 1.4000e+000 77499  2.7886e+001 -3.3046e+001 -1.1826e+001 59030 77329,77450,77355
 1.4000e+000 77749  2.2930e+001 -4.4539e+001 -8.1181e-001 58426 77772,77628,77602
 1.4000e+000 77726  5.4103e+001 -5.2620e+001  3.6376e+000 58426 77524,77654,77628
 1.4000e+000 77703  1.7883e+001 -3.6292e+001  5.0512e-001 58426 77772,77602,77550
 1.4000e+000 77680  1.8171e+001 -3.6198e+001  7.2182e-001 58426 77550,77602,77576
 1.4000e+000 77798  1.8467e+001 -5.5239e+001 -5.2633e+000 58426 77524,77628,77772
 1.4000e+000 77821  1.8720e+001 -4.2572e+001 -2.0608e+000 58426 77524,77772,77550
 1.4000e+000 78071 -2.7946e+000 -5.5480e+001 -1.3256e+000 57922 78094,77924,77898
 1.4000e+000 78048  2.5468e+000 -4.6808e+001  1.5134e+000 57922 78094,77898,77872
 1.4000e+000 78025 -5.9505e+000 -4.6045e+001  7.2803e-001 57922 78166,77846,77950
 1.4000e+000 78002  3.1839e+001 -4.9472e+001  8.4175e+000 57922 77846,77976,77950
 1.4000e+000 78120 -1.8288e-001 -4.8002e+001 -2.5207e+000 57922 77950,77924,78094
 1.4000e+000 78143 -1.3212e+000 -4.5731e+001 -2.2850e+000 57922 78166,77950,78094
 1.4000e+000 78192 -1.0109e+001 -4.7815e+001  3.6135e+000 57922 77872,77846,78166
 1.4000e+000 78215 -5.7749e+000 -4.9704e+001  1.2940e+000 57922 77872,78166,78094
 1.4000e+000 78416  3.9961e+001 -4.5543e+001 -9.4522e-001 57468 78439,78292,78240
 1.4000e+000 78393  3.0744e+001 -3.2263e+001  1.4109e+000 57468 78439,78240,78344
 1.4000e+000 78370  1.7150e+001 -8.6288e+001 -9.9588e+000 57468 78240,78292,78266
 1.4000e+000 78465  3.2102e+001 -5.2677e+001 -9.6153e+000 57468 78318,78292,78439
 1.4000e+000 78488  2.8448e+001 -4.0147e+001 -4.4061e+000 57468 78318,78439,78344
 1.4000e+000 78689  2.2160e+001 -5.5662e+001 -2.9034e+000 57014 78712,78539,78513
 1.4000e+000 78666  1.7128e+001 -6.1108e+001 -4.1769e-001 57014 78712,78513,78617
 1.4000e+000 78643  1.4546e+001 -5.0067e+001  1.0644e+001 57014 78565,78617,78591
 1.4000e+000 78738  1.5713e+001 -3.8751e+001 -4.1248e-001 57014 78565,78539,78712
 1.4000e+000 78761  4.0622e+000 -5.5762e+001  5.2114e+000 57014 78565,78712,78617
 1.4000e+000 79241  1.0456e+001 -3.9863e+001  6.6761e+000 56652 79264,78895,78869
 1.4000e+000 79218  7.7302e+000 -4.6946e+001  7.4915e+000 56652 79264,78869,79051
 1.4000e+000 79195  1.0400e+001 -4.5246e+001  6.6945e+000 56652 78869,79077,79051
 1.4000e+000 79172 -2.6878e+000 -3.5061e+001  6.0377e+000 56652 78895,78973,78947
 1.4000e+000 79149  4.4638e+000 -9.3728e+001  1.4532e+001 56652 78973,79051,78999
 1.4000e+000 79126  2.1098e-001 -2.9629e+001  4.5767e+000 56652 78895,78947,78921
 1.4000e+000 79103  2.5053e+001 -4.4594e+001  1.4067e+001 56652 78999,79051,79025
 1.4000e+000 79290  6.9970e+000 -3.3837e+001  1.1242e+001 56652 78973,78895,79264
 1.4000e+000 79313  2.7713e+000 -4.3508e+001  1.2760e+001 56652 78973,79264,79051
 1.4000e+000 79512  1.8238e+001 -4.9085e+001 -1.0918e+000 56062 79388,79440,79414
 1.4000e+000 79489  1.2788e+001 -5.0289e-001  8.7724e+000 56062 79336,79440,79388
 1.4000e+000 79466  5.1217e+001 -4.3161e+001  1.0352e+001 56062 79336,79388,79362
 1.4000e+000 79941  1.2081e+001 -4.3480e+001  1.2385e+001 55658 79964,79670,79644
 1.4000e+000 79918  6.1684e-001 -3.7286e+001  1.2582e+001 55658 79964,79644,79800
 1.4000e+000 79895  8.2791e+000 -4.5549e+001  6.5120e+000 55658 80036,79696,79670
 1.4000e+000 79872  3.6092e+000 -3.2128e+001 -7.1642e+000 55658 80108,79722,79696
 1.4000e+000 79849 -1.0991e+001 -4.4504e+001 -1.6322e+001 55658 79722,79774,79748
 1.4000e+000 79826 -6.9318e-001 -3.9426e+001  3.6660e+000 55658 79618,79800,79644
 1.4000e+000 79990 -4.9303e-002 -4.8606e+001  8.9665e+000 55658 80036,79670,79964
 1.4000e+000 80013 -1.2452e+001 -4.3943e+001  6.0264e+000 55658 79774,79964,79800
 1.4000e+000 80062  1.2447e+001 -3.8528e+001  1.3043e+000 55658 80108,79696,80036
 1.4000e+000 80085  3.5112e+000 -3.7594e+001  9.3312e+000 55658 79774,80036,79964
 1.4000e+000 80134 -1.3620e+001 -3.8892e+001 -3.4370e+000 55658 79774,79722,80108
 1.4000e+000 80157 -8.6626e+000 -4.7569e+001  4.9633e+000 55658 79774,80108,80036
 1.4000e+000 80307 -2.2418e+000 -2.7656e+001  1.2471e+001 55254 80402,80330,80206
 1.4000e+000 80284 -3.2984e+000 -4.8693e+001  9.1627e+000 55254 80330,80180,80258
 1.4000e+000 80356 -9.0680e+000 -4.3311e+001  1.6099e+001 55254 80232,80206,80330
 1.4000e+000 80379  5.0788e+000 -3.7517e+001  1.3825e+001 55254 80232,80330,80258
 1.4000e+000 80428 -6.2447e+000 -4.4396e+001  6.4189e+000 55254 80180,80330,80402
 1.4000e+000 80659  5.3560e+000 -4.6294e+001 -3.7705e+000 54850 80558,80610,80584
 1.4000e+000 80636  1.4344e+001 -3.4822e+001  4.9723e+000 54850 80532,80610,80558
 1.4000e+000 80760  2.3539e+001 -4.8406e+001 -7.5519e+000 54652 80682,80734,80708
 1.4000e+000 81164  2.5189e+001 -5.3298e+001  1.5950e+000 54248 81187,80942,80890
 1.4000e+000 81141  2.4977e+001 -6.1331e+001  2.1942e+000 54248 81187,80890,81046
 1.4000e+000 81118  7.2916e+000 -5.6499e+001  1.0707e+001 54248 80942,81020,80994
 1.4000e+000 81095  2.2238e+001 -6.0005e+001  1.1167e+000 54248 80890,80942,80916
 1.4000e+000 81072  3.0896e+001 -2.5863e+001 -2.1477e+000 54248 80942,80994,80968
 1.4000e+000 81213  2.3266e+001 -4.7847e+001  3.1116e+000 54248 81020,80942,81187
 1.4000e+000 81236  2.4803e+001 -5.3566e+001  3.4476e+000 54248 81020,81187,81046
 1.4000e+000 81663  2.1489e-001 -2.4805e+001  4.3475e+000 53594 81340,81444,81366
 1.4000e+000 81640 -1.4986e+001 -5.5403e+001  1.0310e+001 53594 81340,81470,81444
 1.4000e+000 81617  1.0527e+001 -3.3833e+001 -1.4440e+001 53594 81340,81522,81470
 1.4000e+000 81594 -8.3652e+000 -1.5003e+001  2.0935e+000 53594 81392,81444,81418
 1.4000e+000 81571 -6.8079e+000 -2.6376e+001  5.9913e-001 53594 81366,81444,81392
 1.4000e+000 81548  2.8466e+001 -6.2580e+001  5.1729e+000 53594 81470,81522,81496
 1.4000e+000 81943  1.6490e+001  5.1181e-002  3.5788e+000 53104 81966,81845,81819
 1.4000e+000 81920  1.4968e+001 -7.5838e+000  2.7001e+000 53104 81966,81819,81767
 1.4000e+000 81897  1.5143e+001  1.8447e+000 -9.1466e+000 53104 81767,81819,81793
 1.4000e+000 81992  1.7560e+001 -7.6860e+000  1.6508e+000 53104 81871,81845,81966
 1.4000e+000 82015  1.4287e+001 -1.8099e+001  8.0020e-001 53104 81871,81966,81767
 1.4000e+000 82491  1.4401e+001 -2.2560e+001 -7.5299e+000 52650 82145,82249,82171
 1.4000e+000 82468  1.6721e+001 -2.3408e+001 -5.6107e+000 52650 82145,82301,82249
 1.4000e+000 82445  8.2418e+000 -4.2554e+001 -3.4646e+000 52650 82249,82301,82275
 1.4000e+000 82422 -6.2070e+000 -4.7450e+001 -1.5158e+001 52650 82119,82301,82145
 1.4000e+000 82399  3.8702e+000 -2.0374e+001 -3.3830e+000 52650 82171,82249,82223
 1.4000e+000 82376  2.7259e+001 -3.3619e+001 -7.9851e+000 52650 82119,82327,82301
 1.4000e+000 82353  1.4507e+001 -3.8570e+000 -1.4306e+001 52650 82171,82223,82197
 1.4000e+000 82739 -8.8589e+000 -1.7009e+001  3.7848e+000 52246 82762,82540,82514
 1.4000e+000 82716  1.9541e+000 -1.1108e+001  2.3741e-002 52246 82762,82514,82644
 1.4000e+000 82693  3.7805e+000 -1.3590e+001  1.7510e+001 52246 82540,82618,82592
 1.4000e+000 82670 -1.5037e+000  1.3785e+000  6.7878e+000 52246 82540,82592,82566
 1.4000e+000 82788  9.0477e-001 -2.5698e+001  9.1259e+000 52246 82618,82540,82762
 1.4000e+000 82811  1.2018e+001 -2.0764e+001  7.6641e+000 52246 82618,82762,82644
 1.4000e+000 83059  2.7971e+001 -2.9695e+001  8.9886e-001 51578 82860,82964,82938
 1.4000e+000 83036  3.0195e+001 -2.4210e+001 -1.0433e+000 51578 82834,82964,82860
 1.4000e+000 83013  2.9208e+001 -2.5708e+001  2.7365e+000 51578 82860,82938,82886
 1.4000e+000 82990  2.5171e+001 -2.9800e+001 -1.6935e+000 51578 82886,82938,82912
 1.4000e+000 83309 -7.8292e+000 -2.6555e+001  1.2000e+001 51138 83332,83162,83136
 1.4000e+000 83286 -8.8227e+000 -2.5868e+001  1.2473e+001 51138 83332,83136,83110
 1.4000e+000 83263 -9.8233e+000 -2.2738e+001  8.2195e+000 51138 83404,83214,83188
 1.4000e+000 83240 -6.0533e-001 -4.6866e+000  8.1934e-001 51138 83084,83214,83110
 1.4000e+000 83358 -1.1455e+001 -2.9673e+001  1.5810e+001 51138 83188,83162,83332
 1.4000e+000 83381 -7.1493e+000 -2.9276e+001  1.3717e+001 51138 83404,83188,83332
 1.4000e+000 83430 -3.9760e+000 -4.9159e+000  4.8075e+000 51138 83110,83214,83404
 1.4000e+000 83453 -4.6129e+000 -1.5734e+001  1.0748e+001 51138 83110,83404,83332
 1.4000e+000 83835  1.9980e+001 -1.7480e+001  4.1889e+000 50734 83613,83717,83691
 1.4000e+000 83812  1.3431e+001 -3.4202e+001 -3.3677e+000 50734 83561,83717,83613
 1.4000e+000 83789  1.9025e+001 -2.8225e+001 -5.6759e+000 50734 83561,83613,83587
 1.4000e+000 83766  5.3771e+000 -1.9023e+001  4.1239e-001 50734 83613,83691,83639
 1.4000e+000 83743  6.2719e+000 -1.5022e+001  5.4367e+000 50734 83639,83691,83665
 1.4000e+000 84034  3.0085e+001 -3.8429e+000  6.3414e+000 50230 84057,83884,83858
 1.4000e+000 84011  2.8296e+001 -1.1667e+001  6.7538e-001 50230 84129,84057,83858
 1.4000e+000 83988  3.4018e+001 -1.5914e+001 -4.0837e-001 50230 84129,83858,83962
 1.4000e+000 84083  4.3653e+001 -1.1982e+000  1.4656e+001 50230 83910,83884,84057
 1.4000e+000 84106  3.4158e+001 -1.5241e+001  8.6565e+000 50230 83910,84057,83936
 1.4000e+000 84155  3.4992e+001 -4.5890e+000  3.5941e+000 50230 83936,84057,84129
 1.4000e+000 84178  3.6873e+001 -1.1543e+001  1.0958e+000 50230 83936,84129,83962
 1.4000e+000 84558  2.0385e+001 -8.4701e+000 -1.0153e+001 49768 84581,84388,84362
 1.4000e+000 84535  1.8387e+001 -7.0391e+000 -8.1405e+000 49768 84581,84362,84310
 1.4000e+000 84512  2.6546e+001 -1.2266e+001 -7.6643e+000 49768 84653,84440,84414
 1.4000e+000 84489  1.3498e+001 -4.1158e+000 -1.2922e+001 49768 84310,84362,84336
 1.4000e+000 84466  6.0391e+001 -2.4455e+000 -9.3144e+000 49768 84284,84440,84310
 1.4000e+000 84607  3.1519e+001  5.7745e+000 -1.5060e+001 49768 84414,84388,84581
 1.4000e+000 84630  2.5444e+001 -4.5650e+000 -7.5571e+000 49768 84653,84414,84581
 1.4000e+000 84679  2.5062e+001 -1.6418e+001 -8.4537e+000 49768 84310,84440,84653
 1.4000e+000 84702  2.0249e+001 -1.3755e+001 -9.7778e+000 49768 84310,84653,84581
 1.4000e+000 85159 -1.3292e+001 -6.3964e+001 -3.0010e+001 49192 84885,84937,84911
 1.4000e+000 85136 -1.8231e+001 -5.5899e+001 -2.1668e+001 49192 84885,85041,84937
 1.4000e+000 85113 -1.0317e+001 -4.1523e+001 -8.0194e+000 49192 84963,85041,84989
 1.4000e+000 85090 -9.2643e+000 -4.4113e+001 -1.7674e+001 49192 84937,85041,84963
 1.4000e+000 85067 -1.2774e+001 -5.8721e+001  7.0609e+000 49192 84989,85041,85015
 1.4000e+000 85714 -1.4461e+000 -9.9418e+000 -1.1214e+000 48638 85368,85498,85394
 1.4000e+000 85691  4.5479e+000 -8.4264e+000 -3.7968e+000 48638 85368,85524,85498
 1.4000e+000 85668 -9.2332e+000 -1.2744e+001  1.8368e+001 48638 85737,85420,85394
 1.4000e+000 85645  6.8064e+000 -1.1567e+001  5.2014e+000 48638 85737,85394,85498
 1.4000e+000 85622  7.5437e+000 -3.1571e+001  1.4778e+000 48638 85446,85498,85472
 1.4000e+000 85599  1.8519e+000 -1.0169e+001 -2.0992e+000 48638 85342,85524,85368
 1.4000e+000 85576  4.1265e+000 -3.3740e+000 -6.4692e+000 48638 85342,85550,85524
 1.4000e+000 85763  1.4026e+001 -3.1019e+000  1.7793e+001 48638 85446,85420,85737
 1.4000e+000 85786  1.5847e+001 -9.6261e+000  4.6946e+000 48638 85446,85737,85498
 1.4000e+000 86371  1.1832e+001 -1.4337e-001 -1.8914e-001 48084 86100,86230,86178
 1.4000e+000 86348  1.3725e+001 -9.4436e-003  3.2140e-001 48084 86048,86230,86100
 1.4000e+000 86325  1.3694e+001  3.1101e-001 -1.5739e+000 48084 86100,86178,86126
 1.4000e+000 86302  1.0977e+001 -6.1921e+000 -6.7478e+000 48084 86048,86100,86074
 1.4000e+000 86279  6.8649e+000 -7.9331e+000  1.9469e+000 48084 86178,86230,86204
 1.4000e+000 86256  9.9285e+000  1.3970e+001  1.5387e-002 48084 86126,86178,86152
 1.4000e+000 86619 -3.0894e+000 -3.4273e+001  7.5430e+000 47630 86642,86446,86420
 1.4000e+000 86596 -1.5482e+001 -4.2292e+001 -4.1060e-001 47630 86642,86420,86394
 1.4000e+000 86573 -2.4427e+001 -3.3783e+001 -1.2396e+001 47630 86394,86524,86498
 1.4000e+000 86550  7.4389e+000 -4.6481e+001 -9.2448e-001 47630 86446,86498,86472
 1.4000e+000 86668 -7.8086e+000 -4.3861e+001 -3.4479e+000 47630 86498,86446,86642
 1.4000e+000 86691 -1.7121e+001 -4.8561e+001 -1.0980e+001 47630 86498,86642,86394
 1.4000e+000 87022  4.0125e+001 -9.8870e+000 -5.7085e+000 47226 87045,86875,86849
 1.4000e+000 86999  4.6812e+001 -5.5434e+000 -2.5006e+000 47226 87045,86849,86797
 1.4000e+000 86976  5.2247e+001 -3.2792e-002 -8.9318e+000 47226 86797,86849,86823
 1.4000e+000 86953  3.0799e+001 -8.3696e+000 -1.1879e+001 47226 86875,86927,86901
 1.4000e+000 87071  3.4159e+001 -2.7212e+000 -3.7006e+000 47226 86927,86875,87045
 1.4000e+000 87094  3.9884e+001 -1.2883e-001 -1.6522e+000 47226 86927,87045,86797
 1.4000e+000 87244  2.8733e+001 -4.4093e+001  5.8827e+000 46814 87267,87169,87143
 1.4000e+000 87221  3.4889e+001 -1.3664e+001  4.3689e+000 46814 87267,87143,87117
 1.4000e+000 87293  6.5925e+001 -8.7453e+000  5.1971e+000 46814 87339,87267,87195
 1.4000e+000 87316  1.3919e+001 -2.2717e+001  1.4615e+000 46814 87469,87267,87117
 1.4000e+000 87365  2.3215e+001 -2.7015e+001  3.2344e+000 46814 87169,87267,87339
 1.4000e+000 87495  5.4656e+001  1.5289e+001 -1.5609e+001 46814 87195,87267,87469
 1.4000e+000 88001  1.3053e+001 -3.9494e+001  7.3619e+000 46310 88024,87834,87808
 1.4000e+000 87978  4.6153e+000 -4.2253e+001  2.5047e+000 46310 88024,87808,87756
 1.4000e+000 87955  6.6281e+000 -5.1665e+001 -1.8690e+000 46310 88096,87730,87860
 1.4000e+000 87932  2.4138e+001 -4.4106e+001  8.1562e+000 46310 87756,87808,87782
 1.4000e+000 87909  9.7426e+000 -8.7534e+001  6.9971e+000 46310 87678,87860,87730
 1.4000e+000 87886  2.7276e+001 -9.0702e+001 -1.4525e+001 46310 87678,87730,87704
 1.4000e+000 88050  1.5214e+001 -3.6016e+001 -2.5320e+000 46310 87860,87834,88024
 1.4000e+000 88073  8.4415e+000 -4.0895e+001 -3.9380e-001 46310 88096,87860,88024
 1.4000e+000 88122  7.9743e+000 -5.6789e+001 -6.4087e+000 46310 87756,87730,88096
 1.4000e+000 88145  4.2889e+000 -5.2572e+001 -5.5773e+000 46310 87756,88096,88024
 1.4000e+000 88572 -5.0737e+000 -1.9005e+001 -3.1402e+000 45856 88249,88405,88275
 1.4000e+000 88549 -7.2757e+000 -1.1342e+001 -5.9781e+000 45856 88249,88431,88405
 1.4000e+000 88526  2.6565e+000 -3.9811e+001 -1.2756e+001 45856 88327,88405,88353
 1.4000e+000 88503  1.1811e+001 -2.2078e+001 -8.1214e+000 45856 88275,88405,88327
 1.4000e+000 88480  1.5641e+001 -2.3267e+001 -2.9273e+001 45856 88353,88405,88379
 1.4000e+000 88457 -2.7271e+001 -7.7502e+001  8.9716e+000 45856 88275,88327,88301
 1.4000e+000 88950  6.0825e+000 -2.9920e+001 -4.8206e+000 45658 88973,88754,88728
 1.4000e+000 88927  5.0980e+000 -2.8316e+001 -4.8356e+000 45658 88973,88728,88676
 1.4000e+000 88904  2.0023e+001 -3.0395e+001  1.3405e+001 45658 88676,88832,88806
 1.4000e+000 88881  4.6921e+000 -3.3599e+001 -1.1064e+001 45658 88676,88728,88702
 1.4000e+000 88858  1.0897e+001 -1.2957e+001 -9.2653e+000 45658 88754,88806,88780
 1.4000e+000 88999  7.1951e+000 -2.8708e+001 -5.3275e+000 45658 88806,88754,88973
 1.4000e+000 89022  5.8095e+000 -2.7742e+001 -5.1085e+000 45658 88806,88973,88676
 1.4000e+000 89351  2.5087e+001 -1.4828e+001 -3.1330e+000 45254 89152,89230,89204
 1.4000e+000 89328  2.2428e+001 -1.5409e+001 -1.2958e+000 45254 89152,89256,89230
 1.4000e+000 89305  1.3091e+001 -2.0874e+001 -3.5411e+000 45254 89126,89256,89152
 1.4000e+000 89282  7.6878e+000 -3.4178e+001  4.4416e+000 45254 89152,89204,89178
 1.4000e+000 89523  8.2416e+000 -4.5896e+001 -6.7096e-002 45006 89422,89474,89448
 1.4000e+000 89500  2.8688e+001 -3.7179e+001  1.6283e+001 45006 89396,89474,89422
 1.4000e+000 89673 -2.0857e+001 -4.0506e+001  3.7613e+000 44495 89572,89624,89598
 1.4000e+000 89650 -2.3513e+001 -4.8980e+001  5.5679e+000 44495 89546,89624,89572
 1.4000e+000 90104  8.7200e+000 -3.2503e+001 -7.3178e-002 44005 90199,90127,89937
 1.4000e+000 90081  1.1034e+001 -3.9121e+001  2.5635e+000 44005 90271,90127,89859
 1.4000e+000 90058  9.2349e+000 -3.4039e+001 -4.9960e-001 44005 90199,89937,89885
 1.4000e+000 90035  1.3111e+001 -4.0980e+001  1.3613e+000 44005 90271,89859,89807
 1.4000e+000 90012 -9.2648e-002 -3.9840e+001 -6.3326e+000 44005 89885,89937,89911
 1.4000e+000 89989  6.9521e+000 -4.2508e+001  1.0337e+000 44005 89807,89859,89833
 1.4000e+000 90153  1.6494e+001 -2.5302e+001  1.1002e+001 44005 89963,89937,90127
 1.4000e+000 90176  3.9895e+000 -5.5779e+001  1.2150e+001 44005 89963,90127,89781
 1.4000e+000 90225  1.1143e+001 -3.5574e+001 -1.8867e-001 44005 89859,90127,90199
 1.4000e+000 90248  9.3845e+000 -3.9377e+001 -1.4101e+000 44005 89859,90199,89885
 1.4000e+000 90297  1.3846e+001 -3.7050e+001  3.5733e+000 44005 89781,90127,90271
 1.4000e+000 90320  1.5010e+001 -3.9359e+001  2.1492e+000 44005 89781,90271,89807
 1.4000e+000 90470  1.4983e+001 -4.3252e+001 -2.2107e+000 43601 90493,90369,90343
 1.4000e+000 90447  2.1265e+001 -4.1086e+001 -5.8552e+000 43601 90493,90343,90421
 1.4000e+000 90519  2.3698e+001 -5.1251e+001 -3.5947e+000 43601 90395,90369,90493
 1.4000e+000 90542  3.0637e+001 -4.4261e+001 -9.4609e+000 43601 90395,90493,90421
 1.4000e+000 90922  1.3578e+001 -5.1987e+001  9.9518e+000 43154 90945,90700,90674
 1.4000e+000 90899 -5.5101e+000 -6.0985e+001  5.6552e+000 43154 90945,90674,90648
 1.4000e+000 90876  8.6649e+000 -4.8755e+001 -1.0997e+001 43154 90648,90778,90752
 1.4000e+000 90853  2.5851e+001 -6.7386e+001  1.0036e+000 43154 90700,90752,90726
 1.4000e+000 90830  4.0520e+001 -4.3470e+001 -6.0902e+000 43154 90648,90804,90778
 1.4000e+000 90971  7.3273e+000 -5.5893e+001 -1.0451e+000 43154 90752,90700,90945
 1.4000e+000 90994 -6.0871e+000 -6.1246e+001 -4.7539e+000 43154 90752,90945,90648
 1.4000e+000 91451  4.4410e+001 -1.8400e+001 -1.6748e+001 42650 91203,91255,91229
 1.4000e+000 91428  3.4731e+001 -2.2543e+001 -1.7015e+000 42650 91203,91333,91255
 1.4000e+000 91405  1.9282e+001 -3.1787e+001 -6.2724e+000 42650 91177,91333,91203
 1.4000e+000 91382  2.8606e+001 -3.2895e+001  8.4694e-001 42650 91255,91333,91281
 1.4000e+000 91359  4.3913e+001 -2.6552e+001 -4.7074e-001 42650 91281,91333,91307
 1.4000e+000 91721 -7.2038e+000 -4.4097e+001  5.0220e+000 42288 91496,91600,91522
 1.4000e+000 91698  1.2193e+001 -2.6362e-001  1.6669e+000 42288 91496,91626,91600
 1.4000e+000 91675  1.8924e+001 -3.8407e+001  2.6521e+000 42288 91522,91574,91548
 1.4000e+000 91652  7.5234e+000 -3.8712e+001  4.7684e+000 42288 91522,91600,91574
 1.4000e+000 92199 -3.0661e+001 -4.4003e+001 -2.9485e+000 41898 92222,91983,91879
 1.4000e+000 92176 -3.7058e+001 -5.9764e+001 -9.3592e+000 41898 92294,92222,91879
 1.4000e+000 92153 -4.5140e+001 -6.0505e+001 -1.4660e+001 41898 92294,91879,91853
 1.4000e+000 92130 -2.7016e+001 -1.6096e+001  6.8113e+000 41898 91879,91957,91931
 1.4000e+000 92107 -2.5421e+001 -4.2099e+001 -3.1136e-001 41898 91879,91983,91957
 1.4000e+000 92084 -3.7068e+001 -1.7898e+001  1.5639e+001 41898 91879,91931,91905
 1.4000e+000 92061 -2.6905e+001 -4.5785e+001 -8.1973e+000 41898 91827,92035,91853
 1.4000e+000 92248 -2.1950e+001 -6.2040e+001 -5.3057e-001 41898 92009,91983,92222
 1.4000e+000 92271 -2.6558e+001 -6.7248e+001 -1.0579e+001 41898 92009,92222,92035
 1.4000e+000 92320 -2.4400e+001 -5.8397e+001 -6.6949e+000 41898 92035,92222,92294
 1.4000e+000 92343 -2.9766e+001 -5.6353e+001 -1.1296e+001 41898 92035,92294,91853
 1.4000e+000 92770 -6.1064e+000 -6.3917e+001 -7.5988e+000 41437 92865,92793,92525
 1.4000e+000 92747 -3.4489e+000 -6.0732e+001 -2.3489e+000 41437 92793,92473,92629
 1.4000e+000 92724 -4.4103e+000 -6.7447e+001 -8.6833e+000 41437 92865,92525,92499
 1.4000e+000 92701 -1.9052e+001 -4.3428e+001 -9.3361e+000 41437 92525,92603,92577
 1.4000e+000 92678  6.6254e+000 -6.3631e+001 -3.7280e+000 41437 92447,92629,92473
 1.4000e+000 92655 -2.9137e+001 -4.4035e+001 -8.8960e+000 41437 92525,92577,92551
 1.4000e+000 92819 -3.1257e+000 -5.6961e+001 -6.9303e+000 41437 92603,92525,92793
 1.4000e+000 92842 -5.2299e-001 -5.6693e+001 -6.7078e-001 41437 92603,92793,92629
 1.4000e+000 92891 -4.6187e+000 -5.7282e+001 -5.1127e+000 41437 92473,92793,92865
 1.4000e+000 92914 -4.0996e+000 -6.2939e+001 -5.8525e+000 41437 92473,92865,92499
 1.4000e+000 93243  2.0619e+001 -6.6749e+001  4.0059e+001 41097 93044,93096,93070
 1.4000e+000 93220  7.5085e+000 -5.5326e+001  1.7066e+001 41097 93044,93122,93096
 1.4000e+000 93197  2.5164e+001 -3.6239e+001  9.3118e+000 41097 93044,93148,93122
 1.4000e+000 93174  3.0816e+000 -1.3763e+001  2.5141e+001 41097 93018,93148,93044
 1.4000e+000 93393  4.5727e+001 -3.7041e+001  3.1880e+000 40643 93416,93292,93344
 1.4000e+000 93370  3.0052e+001 -2.9782e+001  1.0537e+000 40643 93266,93344,93292
 1.4000e+000 93442  3.6547e+001 -3.7167e+001  8.3371e+000 40643 93318,93292,93416
 1.4000e+000 93901 -7.9188e+000 -5.2342e+001 -4.9498e+000 40132 93924,93731,93705
 1.4000e+000 93878 -1.0852e+001 -4.6586e+001 -5.3688e+000 40132 93996,93924,93705
 1.4000e+000 93855 -9.4293e+000 -4.2946e+001 -8.1162e+000 40132 93996,93705,93653
 1.4000e+000 93832 -1.1522e+001 -5.2933e+001 -4.8760e+000 40132 93653,93705,93679
 1.4000e+000 93809  2.9135e+000 -4.6089e+001 -3.5688e+000 40132 93627,93783,93757
 1.4000e+000 93950 -5.4306e+000 -4.6049e+001 -5.7969e+000 40132 93757,93731,93924
 1.4000e+000 93973 -6.6703e+000 -4.4786e+001 -5.1040e+000 40132 93757,93924,93627
 1.4000e+000 94022 -4.8661e+000 -4.3166e+001 -7.5385e+000 40132 93627,93924,93996
 1.4000e+000 94045 -7.4858e+000 -4.2327e+001 -9.7441e+000 40132 93627,93996,93653
 1.4000e+000 94423  4.0438e+000 -4.9582e+001  2.3991e+000 39514 94149,94227,94175
 1.4000e+000 94400  7.9736e+000 -4.1458e+001  5.7326e-001 39514 94149,94305,94227
 1.4000e+000 94377  3.2545e+001 -5.2519e+001 -4.4157e+000 39514 94175,94227,94201
 1.4000e+000 94354  1.6623e+001 -3.2998e+001  4.1552e+000 39514 94227,94305,94279
 1.4000e+000 94331  1.4561e+001 -3.3444e+001  6.6596e+000 39514 94227,94279,94253
 1.4000e+000 94573 -2.2089e+001 -6.0254e+001  2.4031e+000 38822 94596,94498,94472
 1.4000e+000 94550 -1.7698e+001 -6.2669e+001  8.9226e+000 38822 94596,94472,94446
 1.4000e+000 94622 -2.7194e+001 -6.2531e+001  3.8523e+000 38822 94524,94498,94596
 1.4000e+000 94645 -2.7113e+001 -6.7525e+001  1.1015e+001 38822 94524,94596,94446
 1.4000e+000 95025  6.4282e-001 -3.5540e+001 -4.2284e+000 38418 95048,94829,94777
 1.4000e+000 95002  4.5926e+000 -3.3944e+001 -4.0212e+000 38418 95120,95048,94777
 1.4000e+000 94979  4.9821e+000 -3.5686e+001 -4.1298e+000 38418 95120,94777,94751
 1.4000e+000 94956  2.2980e+001 -3.7513e+001 -4.0496e+000 38418 95192,94881,94855
 1.4000e+000 94933 -9.7092e+000 -2.9055e+001 -3.3935e+000 38418 94777,94829,94803
 1.4000e+000 95074  1.1031e+000 -4.5840e+001  5.0633e+000 38418 94855,94829,95048
 1.4000e+000 95097  1.9609e+001 -3.5293e+001  4.7530e-001 38418 95192,94855,95048
 1.4000e+000 95146  4.9221e+000 -3.6252e+001 -3.9504e+000 38418 94907,95048,95120
 1.4000e+000 95169  4.7300e+000 -3.8643e+001 -4.4114e+000 38418 94907,95120,94751
 1.4000e+000 95218  1.6123e+001 -3.2323e+001 -5.4326e+000 38418 94907,94881,95192
 1.4000e+000 95241  7.7722e+000 -3.4749e+001 -1.0691e-001 38418 94907,95192,95048
 1.4000e+000 95511  1.1243e+001 -4.4749e+001  1.4478e+000 38049 95312,95390,95364
 1.4000e+000 95488  1.3019e+001 -4.4584e+001  3.2273e+000 38049 95312,95416,95390
 1.4000e+000 95465  1.3431e+001 -3.5926e+001  8.6377e-001 38049 95312,95364,95338
 1.4000e+000 95442  1.7901e+001 -5.2310e+001  2.6958e+000 38049 95286,95416,95312
 1.4000e+000 95808  2.6027e+000 -5.8090e+001 -7.9346e+000 37437 95831,95586,95560
 1.4000e+000 95785  8.5329e+000 -4.9132e+001 -4.0909e+000 37437 95831,95560,95534
 1.4000e+000 95762 -7.0162e-001 -5.2290e+001  4.0625e+000 37437 95586,95664,95638
 1.4000e+000 95739  1.4325e+000 -2.0142e+001 -1.4451e+001 37437 95534,95690,95664
 1.4000e+000 95716 -5.5174e+000 -4.8110e+001  9.9861e-001 37437 95586,95638,95612
 1.4000e+000 95857 -2.4430e+000 -4.8966e+001 -3.9046e+000 37437 95664,95586,95831
 1.4000e+000 95880  4.2209e+000 -3.9423e+001  1.5910e-001 37437 95664,95831,95534
 1.4000e+000 96390 -5.2889e+000 -2.5002e+001 -1.5120e+000 36883 96413,96145,96093
 1.4000e+000 96367 -1.0989e+000 -2.3528e+001 -2.6691e+000 36883 96413,96093,96067
 1.4000e+000 96344  3.8742e+000 -3.7878e+001 -3.0631e-001 36883 96067,96249,96171
 1.4000e+000 96321 -9.8204e+000 -2.6575e+001 -5.2473e-001 36883 96093,96145,96119
 1.4000e+000 96298 -8.3412e+000 -6.8765e+001  6.2137e+000 36883 96171,96249,96197
 1.4000e+000 96275  1.6742e+001 -5.3363e+001 -3.2974e-001 36883 96197,96249,96223
 1.4000e+000 96439 -5.6139e+000 -2.7266e+001  2.8467e+000 36883 96171,96145,96413
 1.4000e+000 96462 -1.1679e+000 -2.4656e+001  1.3722e+000 36883 96171,96413,96067
 1.4000e+000 96781  7.4401e+000 -3.1502e+001 -3.4773e+000 36215 96559,96663,96637
 1.4000e+000 96758  2.5431e+001 -2.5550e+001 -4.8129e-001 36215 96507,96663,96559
 1.4000e+000 96735  6.9549e+000 -1.2391e+001  2.9920e+000 36215 96585,96637,96611
 1.4000e+000 96712 -9.5629e+000 -3.4744e+001 -4.2641e+000 36215 96559,96637,96585
 1.4000e+000 96689  1.8291e+001 -3.2552e+001 -3.8123e+000 36215 96507,96559,96533
 1.4000e+000 97161  3.0625e+001 -3.4179e+000 -6.1830e+000 35818 97184,96965,96939
 1.4000e+000 97138  2.8565e+001 -1.3608e+001 -5.6667e+000 35818 97184,96939,96887
 1.4000e+000 97115  2.1669e+001 -2.0264e+001  6.1437e+000 35818 96965,97043,97017
 1.4000e+000 97092  3.1404e+001 -2.6615e+001 -9.3219e+000 35818 96887,96939,96913
 1.4000e+000 97069  2.4856e+000 -1.3645e+001  5.4149e+000 35818 96965,97017,96991
 1.4000e+000 97210  3.2119e+001 -1.1467e+001 -1.4268e+000 35818 97043,96965,97184
 1.4000e+000 97233  3.1497e+001 -1.9325e+001 -6.4183e-001 35818 97043,97184,96887
 1.4000e+000 97739 -1.9255e+001 -5.0962e+001 -1.7357e+001 35214 97416,97468,97442
 1.4000e+000 97716 -1.9023e+001 -3.0514e+001 -1.0449e+001 35214 97416,97598,97468
 1.4000e+000 97693 -1.1635e+001 -3.1238e+001 -8.4248e+000 35214 97762,97520,97468
 1.4000e+000 97670 -1.0388e+001 -2.9636e+001 -6.1258e+000 35214 97762,97468,97598
 1.4000e+000 97647 -5.4026e+000 -2.0718e+001 -7.9451e+000 35214 97546,97598,97572
 1.4000e+000 97624 -1.2471e+001 -2.6173e+001 -9.7071e+000 35214 97468,97520,97494
 1.4000e+000 97788 -1.0738e+001 -2.8395e+001 -7.1275e+000 35214 97546,97520,97762
 1.4000e+000 97811 -1.0277e+001 -2.7181e+001 -5.0020e+000 35214 97546,97762,97598
 1.4000e+000 98189  3.0912e+001 -1.7779e+001  7.8129e+000 34760 98356,98212,97967
 1.4000e+000 98166  1.1989e+001 -3.5626e+001  3.8877e+000 34760 98284,98212,97941
 1.4000e+000 98143  5.2300e+000 -3.1916e+001  6.8812e+000 34760 98284,97941,97915
 1.4000e+000 98120  2.6091e+001 -3.5824e+001 -4.3995e-001 34760 98484,97993,97967
 1.4000e+000 98097  1.6175e+001 -2.4649e+001 -4.9412e-001 34760 98556,98045,98019
 1.4000e+000 98238  2.2007e+001 -3.0562e+001 -6.6126e-001 34760 98484,97967,98212
 1.4000e+000 98261  1.8414e+001 -3.1420e+001 -1.8693e+000 34760 98556,98019,98212
 1.4000e+000 98310  1.8053e+001 -2.9118e+001  9.6563e-001 34760 98071,98212,98284
 1.4000e+000 98333  1.3327e+001 -2.0039e+001  2.5420e+000 34760 98071,98284,97915
 1.4000e+000 98382 -5.3608e-002 -3.8220e+001 -1.4808e+000 34760 97941,98212,98356
 1.4000e+000 98510  3.2612e+001 -3.1297e+001 -2.7332e+000 34760 98019,97993,98484
 1.4000e+000 98533  2.6034e+001 -2.8062e+001 -2.3969e+000 34760 98019,98484,98212
 1.4000e+000 98582  1.8486e+001 -1.7924e+001  2.8648e+000 34760 98071,98045,98556
 1.4000e+000 98605  1.8925e+001 -2.5181e+001  3.4698e-001 34760 98071,98556,98212
 1.4000e+000 99032 -2.4757e+000 -2.9910e+001  7.8610e+000 34156 98735,98891,98839
 1.4000e+000 99009 -2.0962e+000 -2.9403e+001  8.4501e+000 34156 98709,98891,98735
 1.4000e+000 98986  1.3961e+001 -2.6214e+001  7.3123e+000 34156 98735,98813,98787
 1.4000e+000 98963  1.3726e+001 -2.8070e+001  5.9697e+000 34156 98735,98839,98813
 1.4000e+000 98940  2.1170e+001 -5.1732e+001  7.2839e+000 34156 98735,98787,98761
 1.4000e+000 98917 -4.0235e-002 -2.3414e+001  3.7385e+000 34156 98839,98891,98865
 1.4000e+000 99231  1.9125e+001 -5.0675e+000  5.3846e+000 33766 99055,99133,99107
 1.4000e+000 99208  8.2813e+000 -8.6404e+000  8.9051e+000 33766 99055,99159,99133
 1.4000e+000 99185  1.1321e+001 -2.0830e+001  2.7485e+000 33766 99055,99107,99081
 1.4000e+000 99818 -5.3470e+000 -2.6370e+001 -1.1451e+000 33248 99521,99651,99573
 1.4000e+000 99795 -9.7256e+000 -2.5595e+001  3.1393e+000 33248 99521,99677,99651
 1.4000e+000 99772 -1.4284e+001 -4.5524e+001 -4.0878e+000 33248 99573,99651,99599
 1.4000e+000 99749 -1.0100e+001 -3.3009e+001  3.5049e+000 33248 99495,99677,99521
 1.4000e+000 99726 -3.4370e+000 -2.8078e+001 -8.8052e+000 33248 99599,99651,99625
 1.4000e+000 99703 -1.7366e+001 -4.4657e+001  4.4844e+000 33248 99521,99573,99547
 1.4000e+000 100196 -1.0581e+001 -2.8923e+001 -6.1861e+000 32794 100219,99948,99922
 1.4000e+000 100173 -1.1480e+001 -3.0519e+001 -3.0919e+000 32794 100219,99922,100052
 1.4000e+000 100150 -1.1292e+001 -2.4120e+001  1.0312e+000 32794 99974,100052,100026
 1.4000e+000 100127 -1.4690e+001 -2.8444e+001 -3.4677e+000 32794 99922,100078,100052
 1.4000e+000 100104 -1.2572e+001 -2.8965e+001  4.7039e+000 32794 99974,100026,100000
 1.4000e+000 100245 -1.4114e+001 -2.9498e+001 -4.7641e+000 32794 99974,99948,100219
 1.4000e+000 100268 -1.3902e+001 -3.1261e+001 -1.5664e+000 32794 99974,100219,100052
 1.4000e+000 100418  1.4879e+001 -9.9625e+000 -1.7541e+000 32504 100571,100343,100317
 1.4000e+000 100395  4.6049e+000 -1.4477e+001  1.1688e+000 32504 100571,100317,100441
 1.4000e+000 100467  2.6934e+001 -6.7096e-001 -1.3753e+001 32504 100291,100369,100441
 1.4000e+000 100597  1.8085e+001 -9.4300e+000 -1.1423e+001 32504 100369,100343,100571
 1.4000e+000 100620  1.2879e+001 -9.9766e+000 -9.0162e+000 32504 100369,100571,100441
 1.4000e+000 101020  1.4613e+001 -2.8094e+001  3.7468e+000 32142 100772,100902,100876
 1.4000e+000 100997  8.7887e+000 -3.3874e+001  1.0322e+000 32142 100746,100902,100772
 1.4000e+000 100974  8.5381e+000 -4.6986e+001 -1.0413e+000 32142 101043,100824,100798
 1.4000e+000 100951  1.3649e+001 -4.3249e+001  5.9132e-001 32142 101043,100798,100772
 1.4000e+000 100928 -1.2710e+001 -4.9313e+001 -1.4386e+001 32142 101115,100876,100850
 1.4000e+000 101069  1.4855e+001 -4.3704e+001 -6.4416e+000 32142 100850,100824,101043
 1.4000e+000 101092 -1.0703e+000 -5.0733e+001 -7.9109e+000 32142 101115,100850,101043
 1.4000e+000 101141  1.8027e+000 -4.1372e+001 -6.2607e+000 32142 100772,100876,101115
 1.4000e+000 101164  1.0809e+001 -4.2322e+001  8.5149e-001 32142 100772,101115,101043
 1.4000e+000 101719 -7.2850e+000 -2.6673e+001  3.5160e+000 31538 101742,101477,101399
 1.4000e+000 101696 -1.3364e+001 -3.7212e+001 -1.4657e+000 31538 101814,101742,101399
 1.4000e+000 101673 -1.7705e+001 -2.9850e+001 -7.3337e+000 31538 101814,101399,101373
 1.4000e+000 101650 -7.9046e+000 -1.4366e+001  2.9292e+000 31538 101425,101477,101451
 1.4000e+000 101627 -7.6236e+000 -2.1166e+001 -6.3352e-001 31538 101399,101477,101425
 1.4000e+000 101604  1.5148e+000 -3.8914e+001  8.4806e+000 31538 101477,101529,101503
 1.4000e+000 101581 -1.7438e+000 -1.2322e+001 -3.9969e+000 31538 101347,101555,101373
 1.4000e+000 101768 -9.3658e+000 -3.7770e+001  2.7216e+000 31538 101529,101477,101742
 1.4000e+000 101791 -6.8659e+000 -3.9162e+001 -4.6058e+000 31538 101529,101742,101555
 1.4000e+000 101840 -3.1173e+000 -3.0006e+001 -4.6220e+000 31538 101555,101742,101814
 1.4000e+000 101863 -9.0011e+000 -2.3889e+001 -9.9781e+000 31538 101555,101814,101373
 1.4000e+000 102111 -7.7203e+000 -5.2980e+001  8.4968e+000 31112 101886,101990,101912
 1.4000e+000 102088  8.4733e+000 -2.8395e+001 -2.8172e-001 31112 101886,102016,101990
 1.4000e+000 102065  6.0935e+000 -5.0233e+001  1.1950e+001 31112 101912,101990,101964
 1.4000e+000 102042  7.9274e-001 -5.3917e+001  1.4763e+001 31112 101912,101964,101938
 1.4000e+000 102408  1.9692e+001 -2.3278e+001  2.2661e+000 30658 102431,102186,102160
 1.4000e+000 102385  1.5361e+001 -2.0249e+001 -2.7839e+000 30658 102431,102160,102264
 1.4000e+000 102362  1.1035e+001 -3.2006e+001 -5.9153e-001 30658 102186,102238,102212
 1.4000e+000 102339  9.5222e+000 -2.4607e+001 -5.5401e+000 30658 102134,102264,102160
 1.4000e+000 102316  1.9238e+001 -1.3532e+001 -1.9193e+001 30658 102134,102290,102264
 1.4000e+000 102457  1.7626e+001 -2.8515e+001  7.2680e-001 30658 102238,102186,102431
 1.4000e+000 102480  1.2636e+001 -2.6459e+001 -4.5960e+000 30658 102238,102431,102264
 1.4000e+000 102681  8.4858e+000 -4.0895e+001  6.0852e+000 30004 102704,102557,102505
 1.4000e+000 102658  8.9278e+000 -4.2076e+001  6.6145e+000 30004 102704,102505,102609
 1.4000e+000 102635  1.5993e+001 -2.4089e+001  4.5459e+000 30004 102505,102557,102531
 1.4000e+000 102730  8.4927e+000 -3.9874e+001  5.9898e+000 30004 102583,102557,102704
 1.4000e+000 102753  9.0530e+000 -4.0659e+001  6.8722e+000 30004 102583,102704,102609
 1.4000e+000 103003  1.3444e+001 -2.9842e+001  8.2852e-001 29564 103026,102804,102778
 1.4000e+000 102980  1.4567e+001 -3.1191e+001 -1.3219e+000 29564 103026,102778,102908
 1.4000e+000 102957  1.7094e+001 -2.1393e+001  8.9933e-002 29564 102856,102908,102882
 1.4000e+000 102934  9.6654e+000 -3.5877e+001  4.6891e+000 29564 102804,102856,102830
 1.4000e+000 103052  1.6191e+001 -2.8198e+001  1.6910e+000 29564 102856,102804,103026
 1.4000e+000 103075  1.5856e+001 -3.0017e+001 -6.4816e-001 29564 102856,103026,102908
 1.4000e+000 103634 -1.7878e+001 -4.6957e+001 -1.2647e+001 29160 103657,103418,103392
 1.4000e+000 103611 -1.6081e+001 -4.3655e+001 -6.7128e+000 29160 103657,103392,103314
 1.4000e+000 103588 -4.0829e+000 -4.1905e+001 -1.0322e+001 29160 103314,103392,103366
 1.4000e+000 103565 -1.0456e+001 -4.7923e+001 -7.5321e+000 29160 103314,103366,103340
 1.4000e+000 103542 -2.4802e+001 -4.1173e+001 -1.0525e+001 29160 103262,103444,103314
 1.4000e+000 103519 -3.0484e+001 -4.7558e+001 -1.9695e+001 29160 103262,103314,103288
 1.4000e+000 103496 -1.6665e+001 -4.1133e+001 -9.6511e+000 29160 103262,103470,103444
 1.4000e+000 103683 -2.6711e+001 -5.3709e+001 -1.8799e+001 29160 103444,103418,103657
 1.4000e+000 103706 -1.9643e+001 -4.3351e+001 -1.1991e+001 29160 103444,103657,103314
 1.4000e+000 104035  7.3178e+000 -2.5391e+001  4.4384e+000 28770 103836,103914,103862
 1.4000e+000 104012  6.3844e+000 -2.6036e+001  4.1421e+000 28770 103810,103914,103836
 1.4000e+000 103989  2.0690e+001 -2.3202e+001  6.5598e+000 28770 103810,103940,103914
 1.4000e+000 103966  1.2757e+001 -2.0865e+001  6.8852e+000 28770 103862,103914,103888
 1.4000e+000 104185  4.3296e+000 -4.6059e+001  3.7132e-001 28366 104208,104110,104084
 1.4000e+000 104162  1.5504e+001 -3.2511e+001  7.3297e+000 28366 104280,104208,104084
 1.4000e+000 104234  1.3125e+001 -3.8835e+001 -1.4920e+000 28366 104610,104208,104136
 1.4000e+000 104257 -4.3823e+000 -4.4332e+001  1.6802e+000 28366 104538,104410,104208
 1.4000e+000 104306 -9.1095e+000 -4.5536e+001  1.9728e+000 28366 104538,104208,104280
 1.4000e+000 104436  5.6584e+000 -3.6729e+001 -4.3145e+000 28366 104136,104208,104410
 1.4000e+000 104564 -9.3760e+000 -4.3103e+001 -9.3880e-001 28366 104058,104410,104538
 1.4000e+000 104587 -1.2088e+001 -4.3083e+001 -1.0616e+000 28366 104058,104538,104280
 1.4000e+000 104636 -1.2323e+000 -4.4390e+001  8.2140e-001 28366 104110,104208,104610
 1.4000e+000 105349  5.0490e+000 -3.4889e+001 -2.8532e+000 27976 105516,105372,105107
 1.4000e+000 105326 -4.6212e+000 -3.0583e+001  4.2972e+000 27976 105588,105372,105055
 1.4000e+000 105303 -1.4370e+001 -3.1422e+001 -9.6276e+000 27976 105444,105159,105133
 1.4000e+000 105280  1.3083e+001 -4.0176e+001  1.7379e+000 27976 105516,105107,105081
 1.4000e+000 105257 -2.8096e+000 -3.4789e+001  7.6735e+000 27976 105588,105055,105029
 1.4000e+000 105234 -7.3716e-001 -2.1759e+001  2.0641e+000 27976 105003,105185,105159
 1.4000e+000 105211 -2.8346e+000 -1.2891e+001  8.0080e+000 27976 104977,105185,105003
 1.4000e+000 105398  1.5576e+001 -3.1724e+001 -8.2580e+000 27976 105133,105107,105372
 1.4000e+000 105421 -3.5378e+000 -3.8893e+001 -5.2123e+000 27976 105444,105133,105372
 1.4000e+000 105470 -3.8544e+000 -1.8165e+001 -4.3574e+000 27976 105003,105159,105444
 1.4000e+000 105493  3.4383e+000 -2.7294e+001 -2.1283e+000 27976 105003,105444,105372
 1.4000e+000 105542  1.0878e+001 -2.9319e+001  2.0878e+000 27976 105055,105372,105516
 1.4000e+000 105565  2.1319e+001 -3.4219e+001  6.3122e+000 27976 105055,105516,105081
 1.4000e+000 105614 -8.0572e+000 -3.4559e+001  6.1669e+000 27976 105003,105372,105588
 1.4000e+000 105637 -7.1417e+000 -3.8896e+001  9.7759e+000 27976 105003,105588,105029
 1.4000e+000 106143  7.9152e+000 -4.9469e+001  3.5027e-001 27664 106166,105846,105820
 1.4000e+000 106120  3.9521e+000 -4.3529e+001  2.9600e+000 27664 106310,106166,105820
 1.4000e+000 106097  9.0386e+000 -4.0150e+001 -6.0932e+000 27664 106382,106238,105950
 1.4000e+000 106074  1.4692e+001 -4.7844e+001  7.5183e+000 27664 106310,105820,106002
 1.4000e+000 106051  1.7779e+001 -3.5855e+001 -4.7289e+000 27664 106382,105950,105924
 1.4000e+000 106028  4.1542e+000 -8.1911e+001 -4.2344e+000 27664 105846,105898,105872
 1.4000e+000 106192 -3.6037e+000 -6.1052e+001 -1.1046e+001 27664 105898,105846,106166
 1.4000e+000 106215  7.9071e+000 -4.3303e+001  4.3569e-001 27664 106238,105898,106166
 1.4000e+000 106264 -1.0653e+001 -4.6236e+001 -7.7191e+000 27664 105976,105950,106238
 1.4000e+000 106287  5.7236e+000 -4.7032e+001  1.8068e+000 27664 105976,106238,106166
 1.4000e+000 106336  1.4280e+001 -3.8228e+001  9.9720e+000 27664 105976,106166,106310
 1.4000e+000 106359  2.5832e+001 -4.2350e+001  1.4351e+001 27664 105976,106310,106002
 1.4000e+000 106408  4.6753e+000 -3.3837e+001  3.7218e+000 27664 105898,106238,106382
 1.4000e+000 106431  1.0162e+001 -3.1355e+001  4.3066e+000 27664 105898,106382,105924
 1.4000e+000 106728  1.9295e+001 -2.1249e+001  1.0162e+000 27153 106751,106506,106454
 1.4000e+000 106705  1.8277e+001 -2.2852e+001  1.9165e+000 27153 106751,106454,106610
 1.4000e+000 106682  2.5566e+001 -9.6305e+000  3.3930e+000 27153 106454,106506,106480
 1.4000e+000 106659  1.2972e+001 -2.6641e+001  1.8804e+000 27153 106532,106610,106584
 1.4000e+000 106636  1.9204e+000  5.7594e-001  9.0867e+000 27153 106532,106584,106558
 1.4000e+000 106777  1.7552e+001 -1.7680e+001  1.8873e+000 27153 106532,106506,106751
 1.4000e+000 106800  1.5936e+001 -2.1071e+001  3.1419e+000 27153 106532,106751,106610
 1.4000e+000 107180 -1.5369e+001 -4.4847e+001 -1.8887e+000 26642 107203,106984,106958
 1.4000e+000 107157 -1.8316e+001 -4.6914e+001 -4.9921e+000 26642 107203,106958,106932
 1.4000e+000 107134 -3.0411e+001 -5.7644e+001 -2.9454e+000 26642 107275,107036,107010
 1.4000e+000 107111 -1.4602e+001 -4.6124e+001 -1.3192e+001 26642 106932,107062,107036
 1.4000e+000 107088 -1.0223e+000 -3.5075e+001  3.9492e+000 26642 106906,107062,106932
 1.4000e+000 107229 -9.3637e+000 -3.7828e+001 -1.0020e+001 26642 107010,106984,107203
 1.4000e+000 107252 -2.3811e+001 -4.7145e+001 -6.0067e+000 26642 107275,107010,107203
 1.4000e+000 107301 -2.2944e+001 -5.6789e+001 -8.3538e+000 26642 106932,107036,107275
 1.4000e+000 107324 -2.1455e+001 -5.6489e+001 -9.0840e+000 26642 106932,107275,107203
 1.4000e+000 107675 -1.5721e+000 -1.4353e+001  2.7556e+000 26045 107450,107554,107476
 1.4000e+000 107652  4.1584e+000 -9.2893e+000  2.7881e-001 26045 107450,107580,107554
 1.4000e+000 107629  1.3397e+000  9.3898e+000 -5.8610e+000 26045 107476,107528,107502
 1.4000e+000 107606  7.2383e+000 -1.2016e+001  1.6236e+000 26045 107476,107554,107528
 1.4000e+000 107874  2.0585e+001 -4.3604e+001  6.3532e+000 25641 107750,107802,107776
 1.4000e+000 107851  3.4738e+001 -2.0052e+001  1.2427e+001 25641 107724,107802,107750
 1.4000e+000 107828  8.9734e+000 -3.3063e+001  7.9593e+000 25641 107698,107802,107724
 1.4000e+000 108431  2.3261e+000 -4.1207e+001  7.9169e+000 25023 108526,108267,108241
 1.4000e+000 108408  1.2493e+001 -3.7792e+001  2.6926e+000 25023 108059,108267,108085
 1.4000e+000 108385  1.9455e-001 -4.7830e+001  2.6953e+000 25023 108454,108163,108111
 1.4000e+000 108362 -2.5966e+000 -4.3514e+001  8.6379e+000 25023 108454,108111,108085
 1.4000e+000 108339  1.4170e+001 -4.7221e+001  2.2423e+000 25023 108111,108163,108137
 1.4000e+000 108316 -1.1080e+001 -3.7084e+001 -4.5995e+000 25023 108163,108241,108215
 1.4000e+000 108293  1.0181e+001 -2.5412e+001  8.7538e+000 25023 108163,108215,108189
 1.4000e+000 108480  4.7827e+000 -3.8466e+001  8.9232e-001 25023 108241,108163,108454
 1.4000e+000 108503  1.2336e+000 -4.0303e+001  7.6416e+000 25023 108526,108241,108454
 1.4000e+000 108552  1.1819e+000 -4.2104e+001  7.3982e+000 25023 108085,108267,108526
 1.4000e+000 108575  1.0725e-002 -4.1305e+001  7.0880e+000 25023 108085,108526,108454
 1.4000e+000 108823  2.1998e+001 -1.3542e+001  7.1287e+000 24461 108624,108728,108650
 1.4000e+000 108800  1.6834e+001 -5.6020e+001 -4.2837e+000 24461 108598,108728,108624
 1.4000e+000 108777  2.2795e+001 -3.7263e+001  4.6957e+000 24461 108650,108728,108676
 1.4000e+000 108754 -2.5821e+000 -1.0822e+002  2.7970e+000 24461 108676,108728,108702
 1.4000e+000 109022  1.9221e+001 -3.7680e+001  1.9561e+000 24121 108872,108924,108898
 1.4000e+000 108999  6.9374e+000 -3.3362e+001  1.4292e+000 24121 108846,108924,108872
 1.4000e+000 108976  8.4944e+000 -3.3741e+001  4.0347e+000 24121 108846,108950,108924
 1.4000e+000 109483  3.3286e+001 -3.4601e+001 -1.7553e+001 23717 109209,109339,109235
 1.4000e+000 109460  2.2180e+001 -5.8060e+001 -1.3602e+001 23717 109209,109365,109339
 1.4000e+000 109437  2.3688e+001 -4.4411e+001 -3.9087e+000 23717 109287,109339,109313
 1.4000e+000 109414 -1.7910e+000 -5.6534e+001 -7.6889e+000 23717 109235,109339,109287
 1.4000e+000 109391  1.2061e+001 -4.4699e+001  1.8289e-001 23717 109235,109287,109261
 1.4000e+000 109910 -8.1257e+000 -5.5801e+001  6.6386e-001 23305 109613,109743,109717
 1.4000e+000 109887 -2.4137e+001 -6.0941e+001 -8.0783e+000 23305 109613,109769,109743
 1.4000e+000 109864 -2.7578e+001 -5.1249e+001  5.5386e+000 23305 109613,109717,109639
 1.4000e+000 109841 -1.1968e+001 -5.4998e+001 -1.5346e+000 23305 109587,109769,109613
 1.4000e+000 109818  1.3292e+001 -3.3541e+001 -3.1443e+000 23305 109639,109717,109691
 1.4000e+000 109795  1.4885e+001 -4.2490e+001  7.7092e+000 23305 109639,109691,109665
 1.4000e+000 110180 -7.9658e+000 -3.2542e+001 -8.1681e-002 22851 110007,110059,110033
 1.4000e+000 110157 -1.7358e+001 -5.5326e+001  6.7428e-001 22851 109981,110059,110007
 1.4000e+000 110134 -2.1637e+001 -5.7519e+001 -1.3617e-001 22851 109955,110059,109981
 1.4000e+000 110111 -9.0984e+000 -5.6127e+001 -5.7437e+000 22851 109955,110085,110059
 1.4000e+000 110737  3.2392e+000 -4.0000e+001 -8.3056e-001 22333 110760,110469,110391
 1.4000e+000 110714  6.6048e+000 -3.8579e+001 -1.4887e+000 22333 110760,110391,110365
 1.4000e+000 110691  1.1005e+001 -3.5832e+001 -9.5826e-001 22333 110832,110521,110469
 1.4000e+000 110668  1.8149e+001 -6.8284e+001 -7.4998e-001 22333 110417,110469,110443
 1.4000e+000 110645 -7.2289e+000 -6.4621e+001 -4.8388e-001 22333 110391,110469,110417
 1.4000e+000 110622  1.8307e+001 -3.3541e+001  9.6467e-001 22333 110469,110521,110495
 1.4000e+000 110599  4.5143e+000 -3.2549e+001 -7.4164e+000 22333 110365,110573,110547
 1.4000e+000 110786  6.6706e+000 -3.5203e+001  7.0558e-001 22333 110832,110469,110760
 1.4000e+000 110809 -5.2093e-001 -4.2669e+001 -5.7396e+000 22333 110547,110760,110365
 1.4000e+000 110858  2.2776e+001 -3.5973e+001 -4.6218e+000 22333 110547,110521,110832
 1.4000e+000 110881  1.1955e+001 -3.8469e+001 -4.7289e+000 22333 110547,110832,110760
 1.4000e+000 111308 -2.1714e+001 -4.8757e+001  1.6091e+000 21829 111331,111063,111011
 1.4000e+000 111285 -2.6131e+001 -4.8504e+001 -9.6884e-001 21829 111331,111011,111167
 1.4000e+000 111262 -2.3218e+001 -5.1742e+001 -2.3768e-001 21829 111403,111089,111063
 1.4000e+000 111239 -3.0089e+001 -6.0083e+001  6.0256e+000 21829 111011,111063,111037
 1.4000e+000 111216 -2.0531e+001 -4.4175e+001  1.6869e+000 21829 110985,111167,111011
 1.4000e+000 111193 -2.9423e+001 -8.4952e+001  6.7128e+000 21829 111089,111141,111115
 1.4000e+000 111357 -2.4223e+001 -5.0882e+001 -2.1474e-001 21829 111403,111063,111331
 1.4000e+000 111380 -2.5655e+001 -5.1207e+001 -3.0631e+000 21829 111141,111331,111167
 1.4000e+000 111429 -2.1482e+001 -5.0486e+001 -1.0409e+000 21829 111141,111089,111403
 1.4000e+000 111452 -2.3068e+001 -4.9451e+001 -7.4466e-001 21829 111141,111403,111331
 1.4000e+000 112056  2.7758e+001 -4.0092e+001 -6.8051e-001 21489 111687,111765,111739
 1.4000e+000 112033  1.5362e+001 -4.9060e+001  2.9412e+000 21489 112151,112079,111687
 1.4000e+000 112010  9.2607e+000 -8.2030e+001  2.1972e+000 21489 111791,111843,111817
 1.4000e+000 111987 -4.8892e+000 -6.4712e+001 -8.4952e+000 21489 112079,111843,111791
 1.4000e+000 111964  2.3554e+001 -4.3732e+001  7.6011e+000 21489 112151,111687,111661
 1.4000e+000 111941  8.3811e-001 -3.0841e+001  4.1239e+000 21489 111661,111869,111843
 1.4000e+000 111918  3.1320e+001 -4.3472e+001  6.7497e+000 21489 111687,111739,111713
 1.4000e+000 111895  7.1227e+000 -1.6363e+001 -3.4902e+000 21489 111635,111869,111661
 1.4000e+000 112105  1.6039e+000 -5.1578e+001  1.2890e+000 21489 111765,111687,112079
 1.4000e+000 112128  3.1187e-001 -5.1348e+001  2.1369e+000 21489 111765,112079,111791
 1.4000e+000 112177  2.0930e+000 -4.7125e+001 -5.1751e+000 21489 111843,112079,112151
 1.4000e+000 112200  9.2230e+000 -4.4733e+001 -1.4480e+000 21489 111843,112151,111661
 1.4000e+000 112578  8.2413e+000 -5.9475e+001  1.7125e+000 21177 112382,112434,112408
 1.4000e+000 112555  8.3089e+000 -5.5917e+001  7.6959e-001 21177 112330,112434,112382
 1.4000e+000 112532  1.6791e+001 -4.8581e+001  5.9215e+000 21177 112304,112434,112330
 1.4000e+000 112509  1.0758e+001 -6.0029e+001  0.0000e+000 21177 112330,112382,112356
 1.4000e+000 112486  3.2397e+001 -4.3349e+001  3.1167e+000 21177 112304,112460,112434
 1.4000e+000 112679  6.8364e+000 -7.4783e+001 -7.7007e+000 20666 112601,112653,112627
 1.4000e+000 112927  1.8409e+001 -4.7474e+001  1.6579e-001 19762 112702,112754,112728
 1.4000e+000 112904  8.8480e+000 -4.9697e+001  2.4440e+000 19762 112702,112832,112754
 1.4000e+000 112881  3.4103e+000 -5.7283e+001  6.2972e+000 19762 112754,112832,112806
 1.4000e+000 112858  2.6093e+000 -6.4614e+001  9.3541e+000 19762 112754,112806,112780
 1.4000e+000 113297 -1.1041e+000 -5.0829e+001  3.4537e+000 19308 112974,113052,113026
 1.4000e+000 113274  4.1061e-001 -5.0560e+001  3.0224e+000 19308 112974,113156,113052
 1.4000e+000 113251 -5.1421e+000 -4.8556e+001 -2.2587e-001 19308 113052,113130,113104
 1.4000e+000 113228  8.7861e+000 -3.4233e+001  6.1926e+000 19308 113052,113156,113130
 1.4000e+000 113205 -4.6548e+000 -4.8136e+001  0.0000e+000 19308 113052,113104,113078
 1.4000e+000 113182 -2.2712e+000 -5.0678e+001  2.4912e+000 19308 112974,113026,113000
 1.4000e+000 113547 -5.9332e+000 -5.0479e+001 -2.2748e+000 18711 113570,113374,113348
 1.4000e+000 113524 -2.7256e+000 -5.5095e+001 -3.6981e+000 18711 113570,113348,113452
 1.4000e+000 113501  4.5922e-001 -3.5275e+001 -1.5357e+001 18711 113322,113452,113348
 1.4000e+000 113478 -1.0308e+001 -6.1377e+001  2.2681e+000 18711 113374,113426,113400
 1.4000e+000 113596 -8.9164e+000 -5.5248e+001 -6.8420e-001 18711 113426,113374,113570
 1.4000e+000 113619 -4.2588e+000 -5.8377e+001 -2.9632e+000 18711 113426,113570,113452
 1.4000e+000 113771  3.2849e+000 -5.4441e+001 -2.7438e+000 18307 113670,113722,113696
 1.4000e+000 113748  1.2642e+001 -5.5511e+001 -1.3892e+000 18307 113644,113722,113670
 1.4000e+000 113972  9.3210e+000 -5.2616e+001  3.4929e-001 17945 113822,113874,113848
 1.4000e+000 113949  5.8353e+000 -5.4228e+001 -1.9958e-001 17945 113822,113900,113874
 1.4000e+000 113926  1.2634e+000 -5.4031e+001  1.0381e+001 17945 113796,113900,113822
 1.4000e+000 114075  1.5420e+000 -3.8945e+001  3.1662e+000 17482 113997,114049,114023
 1.4000e+000 114479  6.6886e+000 -4.7981e+001  5.8950e-001 17042 114257,114361,114335
 1.4000e+000 114456  1.7866e+001 -3.7920e+001 -5.7197e+000 17042 114205,114361,114257
 1.4000e+000 114433  1.1509e+001 -5.1401e+001  2.4765e-001 17042 114205,114257,114231
 1.4000e+000 114410  8.1374e+000 -6.7873e+001 -5.0996e+000 17042 114283,114335,114309
 1.4000e+000 114387 -2.1366e+000 -5.2251e+001 -4.8597e+000 17042 114257,114335,114283
 1.4000e+000 114879 -2.0365e+001 -5.9765e+001 -2.3184e+000 16638 114631,114683,114657
 1.4000e+000 114856  1.0815e+001 -4.6229e+001 -3.1711e+000 16638 114605,114683,114631
 1.4000e+000 114833  1.1680e+001 -3.2015e+001  9.4759e-001 16638 114605,114761,114683
 1.4000e+000 114810 -5.3605e-001 -5.6739e+001 -2.2800e+000 16638 114683,114735,114709
 1.4000e+000 114787 -7.5929e+000 -6.5712e+001 -7.2965e+000 16638 114683,114761,114735
 1.4000e+000 115078 -1.1457e+001 -3.6558e+001  3.6792e+000 16232 114954,115006,114980
 1.4000e+000 115055 -5.1693e+000 -5.3324e+001  6.1927e+000 16232 114928,115006,114954
 1.4000e+000 115032  1.3642e+001 -7.8286e+001  9.6684e+000 16232 114902,115006,114928
 1.4000e+000 115228 -2.1917e+001 -5.3362e+001 -3.6136e-001 15482 115101,115153,115127
 1.4000e+000 115205 -1.3219e+001 -4.5958e+001 -4.7661e+000 15482 115101,115179,115153
 1.4000e+000 115331 -1.5053e+000 -5.7272e+001 -8.0090e+000 15163 115253,115305,115279
 1.4000e+000 115434 -9.1301e+000 -6.1741e+001  7.1714e+000 421 115356,115408,115382
 1.5000e+000 68213  8.2708e+001 -2.6510e+001 -7.2658e+000 67888 68112,68164,68138
 1.5000e+000 68190 -5.2511e-001 -6.1457e+001 -1.1606e+000 67888 68086,68164,68112
 1.5000e+000 68314 -3.7071e+000 -8.8625e+001  5.5658e+000 67576 68236,68288,68262
 1.5000e+000 68584 -2.2523e+000 -6.7726e+001  5.3165e+000 67378 68385,68489,68463
 1.5000e+000 68561  4.7387e+001 -4.9047e+001  8.8148e+000 67378 68359,68489,68385
 1.5000e+000 68538  1.0768e+000 -5.0042e+001  6.7017e+000 67378 68385,68463,68411
 1.5000e+000 68515  3.5684e+000 -2.6732e+001  6.2176e+000 67378 68411,68463,68437
 1.5000e+000 68964  5.0351e+000 -5.2745e+001  1.2433e+001 67130 68690,68820,68716
 1.5000e+000 68941  5.7118e+001 -5.0532e+001  2.8233e+001 67130 68690,68846,68820
 1.5000e+000 68918  1.0933e+000 -2.6039e+001  4.4496e+000 67130 68742,68820,68794
 1.5000e+000 68895  1.7397e+001 -2.3568e+001  6.6205e+000 67130 68716,68820,68742
 1.5000e+000 68872  6.4281e+000 -1.8807e+001 -1.8719e+000 67130 68742,68794,68768
 1.5000e+000 69065  7.2611e+000 -5.3309e+001 -1.6823e-001 66926 68987,69039,69013
 1.5000e+000 69445  8.6003e+000 -5.1648e+001  4.3063e-001 66614 69223,69301,69275
 1.5000e+000 69422  7.2947e+000 -5.1474e+001 -6.2196e-001 66614 69171,69301,69223
 1.5000e+000 69399  3.5567e+000 -5.5832e+001  1.0449e+000 66614 69171,69327,69301
 1.5000e+000 69376  1.8602e+001 -1.0706e+001  5.1679e+000 66614 69223,69275,69249
 1.5000e+000 69353  5.2423e+000 -5.9431e+001 -2.3446e+000 66614 69171,69223,69197
 1.5000e+000 69546  6.3950e+000 -4.2471e+001  2.1419e+000 66416 69468,69520,69494
 1.5000e+000 69997  1.9890e+001 -5.6825e+001 -4.4270e+000 66104 69700,69830,69726
 1.5000e+000 69974  1.0913e+001 -5.7628e+001 -5.2919e+000 66104 69700,69856,69830
 1.5000e+000 69951  1.8888e+001 -2.6763e+001 -6.2824e+000 66104 69726,69804,69778
 1.5000e+000 69928  2.7277e+001 -4.3618e+001 -7.6372e+000 66104 69726,69830,69804
 1.5000e+000 69905  1.2892e+001 -2.6822e+001 -5.1793e+000 66104 69726,69778,69752
 1.5000e+000 69882  5.4018e+001 -7.7781e+001 -3.1475e+001 66104 69674,69856,69700
 1.5000e+000 70326  2.6817e+001 -2.2007e+001  1.1748e+000 65814 70349,70153,70127
 1.5000e+000 70303  2.6698e+001 -2.0052e+001 -5.7622e-001 65814 70349,70127,70101
 1.5000e+000 70280  7.2335e+000 -1.9014e+001  2.9723e+001 65814 70101,70231,70205
 1.5000e+000 70257  9.9063e+000 -4.1764e+001 -5.2577e+000 65814 70153,70205,70179
 1.5000e+000 70375  2.6297e+001 -2.4899e+001  1.9441e+000 65814 70205,70153,70349
 1.5000e+000 70398  2.7020e+001 -2.2233e+001 -1.8691e-002 65814 70205,70349,70101
 1.5000e+000 70904  1.7940e+001  4.8510e-001  9.6486e-001 65502 70607,70737,70685
 1.5000e+000 70881  2.4155e+001  2.5406e+000  1.6665e-001 65502 70581,70737,70607
 1.5000e+000 70858  2.6255e+001  1.7505e+001  5.7707e+000 65502 70581,70763,70737
 1.5000e+000 70835  6.4271e+001  1.5318e+001 -1.8180e+001 65502 70685,70737,70711
 1.5000e+000 70812  2.4781e-001 -1.1741e+001  3.0590e+000 65502 70607,70659,70633
 1.5000e+000 70789  1.1644e+001 -1.3699e+001  2.8751e+000 65502 70607,70685,70659
 1.5000e+000 71103  4.7173e+001 -5.4129e+001 -6.0416e+000 65304 71126,70979,70953
 1.5000e+000 71080  3.6048e+001 -5.5440e+001 -3.9048e+000 65304 71126,70953,70927
 1.5000e+000 71057  2.1587e+001 -5.4266e+001 -1.7211e+000 65304 70927,71031,71005
 1.5000e+000 71152  3.5424e+001 -4.5507e+001 -9.1712e+000 65304 71005,70979,71126
 1.5000e+000 71175  2.1815e+001 -4.9904e+001 -4.3104e+000 65304 71005,71126,70927
 1.5000e+000 71374  1.5924e+001 -4.2578e+001  6.6594e-001 65106 71198,71276,71224
 1.5000e+000 71351  3.0515e+001 -4.2103e+001  2.5284e-001 65106 71198,71302,71276
 1.5000e+000 71328  1.9989e+001 -3.1566e+001  6.2188e+000 65106 71224,71276,71250
 1.5000e+000 71756 -1.3086e+001 -3.0703e+001 -1.0487e-001 64652 71508,71638,71534
 1.5000e+000 71733 -9.6382e-001 -2.5547e+001  9.3285e-001 64652 71482,71638,71508
 1.5000e+000 71710 -2.4336e+001 -5.5128e+001  1.2067e+001 64652 71534,71586,71560
 1.5000e+000 71687 -1.0186e+001 -4.7945e+001 -1.1940e-001 64652 71534,71612,71586
 1.5000e+000 71664 -1.9864e+001 -4.7840e+001 -3.7199e+000 64652 71534,71638,71612
 1.5000e+000 72085  1.5149e+001 -3.9681e+001 -8.4792e+000 64248 71886,71964,71912
 1.5000e+000 72062  2.5853e+001 -3.5541e+001 -9.1280e+000 64248 71860,71964,71886
 1.5000e+000 72039  3.7789e+001 -4.5979e+001 -4.4475e+000 64248 71912,71964,71938
 1.5000e+000 72016  1.1900e+001 -3.3576e+001 -4.7053e+000 64248 71860,71990,71964
 1.5000e+000 72235  4.6073e+001 -1.5684e+001 -1.6781e+000 63858 72588,72258,72134
 1.5000e+000 72212  3.7119e+001 -3.8001e+000  2.7354e+000 63858 72330,72258,72108
 1.5000e+000 72284  4.5264e+001 -1.9622e+001 -2.6687e+000 63858 72160,72134,72258
 1.5000e+000 72307  1.3141e+001 -1.7829e+001 -1.4858e+001 63858 72460,72258,72186
 1.5000e+000 72356  1.9835e+001 -1.1813e+001 -1.0912e+001 63858 72186,72258,72330
 1.5000e+000 72486  5.7208e+001 -5.0974e+000 -1.6487e+001 63858 72160,72258,72460
 1.5000e+000 72614  4.8436e+001 -1.5235e+001 -1.9878e-001 63858 72108,72258,72588
 1.5000e+000 73248  2.2589e+000 -8.9041e+001  2.6860e+001 63404 72902,72954,72928
 1.5000e+000 73225 -2.5130e+001 -6.5634e+001  1.4169e+001 63404 73271,72954,72902
 1.5000e+000 73202 -1.7302e+001 -4.0117e+001  1.1848e+001 63404 73271,72902,73032
 1.5000e+000 73179 -1.4848e+001 -3.1883e+001  3.9890e+000 63404 72902,73058,73032
 1.5000e+000 73156 -1.6845e+001 -5.5910e+001 -4.9819e+000 63404 72980,73032,73006
 1.5000e+000 73133 -1.6224e+001 -2.1639e+001  8.1886e+000 63404 72876,73058,72902
 1.5000e+000 73110 -1.1125e+001 -1.8024e+001  6.5321e+000 63404 72876,73084,73058
 1.5000e+000 73297 -1.5293e+001 -6.9112e+001 -1.3816e+000 63404 72980,72954,73271
 1.5000e+000 73320 -1.3928e+001 -5.5368e+001 -1.3628e+000 63404 72980,73271,73032
 1.5000e+000 73470 -1.0365e+001 -9.7425e+001  7.6231e+000 63014 73343,73395,73369
 1.5000e+000 73447 -4.4223e+001 -1.3926e+002 -6.9985e+000 63014 73343,73421,73395
 1.5000e+000 73929  3.0933e+001 -6.2805e+001 -1.2257e+001 62702 73759,73811,73785
 1.5000e+000 73906  2.2655e+001 -6.4018e+001 -6.6952e+000 62702 73655,73811,73759
 1.5000e+000 73883  2.7395e+001 -6.5585e+001 -4.3072e+000 62702 73655,73759,73681
 1.5000e+000 73860  3.9727e+001 -4.2511e+001 -2.7063e+001 62702 73681,73759,73707
 1.5000e+000 73837 -8.6303e-001 -5.1195e+001 -1.0810e+001 62702 73707,73759,73733
 1.5000e+000 74209 -2.4132e+001 -6.3416e+001 -2.2915e+000 62404 74059,74137,74085
 1.5000e+000 74186 -3.3497e+001 -9.0724e+001  1.0717e+001 62404 74033,74137,74059
 1.5000e+000 74163 -2.2978e+001 -4.0212e+001  1.6425e-001 62404 74085,74137,74111
 1.5000e+000 74408  2.0540e+001 -3.9947e+001 -9.5295e+000 62000 74258,74336,74284
 1.5000e+000 74385  2.8833e+001 -3.8322e+001 -1.4114e+001 62000 74232,74336,74258
 1.5000e+000 74362  2.9652e+001 -3.6520e+001 -6.1280e+000 62000 74284,74336,74310
 1.5000e+000 74509  3.9530e+001 -7.9054e+001  1.9798e+001 61802 74431,74483,74457
 1.5000e+000 74759 -2.3501e+000 -5.7257e+001 -3.9435e+000 61554 74782,74586,74560
 1.5000e+000 74736  1.2550e+001 -4.3135e+001  3.9627e+000 61554 74782,74560,74664
 1.5000e+000 74713  1.5102e+000 -1.8304e+001  3.4370e+001 61554 74854,74612,74586
 1.5000e+000 74690  5.1063e+000 -5.3195e+001 -1.9355e-001 61554 74534,74664,74560
 1.5000e+000 74808 -1.4895e+001 -4.1828e+001  6.9432e+000 61554 74854,74586,74782
 1.5000e+000 74831  1.0499e+001 -6.1065e+001  5.5771e+000 61554 74638,74782,74664
 1.5000e+000 74880  3.6849e+001 -4.2464e+001  3.7049e+001 61554 74638,74612,74854
 1.5000e+000 74903  3.6135e+001 -4.0057e+001  1.6385e+001 61554 74638,74854,74782
 1.5000e+000 75285  4.8705e+001 -5.9286e+001  4.8854e-002 61356 75063,75167,75115
 1.5000e+000 75262  4.2052e+001 -6.8804e+001 -7.5903e+000 61356 75037,75167,75063
 1.5000e+000 75239  5.5995e+001 -6.1662e+001 -1.8941e-001 61356 75115,75167,75141
 1.5000e+000 75216  4.3338e+001 -5.8380e+001  1.5734e+000 61356 75063,75115,75089
 1.5000e+000 75193 -1.8481e+001 -3.5542e+001  1.2020e+001 61356 75011,75167,75037
 1.5000e+000 75631  3.8265e+001 -4.5516e+001  2.5798e+000 60952 75654,75412,75360
 1.5000e+000 75608  4.1452e+001 -5.4557e+001 -4.8794e-001 60952 75654,75360,75334
 1.5000e+000 75585  3.3000e+001 -6.9808e+001 -3.4861e+000 60952 75726,75438,75412
 1.5000e+000 75562  5.4629e+001 -4.4529e+001 -1.7196e+001 60952 75308,75490,75334
 1.5000e+000 75539  4.1767e+001 -4.2765e+001 -6.6750e-001 60952 75360,75412,75386
 1.5000e+000 75516  7.4168e+000 -9.3033e+001  1.2709e-001 60952 75438,75490,75464
 1.5000e+000 75680  3.8299e+001 -5.5241e+001  2.6753e+000 60952 75726,75412,75654
 1.5000e+000 75703  3.7262e+001 -5.4722e+001  3.6021e-001 60952 75490,75654,75334
 1.5000e+000 75752  2.6278e+001 -5.4264e+001 -5.7590e+000 60952 75490,75438,75726
 1.5000e+000 75775  2.6984e+001 -5.4906e+001 -2.7691e+000 60952 75490,75726,75654
 1.5000e+000 76155  1.9022e+001 -2.6960e+001 -9.2096e+000 60754 75933,75985,75959
 1.5000e+000 76132  1.4619e+001 -3.1292e+001  5.3601e+000 60754 75933,76037,75985
 1.5000e+000 76109  3.9620e+001 -2.5663e+001 -1.4893e+000 60754 75985,76037,76011
 1.5000e+000 76086  3.2102e+000 -1.9199e+001 -1.0730e+000 60754 75881,76037,75933
 1.5000e+000 76063 -6.2748e+000 -1.8643e+001  8.6637e+000 60754 75881,75933,75907
 1.5000e+000 76612  3.4377e+001 -3.4017e+001  3.7758e+000 60350 76635,76442,76390
 1.5000e+000 76589  3.2548e+001 -4.0115e+001  2.5777e+000 60350 76635,76390,76364
 1.5000e+000 76566  7.7266e+000 -6.0957e+001 -2.3172e+000 60350 76364,76494,76468
 1.5000e+000 76543  3.8003e+001 -2.9706e+001  1.3048e+001 60350 76390,76442,76416
 1.5000e+000 76520  1.9328e+001 -2.8189e+001  3.7173e+000 60350 76338,76494,76364
 1.5000e+000 76661  3.6574e+001 -3.9049e+001  6.1489e+000 60350 76468,76442,76635
 1.5000e+000 76684  3.5980e+001 -4.3204e+001  5.8473e+000 60350 76468,76635,76364
 1.5000e+000 76932  8.7173e-001 -5.7325e+001  3.8558e+000 59946 76955,76733,76707
 1.5000e+000 76909  2.7605e-001 -5.8145e+001  6.3131e+000 59946 77027,76955,76707
 1.5000e+000 76886  6.0019e-001 -5.8501e+001  6.2203e+000 59946 77027,76707,76837
 1.5000e+000 76863  3.9188e+000 -5.7421e+001 -1.1538e+000 59946 76733,76785,76759
 1.5000e+000 76981 -4.8555e+000 -5.8635e+001  2.4886e+000 59946 76785,76733,76955
 1.5000e+000 77004 -1.1136e+000 -5.4841e+001  5.3165e+000 59946 76785,76955,76811
 1.5000e+000 77053  6.2117e-001 -5.7406e+001  6.7962e+000 59946 76811,76955,77027
 1.5000e+000 77076  6.4085e-001 -5.8120e+001  6.6797e+000 59946 76811,77027,76837
 1.5000e+000 77226 -2.5501e+001 -5.8099e+001  5.8768e-001 59542 77099,77151,77125
 1.5000e+000 77203 -3.6738e+001 -6.4564e+001  1.3156e+001 59542 77099,77177,77151
 1.5000e+000 77427  2.3143e+001 -4.4435e+001 -8.7879e+000 59030 77450,77277,77251
 1.5000e+000 77404  2.4267e+001 -4.7560e+001 -1.3539e+001 59030 77450,77251,77355
 1.5000e+000 77381  1.3259e+001 -5.0966e+001 -5.5843e+000 59030 77277,77329,77303
 1.5000e+000 77476  2.5875e+001 -4.3469e+001 -8.7511e+000 59030 77329,77277,77450
 1.5000e+000 77499  2.9348e+001 -4.5424e+001 -1.2690e+001 59030 77329,77450,77355
 1.5000e+000 77749  2.4385e+001 -6.0859e+001 -8.5855e-001 58426 77772,77628,77602
 1.5000e+000 77726  6.0431e+001 -6.9518e+001  4.7284e+000 58426 77524,77654,77628
 1.5000e+000 77703  1.5348e+001 -5.1681e+001  1.8417e+000 58426 77772,77602,77550
 1.5000e+000 77680  2.4970e+001 -4.7401e+001  5.6533e-001 58426 77550,77602,77576
 1.5000e+000 77798  1.5623e+001 -7.3206e+001 -6.0760e+000 58426 77524,77628,77772
 1.5000e+000 77821  1.4298e+001 -5.8041e+001 -7.9673e-001 58426 77524,77772,77550
 1.5000e+000 78071 -6.6444e+000 -7.2841e+001 -2.7625e+000 57922 78094,77924,77898
 1.5000e+000 78048  7.0857e-001 -6.0807e+001  1.0986e+000 57922 78094,77898,77872
 1.5000e+000 78025 -9.3924e+000 -5.9674e+001 -3.2336e-001 57922 78166,77846,77950
 1.5000e+000 78002  3.4313e+001 -6.3482e+001  8.4843e+000 57922 77846,77976,77950
 1.5000e+000 78120 -4.2474e+000 -6.2127e+001 -3.9156e+000 57922 77950,77924,78094
 1.5000e+000 78143 -4.7273e+000 -5.9409e+001 -3.4600e+000 57922 78166,77950,78094
 1.5000e+000 78192 -1.3613e+001 -6.1675e+001  2.5590e+000 57922 77872,77846,78166
 1.5000e+000 78215 -9.3070e+000 -6.3732e+001  1.1883e-001 57922 77872,78166,78094
 1.5000e+000 78416  3.7120e+001 -6.2229e+001 -3.6752e+000 57468 78439,78292,78240
 1.5000e+000 78393  2.7482e+001 -4.2585e+001 -1.5895e+000 57468 78439,78240,78344
 1.5000e+000 78370  1.7346e+001 -1.0027e+002 -1.1003e+001 57468 78240,78292,78266
 1.5000e+000 78465  2.9333e+001 -7.1258e+001 -1.6597e+001 57468 78318,78292,78439
 1.5000e+000 78488  2.5609e+001 -5.4055e+001 -1.0398e+001 57468 78318,78439,78344
 1.5000e+000 78689  2.6270e+001 -6.9273e+001 -6.1556e+000 57014 78712,78539,78513
 1.5000e+000 78666  2.0232e+001 -7.5176e+001 -3.0891e+000 57014 78712,78513,78617
 1.5000e+000 78643  1.9487e+001 -6.6485e+001  1.1566e+001 57014 78565,78617,78591
 1.5000e+000 78738  1.8416e+001 -4.9726e+001 -3.3579e+000 57014 78565,78539,78712
 1.5000e+000 78761  4.7068e+000 -6.9055e+001  3.4372e+000 57014 78565,78712,78617
 1.5000e+000 79241 -2.0177e+000 -5.2957e+001  6.4045e+000 56652 79264,78895,78869
 1.5000e+000 79218 -4.5838e+000 -5.9649e+001  7.1672e+000 56652 79264,78869,79051
 1.5000e+000 79195  3.1956e+000 -5.7379e+001  7.4073e+000 56652 78869,79077,79051
 1.5000e+000 79172 -2.2181e+001 -4.9453e+001  1.5466e+000 56652 78895,78973,78947
 1.5000e+000 79149 -1.8754e+000 -1.0953e+002  1.6472e+001 56652 78973,79051,78999
 1.5000e+000 79126 -6.9821e+000 -5.7479e+001 -2.0946e+000 56652 78895,78947,78921
 1.5000e+000 79103  1.8893e+001 -5.9650e+001  1.6394e+001 56652 78999,79051,79025
 1.5000e+000 79290 -5.2517e+000 -4.7352e+001  1.0664e+001 56652 78973,78895,79264
 1.5000e+000 79313 -9.2145e+000 -5.6456e+001  1.2082e+001 56652 78973,79264,79051
 1.5000e+000 79512  1.6127e+001 -6.3252e+001 -6.7039e-001 56062 79388,79440,79414
 1.5000e+000 79489  8.4334e+000 -8.2259e+000  1.0220e+001 56062 79336,79440,79388
 1.5000e+000 79466  5.0190e+001 -5.9022e+001  1.1190e+001 56062 79336,79388,79362
 1.5000e+000 79941 -3.8761e+000 -5.6463e+001  8.4061e+000 55658 79964,79670,79644
 1.5000e+000 79918 -6.7260e+000 -5.3278e+001  8.0401e+000 55658 79964,79644,79800
 1.5000e+000 79895  3.9668e+000 -5.5864e+001  6.1933e+000 55658 80036,79696,79670
 1.5000e+000 79872 -1.5834e+000 -4.5089e+001 -1.0554e+001 55658 80108,79722,79696
 1.5000e+000 79849 -1.6697e+001 -6.1197e+001 -2.4950e+001 55658 79722,79774,79748
 1.5000e+000 79826 -1.1209e+000 -5.1625e+001  4.0360e+000 55658 79618,79800,79644
 1.5000e+000 79990 -7.2135e+000 -6.0468e+001  6.9345e+000 55658 80036,79670,79964
 1.5000e+000 80013 -1.2741e+001 -5.6802e+001  5.0504e+000 55658 79774,79964,79800
 1.5000e+000 80062  7.7717e+000 -5.1181e+001 -1.7314e+000 55658 80108,79696,80036
 1.5000e+000 80085 -2.9828e+000 -5.2668e+001  5.2690e+000 55658 79774,80036,79964
 1.5000e+000 80134 -1.9486e+001 -5.1168e+001 -6.9875e+000 55658 79774,79722,80108
 1.5000e+000 80157 -1.4258e+001 -5.9835e+001  1.7050e+000 55658 79774,80108,80036
 1.5000e+000 80307 -2.0157e+000 -3.7316e+001  1.5882e+001 55254 80402,80330,80206
 1.5000e+000 80284 -3.6859e+000 -5.9141e+001  1.1396e+001 55254 80330,80180,80258
 1.5000e+000 80356 -9.5335e+000 -5.4570e+001  1.9666e+001 55254 80232,80206,80330
 1.5000e+000 80379  5.0857e+000 -4.8653e+001  1.6686e+001 55254 80232,80330,80258
 1.5000e+000 80428 -8.1541e+000 -5.5825e+001  9.0723e+000 55254 80180,80330,80402
 1.5000e+000 80659  2.1191e+000 -6.0590e+001 -6.6593e+000 54850 80558,80610,80584
 1.5000e+000 80636  1.2903e+001 -4.6501e+001  4.1769e+000 54850 80532,80610,80558
 1.5000e+000 80760  2.9584e+001 -5.7269e+001 -4.6697e+000 54652 80682,80734,80708
 1.5000e+000 81164  3.2993e+001 -5.8542e+001  1.9272e+000 54248 81187,80942,80890
 1.5000e+000 81141  3.8509e+001 -6.6631e+001  5.2377e-001 54248 81187,80890,81046
 1.5000e+000 81118  1.4357e+001 -6.6944e+001  1.6750e+001 54248 80942,81020,80994
 1.5000e+000 81095  3.0584e+001 -6.3658e+001  1.2873e+000 54248 80890,80942,80916
 1.5000e+000 81072  3.9498e+001 -2.8295e+001  6.6986e-001 54248 80942,80994,80968
 1.5000e+000 81213  3.6914e+001 -5.4137e+001  3.6829e+000 54248 81020,80942,81187
 1.5000e+000 81236  4.3588e+001 -6.0605e+001  2.7172e+000 54248 81020,81187,81046
 1.5000e+000 81663 -5.1262e+000 -3.4434e+001  3.5422e+000 53594 81340,81444,81366
 1.5000e+000 81640 -2.1022e+001 -7.0195e+001  9.4725e+000 53594 81340,81470,81444
 1.5000e+000 81617  7.0223e+000 -4.6194e+001 -1.8353e+001 53594 81340,81522,81470
 1.5000e+000 81594 -1.1457e+001 -2.1863e+001  1.3736e+000 53594 81392,81444,81418
 1.5000e+000 81571 -1.1140e+001 -3.5380e+001 -7.6934e-001 53594 81366,81444,81392
 1.5000e+000 81548  2.7569e+001 -7.9961e+001  4.6214e+000 53594 81470,81522,81496
 1.5000e+000 81943  2.1095e+001  2.4593e+000  3.5393e+000 53104 81966,81845,81819
 1.5000e+000 81920  1.9439e+001 -8.2813e+000  2.4925e+000 53104 81966,81819,81767
 1.5000e+000 81897  1.9052e+001  3.8422e+000 -1.4742e+001 53104 81767,81819,81793
 1.5000e+000 81992  2.2202e+001 -8.2123e+000  1.1349e+000 53104 81871,81845,81966
 1.5000e+000 82015  1.8052e+001 -2.2893e+001  2.1435e-001 53104 81871,81966,81767
 1.5000e+000 82491  1.2501e+001 -3.2752e+001 -1.2234e+001 52650 82145,82249,82171
 1.5000e+000 82468  1.3267e+001 -3.9297e+001 -4.4648e+000 52650 82145,82301,82249
 1.5000e+000 82445  8.7057e+000 -5.8216e+001 -6.0462e+000 52650 82249,82301,82275
 1.5000e+000 82422 -1.5002e+001 -6.5853e+001 -1.5412e+001 52650 82119,82301,82145
 1.5000e+000 82399  2.6215e+001 -1.8052e+001 -3.5361e+000 52650 82171,82249,82223
 1.5000e+000 82376  1.7886e+001 -5.2341e+001 -7.6097e+000 52650 82119,82327,82301
 1.5000e+000 82353  5.3164e+001  2.0098e+001 -2.8029e+001 52650 82171,82223,82197
 1.5000e+000 82739 -1.5345e+001 -2.2967e+001  4.3228e+000 52246 82762,82540,82514
 1.5000e+000 82716  3.4976e-001 -1.4893e+001 -1.0707e+000 52246 82762,82514,82644
 1.5000e+000 82693  1.6875e+000 -1.9513e+001  2.3231e+001 52246 82540,82618,82592
 1.5000e+000 82670 -7.6961e+000 -1.6803e+000  1.0007e+001 52246 82540,82592,82566
 1.5000e+000 82788 -1.1734e+000 -3.5382e+001  1.2069e+001 52246 82618,82540,82762
 1.5000e+000 82811  1.5171e+001 -2.8350e+001  1.0092e+001 52246 82618,82762,82644
 1.5000e+000 83059  3.3128e+001 -3.9213e+001  1.5987e+000 51578 82860,82964,82938
 1.5000e+000 83036  3.6161e+001 -3.1461e+001 -2.9210e+000 51578 82834,82964,82860
 1.5000e+000 83013  3.4627e+001 -3.7877e+001  2.1905e+000 51578 82860,82938,82886
 1.5000e+000 82990  2.7616e+001 -5.0733e+001 -1.2516e+000 51578 82886,82938,82912
 1.5000e+000 83309 -4.8309e+000 -3.2040e+001  9.2027e+000 51138 83332,83162,83136
 1.5000e+000 83286 -4.6758e+000 -2.9632e+001  1.0544e+001 51138 83332,83136,83110
 1.5000e+000 83263 -7.6095e+000 -2.6207e+001  5.9847e+000 51138 83404,83214,83188
 1.5000e+000 83240 -8.9372e-001 -8.6311e+000  1.3729e+000 51138 83084,83214,83110
 1.5000e+000 83358 -7.7504e+000 -3.3280e+001  1.3048e+001 51138 83188,83162,83332
 1.5000e+000 83381 -4.4169e+000 -3.2831e+001  1.1660e+001 51138 83404,83188,83332
 1.5000e+000 83430 -1.4544e+000 -8.3130e+000  3.2142e+000 51138 83110,83214,83404
 1.5000e+000 83453 -1.3857e+000 -1.9214e+001  9.2618e+000 51138 83110,83404,83332
 1.5000e+000 83835  2.0156e+001 -2.3914e+001  2.7468e+000 50734 83613,83717,83691
 1.5000e+000 83812  1.2390e+001 -4.3580e+001 -5.5015e+000 50734 83561,83717,83613
 1.5000e+000 83789  2.5603e+001 -2.8163e+001 -1.1134e+001 50734 83561,83613,83587
 1.5000e+000 83766  2.3975e+000 -2.3449e+001 -1.4650e+000 50734 83613,83691,83639
 1.5000e+000 83743  2.2272e+000 -2.0944e+001  6.2829e+000 50734 83639,83691,83665
 1.5000e+000 84034  3.6299e+001 -8.5380e+000  7.6136e+000 50230 84057,83884,83858
 1.5000e+000 84011  3.4103e+001 -1.7944e+001  9.5943e-001 50230 84129,84057,83858
 1.5000e+000 83988  3.8985e+001 -2.2861e+001  1.9376e-001 50230 84129,83858,83962
 1.5000e+000 84083  5.3142e+001 -5.4792e+000  1.8554e+001 50230 83910,83884,84057
 1.5000e+000 84106  4.0849e+001 -2.2848e+001  1.0327e+001 50230 83910,84057,83936
 1.5000e+000 84155  3.9433e+001 -9.9344e+000  4.1155e+000 50230 83936,84057,84129
 1.5000e+000 84178  4.0906e+001 -1.7205e+001  1.8490e+000 50230 83936,84129,83962
 1.5000e+000 84558  1.7304e+001 -1.4649e+001 -1.0685e+001 49768 84581,84388,84362
 1.5000e+000 84535  1.4637e+001 -1.3637e+001 -8.8644e+000 49768 84581,84362,84310
 1.5000e+000 84512  2.5356e+001 -2.0305e+001 -8.1648e+000 49768 84653,84440,84414
 1.5000e+000 84489  9.3862e+000 -9.6979e+000 -1.4193e+001 49768 84310,84362,84336
 1.5000e+000 84466  6.4021e+001 -9.2126e+000 -1.0615e+001 49768 84284,84440,84310
 1.5000e+000 84607  2.8768e+001 -3.8128e-001 -1.5751e+001 49768 84414,84388,84581
 1.5000e+000 84630  2.3733e+001 -1.0755e+001 -7.9344e+000 49768 84653,84414,84581
 1.5000e+000 84679  2.3183e+001 -2.5187e+001 -9.2434e+000 49768 84310,84440,84653
 1.5000e+000 84702  1.6911e+001 -2.1925e+001 -1.0873e+001 49768 84310,84653,84581
 1.5000e+000 85159 -1.8201e+001 -8.2593e+001 -4.2946e+001 49192 84885,84937,84911
 1.5000e+000 85136 -2.5129e+001 -7.1862e+001 -3.1499e+001 49192 84885,85041,84937
 1.5000e+000 85113 -1.5695e+001 -5.3067e+001 -1.1900e+001 49192 84963,85041,84989
 1.5000e+000 85090 -1.3256e+001 -5.4905e+001 -2.6300e+001 49192 84937,85041,84963
 1.5000e+000 85067 -1.2542e+001 -7.3502e+001  7.8173e+000 49192 84989,85041,85015
 1.5000e+000 85714 -3.1579e+000 -1.4086e+001 -2.5955e+000 48638 85368,85498,85394
 1.5000e+000 85691  1.4901e+000 -1.3846e+001 -4.6779e+000 48638 85368,85524,85498
 1.5000e+000 85668 -1.1075e+001 -1.5194e+001  2.1205e+001 48638 85737,85420,85394
 1.5000e+000 85645  7.0949e+000 -1.6402e+001  5.6665e+000 48638 85737,85394,85498
 1.5000e+000 85622  6.9425e+000 -4.1095e+001  2.2075e+000 48638 85446,85498,85472
 1.5000e+000 85599  1.6300e+000 -1.4589e+001 -2.4895e+000 48638 85342,85524,85368
 1.5000e+000 85576  3.1610e+000 -6.6441e+000 -7.7875e+000 48638 85342,85550,85524
 1.5000e+000 85763  1.5872e+001 -3.5898e+000  2.2136e+001 48638 85446,85420,85737
 1.5000e+000 85786  1.7614e+001 -1.2592e+001  6.3252e+000 48638 85446,85737,85498
 1.5000e+000 86371  8.9800e+000 -1.4005e+000 -2.7407e-002 48084 86100,86230,86178
 1.5000e+000 86348  7.4315e+000 -4.4021e+000 -8.5931e-001 48084 86048,86230,86100
 1.5000e+000 86325  1.2719e+001  7.0277e-001  2.1506e+000 48084 86100,86178,86126
 1.5000e+000 86302  1.4093e+001  1.1416e+001 -8.9214e+000 48084 86048,86100,86074
 1.5000e+000 86279  3.8808e+000 -1.5102e+001  1.3638e+000 48084 86178,86230,86204
 1.5000e+000 86256  9.6301e+000  1.4508e+001  3.9166e+000 48084 86126,86178,86152
 1.5000e+000 86619 -1.7851e+001 -4.4849e+001  2.4601e+000 47630 86642,86446,86420
 1.5000e+000 86596 -2.1719e+001 -4.9686e+001 -6.4637e+000 47630 86642,86420,86394
 1.5000e+000 86573 -2.8150e+001 -4.1520e+001 -1.2079e+001 47630 86394,86524,86498
 1.5000e+000 86550  2.1152e+001 -5.9318e+001  6.7307e+000 47630 86446,86498,86472
 1.5000e+000 86668 -2.2464e+001 -5.5159e+001 -1.0995e+000 47630 86498,86446,86642
 1.5000e+000 86691 -2.4441e+001 -5.6828e+001 -9.8326e+000 47630 86498,86642,86394
 1.5000e+000 87022  2.3404e+001 -1.8539e+001 -9.3507e+000 47226 87045,86875,86849
 1.5000e+000 86999  8.9282e+000 -7.0424e+000 -1.7565e+001 47226 87045,86849,86797
 1.5000e+000 86976  3.3011e+000 -4.2526e-001 -1.2509e+000 47226 86797,86849,86823
 1.5000e+000 86953  5.2044e+001  1.3415e+001 -2.4418e+001 47226 86875,86927,86901
 1.5000e+000 87071  4.0656e+001 -1.5256e+001 -1.6039e+001 47226 86927,86875,87045
 1.5000e+000 87094  2.2985e+001 -6.9092e+000 -2.0954e+001 47226 86927,87045,86797
 1.5000e+000 87244  1.9557e+001 -3.8409e+001  2.4579e+001 46814 87267,87169,87143
 1.5000e+000 87221 -2.7210e+001 -3.3800e+001 -1.1317e+001 46814 87267,87143,87117
 1.5000e+000 87293  6.3508e+001 -2.7173e+001  2.1982e+001 46814 87339,87267,87195
 1.5000e+000 87316  3.4106e+000 -2.0481e+001 -9.3864e-001 46814 87469,87267,87117
 1.5000e+000 87365  4.9005e+001 -3.4840e+001  1.8244e+001 46814 87169,87267,87339
 1.5000e+000 87495  3.9337e+001  6.1236e+000 -1.5707e+001 46814 87195,87267,87469
 1.5000e+000 88001  1.9213e+001 -4.2340e+001  1.3227e+001 46310 88024,87834,87808
 1.5000e+000 87978  6.9458e+000 -4.5994e+001  4.0869e+000 46310 88024,87808,87756
 1.5000e+000 87955  1.3877e+001 -5.8528e+001 -1.6952e+000 46310 88096,87730,87860
 1.5000e+000 87932  3.0428e+001 -4.8178e+001  1.0878e+001 46310 87756,87808,87782
 1.5000e+000 87909  2.0670e+001 -1.1205e+002  1.3042e+001 46310 87678,87860,87730
 1.5000e+000 87886  1.5833e+001 -1.4864e+002  3.4817e+000 46310 87678,87730,87704
 1.5000e+000 88050  1.6491e+001 -5.0260e+001  3.4632e+000 46310 87860,87834,88024
 1.5000e+000 88073  1.4558e+001 -4.5186e+001  1.5743e+000 46310 88096,87860,88024
 1.5000e+000 88122  1.2648e+001 -6.4863e+001 -6.6134e+000 46310 87756,87730,88096
 1.5000e+000 88145  5.6620e+000 -5.9605e+001 -4.8006e+000 46310 87756,88096,88024
 1.5000e+000 88572  9.6293e+000 -2.4862e+001  2.7361e+000 45856 88249,88405,88275
 1.5000e+000 88549  1.1941e+001  8.1689e+000 -1.0006e+001 45856 88249,88431,88405
 1.5000e+000 88526  4.6074e+000 -6.2392e+001 -1.5104e+001 45856 88327,88405,88353
 1.5000e+000 88503  1.2839e+001 -4.3359e+001 -1.0624e+001 45856 88275,88405,88327
 1.5000e+000 88480  2.2894e+001 -3.1598e+001 -2.9872e+001 45856 88353,88405,88379
 1.5000e+000 88457 -4.1060e+001 -1.1522e+002  1.3214e+001 45856 88275,88327,88301
 1.5000e+000 88950  6.9864e+000 -3.1004e+001 -6.0673e+000 45658 88973,88754,88728
 1.5000e+000 88927  6.1106e+000 -3.1338e+001 -6.3404e+000 45658 88973,88728,88676
 1.5000e+000 88904  2.4896e+001 -3.4297e+001  1.5144e+001 45658 88676,88832,88806
 1.5000e+000 88881  6.4512e+000 -3.4074e+001 -1.1455e+001 45658 88676,88728,88702
 1.5000e+000 88858  1.1928e+001 -1.4786e+001 -9.9916e+000 45658 88754,88806,88780
 1.5000e+000 88999  7.5736e+000 -3.1633e+001 -6.4061e+000 45658 88806,88754,88973
 1.5000e+000 89022  6.8808e+000 -3.1789e+001 -6.5118e+000 45658 88806,88973,88676
 1.5000e+000 89351  2.4281e+001 -2.0207e+001 -2.2528e+000 45254 89152,89230,89204
 1.5000e+000 89328  1.9696e+001 -2.1809e+001 -1.1416e+000 45254 89152,89256,89230
 1.5000e+000 89305  1.0961e+001 -2.7233e+001 -3.4772e+000 45254 89126,89256,89152
 1.5000e+000 89282  4.5726e+000 -4.5457e+001  6.3401e+000 45254 89152,89204,89178
 1.5000e+000 89523  1.4454e+001 -3.1179e+001 -5.1203e-001 45006 89422,89474,89448
 1.5000e+000 89500  9.7284e+000 -3.3211e+001 -4.3011e+000 45006 89396,89474,89422
 1.5000e+000 89673 -2.6261e+001 -4.8318e+001  3.9069e+000 44495 89572,89624,89598
 1.5000e+000 89650 -2.8502e+001 -5.7038e+001  6.8670e+000 44495 89546,89624,89572
 1.5000e+000 90104  1.2872e+001 -3.7137e+001 -5.0862e-001 44005 90199,90127,89937
 1.5000e+000 90081  1.3698e+001 -3.8541e+001  2.4264e+000 44005 90271,90127,89859
 1.5000e+000 90058  1.4163e+001 -3.8676e+001 -8.5803e-001 44005 90199,89937,89885
 1.5000e+000 90035  1.9433e+001 -3.5293e+001 -3.8051e-001 44005 90271,89859,89807
 1.5000e+000 90012  6.0786e+000 -4.4021e+001 -5.8550e+000 44005 89885,89937,89911
 1.5000e+000 89989  1.1032e+001 -4.5621e+001  6.4454e+000 44005 89807,89859,89833
 1.5000e+000 90153  2.2379e+001 -2.9966e+001  8.4383e+000 44005 89963,89937,90127
 1.5000e+000 90176  7.2244e+000 -6.8091e+001  1.1629e+001 44005 89963,90127,89781
 1.5000e+000 90225  1.2256e+001 -3.9163e+001 -4.0625e-002 44005 89859,90127,90199
 1.5000e+000 90248  1.3020e+001 -4.1591e+001 -5.3565e-001 44005 89859,90199,89885
 1.5000e+000 90297  2.2567e+001 -4.0471e+001 -9.9805e-001 44005 89781,90127,90271
 1.5000e+000 90320  2.6378e+001 -3.8788e+001 -3.6309e+000 44005 89781,90271,89807
 1.5000e+000 90470  1.9197e+001 -5.0850e+001 -3.6043e+000 43601 90493,90369,90343
 1.5000e+000 90447  2.6766e+001 -4.9382e+001 -8.1380e+000 43601 90493,90343,90421
 1.5000e+000 90519  2.9820e+001 -5.8249e+001 -4.6019e+000 43601 90395,90369,90493
 1.5000e+000 90542  3.7312e+001 -5.2319e+001 -1.1766e+001 43601 90395,90493,90421
 1.5000e+000 90922  1.8202e+001 -5.9285e+001  1.1410e+001 43154 90945,90700,90674
 1.5000e+000 90899 -5.5477e+000 -7.0316e+001  6.8483e+000 43154 90945,90674,90648
 1.5000e+000 90876  1.2007e+001 -5.8320e+001 -1.3677e+001 43154 90648,90778,90752
 1.5000e+000 90853  3.2097e+001 -7.9795e+001 -4.1738e-001 43154 90700,90752,90726
 1.5000e+000 90830  4.9167e+001 -5.2977e+001 -7.1273e+000 43154 90648,90804,90778
 1.5000e+000 90971  1.0708e+001 -6.3498e+001 -2.2460e+000 43154 90752,90700,90945
 1.5000e+000 90994 -6.1120e+000 -7.0295e+001 -6.1022e+000 43154 90752,90945,90648
 1.5000e+000 91451  4.3132e+001 -2.2328e+001 -2.0318e+001 42650 91203,91255,91229
 1.5000e+000 91428  1.9378e+001 -3.2460e+001 -5.8367e-001 42650 91203,91333,91255
 1.5000e+000 91405  6.6375e-001 -4.5765e+001 -6.6888e+000 42650 91177,91333,91203
 1.5000e+000 91382  1.8576e+001 -5.0045e+001 -3.7971e+000 42650 91255,91333,91281
 1.5000e+000 91359  5.2283e+001 -3.4174e+001 -8.4987e+000 42650 91281,91333,91307
 1.5000e+000 91721 -1.1889e+001 -5.5120e+001  5.7255e+000 42288 91496,91600,91522
 1.5000e+000 91698  9.7455e+000 -6.6562e+000  1.3991e+000 42288 91496,91626,91600
 1.5000e+000 91675  2.0699e+001 -4.8321e+001  2.7081e+000 42288 91522,91574,91548
 1.5000e+000 91652  5.4909e+000 -4.8695e+001  5.5238e+000 42288 91522,91600,91574
 1.5000e+000 92199 -3.9690e+001 -5.9901e+001 -4.7610e+000 41898 92222,91983,91879
 1.5000e+000 92176 -4.9635e+001 -7.9845e+001 -1.2924e+001 41898 92294,92222,91879
 1.5000e+000 92153 -6.2074e+001 -8.1357e+001 -2.1039e+001 41898 92294,91879,91853
 1.5000e+000 92130 -3.5114e+001 -2.3978e+001  6.2920e+000 41898 91879,91957,91931
 1.5000e+000 92107 -3.2845e+001 -5.7199e+001 -2.9901e+000 41898 91879,91983,91957
 1.5000e+000 92084 -4.7096e+001 -2.4999e+001  1.7148e+001 41898 91879,91931,91905
 1.5000e+000 92061 -3.3261e+001 -5.6046e+001 -9.7975e+000 41898 91827,92035,91853
 1.5000e+000 92248 -3.1047e+001 -8.2507e+001 -1.3020e+000 41898 92009,91983,92222
 1.5000e+000 92271 -3.2405e+001 -8.6458e+001 -1.1598e+001 41898 92009,92222,92035
 1.5000e+000 92320 -3.0239e+001 -7.8199e+001 -8.3899e+000 41898 92035,92222,92294
 1.5000e+000 92343 -3.8403e+001 -7.5212e+001 -1.5389e+001 41898 92035,92294,91853
 1.5000e+000 92770 -3.8955e+000 -7.4690e+001 -1.0413e+001 41437 92865,92793,92525
 1.5000e+000 92747 -2.1617e+000 -7.2241e+001 -5.4332e+000 41437 92793,92473,92629
 1.5000e+000 92724 -1.9557e+000 -7.8169e+001 -1.1620e+001 41437 92865,92525,92499
 1.5000e+000 92701 -1.6541e+001 -5.2062e+001 -1.2686e+001 41437 92525,92603,92577
 1.5000e+000 92678  8.1922e+000 -7.0029e+001 -4.5249e+000 41437 92447,92629,92473
 1.5000e+000 92655 -3.3813e+001 -5.2714e+001 -1.1746e+001 41437 92525,92577,92551
 1.5000e+000 92819 -1.0013e+000 -6.7937e+001 -1.0692e+001 41437 92603,92525,92793
 1.5000e+000 92842 -4.9616e-001 -6.8476e+001 -5.0503e+000 41437 92603,92793,92629
 1.5000e+000 92891 -1.8696e+000 -6.8567e+001 -8.0833e+000 41437 92473,92793,92865
 1.5000e+000 92914 -9.1474e-001 -7.3897e+001 -9.0368e+000 41437 92473,92865,92499
 1.5000e+000 93243  8.6389e+000 -9.2312e+001  5.1236e+001 41097 93044,93096,93070
 1.5000e+000 93220 -8.7632e+000 -7.7544e+001  2.0883e+001 41097 93044,93122,93096
 1.5000e+000 93197  2.7240e+001 -5.0948e+001  9.1587e+000 41097 93044,93148,93122
 1.5000e+000 93174  1.7473e+000 -2.0946e+001  2.9728e+001 41097 93018,93148,93044
 1.5000e+000 93393  6.0891e+001 -5.3146e+001  3.1251e+000 40643 93416,93292,93344
 1.5000e+000 93370  3.7098e+001 -4.0800e+001  9.3503e-002 40643 93266,93344,93292
 1.5000e+000 93442  4.7643e+001 -5.5537e+001  7.2099e+000 40643 93318,93292,93416
 1.5000e+000 93901 -1.2738e+001 -6.8226e+001 -9.9224e+000 40132 93924,93731,93705
 1.5000e+000 93878 -1.7112e+001 -5.4938e+001 -1.0130e+001 40132 93996,93924,93705
 1.5000e+000 93855 -1.9242e+001 -6.0216e+001 -7.4168e+000 40132 93996,93705,93653
 1.5000e+000 93832 -1.3485e+001 -6.5500e+001 -6.4225e+000 40132 93653,93705,93679
 1.5000e+000 93809  2.7807e+001 -3.8513e+001 -1.8109e+001 40132 93627,93783,93757
 1.5000e+000 93950  8.1515e-001 -5.9249e+001 -1.6828e+001 40132 93757,93731,93924
 1.5000e+000 93973 -1.7964e+001 -5.3995e+001 -1.3356e+001 40132 93757,93924,93627
 1.5000e+000 94022 -2.3125e+001 -5.8921e+001 -6.7113e+000 40132 93627,93924,93996
 1.5000e+000 94045 -2.0859e+001 -6.0540e+001 -4.6059e+000 40132 93627,93996,93653
 1.5000e+000 94423  1.3644e-001 -6.4479e+001  2.2854e+000 39514 94149,94227,94175
 1.5000e+000 94400  5.3356e+000 -5.2970e+001  1.0144e+000 39514 94149,94305,94227
 1.5000e+000 94377  3.7810e+001 -6.9554e+001 -6.5256e+000 39514 94175,94227,94201
 1.5000e+000 94354  1.4888e+001 -4.4652e+001  4.9020e+000 39514 94227,94305,94279
 1.5000e+000 94331  1.4805e+001 -4.4439e+001  6.3426e+000 39514 94227,94279,94253
 1.5000e+000 94573 -1.8765e+001 -5.8757e+001 -3.3790e+000 38822 94596,94498,94472
 1.5000e+000 94550 -1.2187e+001 -6.4611e+001  7.4084e+000 38822 94596,94472,94446
 1.5000e+000 94622 -2.6543e+001 -6.2395e+001  1.5525e+000 38822 94524,94498,94596
 1.5000e+000 94645 -2.7802e+001 -7.3955e+001  1.3432e+001 38822 94524,94596,94446
 1.5000e+000 95025 -3.4047e+000 -4.6589e+001 -8.6575e+000 38418 95048,94829,94777
 1.5000e+000 95002  7.8115e+000 -4.0314e+001 -6.0087e+000 38418 95120,95048,94777
 1.5000e+000 94979  8.6793e+000 -4.3727e+001 -6.1903e+000 38418 95120,94777,94751
 1.5000e+000 94956  3.1502e+001 -4.7313e+001 -2.8802e+000 38418 95192,94881,94855
 1.5000e+000 94933 -1.5577e+001 -3.7493e+001 -7.9678e+000 38418 94777,94829,94803
 1.5000e+000 95074  1.5010e+000 -5.3564e+001  6.8641e+000 38418 94855,94829,95048
 1.5000e+000 95097  2.7466e+001 -4.4055e+001  2.7610e+000 38418 95192,94855,95048
 1.5000e+000 95146  8.3913e+000 -4.5094e+001 -5.8251e+000 38418 94907,95048,95120
 1.5000e+000 95169  8.0859e+000 -4.9837e+001 -6.7210e+000 38418 94907,95120,94751
 1.5000e+000 95218  2.3104e+001 -4.2214e+001 -4.7243e+000 38418 94907,94881,95192
 1.5000e+000 95241  1.3155e+001 -4.4271e+001  1.7495e+000 38418 94907,95192,95048
 1.5000e+000 95511  1.6136e+001 -5.1136e+001  1.4909e+000 38049 95312,95390,95364
 1.5000e+000 95488  1.8200e+001 -5.1022e+001  3.7966e+000 38049 95312,95416,95390
 1.5000e+000 95465  1.7653e+001 -4.2415e+001  1.2571e+000 38049 95312,95364,95338
 1.5000e+000 95442  2.4229e+001 -5.9912e+001  3.2684e+000 38049 95286,95416,95312
 1.5000e+000 95808 -7.4400e+000 -7.4923e+001 -7.2437e+000 37437 95831,95586,95560
 1.5000e+000 95785 -4.2546e+000 -6.0956e+001 -1.3175e+000 37437 95831,95560,95534
 1.5000e+000 95762 -4.2239e+000 -5.5668e+001  7.8207e+000 37437 95586,95664,95638
 1.5000e+000 95739 -1.1892e+001 -3.2166e+001 -9.3142e+000 37437 95534,95690,95664
 1.5000e+000 95716 -1.3739e+001 -5.5081e+001  2.4279e+000 37437 95586,95638,95612
 1.5000e+000 95857 -1.1296e+001 -6.2028e+001 -3.5120e+000 37437 95664,95586,95831
 1.5000e+000 95880 -7.2816e+000 -4.7326e+001  2.6478e+000 37437 95664,95831,95534
 1.5000e+000 96390 -9.3721e+000 -3.5859e+001 -4.2685e+000 36883 96413,96145,96093
 1.5000e+000 96367 -3.8745e+000 -3.3669e+001 -4.7756e+000 36883 96413,96093,96067
 1.5000e+000 96344  2.5832e+000 -5.1110e+001 -1.8111e+000 36883 96067,96249,96171
 1.5000e+000 96321 -1.2734e+001 -3.7053e+001 -3.5306e+000 36883 96093,96145,96119
 1.5000e+000 96298 -1.2581e+001 -9.0043e+001  8.0830e+000 36883 96171,96249,96197
 1.5000e+000 96275  1.5719e+001 -6.9530e+001 -1.5729e+000 36883 96197,96249,96223
 1.5000e+000 96439 -9.1441e+000 -3.7200e+001  1.2086e+000 36883 96171,96145,96413
 1.5000e+000 96462 -3.7268e+000 -3.4518e+001  2.7730e-001 36883 96171,96413,96067
 1.5000e+000 96781  5.4632e+000 -3.9252e+001 -5.0614e+000 36215 96559,96663,96637
 1.5000e+000 96758  2.6511e+001 -3.4500e+001 -2.4023e+000 36215 96507,96663,96559
 1.5000e+000 96735  5.0626e+000 -6.2098e+000  4.5564e+000 36215 96585,96637,96611
 1.5000e+000 96712 -2.0939e+001 -4.3607e+001 -6.7748e+000 36215 96559,96637,96585
 1.5000e+000 96689  1.6516e+001 -4.3426e+001 -7.1229e+000 36215 96507,96559,96533
 1.5000e+000 97161  3.4421e+001 -4.6804e+000 -7.1137e+000 35818 97184,96965,96939
 1.5000e+000 97138  2.9385e+001 -1.3266e+001 -9.1872e+000 35818 97184,96939,96887
 1.5000e+000 97115  2.6334e+001 -2.5747e+001  6.2645e+000 35818 96965,97043,97017
 1.5000e+000 97092  2.3679e+001 -3.5643e+001 -8.6080e+000 35818 96887,96939,96913
 1.5000e+000 97069  4.5705e+000 -1.5814e+001  6.0990e+000 35818 96965,97017,96991
 1.5000e+000 97210  3.9679e+001 -1.1860e+001 -2.5117e+000 35818 97043,96965,97184
 1.5000e+000 97233  3.5909e+001 -1.8094e+001 -4.0890e+000 35818 97043,97184,96887
 1.5000e+000 97739 -2.2790e+001 -6.2902e+001 -2.0996e+001 35214 97416,97468,97442
 1.5000e+000 97716 -2.2761e+001 -3.6733e+001 -1.1897e+001 35214 97416,97598,97468
 1.5000e+000 97693 -1.4751e+001 -3.7704e+001 -1.1903e+001 35214 97762,97520,97468
 1.5000e+000 97670 -1.4960e+001 -3.5923e+001 -7.9907e+000 35214 97762,97468,97598
 1.5000e+000 97647 -5.1595e+000 -1.9722e+001 -1.3309e+001 35214 97546,97598,97572
 1.5000e+000 97624 -1.5751e+001 -3.2151e+001 -1.3298e+001 35214 97468,97520,97494
 1.5000e+000 97788 -1.3073e+001 -3.3476e+001 -1.1436e+001 35214 97546,97520,97762
 1.5000e+000 97811 -1.3632e+001 -3.1913e+001 -7.7364e+000 35214 97546,97762,97598
 1.5000e+000 98189  3.9676e+001 -1.9734e+001  8.8175e+000 34760 98356,98212,97967
 1.5000e+000 98166  1.7042e+001 -3.8972e+001  4.1665e+000 34760 98284,98212,97941
 1.5000e+000 98143  8.5285e+000 -3.4351e+001  7.9016e+000 34760 98284,97941,97915
 1.5000e+000 98120  3.4379e+001 -3.9986e+001 -9.7079e-001 34760 98484,97993,97967
 1.5000e+000 98097  2.3792e+001 -2.7117e+001 -1.4900e+000 34760 98556,98045,98019
 1.5000e+000 98238  2.9559e+001 -3.3805e+001 -1.2361e+000 34760 98484,97967,98212
 1.5000e+000 98261  2.5350e+001 -3.4803e+001 -2.5654e+000 34760 98556,98019,98212
 1.5000e+000 98310  2.4566e+001 -3.0842e+001  5.4762e-001 34760 98071,98212,98284
 1.5000e+000 98333  1.8629e+001 -1.9489e+001  2.5100e+000 34760 98071,98284,97915
 1.5000e+000 98382  2.2911e+000 -4.2437e+001 -1.7526e+000 34760 97941,98212,98356
 1.5000e+000 98510  4.2063e+001 -3.4623e+001 -3.6780e+000 34760 98019,97993,98484
 1.5000e+000 98533  3.4311e+001 -3.0820e+001 -3.2845e+000 34760 98019,98484,98212
 1.5000e+000 98582  2.5187e+001 -1.9693e+001  2.2839e+000 34760 98071,98045,98556
 1.5000e+000 98605  2.5225e+001 -2.7568e+001 -4.3592e-002 34760 98071,98556,98212
 1.5000e+000 99032 -8.5575e-001 -3.9835e+001  9.9782e+000 34156 98735,98891,98839
 1.5000e+000 99009  4.3333e-001 -3.9126e+001  1.0375e+001 34156 98709,98891,98735
 1.5000e+000 98986  1.6094e+001 -3.2591e+001  9.1959e+000 34156 98735,98813,98787
 1.5000e+000 98963  1.6134e+001 -3.4676e+001  6.9157e+000 34156 98735,98839,98813
 1.5000e+000 98940  1.9864e+001 -6.6431e+001  7.2975e+000 34156 98735,98787,98761
 1.5000e+000 98917  3.7843e+000 -2.7795e+001  3.7941e+000 34156 98839,98891,98865
 1.5000e+000 99231  2.0109e+001  1.3321e+000  7.9256e+000 33766 99055,99133,99107
 1.5000e+000 99208  6.3099e+000 -3.0251e+000  1.2386e+001 33766 99055,99159,99133
 1.5000e+000 99185  3.6974e+000 -2.8569e+001  1.5780e+000 33766 99055,99107,99081
 1.5000e+000 99818 -5.5310e+000 -3.0216e+001 -1.1978e+000 33248 99521,99651,99573
 1.5000e+000 99795 -1.1380e+001 -2.9548e+001  3.8966e+000 33248 99521,99677,99651
 1.5000e+000 99772 -1.5094e+001 -5.1226e+001 -4.2521e+000 33248 99573,99651,99599
 1.5000e+000 99749 -1.2031e+001 -3.9539e+001  4.3081e+000 33248 99495,99677,99521
 1.5000e+000 99726 -2.6728e+000 -3.0481e+001 -9.4831e+000 33248 99599,99651,99625
 1.5000e+000 99703 -1.9108e+001 -5.0150e+001  5.0739e+000 33248 99521,99573,99547
 1.5000e+000 100196 -1.4266e+001 -3.6335e+001 -8.2702e+000 32794 100219,99948,99922
 1.5000e+000 100173 -1.4155e+001 -3.5493e+001 -4.6888e+000 32794 100219,99922,100052
 1.5000e+000 100150 -1.1807e+001 -3.2375e+001 -3.8279e+000 32794 99974,100052,100026
 1.5000e+000 100127 -1.7168e+001 -3.6838e+001 -3.9897e+000 32794 99922,100078,100052
 1.5000e+000 100104 -1.5773e+001 -4.3872e+001  4.6622e+000 32794 99974,100026,100000
 1.5000e+000 100245 -1.8424e+001 -3.8650e+001 -9.4282e+000 32794 99974,99948,100219
 1.5000e+000 100268 -1.6442e+001 -3.6639e+001 -5.6182e+000 32794 99974,100219,100052
 1.5000e+000 100418  1.9683e+001 -1.3388e+001 -9.9398e+000 32504 100571,100343,100317
 1.5000e+000 100395  5.3666e+000 -1.9796e+001 -2.8432e+000 32504 100571,100317,100441
 1.5000e+000 100467  3.4938e+001  2.5990e+000 -2.1009e+001 32504 100291,100369,100441
 1.5000e+000 100597  2.5349e+001 -8.8248e+000 -2.2123e+001 32504 100369,100343,100571
 1.5000e+000 100620  1.8523e+001 -7.7283e+000 -1.6044e+001 32504 100369,100571,100441
 1.5000e+000 101020  1.9825e+001 -2.9618e+001  4.8062e+000 32142 100772,100902,100876
 1.5000e+000 100997  1.2489e+001 -3.8312e+001  1.4795e+000 32142 100746,100902,100772
 1.5000e+000 100974  1.2741e+001 -5.3726e+001 -1.4114e+000 32142 101043,100824,100798
 1.5000e+000 100951  1.9243e+001 -4.9110e+001  6.0023e-001 32142 101043,100798,100772
 1.5000e+000 100928 -1.2674e+001 -5.6347e+001 -1.7680e+001 32142 101115,100876,100850
 1.5000e+000 101069  1.9894e+001 -4.9932e+001 -7.4986e+000 32142 100850,100824,101043
 1.5000e+000 101092  1.2747e+000 -5.8393e+001 -9.5255e+000 32142 101115,100850,101043
 1.5000e+000 101141  4.6757e+000 -4.6209e+001 -8.0541e+000 32142 100772,100876,101115
 1.5000e+000 101164  1.5625e+001 -4.7523e+001  8.3759e-001 32142 100772,101115,101043
 1.5000e+000 101719 -6.2251e+000 -3.1533e+001  3.2189e+000 31538 101742,101477,101399
 1.5000e+000 101696 -1.5310e+001 -4.5366e+001 -3.2744e+000 31538 101814,101742,101399
 1.5000e+000 101673 -2.1427e+001 -3.6848e+001 -1.1033e+001 31538 101814,101399,101373
 1.5000e+000 101650 -8.4559e+000 -1.3934e+001  2.5942e+000 31538 101425,101477,101451
 1.5000e+000 101627 -6.8442e+000 -2.3788e+001 -2.6409e+000 31538 101399,101477,101425
 1.5000e+000 101604  8.0258e+000 -4.6646e+001  1.0163e+001 31538 101477,101529,101503
 1.5000e+000 101581 -1.5976e+000 -1.3208e+001 -4.6821e+000 31538 101347,101555,101373
 1.5000e+000 101768 -8.2339e+000 -4.6020e+001  1.6256e+000 31538 101529,101477,101742
 1.5000e+000 101791 -5.4424e+000 -4.7670e+001 -6.8423e+000 31538 101529,101742,101555
 1.5000e+000 101840 -1.2893e+000 -3.7293e+001 -6.6473e+000 31538 101555,101742,101814
 1.5000e+000 101863 -9.2646e+000 -3.0131e+001 -1.3703e+001 31538 101555,101814,101373
 1.5000e+000 102111 -1.8606e+001 -7.3042e+001  1.2264e+001 31112 101886,101990,101912
 1.5000e+000 102088  4.5792e+000 -4.1664e+001 -1.9702e+000 31112 101886,102016,101990
 1.5000e+000 102065  6.8058e-001 -6.6962e+001  1.3952e+001 31112 101912,101990,101964
 1.5000e+000 102042 -5.1509e+000 -7.5754e+001  1.6475e+001 31112 101912,101964,101938
 1.5000e+000 102408  1.2949e+001 -2.8375e+001  4.1595e+000 30658 102431,102186,102160
 1.5000e+000 102385  1.3117e+001 -2.3474e+001 -1.2066e+000 30658 102431,102160,102264
 1.5000e+000 102362  1.7117e+001 -3.9155e+001 -1.9159e+000 30658 102186,102238,102212
 1.5000e+000 102339 -1.5079e+000 -3.1672e+001 -4.7435e+000 30658 102134,102264,102160
 1.5000e+000 102316  1.3137e+001 -1.8949e+001 -1.7744e+001 30658 102134,102290,102264
 1.5000e+000 102457  1.5954e+001 -3.5173e+001  3.1543e+000 30658 102238,102186,102431
 1.5000e+000 102480  1.5451e+001 -3.1262e+001 -2.3765e+000 30658 102238,102431,102264
 1.5000e+000 102681 -7.9752e+000 -4.9898e+001  4.9100e+000 30004 102704,102557,102505
 1.5000e+000 102658 -4.6870e-001 -5.6890e+001  8.0714e+000 30004 102704,102505,102609
 1.5000e+000 102635 -8.2507e-001 -4.1230e+001 -9.8347e-001 30004 102505,102557,102531
 1.5000e+000 102730 -3.8632e+000 -4.8506e+001  7.1662e+000 30004 102583,102557,102704
 1.5000e+000 102753  1.0359e+001 -4.9221e+001  1.1906e+001 30004 102583,102704,102609
 1.5000e+000 103003  9.0600e+000 -3.5363e+001  2.8859e+000 29564 103026,102804,102778
 1.5000e+000 102980  1.2192e+001 -3.7169e+001 -2.1669e+000 29564 103026,102778,102908
 1.5000e+000 102957  2.1208e+001 -2.2711e+001  1.2870e+000 29564 102856,102908,102882
 1.5000e+000 102934  5.4123e+000 -1.9476e+001  1.5053e+000 29564 102804,102856,102830
 1.5000e+000 103052  1.5929e+001 -3.1938e+001  4.0473e+000 29564 102856,102804,103026
 1.5000e+000 103075  1.5546e+001 -3.5178e+001 -1.3252e+000 29564 102856,103026,102908
 1.5000e+000 103634 -1.9355e+001 -5.4504e+001 -1.3283e+001 29160 103657,103418,103392
 1.5000e+000 103611 -1.7562e+001 -5.1138e+001 -7.9164e+000 29160 103657,103392,103314
 1.5000e+000 103588 -4.3082e+000 -4.8600e+001 -1.1981e+001 29160 103314,103392,103366
 1.5000e+000 103565 -1.0409e+001 -5.5311e+001 -9.3118e+000 29160 103314,103366,103340
 1.5000e+000 103542 -2.7072e+001 -4.7815e+001 -1.1323e+001 29160 103262,103444,103314
 1.5000e+000 103519 -3.3630e+001 -5.6039e+001 -2.0806e+001 29160 103262,103314,103288
 1.5000e+000 103496 -1.7433e+001 -4.8876e+001 -9.6193e+000 29160 103262,103470,103444
 1.5000e+000 103683 -2.7495e+001 -6.0955e+001 -1.9404e+001 29160 103444,103418,103657
 1.5000e+000 103706 -2.0693e+001 -5.0644e+001 -1.3211e+001 29160 103444,103657,103314
 1.5000e+000 104035  1.6026e+001 -2.8618e+001  5.6534e+000 28770 103836,103914,103862
 1.5000e+000 104012  7.1279e+000 -3.1505e+001  5.2186e+000 28770 103810,103914,103836
 1.5000e+000 103989  3.0148e+001 -2.7997e+001  1.0257e+001 28770 103810,103940,103914
 1.5000e+000 103966  1.8997e+001 -1.7737e+001  6.7974e+000 28770 103862,103914,103888
 1.5000e+000 104185  6.8791e+000 -5.3670e+001 -2.2789e-001 28366 104208,104110,104084
 1.5000e+000 104162  2.1168e+001 -3.5819e+001  8.4698e+000 28366 104280,104208,104084
 1.5000e+000 104234  1.8088e+001 -4.2338e+001 -1.5409e+000 28366 104610,104208,104136
 1.5000e+000 104257 -3.5011e+000 -5.0276e+001  1.8320e+000 28366 104538,104410,104208
 1.5000e+000 104306 -9.3314e+000 -5.1730e+001  2.1765e+000 28366 104538,104208,104280
 1.5000e+000 104436  8.4228e+000 -4.1000e+001 -5.2414e+000 28366 104136,104208,104410
 1.5000e+000 104564 -9.6523e+000 -4.8853e+001 -1.3872e+000 28366 104058,104410,104538
 1.5000e+000 104587 -1.3017e+001 -4.8812e+001 -1.5471e+000 28366 104058,104538,104280
 1.5000e+000 104636 -4.6969e-002 -4.9701e+001 -1.3150e-001 28366 104110,104208,104610
 1.5000e+000 105349  1.0700e+001 -4.2870e+001 -5.3854e+000 27976 105516,105372,105107
 1.5000e+000 105326 -2.5827e+000 -3.5642e+001  3.6215e+000 27976 105588,105372,105055
 1.5000e+000 105303 -1.7830e+001 -3.7627e+001 -1.7099e+001 27976 105444,105159,105133
 1.5000e+000 105280  2.1968e+001 -5.1203e+001  1.6428e+000 27976 105516,105107,105081
 1.5000e+000 105257 -3.0318e-001 -4.0614e+001  7.7483e+000 27976 105588,105055,105029
 1.5000e+000 105234  3.1265e+000 -2.3334e+001  1.3796e+000 27976 105003,105185,105159
 1.5000e+000 105211 -1.1536e-001 -1.1645e+001  9.2726e+000 27976 104977,105185,105003
 1.5000e+000 105398  2.6989e+001 -3.7970e+001 -1.3756e+001 27976 105133,105107,105372
 1.5000e+000 105421 -1.5721e+000 -4.9023e+001 -1.0391e+001 27976 105444,105133,105372
 1.5000e+000 105470 -2.1159e+000 -1.7508e+001 -9.1151e+000 27976 105003,105159,105444
 1.5000e+000 105493  8.9057e+000 -3.1301e+001 -5.7535e+000 27976 105003,105444,105372
 1.5000e+000 105542  1.9062e+001 -3.3337e+001  9.3433e-001 27976 105055,105372,105516
 1.5000e+000 105565  3.3125e+001 -4.1559e+001  7.6058e+000 27976 105055,105516,105081
 1.5000e+000 105614 -6.8403e+000 -4.0406e+001  5.8524e+000 27976 105003,105372,105588
 1.5000e+000 105637 -5.6643e+000 -4.5559e+001  1.0255e+001 27976 105003,105588,105029
 1.5000e+000 106143  1.1600e+001 -5.7298e+001  4.8648e-001 27664 106166,105846,105820
 1.5000e+000 106120  7.0789e+000 -5.0182e+001  3.4904e+000 27664 106310,106166,105820
 1.5000e+000 106097  1.3637e+001 -4.5787e+001 -8.0999e+000 27664 106382,106238,105950
 1.5000e+000 106074  2.0079e+001 -5.5683e+001  9.1962e+000 27664 106310,105820,106002
 1.5000e+000 106051  2.4530e+001 -4.0458e+001 -6.4280e+000 27664 106382,105950,105924
 1.5000e+000 106028  7.3775e+000 -9.5316e+001 -5.5822e+000 27664 105846,105898,105872
 1.5000e+000 106192 -1.7825e+000 -7.1184e+001 -1.3452e+001 27664 105898,105846,106166
 1.5000e+000 106215  1.2041e+001 -4.9661e+001  5.9535e-002 27664 106238,105898,106166
 1.5000e+000 106264 -1.0978e+001 -5.3359e+001 -1.0178e+001 27664 105976,105950,106238
 1.5000e+000 106287  9.4604e+000 -5.4044e+001  1.6712e+000 27664 105976,106238,106166
 1.5000e+000 106336  1.9573e+001 -4.3283e+001  1.1861e+001 27664 105976,106166,106310
 1.5000e+000 106359  3.3512e+001 -4.8586e+001  1.7358e+001 27664 105976,106310,106002
 1.5000e+000 106408  8.1860e+000 -3.7968e+001  4.1329e+000 27664 105898,106238,106382
 1.5000e+000 106431  1.5035e+001 -3.4880e+001  4.8312e+000 27664 105898,106382,105924
 1.5000e+000 106728  1.2226e+001 -2.7843e+001  1.2923e+001 27153 106751,106506,106454
 1.5000e+000 106705  1.7796e+001 -2.5917e+001  5.7167e-001 27153 106751,106454,106610
 1.5000e+000 106682 -3.0903e+000 -1.6820e+001 -3.1811e+000 27153 106454,106506,106480
 1.5000e+000 106659  2.1811e+001 -9.5934e+000 -9.3646e+000 27153 106532,106610,106584
 1.5000e+000 106636 -1.3628e+000 -5.0497e-001 -8.8921e+000 27153 106532,106584,106558
 1.5000e+000 106777  3.0136e+001 -3.6214e+001  1.2282e+001 27153 106532,106506,106751
 1.5000e+000 106800  3.5028e+001 -2.9090e+001 -2.8564e+000 27153 106532,106751,106610
 1.5000e+000 107180 -1.1772e+001 -4.7794e+001 -2.8590e+000 26642 107203,106984,106958
 1.5000e+000 107157 -1.9770e+001 -5.2052e+001 -6.1993e+000 26642 107203,106958,106932
 1.5000e+000 107134 -2.9543e+001 -6.0054e+001 -8.2341e+000 26642 107275,107036,107010
 1.5000e+000 107111 -1.7562e+001 -4.8345e+001 -1.7195e+001 26642 106932,107062,107036
 1.5000e+000 107088 -5.6494e-001 -3.4622e+001  3.8984e+000 26642 106906,107062,106932
 1.5000e+000 107229 -5.8055e+000 -4.3974e+001 -1.4368e+001 26642 107010,106984,107203
 1.5000e+000 107252 -2.4133e+001 -5.2745e+001 -1.1155e+001 26642 107275,107010,107203
 1.5000e+000 107301 -2.3061e+001 -5.9040e+001 -1.2267e+001 26642 106932,107036,107275
 1.5000e+000 107324 -2.1228e+001 -5.9185e+001 -1.3189e+001 26642 106932,107275,107203
 1.5000e+000 107675  1.3697e+000 -1.2065e+001  3.7336e+000 26045 107450,107554,107476
 1.5000e+000 107652  4.7099e+000 -8.7723e+000  2.0712e+000 26045 107450,107580,107554
 1.5000e+000 107629  6.6852e+000  3.5449e+001 -1.2223e+001 26045 107476,107528,107502
 1.5000e+000 107606  1.2737e+001 -8.2189e+000  3.3159e+000 26045 107476,107554,107528
 1.5000e+000 107874  1.9511e+001 -4.0903e+001  3.1297e+001 25641 107750,107802,107776
 1.5000e+000 107851 -2.0662e+000 -2.8755e+001  9.5459e+000 25641 107724,107802,107750
 1.5000e+000 107828  5.6791e+000 -2.7062e+001  8.0354e+000 25641 107698,107802,107724
 1.5000e+000 108431  3.4824e+000 -4.8912e+001  7.8762e+000 25023 108526,108267,108241
 1.5000e+000 108408  1.7226e+001 -4.5481e+001  3.4212e+000 25023 108059,108267,108085
 1.5000e+000 108385  3.3486e+000 -5.2236e+001  5.2562e+000 25023 108454,108163,108111
 1.5000e+000 108362 -2.1045e+000 -4.9886e+001  1.0062e+001 25023 108454,108111,108085
 1.5000e+000 108339  2.5042e+001 -6.2125e+001  9.0690e+000 25023 108111,108163,108137
 1.5000e+000 108316 -1.3135e+001 -4.6287e+001 -6.8049e+000 25023 108163,108241,108215
 1.5000e+000 108293  1.8956e+001 -2.8668e+001  1.3340e+001 25023 108163,108215,108189
 1.5000e+000 108480  8.3251e+000 -4.4442e+001  8.5493e-001 25023 108241,108163,108454
 1.5000e+000 108503  2.6050e+000 -4.7204e+001  7.2955e+000 25023 108526,108241,108454
 1.5000e+000 108552  2.8712e+000 -5.1151e+001  7.6462e+000 25023 108085,108267,108526
 1.5000e+000 108575  1.8914e+000 -4.9594e+001  7.0215e+000 25023 108085,108526,108454
 1.5000e+000 108823  2.9384e+001 -1.3487e+001  8.4499e+000 24461 108624,108728,108650
 1.5000e+000 108800  2.2723e+001 -6.3963e+001 -5.1770e+000 24461 108598,108728,108624
 1.5000e+000 108777  2.9702e+001 -4.4200e+001  5.0994e+000 24461 108650,108728,108676
 1.5000e+000 108754 -1.9419e-001 -1.2893e+002  3.2258e+000 24461 108676,108728,108702
 1.5000e+000 109022  2.8455e+001 -3.1453e+001  2.1355e+000 24121 108872,108924,108898
 1.5000e+000 108999  1.8991e+001 -3.9561e+001 -1.3195e+000 24121 108846,108924,108872
 1.5000e+000 108976  7.0450e+000 -4.8024e+001  7.5968e+000 24121 108846,108950,108924
 1.5000e+000 109483 -5.6071e+000 -4.9311e+001 -1.5032e+001 23717 109209,109339,109235
 1.5000e+000 109460  3.7759e+001 -5.1710e+001 -4.2996e+001 23717 109209,109365,109339
 1.5000e+000 109437  2.0615e+001 -5.4320e+001 -1.0461e+001 23717 109287,109339,109313
 1.5000e+000 109414 -2.0926e+001 -6.3078e+001 -6.9591e+000 23717 109235,109339,109287
 1.5000e+000 109391  6.0246e+000 -6.6419e+001  1.3245e+001 23717 109235,109287,109261
 1.5000e+000 109910 -8.3645e+000 -6.9867e+001 -2.3833e+000 23305 109613,109743,109717
 1.5000e+000 109887 -1.6962e+001 -7.3207e+001 -4.0337e+000 23305 109613,109769,109743
 1.5000e+000 109864 -2.8295e+001 -6.2935e+001  2.3413e+000 23305 109613,109717,109639
 1.5000e+000 109841 -7.1343e+000 -4.6056e+001 -1.0291e+000 23305 109587,109769,109613
 1.5000e+000 109818  1.2032e+001 -4.5470e+001 -5.4616e+000 23305 109639,109717,109691
 1.5000e+000 109795  9.2031e+000 -5.7459e+001  7.0522e+000 23305 109639,109691,109665
 1.5000e+000 110180 -1.3237e+001 -4.4696e+001  4.8413e-001 22851 110007,110059,110033
 1.5000e+000 110157 -2.5197e+001 -7.4048e+001  1.9676e+000 22851 109981,110059,110007
 1.5000e+000 110134 -3.1955e+001 -7.9374e+001 -6.0218e-001 22851 109955,110059,109981
 1.5000e+000 110111 -1.3808e+001 -8.3410e+001 -8.7680e+000 22851 109955,110085,110059
 1.5000e+000 110737  5.5043e+000 -4.8768e+001 -1.4497e+000 22333 110760,110469,110391
 1.5000e+000 110714  9.0443e+000 -4.6675e+001 -2.3822e+000 22333 110760,110391,110365
 1.5000e+000 110691  1.4510e+001 -4.4022e+001 -1.7777e+000 22333 110832,110521,110469
 1.5000e+000 110668  2.3215e+001 -8.2797e+001 -8.2720e-001 22333 110417,110469,110443
 1.5000e+000 110645 -7.0274e+000 -7.8005e+001 -6.6322e-001 22333 110391,110469,110417
 1.5000e+000 110622  2.4662e+001 -4.0525e+001  7.4639e-002 22333 110469,110521,110495
 1.5000e+000 110599  5.4625e+000 -3.9144e+001 -8.7835e+000 22333 110365,110573,110547
 1.5000e+000 110786  9.3048e+000 -4.3204e+001  2.7615e-001 22333 110832,110469,110760
 1.5000e+000 110809  1.5472e-001 -5.1944e+001 -7.6561e+000 22333 110547,110760,110365
 1.5000e+000 110858  2.8531e+001 -4.4029e+001 -6.1590e+000 22333 110547,110521,110832
 1.5000e+000 110881  1.5667e+001 -4.6855e+001 -6.1940e+000 22333 110547,110832,110760
 1.5000e+000 111308 -2.2091e+001 -5.8772e+001  8.8137e-001 21829 111331,111063,111011
 1.5000e+000 111285 -2.7847e+001 -5.7961e+001 -3.1244e+000 21829 111331,111011,111167
 1.5000e+000 111262 -2.5199e+001 -6.1678e+001 -1.5162e+000 21829 111403,111089,111063
 1.5000e+000 111239 -3.1896e+001 -7.1672e+001  6.1569e+000 21829 111011,111063,111037
 1.5000e+000 111216 -2.0302e+001 -4.9411e+001  3.0060e-001 21829 110985,111167,111011
 1.5000e+000 111193 -3.7819e+001 -1.0458e+002  5.4922e+000 21829 111089,111141,111115
 1.5000e+000 111357 -2.5443e+001 -6.1631e+001 -1.5480e+000 21829 111403,111063,111331
 1.5000e+000 111380 -2.7813e+001 -6.2006e+001 -5.3153e+000 21829 111141,111331,111167
 1.5000e+000 111429 -2.6702e+001 -6.1556e+001 -2.4140e+000 21829 111141,111089,111403
 1.5000e+000 111452 -2.5775e+001 -6.0152e+001 -1.8508e+000 21829 111141,111403,111331
 1.5000e+000 112056  3.6582e+001 -4.6594e+001 -8.9172e-001 21489 111687,111765,111739
 1.5000e+000 112033  2.1245e+001 -5.6855e+001  3.3359e+000 21489 112151,112079,111687
 1.5000e+000 112010  1.4573e+001 -9.5638e+001  2.0124e+000 21489 111791,111843,111817
 1.5000e+000 111987 -3.1833e+000 -7.5446e+001 -1.0551e+001 21489 112079,111843,111791
 1.5000e+000 111964  3.1195e+001 -5.0570e+001  9.0213e+000 21489 112151,111687,111661
 1.5000e+000 111941  3.8636e+000 -3.5112e+001  4.8595e+000 21489 111661,111869,111843
 1.5000e+000 111918  4.0879e+001 -5.0962e+001  8.5036e+000 21489 111687,111739,111713
 1.5000e+000 111895  1.2250e+001 -1.5768e+001 -4.6160e+000 21489 111635,111869,111661
 1.5000e+000 112105  4.6918e+000 -6.0460e+001  1.1385e+000 21489 111765,111687,112079
 1.5000e+000 112128  3.5724e+000 -5.9518e+001  1.9701e+000 21489 111765,112079,111791
 1.5000e+000 112177  5.0650e+000 -5.4603e+001 -6.4165e+000 21489 111843,112079,112151
 1.5000e+000 112200  1.3761e+001 -5.1837e+001 -1.8643e+000 21489 111843,112151,111661
 1.5000e+000 112578  1.2383e+001 -7.0269e+001  1.9789e+000 21177 112382,112434,112408
 1.5000e+000 112555  1.3208e+001 -6.4204e+001  1.0134e+000 21177 112330,112434,112382
 1.5000e+000 112532  2.2929e+001 -5.5661e+001  7.0827e+000 21177 112304,112434,112330
 1.5000e+000 112509  1.6359e+001 -6.8924e+001  0.0000e+000 21177 112330,112382,112356
 1.5000e+000 112486  4.1965e+001 -4.8889e+001  3.5225e+000 21177 112304,112460,112434
 1.5000e+000 112679  1.1216e+001 -8.6643e+001 -9.0590e+000 20666 112601,112653,112627
 1.5000e+000 112927 -1.4309e+001 -7.1202e+001 -1.3412e+000 19762 112702,112754,112728
 1.5000e+000 112904  2.8831e+001 -7.4179e+001 -8.7888e+000 19762 112702,112832,112754
 1.5000e+000 112881  1.5257e+001 -6.7327e+001  1.5974e+001 19762 112754,112832,112806
 1.5000e+000 112858  9.3451e+000 -9.1222e+001  2.0978e+001 19762 112754,112806,112780
 1.5000e+000 113297  1.0406e+000 -6.7211e+001  4.9884e+000 19308 112974,113052,113026
 1.5000e+000 113274  1.8487e+000 -6.7168e+001  4.7728e+000 19308 112974,113156,113052
 1.5000e+000 113251 -8.1553e+000 -6.1749e+001  1.2230e+000 19308 113052,113130,113104
 1.5000e+000 113228  1.4038e+001 -4.3349e+001  9.3518e+000 19308 113052,113156,113130
 1.5000e+000 113205 -6.8721e+000 -6.2907e+001  0.0000e+000 19308 113052,113104,113078
 1.5000e+000 113182  1.1697e+000 -6.5429e+001  4.6910e+000 19308 112974,113026,113000
 1.5000e+000 113547 -9.9257e+000 -6.3382e+001 -3.0411e+000 18711 113570,113374,113348
 1.5000e+000 113524 -9.8591e+000 -6.6649e+001 -4.1887e+000 18711 113570,113348,113452
 1.5000e+000 113501 -6.6879e+000 -4.5230e+001 -1.7452e+001 18711 113322,113452,113348
 1.5000e+000 113478 -1.2136e+001 -7.9714e+001  4.0005e-001 18711 113374,113426,113400
 1.5000e+000 113596 -8.0618e+000 -6.7110e+001 -2.5460e+000 18711 113426,113374,113570
 1.5000e+000 113619 -8.6005e+000 -7.0470e+001 -4.4469e+000 18711 113426,113570,113452
 1.5000e+000 113771 -3.7582e+000 -6.6289e+001  1.0073e+000 18307 113670,113722,113696
 1.5000e+000 113748  4.6896e+000 -7.7146e+001 -3.8004e-002 18307 113644,113722,113670
 1.5000e+000 113972  1.7525e+001 -6.3321e+001 -1.9213e+000 17945 113822,113874,113848
 1.5000e+000 113949 -1.0406e+001 -6.8325e+001 -9.9929e-001 17945 113822,113900,113874
 1.5000e+000 113926 -2.2172e+001 -7.9894e+001  1.4935e+001 17945 113796,113900,113822
 1.5000e+000 114075 -1.3322e+000 -4.4407e+001  2.9953e+000 17482 113997,114049,114023
 1.5000e+000 114479  1.5046e+001 -6.1264e+001  2.1897e+000 17042 114257,114361,114335
 1.5000e+000 114456  3.1814e+001 -5.3073e+001 -8.5906e+000 17042 114205,114361,114257
 1.5000e+000 114433  1.0721e+001 -6.8816e+001 -1.7153e+000 17042 114205,114257,114231
 1.5000e+000 114410  1.5682e+001 -9.0682e+001 -6.6050e+000 17042 114283,114335,114309
 1.5000e+000 114387  1.1116e+000 -7.1315e+001 -5.8498e+000 17042 114257,114335,114283
 1.5000e+000 114879 -2.2027e+001 -7.1210e+001 -3.2884e+000 16638 114631,114683,114657
 1.5000e+000 114856  1.5590e+001 -5.4849e+001 -4.5452e+000 16638 114605,114683,114631
 1.5000e+000 114833  1.6608e+001 -3.7035e+001  6.9192e-001 16638 114605,114761,114683
 1.5000e+000 114810  9.7714e-001 -6.7585e+001 -3.1532e+000 16638 114683,114735,114709
 1.5000e+000 114787 -7.4912e+000 -7.9056e+001 -9.6569e+000 16638 114683,114761,114735
 1.5000e+000 115078 -9.2562e+000 -4.5630e+001  3.4123e+000 16232 114954,115006,114980
 1.5000e+000 115055 -4.1172e+000 -6.5884e+001  6.8960e+000 16232 114928,115006,114954
 1.5000e+000 115032  1.8686e+001 -9.5583e+001  1.1154e+001 16232 114902,115006,114928
 1.5000e+000 115228 -2.4664e+001 -6.5023e+001 -9.9335e-001 15482 115101,115153,115127
 1.5000e+000 115205 -1.4068e+001 -5.8082e+001 -4.3517e+000 15482 115101,115179,115153
 1.5000e+000 115331  6.0604e-001 -6.7464e+001 -9.9402e+000 15163 115253,115305,115279
 1.5000e+000 115434 -8.6178e+000 -7.3863e+001  8.2331e+000 421 115356,115408,115382
 1.6000e+000 68213 -8.2287e-001 -3.7055e+001  1.6434e-001 67888 68112,68164,68138
 1.6000e+000 68190 -6.1731e-001 -4.0340e+001  3.5186e+000 67888 68086,68164,68112
 1.6000e+000 68314 -1.2794e+001 -1.1437e+002  1.8737e+001 67576 68236,68288,68262
 1.6000e+000 68584 -3.5183e+000 -9.0834e+001  7.9666e+000 67378 68385,68489,68463
 1.6000e+000 68561  4.7970e+001 -6.6288e+001  1.5402e-001 67378 68359,68489,68385
 1.6000e+000 68538  2.5421e+000 -6.6928e+001  1.0526e+001 67378 68385,68463,68411
 1.6000e+000 68515  4.6856e+000 -3.9569e+001  1.0325e+001 67378 68411,68463,68437
 1.6000e+000 68964 -1.0801e+001 -7.8194e+001  1.5834e+001 67130 68690,68820,68716
 1.6000e+000 68941  3.2071e+001 -8.4347e+001  2.7999e+001 67130 68690,68846,68820
 1.6000e+000 68918  4.9257e+000 -4.9075e+001  3.1062e+000 67130 68742,68820,68794
 1.6000e+000 68895  1.8176e+001 -4.5358e+001  3.3982e+000 67130 68716,68820,68742
 1.6000e+000 68872  1.5653e+001 -2.5134e+001  9.3616e-001 67130 68742,68794,68768
 1.6000e+000 69065  3.5157e+000 -5.7325e+001  7.0776e-001 66926 68987,69039,69013
 1.6000e+000 69445  6.7583e+000 -5.7289e+001  2.3577e-002 66614 69223,69301,69275
 1.6000e+000 69422  3.0819e+000 -5.7970e+001 -1.1293e+000 66614 69171,69301,69223
 1.6000e+000 69399 -1.4141e-001 -5.9682e+001  3.8863e-001 66614 69171,69327,69301
 1.6000e+000 69376  1.6136e+001 -1.6409e+001  5.4193e+000 66614 69223,69275,69249
 1.6000e+000 69353  2.6138e+000 -6.6261e+001 -2.5074e+000 66614 69171,69223,69197
 1.6000e+000 69546  8.6769e+000 -6.9409e+001  1.1058e+001 66416 69468,69520,69494
 1.6000e+000 69997  1.4440e+001 -6.8015e+001 -1.0806e+001 66104 69700,69830,69726
 1.6000e+000 69974  1.9724e+001 -1.0156e+002 -2.2256e+001 66104 69700,69856,69830
 1.6000e+000 69951 -1.5961e+000 -5.0292e+001 -6.7169e+000 66104 69726,69804,69778
 1.6000e+000 69928  1.2534e+001 -6.3216e+001 -6.1066e+000 66104 69726,69830,69804
 1.6000e+000 69905 -2.4054e+000 -4.0951e+001  3.0887e-001 66104 69726,69778,69752
 1.6000e+000 69882  1.0030e+001 -1.6908e+002 -2.2909e+001 66104 69674,69856,69700
 1.6000e+000 70326  2.6847e+001 -2.6448e+001  3.6107e+000 65814 70349,70153,70127
 1.6000e+000 70303  2.6371e+001 -3.0548e+001  7.0984e+000 65814 70349,70127,70101
 1.6000e+000 70280  2.3910e+001 -2.5547e+000  1.8116e+001 65814 70101,70231,70205
 1.6000e+000 70257  2.4709e+001 -2.9341e+001 -2.9229e+000 65814 70153,70205,70179
 1.6000e+000 70375  2.7410e+001 -1.9811e+001  9.7725e-001 65814 70205,70153,70349
 1.6000e+000 70398  2.4472e+001 -2.5729e+001  5.0498e+000 65814 70205,70349,70101
 1.6000e+000 70904  1.4259e+000 -1.5129e+001 -2.9443e+000 65502 70607,70737,70685
 1.6000e+000 70881  1.0602e+000 -1.0501e+000 -9.7263e+000 65502 70581,70737,70607
 1.6000e+000 70858 -1.0628e-001  1.3990e+001  8.5796e-001 65502 70581,70763,70737
 1.6000e+000 70835 -3.9722e+000 -1.7734e+001 -4.2048e+000 65502 70685,70737,70711
 1.6000e+000 70812  1.7910e+001 -8.2747e+000 -1.9411e+000 65502 70607,70659,70633
 1.6000e+000 70789  6.5565e-001 -1.8009e+001 -6.4123e+000 65502 70607,70685,70659
 1.6000e+000 71103 -1.0601e+001 -7.7341e+001 -5.8324e+000 65304 71126,70979,70953
 1.6000e+000 71080 -2.0106e+001 -7.5443e+001 -4.7192e+000 65304 71126,70953,70927
 1.6000e+000 71057 -3.4463e+001 -8.7124e+001 -4.8957e+000 65304 70927,71031,71005
 1.6000e+000 71152 -1.9686e+001 -7.5273e+001 -8.6362e+000 65304 71005,70979,71126
 1.6000e+000 71175 -2.9512e+001 -7.3714e+001 -5.5046e+000 65304 71005,71126,70927
 1.6000e+000 71374 -3.8084e+000 -5.8151e+001  9.7758e-001 65106 71198,71276,71224
 1.6000e+000 71351  1.8223e+001 -5.2614e+001  2.7676e+000 65106 71198,71302,71276
 1.6000e+000 71328  8.3928e-001 -4.5532e+001  7.5013e+000 65106 71224,71276,71250
 1.6000e+000 71756 -1.1519e+001 -4.5133e+001 -1.6463e+000 64652 71508,71638,71534
 1.6000e+000 71733  6.4383e-002 -4.0193e+001  4.7864e-001 64652 71482,71638,71508
 1.6000e+000 71710 -1.8121e+001 -4.1161e+001 -9.5222e+000 64652 71534,71586,71560
 1.6000e+000 71687 -2.3321e+001 -4.4404e+001 -5.2635e+000 64652 71534,71612,71586
 1.6000e+000 71664 -2.4099e+001 -4.4188e+001 -5.7723e+000 64652 71534,71638,71612
 1.6000e+000 72085 -1.6236e+001 -4.9020e+001 -9.3878e+000 64248 71886,71964,71912
 1.6000e+000 72062  4.9818e+000 -3.6584e+001 -1.4672e+001 64248 71860,71964,71886
 1.6000e+000 72039 -3.9756e+000 -4.7933e+001 -6.4175e+000 64248 71912,71964,71938
 1.6000e+000 72016 -1.2693e+001 -4.9384e+001 -7.7950e+000 64248 71860,71990,71964
 1.6000e+000 72235  6.4667e+001 -1.2949e+001 -1.2415e+001 63858 72588,72258,72134
 1.6000e+000 72212  1.5321e+001  1.2701e+000  3.7176e+000 63858 72330,72258,72108
 1.6000e+000 72284  1.1793e+001 -1.0313e+001 -2.1956e+001 63858 72160,72134,72258
 1.6000e+000 72307 -1.3185e+001 -4.7831e+000 -4.7244e+000 63858 72460,72258,72186
 1.6000e+000 72356  6.9121e+000  2.4085e+000 -4.4203e+000 63858 72186,72258,72330
 1.6000e+000 72486 -1.1686e+000 -1.4195e+001  3.6874e+000 63858 72160,72258,72460
 1.6000e+000 72614  4.9550e+001 -2.1521e+001 -5.9578e+000 63858 72108,72258,72588
 1.6000e+000 73248 -5.0734e+000 -1.1931e+002  2.7975e+001 63404 72902,72954,72928
 1.6000e+000 73225 -2.4393e+001 -7.1160e+001  1.8773e+001 63404 73271,72954,72902
 1.6000e+000 73202 -1.5064e+001 -4.7667e+001  1.5481e+001 63404 73271,72902,73032
 1.6000e+000 73179 -1.1123e+001 -3.4501e+001  2.9839e+000 63404 72902,73058,73032
 1.6000e+000 73156 -1.7932e+001 -6.5837e+001 -5.3494e+000 63404 72980,73032,73006
 1.6000e+000 73133 -1.3639e+001 -4.5598e+000  1.5324e+001 63404 72876,73058,72902
 1.6000e+000 73110 -2.0614e+001 -2.2423e+001  2.5554e+001 63404 72876,73084,73058
 1.6000e+000 73297 -1.3119e+001 -7.3680e+001  3.8699e+000 63404 72980,72954,73271
 1.6000e+000 73320 -1.0078e+001 -6.1549e+001  2.9571e+000 63404 72980,73271,73032
 1.6000e+000 73470 -1.7295e+001 -1.2643e+002  1.2865e+001 63014 73343,73395,73369
 1.6000e+000 73447 -5.9262e+001 -1.6158e+002 -4.3979e+000 63014 73343,73421,73395
 1.6000e+000 73929  5.5475e+001 -5.9939e+001  1.0367e+001 62702 73759,73811,73785
 1.6000e+000 73906  6.0819e+001 -5.9492e+001  5.6981e+000 62702 73655,73811,73759
 1.6000e+000 73883  4.4944e+001 -7.8063e+001 -1.3830e+000 62702 73655,73759,73681
 1.6000e+000 73860  6.3210e+001 -4.2196e+001 -2.8070e+001 62702 73681,73759,73707
 1.6000e+000 73837  4.7739e+000 -5.2878e+001 -4.7412e+000 62702 73707,73759,73733
 1.6000e+000 74209 -2.4794e+001 -6.7515e+001  1.0133e-001 62404 74059,74137,74085
 1.6000e+000 74186 -3.3434e+001 -1.0407e+002  1.7679e+001 62404 74033,74137,74059
 1.6000e+000 74163 -2.7255e+001 -4.3701e+001  1.4437e+000 62404 74085,74137,74111
 1.6000e+000 74408  7.1621e+000 -3.3931e+001  5.3103e-001 62000 74258,74336,74284
 1.6000e+000 74385 -2.5392e-001 -3.5955e+001  3.3783e+000 62000 74232,74336,74258
 1.6000e+000 74362 -3.8429e+000 -4.1427e+001 -3.7973e+000 62000 74284,74336,74310
 1.6000e+000 74509  3.1053e+001 -8.7183e+001  1.7717e+001 61802 74431,74483,74457
 1.6000e+000 74759 -3.4734e+000 -6.0434e+001 -3.4953e+000 61554 74782,74586,74560
 1.6000e+000 74736  1.3373e+001 -4.6082e+001  4.1567e+000 61554 74782,74560,74664
 1.6000e+000 74713  1.7880e+000 -1.8116e+001  3.6541e+001 61554 74854,74612,74586
 1.6000e+000 74690  5.8265e+000 -5.5748e+001 -2.4175e-001 61554 74534,74664,74560
 1.6000e+000 74808 -1.6122e+001 -4.4310e+001  7.5715e+000 61554 74854,74586,74782
 1.6000e+000 74831  1.0371e+001 -6.9099e+001  6.3663e+000 61554 74638,74782,74664
 1.6000e+000 74880  3.9125e+001 -4.5486e+001  3.9893e+001 61554 74638,74612,74854
 1.6000e+000 74903  3.8294e+001 -4.3172e+001  1.8224e+001 61554 74638,74854,74782
 1.6000e+000 75285  4.9688e+001 -6.5994e+001 -4.6250e-001 61356 75063,75167,75115
 1.6000e+000 75262  3.8631e+001 -7.8332e+001 -1.7361e+001 61356 75037,75167,75063
 1.6000e+000 75239  5.4135e+001 -6.8441e+001 -3.2819e-001 61356 75115,75167,75141
 1.6000e+000 75216  4.2313e+001 -6.5701e+001  9.6882e-001 61356 75063,75115,75089
 1.6000e+000 75193 -1.3847e+001 -2.9791e+001  9.3660e+000 61356 75011,75167,75037
 1.6000e+000 75631  3.6086e+001 -5.2626e+001  2.2929e+000 60952 75654,75412,75360
 1.6000e+000 75608  3.7948e+001 -6.2060e+001 -9.9236e-001 60952 75654,75360,75334
 1.6000e+000 75585  2.9663e+001 -7.9793e+001 -2.0176e+000 60952 75726,75438,75412
 1.6000e+000 75562  5.1038e+001 -5.2368e+001 -1.9172e+001 60952 75308,75490,75334
 1.6000e+000 75539  3.8952e+001 -5.0062e+001 -1.1425e+000 60952 75360,75412,75386
 1.6000e+000 75516  3.7741e+000 -1.0936e+002  1.6887e-001 60952 75438,75490,75464
 1.6000e+000 75680  3.5829e+001 -6.3763e+001  2.5279e+000 60952 75726,75412,75654
 1.6000e+000 75703  3.5198e+001 -6.2092e+001 -4.5183e-001 60952 75490,75654,75334
 1.6000e+000 75752  2.5483e+001 -6.2323e+001 -5.1684e+000 60952 75490,75438,75726
 1.6000e+000 75775  2.5985e+001 -6.2586e+001 -3.2924e+000 60952 75490,75726,75654
 1.6000e+000 76155  2.0531e+001 -3.6715e+001 -9.9699e+000 60754 75933,75985,75959
 1.6000e+000 76132  2.3389e+001 -3.9182e+001  1.1258e+001 60754 75933,76037,75985
 1.6000e+000 76109  4.8802e+001 -4.3069e+001  5.8403e+000 60754 75985,76037,76011
 1.6000e+000 76086  3.7058e+000 -2.9836e+001  7.9162e-001 60754 75881,76037,75933
 1.6000e+000 76063 -6.6857e+000 -2.4316e+001  1.3168e+001 60754 75881,75933,75907
 1.6000e+000 76612  1.2716e+001 -4.0219e+001  8.3782e+000 60350 76635,76442,76390
 1.6000e+000 76589  3.9017e+001 -4.3665e+001  1.5903e+001 60350 76635,76390,76364
 1.6000e+000 76566  5.0893e+000 -6.0770e+001  8.2455e+000 60350 76364,76494,76468
 1.6000e+000 76543  3.9472e+001 -2.6892e+001  1.5383e+001 60350 76390,76442,76416
 1.6000e+000 76520  3.2492e+001 -1.1831e+001  2.0960e+001 60350 76338,76494,76364
 1.6000e+000 76661 -4.2406e+000 -4.0726e+001  8.3024e+000 60350 76468,76442,76635
 1.6000e+000 76684  1.3499e+001 -5.0413e+001  1.5535e+001 60350 76468,76635,76364
 1.6000e+000 76932 -2.7541e+000 -6.7480e+001  2.5099e+000 59946 76955,76733,76707
 1.6000e+000 76909 -2.7188e+000 -6.6832e+001  4.9412e+000 59946 77027,76955,76707
 1.6000e+000 76886 -1.8702e+000 -6.5875e+001  4.5809e+000 59946 77027,76707,76837
 1.6000e+000 76863  3.4903e+000 -6.7671e+001 -1.6889e+000 59946 76733,76785,76759
 1.6000e+000 76981 -5.5876e+000 -6.8282e+001  2.0665e+000 59946 76785,76733,76955
 1.6000e+000 77004 -4.1718e+000 -7.0488e+001  4.7007e+000 59946 76785,76955,76811
 1.6000e+000 77053 -1.3152e+000 -6.8180e+001  3.6625e+000 59946 76811,76955,77027
 1.6000e+000 77076 -1.1245e-001 -6.6387e+001  3.1305e+000 59946 76811,77027,76837
 1.6000e+000 77226  3.6649e+000 -4.7521e+001  8.9173e-001 59542 77099,77151,77125
 1.6000e+000 77203 -2.1201e+000 -6.0495e+001  2.1066e+000 59542 77099,77177,77151
 1.6000e+000 77427  1.4807e+001 -4.5859e+001 -5.5350e+000 59030 77450,77277,77251
 1.6000e+000 77404  2.2885e+001 -4.1988e+001 -1.8550e+001 59030 77450,77251,77355
 1.6000e+000 77381 -8.0940e+000 -7.5565e+001  6.0076e+000 59030 77277,77329,77303
 1.6000e+000 77476  2.6177e+001 -4.6357e+001 -1.0122e+001 59030 77329,77277,77450
 1.6000e+000 77499  3.7544e+001 -4.4988e+001 -2.0636e+001 59030 77329,77450,77355
 1.6000e+000 77749 -2.0218e+001 -8.1789e+001  2.2522e+001 58426 77772,77628,77602
 1.6000e+000 77726 -2.0229e+001 -1.1066e+002  3.1484e+001 58426 77524,77654,77628
 1.6000e+000 77703  8.8792e+000 -7.3785e+001  1.1529e+001 58426 77772,77602,77550
 1.6000e+000 77680  1.8223e+001 -7.0647e+001  1.7543e+001 58426 77550,77602,77576
 1.6000e+000 77798  1.3960e+001 -8.8018e+001  2.0491e+001 58426 77524,77628,77772
 1.6000e+000 77821  2.9964e+001 -8.6462e+001  6.5828e+000 58426 77524,77772,77550
 1.6000e+000 78071 -2.5708e+001 -8.4851e+001  2.0442e+001 57922 78094,77924,77898
 1.6000e+000 78048 -4.3182e+001 -7.8126e+001 -6.5392e+000 57922 78094,77898,77872
 1.6000e+000 78025 -1.8309e+001 -6.9653e+001  4.8968e+000 57922 78166,77846,77950
 1.6000e+000 78002  3.4804e+001 -7.0466e+001  1.3010e+001 57922 77846,77976,77950
 1.6000e+000 78120  5.5701e+000 -8.1478e+001  7.2083e+000 57922 77950,77924,78094
 1.6000e+000 78143 -2.0742e+001 -7.0984e+001  4.2093e+000 57922 78166,77950,78094
 1.6000e+000 78192 -1.5056e+001 -7.2307e+001  1.7386e+000 57922 77872,77846,78166
 1.6000e+000 78215 -1.9107e+001 -7.4888e+001  6.0439e-001 57922 77872,78166,78094
 1.6000e+000 78416  3.2253e+001 -7.0028e+001  1.7632e+000 57468 78439,78292,78240
 1.6000e+000 78393  1.7209e+001 -4.8027e+001  5.5738e+000 57468 78439,78240,78344
 1.6000e+000 78370  7.3138e+000 -1.3215e+002 -4.9698e+000 57468 78240,78292,78266
 1.6000e+000 78465  1.9445e+001 -8.1819e+001 -1.2687e+001 57468 78318,78292,78439
 1.6000e+000 78488  1.3484e+001 -6.1148e+001 -4.1369e+000 57468 78318,78439,78344
 1.6000e+000 78689  4.8092e+001 -7.9371e+001 -1.2174e+001 57014 78712,78539,78513
 1.6000e+000 78666  3.5152e+001 -8.8414e+001 -5.1057e+000 57014 78712,78513,78617
 1.6000e+000 78643  1.7351e+001 -6.4279e+001  1.2403e+001 57014 78565,78617,78591
 1.6000e+000 78738  3.1224e+001 -4.5263e+001 -7.8499e+000 57014 78565,78539,78712
 1.6000e+000 78761  4.6787e+000 -7.8331e+001  6.4581e+000 57014 78565,78712,78617
 1.6000e+000 79241 -2.0168e+001 -5.8927e+001 -2.8334e-001 56652 79264,78895,78869
 1.6000e+000 79218 -1.0615e+001 -7.6220e+001 -8.3948e+000 56652 79264,78869,79051
 1.6000e+000 79195 -9.9971e+000 -6.5100e+001 -1.8886e+001 56652 78869,79077,79051
 1.6000e+000 79172 -1.7050e+001 -4.5509e+001 -1.4748e+000 56652 78895,78973,78947
 1.6000e+000 79149 -2.8152e+001 -1.4750e+002 -1.1250e+001 56652 78973,79051,78999
 1.6000e+000 79126 -9.0943e+000 -4.3245e+001 -4.0842e+000 56652 78895,78947,78921
 1.6000e+000 79103 -2.5764e+001 -1.1104e+002  2.4793e+001 56652 78999,79051,79025
 1.6000e+000 79290 -1.3137e+001 -4.7807e+001  6.0893e+000 56652 78973,78895,79264
 1.6000e+000 79313 -3.2366e+000 -6.6873e+001 -1.3909e+000 56652 78973,79264,79051
 1.6000e+000 79512 -6.3755e+000 -8.5404e+001  3.7912e+000 56062 79388,79440,79414
 1.6000e+000 79489 -2.4211e+001 -4.4038e+001  9.8731e+000 56062 79336,79440,79388
 1.6000e+000 79466  4.8255e+001 -7.9975e+001  2.0322e+001 56062 79336,79388,79362
 1.6000e+000 79941 -5.1907e+000 -6.2367e+001  1.0656e+001 55658 79964,79670,79644
 1.6000e+000 79918 -7.7890e+000 -6.0274e+001  1.0525e+001 55658 79964,79644,79800
 1.6000e+000 79895  5.0318e+000 -6.0094e+001  1.1014e+001 55658 80036,79696,79670
 1.6000e+000 79872 -2.6539e+000 -5.7603e+001 -6.3912e+000 55658 80108,79722,79696
 1.6000e+000 79849 -1.5538e+001 -6.5745e+001 -2.5224e+001 55658 79722,79774,79748
 1.6000e+000 79826 -1.2126e-001 -5.8087e+001  4.5969e+000 55658 79618,79800,79644
 1.6000e+000 79990 -8.4292e+000 -6.6158e+001  9.2472e+000 55658 80036,79670,79964
 1.6000e+000 80013 -1.3747e+001 -6.2442e+001  7.4709e+000 55658 79774,79964,79800
 1.6000e+000 80062  7.0097e+000 -6.0370e+001  1.9360e+000 55658 80108,79696,80036
 1.6000e+000 80085 -3.5826e+000 -5.8040e+001  7.0144e+000 55658 79774,80036,79964
 1.6000e+000 80134 -2.0643e+001 -5.8657e+001 -4.4249e+000 55658 79774,79722,80108
 1.6000e+000 80157 -1.5433e+001 -6.5002e+001  3.4012e+000 55658 79774,80108,80036
 1.6000e+000 80307 -1.7765e+000 -4.1843e+001  1.6172e+001 55254 80402,80330,80206
 1.6000e+000 80284 -2.5158e+000 -6.4021e+001  1.0763e+001 55254 80330,80180,80258
 1.6000e+000 80356 -1.0467e+001 -6.1634e+001  2.2596e+001 55254 80232,80206,80330
 1.6000e+000 80379  1.0193e+001 -5.3106e+001  1.9867e+001 55254 80232,80330,80258
 1.6000e+000 80428 -1.0863e+001 -6.1753e+001  8.6747e+000 55254 80180,80330,80402
 1.6000e+000 80659 -4.2101e+000 -7.8926e+001 -6.2004e+000 54850 80558,80610,80584
 1.6000e+000 80636 -8.3491e-001 -7.6386e+001 -4.7489e+000 54850 80532,80610,80558
 1.6000e+000 80760  2.7668e+001 -6.4533e+001 -5.0013e+000 54652 80682,80734,80708
 1.6000e+000 81164  3.0519e+001 -6.5691e+001  6.3355e-001 54248 81187,80942,80890
 1.6000e+000 81141  3.3267e+001 -7.4466e+001  2.4609e-001 54248 81187,80890,81046
 1.6000e+000 81118  9.6334e+000 -7.2599e+001  1.4157e+001 54248 80942,81020,80994
 1.6000e+000 81095  2.8474e+001 -7.1018e+001  8.0306e-001 54248 80890,80942,80916
 1.6000e+000 81072  4.4401e+001 -3.0429e+001 -3.6081e+000 54248 80942,80994,80968
 1.6000e+000 81213  3.1403e+001 -6.0450e+001  2.3559e+000 54248 81020,80942,81187
 1.6000e+000 81236  3.5738e+001 -6.7091e+001  2.0527e+000 54248 81020,81187,81046
 1.6000e+000 81663 -1.2143e+001 -4.8427e+001  3.5963e+000 53594 81340,81444,81366
 1.6000e+000 81640 -3.1967e+001 -9.3740e+001  1.0926e+001 53594 81340,81470,81444
 1.6000e+000 81617 -8.8373e+000 -7.1820e+001 -1.6665e+001 53594 81340,81522,81470
 1.6000e+000 81594 -1.7417e+001 -3.1995e+001  1.4129e+000 53594 81392,81444,81418
 1.6000e+000 81571 -1.6745e+001 -4.8615e+001 -1.1639e+000 53594 81366,81444,81392
 1.6000e+000 81548  2.5228e+001 -9.9811e+001  4.3206e+000 53594 81470,81522,81496
 1.6000e+000 81943  2.5914e+001 -1.0402e+000  2.5067e+000 53104 81966,81845,81819
 1.6000e+000 81920 -2.4530e+000 -4.4954e-001 -8.4777e+000 53104 81966,81819,81767
 1.6000e+000 81897  1.3893e-001  3.9160e+000 -6.0236e+000 53104 81767,81819,81793
 1.6000e+000 81992  4.4923e+001 -1.4918e+001 -1.2380e+001 53104 81871,81845,81966
 1.6000e+000 82015  1.8898e+001 -1.2393e+001 -2.8255e+001 53104 81871,81966,81767
 1.6000e+000 82491 -3.3644e-001 -4.9150e+001 -1.0562e+001 52650 82145,82249,82171
 1.6000e+000 82468  5.9908e+000 -5.3654e+001 -2.9103e+000 52650 82145,82301,82249
 1.6000e+000 82445 -8.1982e+000 -8.6865e+001  2.8736e-001 52650 82249,82301,82275
 1.6000e+000 82422 -2.4662e+001 -9.8076e+001 -1.9006e+001 52650 82119,82301,82145
 1.6000e+000 82399 -3.0111e+000 -2.4504e+001  9.9463e+000 52650 82171,82249,82223
 1.6000e+000 82376 -2.3658e+000 -8.9508e+001 -6.4023e+000 52650 82119,82327,82301
 1.6000e+000 82353 -7.0171e-001 -6.7052e+000 -3.8855e+000 52650 82171,82223,82197
 1.6000e+000 82739 -1.1285e+001 -2.0469e+001  7.0852e+000 52246 82762,82540,82514
 1.6000e+000 82716  6.5065e+000 -9.6156e+000  7.6500e-001 52246 82762,82514,82644
 1.6000e+000 82693  5.1072e-001 -2.5843e+001  2.3779e+001 52246 82540,82618,82592
 1.6000e+000 82670 -4.1066e+000 -4.8571e+000  9.1495e+000 52246 82540,82592,82566
 1.6000e+000 82788  4.8488e+000 -3.5318e+001  1.5968e+001 52246 82618,82540,82762
 1.6000e+000 82811  2.2532e+001 -2.6935e+001  1.3233e+001 52246 82618,82762,82644
 1.6000e+000 83059  2.8489e+001 -3.9633e+001  3.9988e+000 51578 82860,82964,82938
 1.6000e+000 83036  3.0158e+001 -3.4899e+001 -1.7265e+000 51578 82834,82964,82860
 1.6000e+000 83013  2.3462e+001 -4.3309e+001  2.3924e+000 51578 82860,82938,82886
 1.6000e+000 82990  2.4298e+001 -3.6314e+001 -1.2175e+000 51578 82886,82938,82912
 1.6000e+000 83309 -1.7527e+001 -4.9168e+001  1.0336e+001 51138 83332,83162,83136
 1.6000e+000 83286 -1.9612e+001 -4.6314e+001  1.2126e+001 51138 83332,83136,83110
 1.6000e+000 83263 -1.2886e+001 -3.8737e+001  9.9736e+000 51138 83404,83214,83188
 1.6000e+000 83240 -4.8997e-001 -6.0794e+000  9.0792e-003 51138 83084,83214,83110
 1.6000e+000 83358 -2.5818e+001 -5.3651e+001  2.0725e+001 51138 83188,83162,83332
 1.6000e+000 83381 -1.1516e+001 -4.9493e+001  1.8356e+001 51138 83404,83188,83332
 1.6000e+000 83430 -5.2013e+000 -8.3560e+000 -1.0305e+000 51138 83110,83214,83404
 1.6000e+000 83453 -1.1120e+001 -2.6686e+001  8.6294e+000 51138 83110,83404,83332
 1.6000e+000 83835  1.3692e+001 -3.7704e+001  2.9003e+000 50734 83613,83717,83691
 1.6000e+000 83812  4.8805e+000 -5.9125e+001 -1.8552e+000 50734 83561,83717,83613
 1.6000e+000 83789  2.7389e+001 -4.5725e+001 -9.6695e+000 50734 83561,83613,83587
 1.6000e+000 83766 -5.3303e+000 -3.3681e+001 -1.0246e+000 50734 83613,83691,83639
 1.6000e+000 83743 -5.7382e+000 -3.1100e+001  8.5837e+000 50734 83639,83691,83665
 1.6000e+000 84034  3.5380e+001 -1.6255e+001  1.0391e+001 50230 84057,83884,83858
 1.6000e+000 84011  3.7368e+001 -1.6427e+001  2.6691e+000 50230 84129,84057,83858
 1.6000e+000 83988  4.4127e+001 -1.4979e+001  5.9021e-001 50230 84129,83858,83962
 1.6000e+000 84083  5.7674e+001 -1.0054e+001  1.8916e+001 50230 83910,83884,84057
 1.6000e+000 84106  4.3008e+001 -3.6191e+001  1.2121e+001 50230 83910,84057,83936
 1.6000e+000 84155  4.7025e+001 -1.7028e+001  3.0899e+000 50230 83936,84057,84129
 1.6000e+000 84178  5.0028e+001 -1.8338e+001  7.6103e-001 50230 83936,84129,83962
 1.6000e+000 84558  7.3486e+000 -2.4180e+001 -9.6332e+000 49768 84581,84388,84362
 1.6000e+000 84535  4.7240e+000 -2.3934e+001 -8.5655e+000 49768 84581,84362,84310
 1.6000e+000 84512  1.5662e+001 -3.1946e+001 -7.6468e+000 49768 84653,84440,84414
 1.6000e+000 84489  5.3356e-001 -2.0062e+001 -1.2989e+001 49768 84310,84362,84336
 1.6000e+000 84466  5.8933e+001 -1.9666e+001 -9.2325e+000 49768 84284,84440,84310
 1.6000e+000 84607  1.9443e+001 -1.0833e+001 -1.5032e+001 49768 84414,84388,84581
 1.6000e+000 84630  1.4139e+001 -2.0959e+001 -7.5119e+000 49768 84653,84414,84581
 1.6000e+000 84679  1.3625e+001 -3.7875e+001 -8.7453e+000 49768 84310,84440,84653
 1.6000e+000 84702  6.8192e+000 -3.4063e+001 -1.0637e+001 49768 84310,84653,84581
 1.6000e+000 85159 -2.5780e+001 -1.0252e+002 -5.0853e+001 49192 84885,84937,84911
 1.6000e+000 85136 -3.1121e+001 -8.7025e+001 -3.9346e+001 49192 84885,85041,84937
 1.6000e+000 85113 -1.8111e+001 -6.0515e+001 -1.9705e+001 49192 84963,85041,84989
 1.6000e+000 85090 -1.7056e+001 -6.5212e+001 -3.3303e+001 49192 84937,85041,84963
 1.6000e+000 85067 -1.3233e+001 -8.2615e+001  2.0739e+000 49192 84989,85041,85015
 1.6000e+000 85714 -8.8880e+000 -2.0101e+001 -2.0254e+000 48638 85368,85498,85394
 1.6000e+000 85691 -5.9783e+000 -2.3373e+001 -3.3606e+000 48638 85368,85524,85498
 1.6000e+000 85668 -1.7774e+001 -2.0944e+001  2.7728e+001 48638 85737,85420,85394
 1.6000e+000 85645  4.2572e+000 -2.3165e+001  8.6883e+000 48638 85737,85394,85498
 1.6000e+000 85622  3.9971e+000 -5.0699e+001  4.7132e+000 48638 85446,85498,85472
 1.6000e+000 85599 -1.6923e-001 -2.1611e+001 -1.5911e+000 48638 85342,85524,85368
 1.6000e+000 85576 -3.3009e+000 -1.5074e+001 -6.6866e+000 48638 85342,85550,85524
 1.6000e+000 85763  1.5090e+001 -6.6644e+000  2.9333e+001 48638 85446,85420,85737
 1.6000e+000 85786  1.7098e+001 -1.8052e+001  9.8630e+000 48638 85446,85737,85498
 1.6000e+000 86371  6.1955e+000 -4.8167e+000  1.9151e+000 48084 86100,86230,86178
 1.6000e+000 86348  9.3339e+000 -9.1958e+000  2.0947e+000 48084 86048,86230,86100
 1.6000e+000 86325  1.1752e+001 -1.4153e+000  6.3281e+000 48084 86100,86178,86126
 1.6000e+000 86302  1.5786e+001  6.2408e+000 -7.3305e+000 48084 86048,86100,86074
 1.6000e+000 86279 -1.3946e+000 -2.4862e+001  4.0292e+000 48084 86178,86230,86204
 1.6000e+000 86256  8.0092e+000  1.5426e+001  8.4947e+000 48084 86126,86178,86152
 1.6000e+000 86619 -2.3347e+001 -5.5667e+001  2.5258e+000 47630 86642,86446,86420
 1.6000e+000 86596 -2.7755e+001 -6.1252e+001 -7.8442e+000 47630 86642,86420,86394
 1.6000e+000 86573 -3.6090e+001 -5.2827e+001 -1.3819e+001 47630 86394,86524,86498
 1.6000e+000 86550  2.0100e+001 -6.9252e+001  7.9232e+000 47630 86446,86498,86472
 1.6000e+000 86668 -2.8681e+001 -6.7611e+001 -1.4447e+000 47630 86498,86446,86642
 1.6000e+000 86691 -3.0926e+001 -6.9530e+001 -1.1597e+001 47630 86498,86642,86394
 1.6000e+000 87022  8.0835e+000 -2.7712e+001 -6.8767e+000 47226 87045,86875,86849
 1.6000e+000 86999 -9.6092e-002 -2.2377e+001 -1.1418e+001 47226 87045,86849,86797
 1.6000e+000 86976 -1.8346e+000 -1.5858e+001 -2.7368e+000 47226 86797,86849,86823
 1.6000e+000 86953  2.2886e+001 -1.5042e+001 -8.4492e+000 47226 86875,86927,86901
 1.6000e+000 87071  1.7579e+001 -2.6932e+001 -1.0531e+001 47226 86927,86875,87045
 1.6000e+000 87094  7.8921e+000 -2.2989e+001 -1.3252e+001 47226 86927,87045,86797
 1.6000e+000 87244 -2.2055e+000 -4.6048e+001  2.7797e+001 46814 87267,87169,87143
 1.6000e+000 87221 -3.1903e+001 -3.7908e+001  4.1345e+000 46814 87267,87143,87117
 1.6000e+000 87293 -2.9235e+000 -4.3659e+001  1.3030e+001 46814 87339,87267,87195
 1.6000e+000 87316 -7.7734e-001 -2.4592e+001  1.3455e+000 46814 87469,87267,87117
 1.6000e+000 87365  1.4724e+001 -3.2433e+001  2.1715e+001 46814 87169,87267,87339
 1.6000e+000 87495 -5.6185e-001 -9.3306e-001  3.7595e-001 46814 87195,87267,87469
 1.6000e+000 88001  9.3715e+000 -5.9669e+001  7.2583e+000 46310 88024,87834,87808
 1.6000e+000 87978 -9.6138e-001 -6.2518e+001 -1.8111e+000 46310 88024,87808,87756
 1.6000e+000 87955  1.2134e+001 -7.9218e+001 -7.6539e+000 46310 88096,87730,87860
 1.6000e+000 87932 -1.1474e+001 -7.3077e+001 -6.0918e+000 46310 87756,87808,87782
 1.6000e+000 87909  2.6323e+001 -1.4438e+002  1.4582e+001 46310 87678,87860,87730
 1.6000e+000 87886  1.6374e+001 -2.0016e+002  2.9819e+000 46310 87678,87730,87704
 1.6000e+000 88050  7.9743e+000 -6.4137e+001 -2.3626e-001 46310 87860,87834,88024
 1.6000e+000 88073  1.1721e+001 -6.0434e+001 -1.8063e+000 46310 88096,87860,88024
 1.6000e+000 88122  7.8704e+000 -8.8095e+001 -1.3924e+001 46310 87756,87730,88096
 1.6000e+000 88145 -4.0610e+000 -8.0630e+001 -1.0707e+001 46310 87756,88096,88024
 1.6000e+000 88572  6.7114e-001 -3.7146e+001 -3.4188e+000 45856 88249,88405,88275
 1.6000e+000 88549  9.1183e-001 -7.3696e+000 -1.4790e+001 45856 88249,88431,88405
 1.6000e+000 88526  2.2717e-001 -6.9013e+001 -1.7247e+001 45856 88327,88405,88353
 1.6000e+000 88503  9.4278e+000 -4.7701e+001 -1.2227e+001 45856 88275,88405,88327
 1.6000e+000 88480  1.7171e+001 -4.5955e+001 -3.7089e+001 45856 88353,88405,88379
 1.6000e+000 88457 -4.5604e+001 -1.2522e+002  1.1877e+001 45856 88275,88327,88301
 1.6000e+000 88950  1.6018e+001 -2.5367e+001 -6.8159e+000 45658 88973,88754,88728
 1.6000e+000 88927  1.6393e+001 -3.0320e+001 -7.4534e+000 45658 88973,88728,88676
 1.6000e+000 88904  3.5423e+001 -3.8762e+001  2.2759e+001 45658 88676,88832,88806
 1.6000e+000 88881  1.0317e+001 -4.9348e+001 -1.4087e+001 45658 88676,88728,88702
 1.6000e+000 88858  1.8356e+001 -1.1092e+001 -1.2543e+001 45658 88754,88806,88780
 1.6000e+000 88999  1.4830e+001 -2.9819e+001 -6.4530e+000 45658 88806,88754,88973
 1.6000e+000 89022  1.6724e+001 -3.2693e+001 -7.2769e+000 45658 88806,88973,88676
 1.6000e+000 89351  1.8591e+001 -2.7591e+001 -5.2848e-001 45254 89152,89230,89204
 1.6000e+000 89328  1.0871e+001 -3.0914e+001 -8.0080e-001 45254 89152,89256,89230
 1.6000e+000 89305  4.7183e+000 -3.5247e+001 -2.8344e+000 45254 89126,89256,89152
 1.6000e+000 89282 -4.2511e+000 -5.6663e+001  9.4299e+000 45254 89152,89204,89178
 1.6000e+000 89523  4.5697e+001 -3.1805e+001 -4.2227e-001 45006 89422,89474,89448
 1.6000e+000 89500  3.2295e+001 -3.7571e+001 -1.1178e+001 45006 89396,89474,89422
 1.6000e+000 89673 -3.1633e+001 -5.5369e+001  5.0772e+000 44495 89572,89624,89598
 1.6000e+000 89650 -3.3935e+001 -6.4032e+001  7.8459e+000 44495 89546,89624,89572
 1.6000e+000 90104  7.4071e+000 -4.8325e+001  3.2319e+000 44005 90199,90127,89937
 1.6000e+000 90081  1.2329e+001 -5.0875e+001  3.3118e+000 44005 90271,90127,89859
 1.6000e+000 90058  6.6770e+000 -4.8991e+001  2.9537e+000 44005 90199,89937,89885
 1.6000e+000 90035  1.8568e+001 -4.8751e+001  1.7195e-001 44005 90271,89859,89807
 1.6000e+000 90012 -3.5374e+000 -5.3316e+001 -3.8380e+000 44005 89885,89937,89911
 1.6000e+000 89989  5.4455e+000 -6.4319e+001  1.0341e+001 44005 89807,89859,89833
 1.6000e+000 90153  2.5044e+001 -3.6573e+001  1.5569e+001 44005 89963,89937,90127
 1.6000e+000 90176  5.6505e+000 -8.1969e+001  1.4532e+001 44005 89963,90127,89781
 1.6000e+000 90225  1.1942e+001 -5.0884e+001  2.5177e+000 44005 89859,90127,90199
 1.6000e+000 90248  8.2178e+000 -5.4122e+001  1.1438e+000 44005 89859,90199,89885
 1.6000e+000 90297  2.1814e+001 -5.1647e+001  6.5518e-001 44005 89781,90127,90271
 1.6000e+000 90320  2.5859e+001 -5.1169e+001 -2.4283e+000 44005 89781,90271,89807
 1.6000e+000 90470  4.8909e+001 -4.1822e+001 -2.8302e+001 43601 90493,90369,90343
 1.6000e+000 90447  2.2693e+001 -4.1268e+001 -1.1970e+001 43601 90493,90343,90421
 1.6000e+000 90519  1.2025e+001 -2.7654e+001 -2.8472e+001 43601 90395,90369,90493
 1.6000e+000 90542 -9.9335e+000 -3.5780e+001 -3.2518e+000 43601 90395,90493,90421
 1.6000e+000 90922  2.4583e+001 -6.4751e+001  2.0097e+001 43154 90945,90700,90674
 1.6000e+000 90899 -3.7862e+000 -7.8973e+001  9.6639e+000 43154 90945,90674,90648
 1.6000e+000 90876  1.7579e+000 -5.1029e+001 -9.1332e+000 43154 90648,90778,90752
 1.6000e+000 90853  3.0950e+001 -9.9980e+001  3.1338e+000 43154 90700,90752,90726
 1.6000e+000 90830 -4.0400e+000 -4.3499e+001 -1.8126e+001 43154 90648,90804,90778
 1.6000e+000 90971  1.4009e+001 -7.4006e+001  4.0016e+000 43154 90752,90700,90945
 1.6000e+000 90994 -5.4966e+000 -8.1390e+001 -5.4375e+000 43154 90752,90945,90648
 1.6000e+000 91451  3.2108e+001 -3.4799e+001 -1.3460e+001 42650 91203,91255,91229
 1.6000e+000 91428  6.6861e+000 -4.5673e+001  1.9869e+000 42650 91203,91333,91255
 1.6000e+000 91405 -7.2132e+000 -5.4395e+001 -2.2356e+000 42650 91177,91333,91203
 1.6000e+000 91382  2.9146e+000 -6.4125e+001  9.0387e-001 42650 91255,91333,91281
 1.6000e+000 91359  2.8662e+001 -4.7912e+001 -6.6091e+000 42650 91281,91333,91307
 1.6000e+000 91721 -1.8161e+001 -6.6344e+001  6.6790e+000 42288 91496,91600,91522
 1.6000e+000 91698  5.0443e+000 -1.5425e+001  5.6848e-001 42288 91496,91626,91600
 1.6000e+000 91675  1.9745e+001 -6.0336e+001  3.6751e+000 42288 91522,91574,91548
 1.6000e+000 91652  1.7476e+000 -5.8882e+001  6.5885e+000 42288 91522,91600,91574
 1.6000e+000 92199 -5.0670e+001 -7.4914e+001 -4.5882e+000 41898 92222,91983,91879
 1.6000e+000 92176 -5.8276e+001 -9.7679e+001 -1.3784e+001 41898 92294,92222,91879
 1.6000e+000 92153 -6.9000e+001 -9.8814e+001 -2.0804e+001 41898 92294,91879,91853
 1.6000e+000 92130 -4.2883e+001 -3.2795e+001  7.0810e+000 41898 91879,91957,91931
 1.6000e+000 92107 -4.1532e+001 -7.1253e+001 -2.6387e+000 41898 91879,91983,91957
 1.6000e+000 92084 -5.7034e+001 -3.4499e+001  1.9751e+001 41898 91879,91931,91905
 1.6000e+000 92061 -4.6933e+001 -7.4684e+001 -1.1175e+001 41898 91827,92035,91853
 1.6000e+000 92248 -4.2140e+001 -1.0175e+002 -1.6016e-001 41898 92009,91983,92222
 1.6000e+000 92271 -4.4343e+001 -1.0752e+002 -1.4879e+001 41898 92009,92222,92035
 1.6000e+000 92320 -4.1483e+001 -9.6056e+001 -1.0053e+001 41898 92035,92222,92294
 1.6000e+000 92343 -4.8555e+001 -9.3396e+001 -1.6126e+001 41898 92035,92294,91853
 1.6000e+000 92770 -6.9026e+000 -9.0778e+001 -1.1453e+001 41437 92865,92793,92525
 1.6000e+000 92747 -4.3014e+000 -7.9777e+001 -7.9580e+000 41437 92793,92473,92629
 1.6000e+000 92724 -3.3123e+000 -9.6976e+001 -1.3667e+001 41437 92865,92525,92499
 1.6000e+000 92701 -2.4019e+001 -6.1661e+001 -1.4587e+001 41437 92525,92603,92577
 1.6000e+000 92678  7.2375e+000 -9.0223e+001 -1.2733e+001 41437 92447,92629,92473
 1.6000e+000 92655 -4.2783e+001 -6.1521e+001 -1.3123e+001 41437 92525,92577,92551
 1.6000e+000 92819 -2.6640e+000 -8.0888e+001 -1.1473e+001 41437 92603,92525,92793
 1.6000e+000 92842 -5.5240e+000 -8.2540e+001 -8.2392e+000 41437 92603,92793,92629
 1.6000e+000 92891 -2.9989e+000 -8.0189e+001 -7.4047e+000 41437 92473,92793,92865
 1.6000e+000 92914 -1.0471e+000 -8.9510e+001 -9.2201e+000 41437 92473,92865,92499
 1.6000e+000 93243  3.0930e+000 -1.0083e+002  5.4973e+001 41097 93044,93096,93070
 1.6000e+000 93220 -1.8844e+001 -9.5837e+001  2.3475e+001 41097 93044,93122,93096
 1.6000e+000 93197  1.7990e+001 -6.0650e+001  8.8307e+000 41097 93044,93148,93122
 1.6000e+000 93174 -8.0063e+000 -3.7887e+001  2.5215e+001 41097 93018,93148,93044
 1.6000e+000 93393  5.9469e+001 -6.7441e+001  3.2515e+000 40643 93416,93292,93344
 1.6000e+000 93370  3.7113e+001 -6.0212e+001 -3.7335e-001 40643 93266,93344,93292
 1.6000e+000 93442  4.5469e+001 -6.8802e+001  9.3222e+000 40643 93318,93292,93416
 1.6000e+000 93901 -1.5741e+001 -7.8351e+001 -9.6649e+000 40132 93924,93731,93705
 1.6000e+000 93878 -2.0357e+001 -6.5073e+001 -9.9520e+000 40132 93996,93924,93705
 1.6000e+000 93855 -2.2695e+001 -7.0852e+001 -7.0916e+000 40132 93996,93705,93653
 1.6000e+000 93832 -1.5692e+001 -7.9034e+001 -5.3484e+000 40132 93653,93705,93679
 1.6000e+000 93809  3.0707e+001 -4.5307e+001 -1.8985e+001 40132 93627,93783,93757
 1.6000e+000 93950 -1.9930e+000 -6.9603e+001 -1.6701e+001 40132 93757,93731,93924
 1.6000e+000 93973 -2.1209e+001 -6.3927e+001 -1.3001e+001 40132 93757,93924,93627
 1.6000e+000 94022 -2.6704e+001 -6.9380e+001 -6.1097e+000 40132 93627,93924,93996
 1.6000e+000 94045 -2.4331e+001 -7.1133e+001 -3.8920e+000 40132 93627,93996,93653
 1.6000e+000 94423 -6.2567e+000 -8.0111e+001  4.5300e+000 39514 94149,94227,94175
 1.6000e+000 94400  8.9956e-001 -6.4685e+001  2.1550e+000 39514 94149,94305,94227
 1.6000e+000 94377  4.1075e+001 -8.5828e+001 -6.6272e+000 39514 94175,94227,94201
 1.6000e+000 94354  1.0746e+001 -5.6347e+001  6.1467e+000 39514 94227,94305,94279
 1.6000e+000 94331  1.2113e+001 -5.5387e+001  8.3441e+000 39514 94227,94279,94253
 1.6000e+000 94573 -1.9789e+001 -6.7603e+001 -2.6521e+000 38822 94596,94498,94472
 1.6000e+000 94550 -1.1162e+001 -7.5183e+001  1.1441e+001 38822 94596,94472,94446
 1.6000e+000 94622 -3.0100e+001 -7.2413e+001  3.6873e+000 38822 94524,94498,94596
 1.6000e+000 94645 -3.1692e+001 -8.7401e+001  1.9218e+001 38822 94524,94596,94446
 1.6000e+000 95025 -5.5009e+000 -5.7801e+001 -7.7451e+000 38418 95048,94829,94777
 1.6000e+000 95002  7.6525e+000 -5.0797e+001 -5.0561e+000 38418 95120,95048,94777
 1.6000e+000 94979  8.3415e+000 -5.3226e+001 -5.1656e+000 38418 95120,94777,94751
 1.6000e+000 94956  3.1183e+001 -5.8423e+001 -1.2798e+000 38418 95192,94881,94855
 1.6000e+000 94933 -1.8577e+001 -5.0543e+001 -6.5094e+000 38418 94777,94829,94803
 1.6000e+000 95074  1.6601e-001 -6.4849e+001  9.3453e+000 38418 94855,94829,95048
 1.6000e+000 95097  2.7102e+001 -5.4253e+001  4.7625e+000 38418 95192,94855,95048
 1.6000e+000 95146  7.9166e+000 -5.4176e+001 -4.8783e+000 38418 94907,95048,95120
 1.6000e+000 95169  7.8355e+000 -5.7503e+001 -5.4770e+000 38418 94907,95120,94751
 1.6000e+000 95218  2.2503e+001 -5.4164e+001 -3.2998e+000 38418 94907,94881,95192
 1.6000e+000 95241  1.2381e+001 -5.5252e+001  3.4536e+000 38418 94907,95192,95048
 1.6000e+000 95511  8.3290e+000 -6.9942e+001  6.8835e+000 38049 95312,95390,95364
 1.6000e+000 95488 -1.3595e+001 -8.1171e+001  1.3216e+001 38049 95312,95416,95390
 1.6000e+000 95465  1.9230e+001 -5.7014e+001  1.9363e+000 38049 95312,95364,95338
 1.6000e+000 95442  6.3674e+001 -6.9150e+001  3.1154e+001 38049 95286,95416,95312
 1.6000e+000 95808 -1.9062e+001 -8.8977e+001 -6.0775e+000 37437 95831,95586,95560
 1.6000e+000 95785 -1.3282e+001 -7.3996e+001  3.0510e-001 37437 95831,95560,95534
 1.6000e+000 95762 -1.7371e+001 -6.7844e+001  1.0598e+001 37437 95586,95664,95638
 1.6000e+000 95739 -2.2061e+001 -4.4229e+001 -5.8059e+000 37437 95534,95690,95664
 1.6000e+000 95716 -2.7768e+001 -6.3553e+001  4.3977e+000 37437 95586,95638,95612
 1.6000e+000 95857 -2.4751e+001 -7.4599e+001 -1.0782e+000 37437 95664,95586,95831
 1.6000e+000 95880 -1.7965e+001 -5.8772e+001  5.5967e+000 37437 95664,95831,95534
 1.6000e+000 96390 -1.4468e+001 -4.6854e+001 -4.8896e+000 36883 96413,96145,96093
 1.6000e+000 96367 -7.8505e+000 -4.4132e+001 -5.1669e+000 36883 96413,96093,96067
 1.6000e+000 96344 -8.5185e-001 -6.3970e+001 -1.3193e+000 36883 96067,96249,96171
 1.6000e+000 96321 -1.7353e+001 -4.9929e+001 -3.6700e+000 36883 96093,96145,96119
 1.6000e+000 96298 -1.9266e+001 -1.1095e+002  9.8784e+000 36883 96171,96249,96197
 1.6000e+000 96275  1.4052e+001 -8.6270e+001 -1.8757e+000 36883 96197,96249,96223
 1.6000e+000 96439 -1.3972e+001 -4.7925e+001  1.6610e+000 36883 96171,96145,96413
 1.6000e+000 96462 -7.5898e+000 -4.4942e+001  8.7028e-001 36883 96171,96413,96067
 1.6000e+000 96781  2.7276e+000 -5.0461e+001 -5.8780e+000 36215 96559,96663,96637
 1.6000e+000 96758  2.6451e+001 -4.4919e+001 -2.8093e+000 36215 96507,96663,96559
 1.6000e+000 96735  2.1472e+000 -1.2473e+001  5.4946e+000 36215 96585,96637,96611
 1.6000e+000 96712 -2.8262e+001 -5.5727e+001 -7.7772e+000 36215 96559,96637,96585
 1.6000e+000 96689  1.7034e+001 -5.4781e+001 -7.1585e+000 36215 96507,96559,96533
 1.6000e+000 97161  3.2003e+001 -1.2532e+001 -5.3846e+000 35818 97184,96965,96939
 1.6000e+000 97138  2.7087e+001 -1.7850e+001 -8.0327e+000 35818 97184,96939,96887
 1.6000e+000 97115  2.2543e+001 -3.5745e+001  6.4985e+000 35818 96965,97043,97017
 1.6000e+000 97092  1.9809e+001 -4.0038e+001 -6.4075e+000 35818 96887,96939,96913
 1.6000e+000 97069 -1.3793e+000 -2.3348e+001  6.7228e+000 35818 96965,97017,96991
 1.6000e+000 97210  3.7397e+001 -1.7180e+001 -2.2240e+000 35818 97043,96965,97184
 1.6000e+000 97233  3.3289e+001 -2.0840e+001 -4.4206e+000 35818 97043,97184,96887
 1.6000e+000 97739 -2.5923e+001 -7.6050e+001 -2.3824e+001 35214 97416,97468,97442
 1.6000e+000 97716 -2.6718e+001 -4.6275e+001 -1.2628e+001 35214 97416,97598,97468
 1.6000e+000 97693 -1.8146e+001 -4.6701e+001 -1.0928e+001 35214 97762,97520,97468
 1.6000e+000 97670 -1.8050e+001 -4.5403e+001 -8.2864e+000 35214 97762,97468,97598
 1.6000e+000 97647 -7.1277e+000 -3.0860e+001 -1.3251e+001 35214 97546,97598,97572
 1.6000e+000 97624 -1.8744e+001 -3.8867e+001 -1.3000e+001 35214 97468,97520,97494
 1.6000e+000 97788 -1.7039e+001 -4.3784e+001 -1.0388e+001 35214 97546,97520,97762
 1.6000e+000 97811 -1.7306e+001 -4.2688e+001 -7.8999e+000 35214 97546,97762,97598
 1.6000e+000 98189  4.2788e+001 -2.3567e+001  9.7763e+000 34760 98356,98212,97967
 1.6000e+000 98166  1.7626e+001 -4.4567e+001  2.5822e+000 34760 98284,98212,97941
 1.6000e+000 98143  1.1533e+001 -4.1967e+001  4.8313e+000 34760 98284,97941,97915
 1.6000e+000 98120  3.6101e+001 -4.7071e+001 -1.2392e+000 34760 98484,97993,97967
 1.6000e+000 98097  2.5995e+001 -3.5080e+001 -3.4229e+000 34760 98556,98045,98019
 1.6000e+000 98238  3.0741e+001 -4.0903e+001 -1.6416e+000 34760 98484,97967,98212
 1.6000e+000 98261  2.6668e+001 -4.2881e+001 -4.0657e+000 34760 98556,98019,98212
 1.6000e+000 98310  2.4257e+001 -4.0889e+001 -9.8574e-001 34760 98071,98212,98284
 1.6000e+000 98333  1.8693e+001 -3.4852e+001 -3.0292e-001 34760 98071,98284,97915
 1.6000e+000 98382 -3.4656e-001 -4.9753e+001 -2.4157e+000 34760 97941,98212,98356
 1.6000e+000 98510  4.5086e+001 -4.2278e+001 -4.1656e+000 34760 98019,97993,98484
 1.6000e+000 98533  3.6268e+001 -3.8906e+001 -4.0131e+000 34760 98019,98484,98212
 1.6000e+000 98582  2.6222e+001 -2.7649e+001  4.2033e-001 34760 98071,98045,98556
 1.6000e+000 98605  2.5854e+001 -3.5274e+001 -1.4599e+000 34760 98071,98556,98212
 1.6000e+000 99032 -5.9777e+000 -5.1335e+001  1.2386e+001 34156 98735,98891,98839
 1.6000e+000 99009 -4.6850e+000 -5.1022e+001  1.2236e+001 34156 98709,98891,98735
 1.6000e+000 98986  1.3874e+001 -4.2831e+001  1.2347e+001 34156 98735,98813,98787
 1.6000e+000 98963  1.3981e+001 -4.5807e+001  8.9671e+000 34156 98735,98839,98813
 1.6000e+000 98940  1.9624e+001 -7.7693e+001  1.0985e+001 34156 98735,98787,98761
 1.6000e+000 98917 -1.0446e+000 -3.8441e+001  5.2948e+000 34156 98839,98891,98865
 1.6000e+000 99231  1.6963e+001 -1.6947e+000  9.9322e+000 33766 99055,99133,99107
 1.6000e+000 99208 -3.8957e+000 -5.3359e+000  1.6321e+001 33766 99055,99159,99133
 1.6000e+000 99185 -2.0248e-001 -3.7476e+001  4.4077e+000 33766 99055,99107,99081
 1.6000e+000 99818 -8.2602e+000 -3.8474e+001 -1.0378e+000 33248 99521,99651,99573
 1.6000e+000 99795 -1.4053e+001 -3.7763e+001  4.0915e+000 33248 99521,99677,99651
 1.6000e+000 99772 -2.0097e+001 -6.2769e+001 -5.1348e+000 33248 99573,99651,99599
 1.6000e+000 99749 -1.4890e+001 -4.9505e+001  4.5353e+000 33248 99495,99677,99521
 1.6000e+000 99726 -5.2515e+000 -3.9059e+001 -1.1627e+001 33248 99599,99651,99625
 1.6000e+000 99703 -2.4526e+001 -6.1511e+001  6.3737e+000 33248 99521,99573,99547
 1.6000e+000 100196 -1.6610e+001 -4.4015e+001 -8.5522e+000 32794 100219,99948,99922
 1.6000e+000 100173 -1.6704e+001 -4.3571e+001 -4.4940e+000 32794 100219,99922,100052
 1.6000e+000 100150 -1.4216e+001 -3.9686e+001 -2.9480e+000 32794 99974,100052,100026
 1.6000e+000 100127 -2.0578e+001 -4.3646e+001 -4.1230e+000 32794 99922,100078,100052
 1.6000e+000 100104 -1.7716e+001 -5.1481e+001  5.9038e+000 32794 99974,100026,100000
 1.6000e+000 100245 -2.1290e+001 -4.6336e+001 -9.3634e+000 32794 99974,99948,100219
 1.6000e+000 100268 -1.9369e+001 -4.4811e+001 -5.0673e+000 32794 99974,100219,100052
 1.6000e+000 100418  1.9632e+001 -2.1102e+001 -1.1748e+001 32504 100571,100343,100317
 1.6000e+000 100395  2.3998e+000 -2.8828e+001 -2.9295e+000 32504 100571,100317,100441
 1.6000e+000 100467  3.8034e+001 -1.2040e+000 -2.4859e+001 32504 100291,100369,100441
 1.6000e+000 100597  2.6560e+001 -1.5252e+001 -2.6275e+001 32504 100369,100343,100571
 1.6000e+000 100620  1.8387e+001 -1.3756e+001 -1.8711e+001 32504 100369,100571,100441
 1.6000e+000 101020  1.5240e+001 -3.7792e+001  4.6213e+000 32142 100772,100902,100876
 1.6000e+000 100997  1.0356e+001 -4.2995e+001  2.3687e+000 32142 100746,100902,100772
 1.6000e+000 100974  1.0724e+001 -6.4670e+001 -1.9042e+000 32142 101043,100824,100798
 1.6000e+000 100951  1.7812e+001 -5.8697e+001  7.3780e-001 32142 101043,100798,100772
 1.6000e+000 100928 -1.9455e+001 -6.7088e+001 -2.0902e+001 32142 101115,100876,100850
 1.6000e+000 101069  1.9646e+001 -5.9586e+001 -9.3739e+000 32142 100850,100824,101043
 1.6000e+000 101092 -2.9814e+000 -6.9461e+001 -1.1320e+001 32142 101115,100850,101043
 1.6000e+000 101141  1.0376e+000 -5.5163e+001 -9.5293e+000 32142 100772,100876,101115
 1.6000e+000 101164  1.3943e+001 -5.6700e+001  9.2198e-001 32142 100772,101115,101043
 1.6000e+000 101719 -1.0262e+001 -4.0792e+001  4.0085e+000 31538 101742,101477,101399
 1.6000e+000 101696 -2.1373e+001 -5.8101e+001 -4.1277e+000 31538 101814,101742,101399
 1.6000e+000 101673 -2.8806e+001 -4.8300e+001 -1.3406e+001 31538 101814,101399,101373
 1.6000e+000 101650 -1.2541e+001 -2.0768e+001  2.9674e+000 31538 101425,101477,101451
 1.6000e+000 101627 -1.1218e+001 -3.1779e+001 -2.8555e+000 31538 101399,101477,101425
 1.6000e+000 101604  5.7663e+000 -5.9231e+001  1.1977e+001 31538 101477,101529,101503
 1.6000e+000 101581 -3.1554e+000 -2.0121e+001 -5.4924e+000 31538 101347,101555,101373
 1.6000e+000 101768 -1.2994e+001 -5.9069e+001  2.1560e+000 31538 101529,101477,101742
 1.6000e+000 101791 -9.1772e+000 -6.0893e+001 -8.1133e+000 31538 101529,101742,101555
 1.6000e+000 101840 -4.4084e+000 -4.8962e+001 -7.8754e+000 31538 101555,101742,101814
 1.6000e+000 101863 -1.3997e+001 -4.0680e+001 -1.6301e+001 31538 101555,101814,101373
 1.6000e+000 102111 -2.4748e+001 -9.1142e+001  1.4616e+001 31112 101886,101990,101912
 1.6000e+000 102088  2.8957e+000 -5.3706e+001 -2.3475e+000 31112 101886,102016,101990
 1.6000e+000 102065 -2.6022e+000 -8.4890e+001  1.7566e+001 31112 101912,101990,101964
 1.6000e+000 102042 -9.4695e+000 -9.5932e+001  2.0457e+001 31112 101912,101964,101938
 1.6000e+000 102408  7.3972e+000 -3.4662e+001  7.7977e+000 30658 102431,102186,102160
 1.6000e+000 102385  5.4735e+000 -2.8721e+001  4.6536e-001 30658 102431,102160,102264
 1.6000e+000 102362  5.5090e+000 -4.6189e+001  4.4109e+000 30658 102186,102238,102212
 1.6000e+000 102339 -1.0802e+001 -3.8941e+001 -4.8374e+000 30658 102134,102264,102160
 1.6000e+000 102316  3.8262e+000 -2.5976e+001 -1.8288e+001 30658 102134,102290,102264
 1.6000e+000 102457  9.1752e+000 -4.3376e+001  6.1476e+000 30658 102238,102186,102431
 1.6000e+000 102480  6.3239e+000 -3.8802e+001 -1.4674e+000 30658 102238,102431,102264
 1.6000e+000 102681 -1.1169e+001 -6.1822e+001  5.4167e+000 30004 102704,102557,102505
 1.6000e+000 102658 -8.6316e+000 -6.9169e+001  8.7064e+000 30004 102704,102505,102609
 1.6000e+000 102635 -2.4937e+000 -5.0159e+001 -1.0353e+000 30004 102505,102557,102531
 1.6000e+000 102730 -1.1037e+001 -5.6116e+001  4.9341e+000 30004 102583,102557,102704
 1.6000e+000 102753 -7.5693e+000 -6.0885e+001  1.0295e+001 30004 102583,102704,102609
 1.6000e+000 103003  7.7178e+000 -4.5981e+001  6.6990e+000 29564 103026,102804,102778
 1.6000e+000 102980  1.1968e+001 -4.6307e+001  8.9616e-001 29564 103026,102778,102908
 1.6000e+000 102957  2.1278e+001 -3.3165e+001  3.2082e+000 29564 102856,102908,102882
 1.6000e+000 102934  1.9381e+000 -4.5359e+001  9.1696e+000 29564 102804,102856,102830
 1.6000e+000 103052  1.6060e+001 -4.2697e+001  6.8295e+000 29564 102856,102804,103026
 1.6000e+000 103075  1.6129e+001 -4.5147e+001  8.1378e-001 29564 102856,103026,102908
 1.6000e+000 103634 -2.3171e+001 -6.2808e+001 -1.6073e+001 29160 103657,103418,103392
 1.6000e+000 103611 -2.1407e+001 -5.9627e+001 -9.9625e+000 29160 103657,103392,103314
 1.6000e+000 103588 -5.1354e+000 -5.7798e+001 -1.4795e+001 29160 103314,103392,103366
 1.6000e+000 103565 -1.4461e+001 -6.6720e+001 -1.0713e+001 29160 103314,103366,103340
 1.6000e+000 103542 -3.3161e+001 -5.6438e+001 -1.3020e+001 29160 103262,103444,103314
 1.6000e+000 103519 -4.2146e+001 -6.8153e+001 -2.5461e+001 29160 103262,103314,103288
 1.6000e+000 103496 -2.0960e+001 -5.9658e+001 -9.7267e+000 29160 103262,103470,103444
 1.6000e+000 103683 -3.2207e+001 -6.9568e+001 -2.2094e+001 29160 103444,103418,103657
 1.6000e+000 103706 -2.5151e+001 -5.9441e+001 -1.5101e+001 29160 103444,103657,103314
 1.6000e+000 104035  1.6409e+001 -3.9050e+001  6.3726e+000 28770 103836,103914,103862
 1.6000e+000 104012  7.1605e+000 -4.0658e+001  6.9417e+000 28770 103810,103914,103836
 1.6000e+000 103989  3.4568e+001 -3.5134e+001  1.1449e+001 28770 103810,103940,103914
 1.6000e+000 103966  2.1096e+001 -2.4330e+001  8.2342e+000 28770 103862,103914,103888
 1.6000e+000 104185  5.9700e+000 -6.3465e+001 -7.5460e-001 28366 104208,104110,104084
 1.6000e+000 104162  2.2908e+001 -4.2785e+001  9.7300e+000 28366 104280,104208,104084
 1.6000e+000 104234  1.9923e+001 -5.0692e+001 -1.6603e+000 28366 104610,104208,104136
 1.6000e+000 104257 -6.4387e+000 -6.0973e+001  2.3038e+000 28366 104538,104410,104208
 1.6000e+000 104306 -1.3335e+001 -6.1734e+001  2.1847e+000 28366 104538,104208,104280
 1.6000e+000 104436  7.8458e+000 -5.0754e+001 -6.3469e+000 28366 104136,104208,104410
 1.6000e+000 104564 -1.3703e+001 -6.0688e+001 -1.4231e+000 28366 104058,104410,104538
 1.6000e+000 104587 -1.7905e+001 -5.9839e+001 -2.0172e+000 28366 104058,104538,104280
 1.6000e+000 104636 -1.6912e+000 -5.9589e+001 -5.2025e-001 28366 104110,104208,104610
 1.6000e+000 105349  1.1136e+001 -5.3129e+001 -6.5456e+000 27976 105516,105372,105107
 1.6000e+000 105326 -5.0208e+000 -4.5127e+001  3.9535e+000 27976 105588,105372,105055
 1.6000e+000 105303 -2.2079e+001 -4.7647e+001 -2.0432e+001 27976 105444,105159,105133
 1.6000e+000 105280  2.4661e+001 -6.3030e+001  1.8213e+000 27976 105516,105107,105081
 1.6000e+000 105257 -2.3633e+000 -5.1352e+001  8.9101e+000 27976 105588,105055,105029
 1.6000e+000 105234  2.4152e+000 -3.0943e+001  1.1493e+000 27976 105003,105185,105159
 1.6000e+000 105211 -2.3641e+000 -1.7377e+001  1.0437e+001 27976 104977,105185,105003
 1.6000e+000 105398  3.0333e+001 -4.7974e+001 -1.6454e+001 27976 105133,105107,105372
 1.6000e+000 105421 -3.2407e+000 -6.0991e+001 -1.2590e+001 27976 105444,105133,105372
 1.6000e+000 105470 -3.9320e+000 -2.4200e+001 -1.1138e+001 27976 105003,105159,105444
 1.6000e+000 105493  8.8874e+000 -4.0274e+001 -7.2181e+000 27976 105003,105444,105372
 1.6000e+000 105542  2.1135e+001 -4.1859e+001  1.0672e+000 27976 105055,105372,105516
 1.6000e+000 105565  3.8040e+001 -5.1599e+001  8.9914e+000 27976 105055,105516,105081
 1.6000e+000 105614 -1.0051e+001 -5.1111e+001  6.7731e+000 27976 105003,105372,105588
 1.6000e+000 105637 -8.6991e+000 -5.7503e+001  1.2079e+001 27976 105003,105588,105029
 1.6000e+000 106143  1.0616e+001 -6.8507e+001 -5.4254e-001 27664 106166,105846,105820
 1.6000e+000 106120  5.2105e+000 -6.0682e+001  2.9993e+000 27664 106310,106166,105820
 1.6000e+000 106097  1.3004e+001 -5.5609e+001 -1.0449e+001 27664 106382,106238,105950
 1.6000e+000 106074  1.9767e+001 -6.6838e+001  9.3844e+000 27664 106310,105820,106002
 1.6000e+000 106051  2.5975e+001 -4.9602e+001 -8.8434e+000 27664 106382,105950,105924
 1.6000e+000 106028  5.9288e+000 -1.1278e+002 -6.4782e+000 27664 105846,105898,105872
 1.6000e+000 106192 -4.7239e+000 -8.4024e+001 -1.5883e+001 27664 105898,105846,106166
 1.6000e+000 106215  1.0602e+001 -6.0442e+001 -6.0795e-001 27664 106238,105898,106166
 1.6000e+000 106264 -1.6379e+001 -6.4675e+001 -1.2894e+001 27664 105976,105950,106238
 1.6000e+000 106287  7.7969e+000 -6.4942e+001  1.0614e+000 27664 105976,106238,106166
 1.6000e+000 106336  1.9204e+001 -5.2941e+001  1.2366e+001 27664 105976,106166,106310
 1.6000e+000 106359  3.4802e+001 -5.8882e+001  1.8516e+001 27664 105976,106310,106002
 1.6000e+000 106408  6.2538e+000 -4.7138e+001  4.0344e+000 27664 105898,106238,106382
 1.6000e+000 106431  1.4583e+001 -4.3513e+001  4.4727e+000 27664 105898,106382,105924
 1.6000e+000 106728  2.4505e-001 -3.4700e+001  4.2361e+000 27153 106751,106506,106454
 1.6000e+000 106705 -4.6463e-001 -3.6306e+001  4.3528e+000 27153 106751,106454,106610
 1.6000e+000 106682 -6.6096e+000 -2.4462e+001 -4.4007e+000 27153 106454,106506,106480
 1.6000e+000 106659  4.9042e+000 -3.4294e+001  8.4858e+000 27153 106532,106610,106584
 1.6000e+000 106636 -1.3483e+001 -2.0658e+001  1.0875e+001 27153 106532,106584,106558
 1.6000e+000 106777 -3.6656e-001 -3.1546e+001  5.1157e+000 27153 106532,106506,106751
 1.6000e+000 106800 -1.7368e+000 -3.4669e+001  5.4079e+000 27153 106532,106751,106610
 1.6000e+000 107180 -1.1966e+001 -5.6765e+001 -7.5011e+000 26642 107203,106984,106958
 1.6000e+000 107157 -2.5916e+001 -6.2193e+001 -5.7854e+000 26642 107203,106958,106932
 1.6000e+000 107134 -2.6748e+001 -6.1330e+001 -1.5726e+001 26642 107275,107036,107010
 1.6000e+000 107111 -1.9838e+001 -5.7834e+001 -1.6392e+001 26642 106932,107062,107036
 1.6000e+000 107088 -6.9480e-001 -4.3042e+001  5.0938e+000 26642 106906,107062,106932
 1.6000e+000 107229 -4.4570e+000 -5.1745e+001 -2.1810e+001 26642 107010,106984,107203
 1.6000e+000 107252 -2.6019e+001 -6.3527e+001 -1.7129e+001 26642 107275,107010,107203
 1.6000e+000 107301 -2.5000e+001 -6.0434e+001 -1.5298e+001 26642 106932,107036,107275
 1.6000e+000 107324 -2.3257e+001 -6.1429e+001 -1.6212e+001 26642 106932,107275,107203
 1.6000e+000 107675  4.8210e-001 -1.7588e+001  4.5903e+000 26045 107450,107554,107476
 1.6000e+000 107652  4.8694e+000 -1.3440e+001  2.5205e+000 26045 107450,107580,107554
 1.6000e+000 107629  6.8377e+000  3.8047e+001 -1.3892e+001 26045 107476,107528,107502
 1.6000e+000 107606  1.4706e+001 -1.2742e+001  4.1095e+000 26045 107476,107554,107528
 1.6000e+000 107874  2.8748e+001 -4.3868e+001  3.8354e+001 25641 107750,107802,107776
 1.6000e+000 107851  1.0565e+000 -3.3183e+001  1.1806e+001 25641 107724,107802,107750
 1.6000e+000 107828  5.7252e+000 -3.0022e+001  1.3660e+001 25641 107698,107802,107724
 1.6000e+000 108431  3.3514e+000 -6.0226e+001  9.0052e+000 25023 108526,108267,108241
 1.6000e+000 108408  1.9756e+001 -5.5772e+001  3.6595e+000 25023 108059,108267,108085
 1.6000e+000 108385  2.5779e+000 -6.2885e+001  6.7056e+000 25023 108454,108163,108111
 1.6000e+000 108362 -5.4450e+000 -6.1014e+001  1.2004e+001 25023 108454,108111,108085
 1.6000e+000 108339  2.8623e+001 -7.6501e+001  1.1998e+001 25023 108111,108163,108137
 1.6000e+000 108316 -1.7301e+001 -5.6846e+001 -8.1091e+000 25023 108163,108241,108215
 1.6000e+000 108293  2.1263e+001 -3.5636e+001  1.6257e+001 25023 108163,108215,108189
 1.6000e+000 108480  8.1564e+000 -5.4925e+001  9.5293e-001 25023 108241,108163,108454
 1.6000e+000 108503  1.7810e+000 -5.8017e+001  8.2784e+000 25023 108526,108241,108454
 1.6000e+000 108552  1.9542e+000 -6.2862e+001  8.4131e+000 25023 108085,108267,108526
 1.6000e+000 108575  2.3423e-001 -6.0865e+001  7.6212e+000 25023 108085,108526,108454
 1.6000e+000 108823  3.0375e+001 -1.8502e+001  9.8259e+000 24461 108624,108728,108650
 1.6000e+000 108800  2.2795e+001 -7.6754e+001 -5.8688e+000 24461 108598,108728,108624
 1.6000e+000 108777  3.0058e+001 -5.2846e+001  5.8942e+000 24461 108650,108728,108676
 1.6000e+000 108754 -3.1776e+000 -1.5059e+002  4.9714e+000 24461 108676,108728,108702
 1.6000e+000 109022  3.4365e+001 -3.6093e+001  2.2944e+000 24121 108872,108924,108898
 1.6000e+000 108999  2.0174e+001 -4.8005e+001 -2.8201e+000 24121 108846,108924,108872
 1.6000e+000 108976  8.4942e+000 -5.7196e+001  8.1912e+000 24121 108846,108950,108924
 1.6000e+000 109483 -2.1004e+001 -6.7442e+001 -9.9574e+000 23717 109209,109339,109235
 1.6000e+000 109460 -1.1395e+001 -7.6091e+001 -1.7293e+001 23717 109209,109365,109339
 1.6000e+000 109437 -8.1643e+000 -7.7898e+001 -4.0468e+000 23717 109287,109339,109313
 1.6000e+000 109414 -3.7132e+001 -8.2893e+001 -6.1331e-001 23717 109235,109339,109287
 1.6000e+000 109391 -4.9147e+000 -9.6102e+001  2.5143e+001 23717 109235,109287,109261
 1.6000e+000 109910 -1.2679e+001 -8.1718e+001 -4.2598e+000 23305 109613,109743,109717
 1.6000e+000 109887 -2.4541e+001 -8.5391e+001 -1.1450e+001 23305 109613,109769,109743
 1.6000e+000 109864 -3.0762e+001 -7.3417e+001 -2.3244e-001 23305 109613,109717,109639
 1.6000e+000 109841 -1.2382e+001 -6.8524e+001 -6.0192e+000 23305 109587,109769,109613
 1.6000e+000 109818  6.7990e+000 -5.7144e+001 -8.0725e+000 23305 109639,109717,109691
 1.6000e+000 109795 -8.3324e+000 -7.4481e+001  5.5772e+000 23305 109639,109691,109665
 1.6000e+000 110180 -1.6487e+001 -5.4890e+001  5.3907e-001 22851 110007,110059,110033
 1.6000e+000 110157 -3.0984e+001 -9.0369e+001  2.1847e+000 22851 109981,110059,110007
 1.6000e+000 110134 -3.8894e+001 -9.6679e+001 -8.7650e-001 22851 109955,110059,109981
 1.6000e+000 110111 -1.6942e+001 -1.0150e+002 -1.0751e+001 22851 109955,110085,110059
 1.6000e+000 110737  4.2440e+000 -5.9825e+001 -2.7637e+000 22333 110760,110469,110391
 1.6000e+000 110714  8.5581e+000 -5.6655e+001 -4.1476e+000 22333 110760,110391,110365
 1.6000e+000 110691  1.5075e+001 -5.4309e+001 -3.0324e+000 22333 110832,110521,110469
 1.6000e+000 110668  2.4831e+001 -1.0054e+002 -1.5482e+000 22333 110417,110469,110443
 1.6000e+000 110645 -1.0078e+001 -9.3304e+001 -1.9675e+000 22333 110391,110469,110417
 1.6000e+000 110622  2.7611e+001 -5.0305e+001  7.4986e-002 22333 110469,110521,110495
 1.6000e+000 110599  5.8609e+000 -4.4713e+001 -1.2107e+001 22333 110365,110573,110547
 1.6000e+000 110786  8.9676e+000 -5.3403e+001 -6.6646e-001 22333 110832,110469,110760
 1.6000e+000 110809 -2.0973e+000 -6.3680e+001 -1.0351e+001 22333 110547,110760,110365
 1.6000e+000 110858  3.1514e+001 -5.4426e+001 -8.1615e+000 22333 110547,110521,110832
 1.6000e+000 110881  1.6386e+001 -5.7839e+001 -8.2603e+000 22333 110547,110832,110760
 1.6000e+000 111308 -2.7630e+001 -7.4990e+001  8.6796e-001 21829 111331,111063,111011
 1.6000e+000 111285 -3.2034e+001 -7.1778e+001 -5.6836e+000 21829 111331,111011,111167
 1.6000e+000 111262 -3.1553e+001 -7.7095e+001 -1.4545e+000 21829 111403,111089,111063
 1.6000e+000 111239 -3.7348e+001 -8.7785e+001  6.0968e+000 21829 111011,111063,111037
 1.6000e+000 111216 -2.2069e+001 -5.8604e+001 -1.2675e+000 21829 110985,111167,111011
 1.6000e+000 111193 -4.3330e+001 -1.3310e+002  1.6793e+001 21829 111089,111141,111115
 1.6000e+000 111357 -3.0905e+001 -7.7791e+001 -1.5025e+000 21829 111403,111063,111331
 1.6000e+000 111380 -3.3874e+001 -7.9644e+001 -7.2829e+000 21829 111141,111331,111167
 1.6000e+000 111429 -3.4963e+001 -7.8099e+001 -1.8057e+000 21829 111141,111089,111403
 1.6000e+000 111452 -3.2365e+001 -7.7316e+001 -1.3825e+000 21829 111141,111403,111331
 1.6000e+000 112056  4.1887e+001 -5.5208e+001  1.1234e+000 21489 111687,111765,111739
 1.6000e+000 112033  2.2341e+001 -6.8276e+001  3.8279e+000 21489 112151,112079,111687
 1.6000e+000 112010  1.4474e+001 -1.1349e+002  1.9765e+000 21489 111791,111843,111817
 1.6000e+000 111987 -5.6125e+000 -9.0500e+001 -1.2315e+001 21489 112079,111843,111791
 1.6000e+000 111964  3.3519e+001 -6.1160e+001  1.0204e+001 21489 112151,111687,111661
 1.6000e+000 111941  1.6495e+000 -4.3621e+001  5.6078e+000 21489 111661,111869,111843
 1.6000e+000 111918  4.4463e+001 -5.9873e+001  9.9672e+000 21489 111687,111739,111713
 1.6000e+000 111895  9.6598e+000 -2.5214e+001 -6.2783e+000 21489 111635,111869,111661
 1.6000e+000 112105  3.5603e+000 -7.1151e+001  1.7802e+000 21489 111765,111687,112079
 1.6000e+000 112128  2.2298e+000 -7.1637e+001  2.5596e+000 21489 111765,112079,111791
 1.6000e+000 112177  4.1378e+000 -6.5758e+001 -7.1138e+000 21489 111843,112079,112151
 1.6000e+000 112200  1.3908e+001 -6.2590e+001 -2.0081e+000 21489 111843,112151,111661
 1.6000e+000 112578  1.2045e+001 -8.2502e+001  2.1618e+000 21177 112382,112434,112408
 1.6000e+000 112555  1.2386e+001 -7.6650e+001  8.1989e-001 21177 112330,112434,112382
 1.6000e+000 112532  2.3777e+001 -6.6374e+001  8.2526e+000 21177 112304,112434,112330
 1.6000e+000 112509  1.5229e+001 -8.3243e+001  0.0000e+000 21177 112330,112382,112356
 1.6000e+000 112486  4.5655e+001 -5.8321e+001  4.0653e+000 21177 112304,112460,112434
 1.6000e+000 112679  9.8759e+000 -1.0423e+002 -1.0323e+001 20666 112601,112653,112627
 1.6000e+000 112927 -1.8557e+001 -8.5470e+001 -2.1328e+000 19762 112702,112754,112728
 1.6000e+000 112904  3.4762e+001 -9.2359e+001 -1.0624e+001 19762 112702,112832,112754
 1.6000e+000 112881  1.8843e+001 -8.1022e+001  2.0282e+001 19762 112754,112832,112806
 1.6000e+000 112858  1.1506e+001 -1.1030e+002  2.6269e+001 19762 112754,112806,112780
 1.6000e+000 113297 -2.6166e-002 -8.1984e+001  5.8866e+000 19308 112974,113052,113026
 1.6000e+000 113274  9.9128e-001 -8.2017e+001  5.6278e+000 19308 112974,113156,113052
 1.6000e+000 113251 -1.0748e+001 -7.5927e+001  1.2478e+000 19308 113052,113130,113104
 1.6000e+000 113228  1.5460e+001 -5.3742e+001  1.1063e+001 19308 113052,113156,113130
 1.6000e+000 113205 -9.3098e+000 -7.7072e+001  0.0000e+000 19308 113052,113104,113078
 1.6000e+000 113182  4.5485e-001 -7.9884e+001  5.7980e+000 19308 112974,113026,113000
 1.6000e+000 113547 -2.1028e+001 -7.7234e+001 -2.5208e+000 18711 113570,113374,113348
 1.6000e+000 113524 -1.7138e+001 -8.0880e+001 -3.5587e+000 18711 113570,113348,113452
 1.6000e+000 113501 -1.4216e+001 -5.7988e+001 -1.8833e+001 18711 113322,113452,113348
 1.6000e+000 113478 -3.3028e+001 -9.6871e+001 -1.9790e+000 18711 113374,113426,113400
 1.6000e+000 113596 -2.5889e+001 -8.0632e+001 -8.9914e-001 18711 113426,113374,113570
 1.6000e+000 113619 -1.9804e+001 -8.2358e+001 -2.5036e+000 18711 113426,113570,113452
 1.6000e+000 113771 -1.2562e+001 -7.9149e+001 -2.8344e-001 18307 113670,113722,113696
 1.6000e+000 113748 -1.1559e+001 -9.4255e+001 -3.5790e+000 18307 113644,113722,113670
 1.6000e+000 113972  2.0304e+001 -7.7405e+001 -2.2410e+000 17945 113822,113874,113848
 1.6000e+000 113949 -1.4837e+001 -8.3946e+001 -1.2488e+000 17945 113822,113900,113874
 1.6000e+000 113926 -2.7760e+001 -9.7778e+001  1.5187e+001 17945 113796,113900,113822
 1.6000e+000 114075 -2.2823e+000 -5.5790e+001  3.7780e+000 17482 113997,114049,114023
 1.6000e+000 114479  1.7274e+001 -7.5065e+001  2.9072e+000 17042 114257,114361,114335
 1.6000e+000 114456  3.7759e+001 -6.5638e+001 -1.0379e+001 17042 114205,114361,114257
 1.6000e+000 114433  1.1962e+001 -8.4690e+001 -2.0607e+000 17042 114205,114257,114231
 1.6000e+000 114410  1.7206e+001 -1.1058e+002 -7.9186e+000 17042 114283,114335,114309
 1.6000e+000 114387 -1.7990e-005 -8.7360e+001 -7.0816e+000 17042 114257,114335,114283
 1.6000e+000 114879 -2.8963e+001 -8.7381e+001 -1.0821e+000 16638 114631,114683,114657
 1.6000e+000 114856  1.5849e+001 -6.7480e+001 -4.5242e+000 16638 114605,114683,114631
 1.6000e+000 114833  1.7089e+001 -4.7252e+001  1.3372e+000 16638 114605,114761,114683
 1.6000e+000 114810 -1.8162e-001 -8.3992e+001 -3.6665e+000 16638 114683,114735,114709
 1.6000e+000 114787 -1.1152e+001 -9.6790e+001 -1.0677e+001 16638 114683,114761,114735
 1.6000e+000 115078 -1.3641e+001 -6.0261e+001  4.8405e+000 16232 114954,115006,114980
 1.6000e+000 115055 -5.7477e+000 -8.1453e+001  8.0282e+000 16232 114928,115006,114954
 1.6000e+000 115032  2.0956e+001 -1.1595e+002  1.3034e+001 16232 114902,115006,114928
 1.6000e+000 115228 -3.0727e+001 -8.1104e+001 -6.8871e-001 15482 115101,115153,115127
 1.6000e+000 115205 -2.1983e+001 -7.4367e+001 -4.4340e+000 15482 115101,115179,115153
 1.6000e+000 115331 -1.3457e+000 -7.8699e+001 -1.0970e+001 15163 115253,115305,115279
 1.6000e+000 115434 -1.1843e+001 -8.8480e+001  1.2148e+001 421 115356,115408,115382
 1.7000e+000 68213 -5.9480e-001 -5.1952e+001 -2.2001e+000 67888 68112,68164,68138
 1.7000e+000 68190 -2.5497e+001 -6.2068e+001 -1.0124e+000 67888 68086,68164,68112
 1.7000e+000 68314 -1.3125e+001 -1.2077e+002  1.7000e+001 67576 68236,68288,68262
 1.7000e+000 68584 -1.4288e+001 -1.1455e+002  7.2212e+000 67378 68385,68489,68463
 1.7000e+000 68561  5.1634e+001 -8.5505e+001  2.4935e+000 67378 68359,68489,68385
 1.7000e+000 68538 -8.9365e+000 -8.9315e+001  9.4614e+000 67378 68385,68463,68411
 1.7000e+000 68515 -2.9527e+000 -5.6274e+001  7.5956e+000 67378 68411,68463,68437
 1.7000e+000 68964 -1.0251e+001 -1.0140e+002  2.0451e+001 67130 68690,68820,68716
 1.7000e+000 68941  5.2543e+001 -1.0645e+002  3.8691e+001 67130 68690,68846,68820
 1.7000e+000 68918  8.5589e+000 -6.1270e+001  1.9070e+000 67130 68742,68820,68794
 1.7000e+000 68895  2.7541e+001 -5.8102e+001  4.2195e+000 67130 68716,68820,68742
 1.7000e+000 68872  2.3623e+001 -2.5353e+001  1.4129e+000 67130 68742,68794,68768
 1.7000e+000 69065 -6.6467e+000 -7.0666e+001  1.1840e+000 66926 68987,69039,69013
 1.7000e+000 69445 -1.4200e+000 -7.0144e+001 -1.2477e+000 66614 69223,69301,69275
 1.7000e+000 69422 -9.4534e+000 -7.2783e+001 -1.9849e+000 66614 69171,69301,69223
 1.7000e+000 69399 -1.4989e+001 -7.5136e+001  6.4664e-001 66614 69171,69327,69301
 1.7000e+000 69376  7.9905e+000 -2.6135e+001  5.3172e+000 66614 69223,69275,69249
 1.7000e+000 69353 -7.4086e+000 -7.9499e+001 -2.4959e+000 66614 69171,69223,69197
 1.7000e+000 69546  1.4212e+001 -9.2486e+001  1.2870e+001 66416 69468,69520,69494
 1.7000e+000 69997  7.2149e-001 -8.2720e+001 -1.0789e+001 66104 69700,69830,69726
 1.7000e+000 69974 -4.0969e+000 -1.2508e+002 -2.6008e+001 66104 69700,69856,69830
 1.7000e+000 69951 -6.4378e+000 -6.7396e+001 -5.4792e+000 66104 69726,69804,69778
 1.7000e+000 69928 -1.9185e+000 -8.2594e+001 -7.3533e+000 66104 69726,69830,69804
 1.7000e+000 69905 -2.3793e+000 -5.4351e+001  3.3563e+000 66104 69726,69778,69752
 1.7000e+000 69882 -1.0419e+000 -2.0986e+002 -3.5445e+001 66104 69674,69856,69700
 1.7000e+000 70326 -5.0368e+000 -2.5496e+001 -8.5129e+000 65814 70349,70153,70127
 1.7000e+000 70303  2.0370e+001 -2.6713e+001 -5.6159e-001 65814 70349,70127,70101
 1.7000e+000 70280  5.1290e+001  1.9914e+000  1.9246e+001 65814 70101,70231,70205
 1.7000e+000 70257  6.0074e+001 -2.2412e+001  1.2866e+001 65814 70153,70205,70179
 1.7000e+000 70375  7.4616e+000 -2.7870e+001  9.5356e+000 65814 70205,70153,70349
 1.7000e+000 70398  4.4075e+001 -2.4664e+001  1.5160e+001 65814 70205,70349,70101
 1.7000e+000 70904  1.2363e+000 -1.4280e+001 -2.8526e+000 65502 70607,70737,70685
 1.7000e+000 70881  7.5691e+000  5.6866e+000 -1.2265e+001 65502 70581,70737,70607
 1.7000e+000 70858  6.3244e+000  2.6392e+001  1.7567e+000 65502 70581,70763,70737
 1.7000e+000 70835 -1.7900e+000 -1.5537e+001 -2.7700e+000 65502 70685,70737,70711
 1.7000e+000 70812  3.1307e+001 -2.5327e+000 -7.0451e+000 65502 70607,70659,70633
 1.7000e+000 70789  4.5105e+000 -9.1269e+000 -1.0849e+001 65502 70607,70685,70659
 1.7000e+000 71103 -1.1813e+001 -8.7935e+001 -5.5028e+000 65304 71126,70979,70953
 1.7000e+000 71080 -2.0494e+001 -8.7780e+001 -4.1119e+000 65304 71126,70953,70927
 1.7000e+000 71057 -3.2178e+001 -9.9311e+001  2.3265e+000 65304 70927,71031,71005
 1.7000e+000 71152 -2.0555e+001 -8.3394e+001 -7.9861e+000 65304 71005,70979,71126
 1.7000e+000 71175 -3.0431e+001 -8.4708e+001 -4.6065e+000 65304 71005,71126,70927
 1.7000e+000 71374  4.1726e-001 -7.6953e+001  1.6550e+000 65106 71198,71276,71224
 1.7000e+000 71351  1.4853e+001 -7.3744e+001  2.6175e+000 65106 71198,71302,71276
 1.7000e+000 71328  4.3236e+000 -6.5404e+001  1.1164e+001 65106 71224,71276,71250
 1.7000e+000 71756 -6.0574e+000 -4.8455e+001 -4.8725e+000 64652 71508,71638,71534
 1.7000e+000 71733 -5.1113e-001 -4.6000e+001  1.5729e+000 64652 71482,71638,71508
 1.7000e+000 71710 -1.2428e+001 -3.9477e+001 -6.2189e+000 64652 71534,71586,71560
 1.7000e+000 71687 -6.5100e+000 -4.0622e+001 -1.2785e+001 64652 71534,71612,71586
 1.7000e+000 71664 -2.1173e+001 -4.8367e+001 -9.9152e+000 64652 71534,71638,71612
 1.7000e+000 72085 -1.6288e+001 -5.3547e+001 -1.0404e+001 64248 71886,71964,71912
 1.7000e+000 72062  6.8324e+000 -4.3685e+001 -1.2683e+001 64248 71860,71964,71886
 1.7000e+000 72039  9.4165e-001 -5.2165e+001 -6.2709e+000 64248 71912,71964,71938
 1.7000e+000 72016 -9.4055e+000 -5.5140e+001 -6.3873e+000 64248 71860,71990,71964
 1.7000e+000 72235 -3.3921e+000 -2.1702e+001 -8.6949e+000 63858 72588,72258,72134
 1.7000e+000 72212  2.9929e+000 -5.1004e-001  6.2196e+000 63858 72330,72258,72108
 1.7000e+000 72284  8.1198e+000  3.6594e+000 -1.1266e+000 63858 72160,72134,72258
 1.7000e+000 72307 -8.3014e+000 -1.3976e+001 -8.2711e+000 63858 72460,72258,72186
 1.7000e+000 72356 -5.1176e+000 -5.0673e+000  5.5291e-002 63858 72186,72258,72330
 1.7000e+000 72486 -6.8427e-001 -1.9833e+001 -3.0673e+000 63858 72160,72258,72460
 1.7000e+000 72614  4.3048e+000 -2.4413e+001  7.6118e+000 63858 72108,72258,72588
 1.7000e+000 73248  8.4201e+000 -5.0983e+001  2.3048e+001 63404 72902,72954,72928
 1.7000e+000 73225 -1.9400e+001 -5.7954e+001  1.0584e+001 63404 73271,72954,72902
 1.7000e+000 73202 -1.4365e+001 -4.8141e+001  8.5838e+000 63404 73271,72902,73032
 1.7000e+000 73179 -1.1566e+001 -3.5045e+001 -4.1915e+000 63404 72902,73058,73032
 1.7000e+000 73156 -2.5561e+001 -6.4600e+001 -1.0407e+001 63404 72980,73032,73006
 1.7000e+000 73133 -1.5790e+001 -1.9013e+000  9.5040e+000 63404 72876,73058,72902
 1.7000e+000 73110 -2.7136e+001 -3.6129e+001  2.9364e+001 63404 72876,73084,73058
 1.7000e+000 73297 -1.3526e+001 -5.8629e+001  4.1039e+000 63404 72980,72954,73271
 1.7000e+000 73320 -1.1275e+001 -5.3805e+001  3.2071e+000 63404 72980,73271,73032
 1.7000e+000 73470 -2.2311e+001 -1.6701e+002  1.5900e+001 63014 73343,73395,73369
 1.7000e+000 73447 -7.7318e+001 -2.1772e+002 -6.9572e+000 63014 73343,73421,73395
 1.7000e+000 73929  3.2656e+001 -7.5613e+001  1.0614e+001 62702 73759,73811,73785
 1.7000e+000 73906  3.7282e+001 -7.5053e+001  6.9578e+000 62702 73655,73811,73759
 1.7000e+000 73883  1.9526e+001 -8.7869e+001 -1.2661e+000 62702 73655,73759,73681
 1.7000e+000 73860  3.4989e+001 -5.7473e+001 -2.3858e+001 62702 73681,73759,73707
 1.7000e+000 73837 -1.7727e+001 -6.9446e+001 -2.7268e+000 62702 73707,73759,73733
 1.7000e+000 74209 -3.8458e+001 -7.8275e+001 -2.5403e-001 62404 74059,74137,74085
 1.7000e+000 74186 -4.6925e+001 -1.0988e+002  1.4901e+001 62404 74033,74137,74059
 1.7000e+000 74163 -4.0774e+001 -6.2567e+001  4.3105e-001 62404 74085,74137,74111
 1.7000e+000 74408  7.6238e+000 -4.1140e+001  9.7581e-001 62000 74258,74336,74284
 1.7000e+000 74385 -2.1366e+000 -4.3465e+001  5.6371e+000 62000 74232,74336,74258
 1.7000e+000 74362 -5.4603e+000 -4.5142e+001 -3.8213e+000 62000 74284,74336,74310
 1.7000e+000 74509  1.8835e+001 -1.0116e+002  1.9329e+001 61802 74431,74483,74457
 1.7000e+000 74759 -1.5817e+001 -7.2286e+001 -2.7902e+000 61554 74782,74586,74560
 1.7000e+000 74736  1.0134e+000 -6.0892e+001  2.5038e+000 61554 74782,74560,74664
 1.7000e+000 74713 -1.3273e+001 -4.0238e+001  3.1857e+001 61554 74854,74612,74586
 1.7000e+000 74690 -5.8032e+000 -6.9650e+001 -1.4584e+000 61554 74534,74664,74560
 1.7000e+000 74808 -2.7545e+001 -6.0273e+001  6.9910e+000 61554 74854,74586,74782
 1.7000e+000 74831 -4.0427e+000 -8.1988e+001  5.3897e+000 61554 74638,74782,74664
 1.7000e+000 74880  1.8932e+001 -6.0698e+001  3.3891e+001 61554 74638,74612,74854
 1.7000e+000 74903  1.8504e+001 -5.8038e+001  1.5048e+001 61554 74638,74854,74782
 1.7000e+000 75285  3.4566e+001 -8.1019e+001 -7.3911e-002 61356 75063,75167,75115
 1.7000e+000 75262  2.4906e+001 -9.2043e+001 -1.4518e+001 61356 75037,75167,75063
 1.7000e+000 75239  4.1133e+001 -8.2780e+001 -3.9551e-001 61356 75115,75167,75141
 1.7000e+000 75216  2.7167e+001 -8.1415e+001  8.8509e-001 61356 75063,75115,75089
 1.7000e+000 75193 -2.7226e+001 -4.6466e+001  1.0770e+001 61356 75011,75167,75037
 1.7000e+000 75631  2.3114e+001 -6.5903e+001  3.4432e+000 60952 75654,75412,75360
 1.7000e+000 75608  2.4386e+001 -7.5904e+001 -8.1721e-002 60952 75654,75360,75334
 1.7000e+000 75585  1.5256e+001 -9.6011e+001  8.7568e-001 60952 75726,75438,75412
 1.7000e+000 75562  3.6812e+001 -6.6675e+001 -1.8936e+001 60952 75308,75490,75334
 1.7000e+000 75539  2.1041e+001 -6.4969e+001 -9.8460e-001 60952 75360,75412,75386
 1.7000e+000 75516 -6.6019e+000 -1.2557e+002 -1.5727e+000 60952 75438,75490,75464
 1.7000e+000 75680  2.2329e+001 -7.8383e+001  3.9140e+000 60952 75726,75412,75654
 1.7000e+000 75703  2.2459e+001 -7.5849e+001  2.8142e-001 60952 75490,75654,75334
 1.7000e+000 75752  1.3551e+001 -7.6328e+001 -3.2030e+000 60952 75490,75438,75726
 1.7000e+000 75775  1.3821e+001 -7.6329e+001 -2.3828e+000 60952 75490,75726,75654
 1.7000e+000 76155  8.0909e+000 -5.3268e+001 -6.8051e+000 60754 75933,75985,75959
 1.7000e+000 76132  2.6893e-001 -5.9092e+001  7.6313e+000 60754 75933,76037,75985
 1.7000e+000 76109  2.1340e+001 -5.2391e+001  1.5128e+000 60754 75985,76037,76011
 1.7000e+000 76086 -1.3691e+001 -4.4177e+001 -1.9671e-001 60754 75881,76037,75933
 1.7000e+000 76063 -2.7631e+001 -3.9162e+001  1.5629e+001 60754 75881,75933,75907
 1.7000e+000 76612  1.5039e+001 -3.9012e+001  8.4315e+000 60350 76635,76442,76390
 1.7000e+000 76589  4.6159e+001 -4.1204e+001  1.7537e+001 60350 76635,76390,76364
 1.7000e+000 76566  4.7963e+000 -6.3060e+001  5.1320e+000 60350 76364,76494,76468
 1.7000e+000 76543  4.6244e+001 -2.3404e+001  1.6810e+001 60350 76390,76442,76416
 1.7000e+000 76520  4.4033e+001 -1.6970e+001  2.1913e+001 60350 76338,76494,76364
 1.7000e+000 76661 -5.3529e+000 -3.8094e+001  7.6354e+000 60350 76468,76442,76635
 1.7000e+000 76684  1.5465e+001 -4.8107e+001  1.6133e+001 60350 76468,76635,76364
 1.7000e+000 76932 -1.5775e+001 -8.4407e+001  1.8853e+000 59946 76955,76733,76707
 1.7000e+000 76909 -1.5306e+001 -8.3174e+001  2.4662e+000 59946 77027,76955,76707
 1.7000e+000 76886 -1.4478e+001 -8.2657e+001  2.1409e+000 59946 77027,76707,76837
 1.7000e+000 76863 -2.7893e+000 -8.2447e+001 -4.6480e+000 59946 76733,76785,76759
 1.7000e+000 76981 -1.6509e+001 -8.4130e+001  1.0347e+000 59946 76785,76733,76955
 1.7000e+000 77004 -1.5898e+001 -8.4748e+001  2.0308e+000 59946 76785,76955,76811
 1.7000e+000 77053 -1.3964e+001 -8.3865e+001  1.6899e+000 59946 76811,76955,77027
 1.7000e+000 77076 -1.3010e+001 -8.2866e+001  1.2071e+000 59946 76811,77027,76837
 1.7000e+000 77226  1.2707e+001 -4.4437e+001  5.3371e-001 59542 77099,77151,77125
 1.7000e+000 77203  6.7966e+000 -5.9989e+001  5.2645e-001 59542 77099,77177,77151
 1.7000e+000 77427 -3.6995e+001 -6.8800e+001  1.6289e+001 59030 77450,77277,77251
 1.7000e+000 77404 -1.1334e+000 -5.0413e+001 -3.9087e+001 59030 77450,77251,77355
 1.7000e+000 77381 -1.2177e+001 -9.4696e+001  9.9322e+000 59030 77277,77329,77303
 1.7000e+000 77476  1.2476e+001 -7.1171e+001 -3.7947e+000 59030 77329,77277,77450
 1.7000e+000 77499  6.1025e+001 -6.4723e+001 -4.8280e+001 59030 77329,77450,77355
 1.7000e+000 77749 -2.6555e+001 -9.8597e+001  1.2038e+001 58426 77772,77628,77602
 1.7000e+000 77726 -1.5433e+001 -8.5303e+001  2.0055e+001 58426 77524,77654,77628
 1.7000e+000 77703 -2.2566e+001 -1.0906e+002  1.1203e+001 58426 77772,77602,77550
 1.7000e+000 77680 -1.1411e+001 -1.0347e+002  5.2106e+000 58426 77550,77602,77576
 1.7000e+000 77798 -2.3580e+001 -8.5344e+001  1.7527e+001 58426 77524,77628,77772
 1.7000e+000 77821 -2.5015e+001 -1.0061e+002  1.4645e+001 58426 77524,77772,77550
 1.7000e+000 78071 -3.9720e+001 -9.6702e+001  6.5360e+000 57922 78094,77924,77898
 1.7000e+000 78048 -5.1594e+001 -9.9593e+001 -8.1091e+000 57922 78094,77898,77872
 1.7000e+000 78025 -3.3533e+001 -8.5326e+001  5.5131e+000 57922 78166,77846,77950
 1.7000e+000 78002  4.6941e+000 -8.5299e+001  1.0927e+001 57922 77846,77976,77950
 1.7000e+000 78120 -3.0435e+001 -9.7208e+001  2.6434e+000 57922 77950,77924,78094
 1.7000e+000 78143 -3.7286e+001 -8.8032e+001  3.1749e+000 57922 78166,77950,78094
 1.7000e+000 78192 -2.7762e+001 -9.1191e+001 -3.4066e-001 57922 77872,77846,78166
 1.7000e+000 78215 -3.5029e+001 -9.7184e+001 -3.4107e+000 57922 77872,78166,78094
 1.7000e+000 78416  1.2307e+001 -8.2976e+001 -4.2385e+000 57468 78439,78292,78240
 1.7000e+000 78393  1.0395e+001 -7.7055e+001 -3.9415e+000 57468 78439,78240,78344
 1.7000e+000 78370  4.0142e+000 -1.1489e+002 -4.5324e+000 57468 78240,78292,78266
 1.7000e+000 78465  1.0954e+001 -8.5258e+001 -8.1112e+000 57468 78318,78292,78439
 1.7000e+000 78488  1.0250e+001 -8.0399e+001 -6.6113e+000 57468 78318,78439,78344
 1.7000e+000 78689  2.0826e+001 -9.4903e+001 -1.0245e+001 57014 78712,78539,78513
 1.7000e+000 78666  9.3917e+000 -9.2223e+001 -2.5627e+000 57014 78712,78513,78617
 1.7000e+000 78643  2.5998e+000 -8.9605e+001  6.8363e+000 57014 78565,78617,78591
 1.7000e+000 78738  6.1346e+000 -8.7161e+001 -1.1234e+001 57014 78565,78539,78712
 1.7000e+000 78761 -8.8384e+000 -9.1797e+001  5.9340e-001 57014 78565,78712,78617
 1.7000e+000 79241 -2.4367e+001 -7.8242e+001 -1.1848e+000 56652 79264,78895,78869
 1.7000e+000 79218 -1.0949e+001 -1.0576e+002 -1.3000e+001 56652 79264,78869,79051
 1.7000e+000 79195 -1.2461e+001 -8.8949e+001 -2.9609e+001 56652 78869,79077,79051
 1.7000e+000 79172 -1.2787e+001 -5.3454e+001 -1.9968e+000 56652 78895,78973,78947
 1.7000e+000 79149 -3.1172e+001 -1.8076e+002 -1.3145e+001 56652 78973,79051,78999
 1.7000e+000 79126 -1.1871e+001 -4.5291e+001 -3.1681e+000 56652 78895,78947,78921
 1.7000e+000 79103 -3.1208e+001 -1.3889e+002  3.6279e+001 56652 78999,79051,79025
 1.7000e+000 79290 -1.4919e+001 -6.0200e+001  9.4653e+000 56652 78973,78895,79264
 1.7000e+000 79313 -1.3411e+000 -9.0971e+001 -1.2173e+000 56652 78973,79264,79051
 1.7000e+000 79512 -7.4034e+000 -9.6350e+001  4.5446e+000 56062 79388,79440,79414
 1.7000e+000 79489 -2.7448e+001 -5.0077e+001  1.1324e+001 56062 79336,79440,79388
 1.7000e+000 79466  5.4897e+001 -8.9027e+001  2.3515e+001 56062 79336,79388,79362
 1.7000e+000 79941 -1.7334e+001 -6.5862e+001  1.8042e+001 55658 79964,79670,79644
 1.7000e+000 79918 -1.1046e+001 -6.5173e+001  1.6913e+001 55658 79964,79644,79800
 1.7000e+000 79895  6.9167e+000 -5.8497e+001  2.4289e+001 55658 80036,79696,79670
 1.7000e+000 79872 -2.6408e+000 -6.6735e+001  4.2318e+000 55658 80108,79722,79696
 1.7000e+000 79849 -1.6548e+001 -6.7941e+001 -7.7316e+000 55658 79722,79774,79748
 1.7000e+000 79826 -3.6530e-001 -6.2702e+001  5.3473e+000 55658 79618,79800,79644
 1.7000e+000 79990 -1.1436e+001 -6.7339e+001  1.8886e+001 55658 80036,79670,79964
 1.7000e+000 80013 -1.4268e+001 -6.7619e+001  1.5350e+001 55658 79774,79964,79800
 1.7000e+000 80062  6.6970e+000 -6.5953e+001  1.1492e+001 55658 80108,79696,80036
 1.7000e+000 80085 -4.9019e+000 -6.3309e+001  1.3114e+001 55658 79774,80036,79964
 1.7000e+000 80134 -1.9035e+001 -6.2704e+001  4.4386e+000 55658 79774,79722,80108
 1.7000e+000 80157 -1.4132e+001 -6.6203e+001  1.0890e+001 55658 79774,80108,80036
 1.7000e+000 80307 -2.0972e+001 -5.9272e+001  1.0024e+001 55254 80402,80330,80206
 1.7000e+000 80284 -1.9566e+001 -8.1885e+001  7.9539e+000 55254 80330,80180,80258
 1.7000e+000 80356 -2.8824e+001 -7.6901e+001  1.9678e+001 55254 80232,80206,80330
 1.7000e+000 80379  1.4175e+000 -6.3620e+001  2.2911e+001 55254 80232,80330,80258
 1.7000e+000 80428 -3.2364e+001 -7.6103e+001  3.4232e+000 55254 80180,80330,80402
 1.7000e+000 80659 -1.7994e+000 -9.4557e+001 -1.2395e+001 54850 80558,80610,80584
 1.7000e+000 80636  1.7638e+001 -8.2014e+001 -6.2236e+000 54850 80532,80610,80558
 1.7000e+000 80760  1.3340e+001 -6.1246e+001  2.3941e+000 54652 80682,80734,80708
 1.7000e+000 81164  1.3089e+001 -5.8579e+001  3.0099e+000 54248 81187,80942,80890
 1.7000e+000 81141  1.7870e+001 -6.9233e+001  2.0303e+000 54248 81187,80890,81046
 1.7000e+000 81118 -7.1640e+000 -6.3737e+001  1.1813e+001 54248 80942,81020,80994
 1.7000e+000 81095  9.5955e+000 -6.1404e+001 -1.2235e+000 54248 80890,80942,80916
 1.7000e+000 81072  1.8233e+001 -3.6153e+001  1.2326e-001 54248 80942,80994,80968
 1.7000e+000 81213  1.5572e+001 -5.2458e+001  5.1636e+000 54248 81020,80942,81187
 1.7000e+000 81236  2.2146e+001 -6.0679e+001  4.4567e+000 54248 81020,81187,81046
 1.7000e+000 81663 -1.4209e+001 -5.9747e+001  4.6476e+000 53594 81340,81444,81366
 1.7000e+000 81640 -3.6214e+001 -1.0483e+002  1.3214e+001 53594 81340,81470,81444
 1.7000e+000 81617 -1.3380e+001 -8.0634e+001 -1.9705e+001 53594 81340,81522,81470
 1.7000e+000 81594 -2.0833e+001 -3.9125e+001 -1.4847e+000 53594 81392,81444,81418
 1.7000e+000 81571 -2.1118e+001 -5.9188e+001 -4.8512e+000 53594 81366,81444,81392
 1.7000e+000 81548  2.9044e+001 -1.1084e+002  3.6113e+000 53594 81470,81522,81496
 1.7000e+000 81943 -4.9477e+000 -3.5076e+001 -3.1189e+000 53104 81966,81845,81819
 1.7000e+000 81920 -1.3251e+001 -2.8695e+001 -6.0804e+000 53104 81966,81819,81767
 1.7000e+000 81897 -1.1910e+001 -2.3900e+001 -8.1878e+000 53104 81767,81819,81793
 1.7000e+000 81992  7.3595e-001 -3.3281e+001 -6.6839e+000 53104 81871,81845,81966
 1.7000e+000 82015 -5.4440e+000 -2.4018e+001 -1.1313e+001 53104 81871,81966,81767
 1.7000e+000 82491 -4.0752e+000 -4.7439e+001 -1.4543e+001 52650 82145,82249,82171
 1.7000e+000 82468 -4.3385e+000 -5.5648e+001 -5.3588e+000 52650 82145,82301,82249
 1.7000e+000 82445 -1.7784e+001 -7.4876e+001  1.5893e+000 52650 82249,82301,82275
 1.7000e+000 82422 -3.0793e+001 -1.1210e+002 -2.4186e+001 52650 82119,82301,82145
 1.7000e+000 82399 -5.5398e+000 -2.2847e+001  5.6956e+000 52650 82171,82249,82223
 1.7000e+000 82376 -4.4012e+000 -1.0201e+002 -9.3884e+000 52650 82119,82327,82301
 1.7000e+000 82353 -1.7701e+000 -9.7882e+000 -3.9666e+000 52650 82171,82223,82197
 1.7000e+000 82739 -1.4578e+001 -2.7342e+001 -4.3902e-001 52246 82762,82540,82514
 1.7000e+000 82716 -9.6073e-001 -1.8943e+001 -5.3004e+000 52246 82762,82514,82644
 1.7000e+000 82693 -1.8704e+001 -4.1445e+001  7.4602e+000 52246 82540,82618,82592
 1.7000e+000 82670 -1.6209e+001 -3.4707e+001  3.3221e+000 52246 82540,82592,82566
 1.7000e+000 82788 -2.2820e+000 -3.8740e+001  6.2863e+000 52246 82618,82540,82762
 1.7000e+000 82811  1.1256e+001 -3.2282e+001  4.1566e+000 52246 82618,82762,82644
 1.7000e+000 83059  5.3873e+000 -5.5338e+001  2.2635e+000 51578 82860,82964,82938
 1.7000e+000 83036  6.5582e+000 -4.9981e+001 -1.4273e+001 51578 82834,82964,82860
 1.7000e+000 83013  5.6002e+000 -4.6526e+001  6.4078e+000 51578 82860,82938,82886
 1.7000e+000 82990  7.1448e+000 -4.1278e+001  5.4228e+000 51578 82886,82938,82912
 1.7000e+000 83309 -1.1154e+001 -2.2279e+001  1.6158e+001 51138 83332,83162,83136
 1.7000e+000 83286 -4.9583e+000 -3.5991e+001  7.8364e+000 51138 83332,83136,83110
 1.7000e+000 83263 -1.1105e+001 -3.4990e+001  3.7166e+000 51138 83404,83214,83188
 1.7000e+000 83240 -4.2920e-001 -1.0054e+001  7.5316e-001 51138 83084,83214,83110
 1.7000e+000 83358 -2.4318e+001 -4.1847e+001  2.4973e+001 51138 83188,83162,83332
 1.7000e+000 83381 -7.1782e+000 -4.3627e+001  1.0968e+001 51138 83404,83188,83332
 1.7000e+000 83430 -3.2778e+000 -1.1547e+001 -3.0598e-001 51138 83110,83214,83404
 1.7000e+000 83453 -3.5639e+000 -2.5782e+001  7.4755e+000 51138 83110,83404,83332
 1.7000e+000 83835  7.2145e+000 -4.5606e+001 -1.5522e+000 50734 83613,83717,83691
 1.7000e+000 83812  4.8163e+000 -5.3166e+001 -1.2576e+001 50734 83561,83717,83613
 1.7000e+000 83789  1.0381e+001 -3.6450e+001 -1.6363e+001 50734 83561,83613,83587
 1.7000e+000 83766 -5.7787e+000 -3.6447e+001 -3.1997e+000 50734 83613,83691,83639
 1.7000e+000 83743 -7.0788e+000 -3.5238e+001  8.4240e+000 50734 83639,83691,83665
 1.7000e+000 84034  1.8528e+000 -2.8913e+001 -4.4307e-001 50230 84057,83884,83858
 1.7000e+000 84011  4.6809e+000 -2.1259e+001  1.0765e+000 50230 84129,84057,83858
 1.7000e+000 83988  5.0375e+000 -1.7747e+001  5.4789e-001 50230 84129,83858,83962
 1.7000e+000 84083 -5.2209e+000 -2.8734e+001 -8.9742e+000 50230 83910,83884,84057
 1.7000e+000 84106  2.0736e+000 -1.7915e+001 -4.4304e+000 50230 83910,84057,83936
 1.7000e+000 84155  6.0280e+000 -2.5987e+001 -5.0577e-001 50230 83936,84057,84129
 1.7000e+000 84178  6.6244e+000 -2.2363e+001 -3.0000e-001 50230 83936,84129,83962
 1.7000e+000 84558  8.0920e+000 -3.3560e+001 -1.1632e+001 49768 84581,84388,84362
 1.7000e+000 84535  2.8908e+000 -3.2423e+001 -8.8845e+000 49768 84581,84362,84310
 1.7000e+000 84512  1.8486e+001 -4.1016e+001 -9.1147e+000 49768 84653,84440,84414
 1.7000e+000 84489 -3.4440e-001 -3.3285e+001 -1.1358e+001 49768 84310,84362,84336
 1.7000e+000 84466  6.7343e+001 -2.5676e+001 -1.0376e+001 49768 84284,84440,84310
 1.7000e+000 84607  2.5842e+001 -1.4271e+001 -1.9566e+001 49768 84414,84388,84581
 1.7000e+000 84630  1.6279e+001 -2.9440e+001 -8.7443e+000 49768 84653,84414,84581
 1.7000e+000 84679  1.5535e+001 -4.6825e+001 -1.0526e+001 49768 84310,84440,84653
 1.7000e+000 84702  7.6338e+000 -4.2921e+001 -1.2485e+001 49768 84310,84653,84581
 1.7000e+000 85159 -3.0827e+001 -9.8352e+001 -3.9626e+001 49192 84885,84937,84911
 1.7000e+000 85136 -3.2927e+001 -7.1928e+001 -2.7476e+001 49192 84885,85041,84937
 1.7000e+000 85113 -2.5248e+001 -5.2066e+001 -1.5036e+001 49192 84963,85041,84989
 1.7000e+000 85090 -2.7726e+001 -6.3257e+001 -2.5281e+001 49192 84937,85041,84963
 1.7000e+000 85067 -1.3330e+001 -5.5656e+001 -8.3208e+000 49192 84989,85041,85015
 1.7000e+000 85714 -1.4678e+001 -2.6147e+001  4.3206e+000 48638 85368,85498,85394
 1.7000e+000 85691 -5.8443e+000 -3.1897e+001  2.8611e-001 48638 85368,85524,85498
 1.7000e+000 85668 -2.6419e+001 -3.3043e+001  1.7492e+001 48638 85737,85420,85394
 1.7000e+000 85645 -1.7587e+001 -3.1776e+001  1.0365e+001 48638 85737,85394,85498
 1.7000e+000 85622  1.4519e+001 -3.8463e+001  2.3384e+001 48638 85446,85498,85472
 1.7000e+000 85599 -3.5575e+000 -3.1411e+001  1.5332e+000 48638 85342,85524,85368
 1.7000e+000 85576 -1.6606e+001 -3.0176e+001 -1.5173e+000 48638 85342,85550,85524
 1.7000e+000 85763 -1.3752e+001 -2.7891e+001  1.6800e+001 48638 85446,85420,85737
 1.7000e+000 85786 -1.2679e+001 -3.1080e+001  9.7928e+000 48638 85446,85737,85498
 1.7000e+000 86371 -3.8343e+000 -1.4647e+001 -3.3337e+000 48084 86100,86230,86178
 1.7000e+000 86348 -7.1545e+000 -2.1271e+001 -5.1472e+000 48084 86048,86230,86100
 1.7000e+000 86325 -1.4642e+000 -1.2820e+001  1.3937e-001 48084 86100,86178,86126
 1.7000e+000 86302  2.6520e+000  1.8055e+000 -9.7465e+000 48084 86048,86100,86074
 1.7000e+000 86279 -1.1233e+001 -2.8763e+001 -5.0690e-001 48084 86178,86230,86204
 1.7000e+000 86256 -3.0635e+000 -4.4676e+000  1.2794e+000 48084 86126,86178,86152
 1.7000e+000 86619 -1.9933e+001 -5.2334e+001 -4.9478e+000 47630 86642,86446,86420
 1.7000e+000 86596 -2.0539e+001 -5.4691e+001 -1.0844e+001 47630 86642,86420,86394
 1.7000e+000 86573 -2.3579e+001 -4.9401e+001 -1.3081e+001 47630 86394,86524,86498
 1.7000e+000 86550  1.9712e+001 -6.2696e+001  2.0757e+000 47630 86446,86498,86472
 1.7000e+000 86668 -2.2821e+001 -5.8993e+001 -5.5369e+000 47630 86498,86446,86642
 1.7000e+000 86691 -2.2491e+001 -5.9368e+001 -1.1362e+001 47630 86498,86642,86394
 1.7000e+000 87022  8.0253e+000 -7.2765e+000 -4.1041e+000 47226 87045,86875,86849
 1.7000e+000 86999 -1.7637e+000 -1.4018e+001 -8.7917e+000 47226 87045,86849,86797
 1.7000e+000 86976 -3.8760e-001 -2.7554e+000 -2.4818e+000 47226 86797,86849,86823
 1.7000e+000 86953  1.9046e+001 -1.2236e+001 -9.0648e+000 47226 86875,86927,86901
 1.7000e+000 87071  1.6765e+001 -1.8104e+001 -6.9865e+000 47226 86927,86875,87045
 1.7000e+000 87094  8.5118e+000 -2.2138e+001 -9.9854e+000 47226 86927,87045,86797
 1.7000e+000 87244 -2.2518e+000 -3.8078e+001  2.4661e+001 46814 87267,87169,87143
 1.7000e+000 87221 -2.7539e+001 -3.4417e+001  5.2420e+000 46814 87267,87143,87117
 1.7000e+000 87293 -3.3024e+000 -4.1121e+001  7.7888e+000 46814 87339,87267,87195
 1.7000e+000 87316  1.2062e+000 -2.2120e+001 -1.3687e+000 46814 87469,87267,87117
 1.7000e+000 87365  5.3116e+000 -3.1171e+001  2.1770e+001 46814 87169,87267,87339
 1.7000e+000 87495  1.5082e+000  2.0473e+000 -2.3407e+000 46814 87195,87267,87469
 1.7000e+000 88001 -1.0325e+001 -7.4470e+001  1.5647e+001 46310 88024,87834,87808
 1.7000e+000 87978 -1.8840e+001 -7.6784e+001  8.0938e+000 46310 88024,87808,87756
 1.7000e+000 87955 -1.0653e+001 -8.8931e+001  3.8758e+000 46310 88096,87730,87860
 1.7000e+000 87932 -1.9173e+001 -6.9213e+001  8.8167e+000 46310 87756,87808,87782
 1.7000e+000 87909 -8.3420e+000 -1.4000e+002  1.4875e+001 46310 87678,87860,87730
 1.7000e+000 87886 -8.6334e+000 -1.8081e+002 -1.7033e+000 46310 87678,87730,87704
 1.7000e+000 88050 -1.2620e+001 -8.0760e+001  9.5851e+000 46310 87860,87834,88024
 1.7000e+000 88073 -1.0664e+001 -7.6008e+001  7.6809e+000 46310 88096,87860,88024
 1.7000e+000 88122 -1.3283e+001 -9.5051e+001 -5.4154e-001 46310 87756,87730,88096
 1.7000e+000 88145 -2.1055e+001 -8.9895e+001  1.5467e+000 46310 87756,88096,88024
 1.7000e+000 88572 -3.7544e+000 -4.3673e+001  2.3457e+000 45856 88249,88405,88275
 1.7000e+000 88549  1.1092e+000 -5.5113e+000 -1.2416e+001 45856 88249,88431,88405
 1.7000e+000 88526 -3.4868e+000 -7.7920e+001 -1.4397e+001 45856 88327,88405,88353
 1.7000e+000 88503  1.2573e+001 -5.3081e+001 -6.9284e+000 45856 88275,88405,88327
 1.7000e+000 88480  1.3819e+001 -5.3857e+001 -3.4073e+001 45856 88353,88405,88379
 1.7000e+000 88457 -5.3102e+001 -1.6785e+002  2.0548e+001 45856 88275,88327,88301
 1.7000e+000 88950  1.1783e+001 -2.3733e+001 -1.6383e+001 45658 88973,88754,88728
 1.7000e+000 88927  3.8019e+001 -3.6148e+001 -1.1474e+001 45658 88973,88728,88676
 1.7000e+000 88904  2.9307e+001 -4.4574e+001  2.6661e+001 45658 88676,88832,88806
 1.7000e+000 88881  2.7631e+001 -5.0116e+001  4.1420e+000 45658 88676,88728,88702
 1.7000e+000 88858 -4.7505e-001 -1.9656e+001  6.3452e+000 45658 88754,88806,88780
 1.7000e+000 88999 -1.0252e+001 -2.6356e+001 -5.1657e+000 45658 88806,88754,88973
 1.7000e+000 89022  1.7718e+001 -3.4472e+001 -5.7566e+000 45658 88806,88973,88676
 1.7000e+000 89351  1.6761e+001 -4.0104e+001 -3.9728e+000 45254 89152,89230,89204
 1.7000e+000 89328  1.2447e+001 -4.1086e+001 -1.1184e+000 45254 89152,89256,89230
 1.7000e+000 89305  5.8976e+000 -4.7547e+001 -4.6847e+000 45254 89126,89256,89152
 1.7000e+000 89282  1.9752e-001 -4.6400e+001  3.2002e+000 45254 89152,89204,89178
 1.7000e+000 89523 -1.7532e+001 -5.6121e+001 -5.1557e-001 45006 89422,89474,89448
 1.7000e+000 89500 -1.2246e+001 -5.3870e+001  3.7139e+000 45006 89396,89474,89422
 1.7000e+000 89673 -4.1374e+001 -7.2230e+001  6.2936e+000 44495 89572,89624,89598
 1.7000e+000 89650 -4.4498e+001 -8.4402e+001  1.0424e+001 44495 89546,89624,89572
 1.7000e+000 90104 -1.0612e+001 -7.3819e+001 -6.2209e+000 44005 90199,90127,89937
 1.7000e+000 90081 -1.4907e+001 -6.8602e+001 -2.0638e+000 44005 90271,90127,89859
 1.7000e+000 90058 -8.0224e+000 -7.4728e+001 -6.2478e+000 44005 90199,89937,89885
 1.7000e+000 90035 -2.1874e+001 -6.0660e+001  2.0923e+000 44005 90271,89859,89807
 1.7000e+000 90012 -1.4715e+001 -8.5891e+001 -9.0379e+000 44005 89885,89937,89911
 1.7000e+000 89989 -1.3685e+001 -7.1508e+001  1.3814e+001 44005 89807,89859,89833
 1.7000e+000 90153 -1.3504e+001 -7.4100e+001 -3.6383e+000 44005 89963,89937,90127
 1.7000e+000 90176 -1.9101e+001 -8.8883e+001 -1.4307e+000 44005 89963,90127,89781
 1.7000e+000 90225 -1.7815e+001 -7.2718e+001 -4.6233e+000 44005 89859,90127,90199
 1.7000e+000 90248 -1.1622e+001 -7.1074e+001 -3.2814e+000 44005 89859,90199,89885
 1.7000e+000 90297 -2.3715e+001 -7.7315e+001 -6.9733e+000 44005 89781,90127,90271
 1.7000e+000 90320 -2.7525e+001 -6.7979e+001 -1.8901e+000 44005 89781,90271,89807
 1.7000e+000 90470 -1.0026e+001 -7.0756e+001 -4.3133e+000 43601 90493,90369,90343
 1.7000e+000 90447 -1.7412e+001 -5.6642e+001  2.0636e+000 43601 90493,90343,90421
 1.7000e+000 90519 -2.1449e+001 -9.6729e+001 -1.3248e+001 43601 90395,90369,90493
 1.7000e+000 90542 -1.6154e+001 -6.7053e+001 -5.2132e+000 43601 90395,90493,90421
 1.7000e+000 90922 -1.7538e+001 -7.1562e+001 -2.4614e-002 43154 90945,90700,90674
 1.7000e+000 90899 -1.4429e+001 -7.3379e+001 -1.5298e+001 43154 90945,90674,90648
 1.7000e+000 90876 -2.0334e+001 -4.8656e+001 -1.1986e+001 43154 90648,90778,90752
 1.7000e+000 90853 -1.2633e+001 -1.0934e+002  1.1265e-001 43154 90700,90752,90726
 1.7000e+000 90830 -1.2759e+001 -5.4073e+001 -4.5901e+000 43154 90648,90804,90778
 1.7000e+000 90971 -2.1903e+001 -8.4844e+001  2.5210e+000 43154 90752,90700,90945
 1.7000e+000 90994 -1.7706e+001 -8.1395e+001 -1.2344e+001 43154 90752,90945,90648
 1.7000e+000 91451  2.2706e+001 -6.0225e+001 -1.9111e+001 42650 91203,91255,91229
 1.7000e+000 91428  2.5909e+000 -6.8812e+001 -3.2246e-001 42650 91203,91333,91255
 1.7000e+000 91405 -6.9246e+000 -9.4841e+001 -8.5817e+000 42650 91177,91333,91203
 1.7000e+000 91382 -1.2589e+001 -1.0035e+002  4.7014e+000 42650 91255,91333,91281
 1.7000e+000 91359  2.1792e+001 -8.7648e+001  3.2452e+000 42650 91281,91333,91307
 1.7000e+000 91721 -2.2913e+001 -7.1276e+001  7.4520e+000 42288 91496,91600,91522
 1.7000e+000 91698 -1.4748e+000 -2.5646e+001 -1.4420e-001 42288 91496,91626,91600
 1.7000e+000 91675  2.0314e+001 -7.9423e+001  7.5065e+000 42288 91522,91574,91548
 1.7000e+000 91652 -1.0044e+000 -6.2839e+001  7.6643e+000 42288 91522,91600,91574
 1.7000e+000 92199 -5.3739e+001 -8.5910e+001 -4.9527e+000 41898 92222,91983,91879
 1.7000e+000 92176 -6.1129e+001 -1.0656e+002 -1.3307e+001 41898 92294,92222,91879
 1.7000e+000 92153 -7.2013e+001 -1.0653e+002 -2.0620e+001 41898 92294,91879,91853
 1.7000e+000 92130 -4.5689e+001 -4.0833e+001  7.2012e+000 41898 91879,91957,91931
 1.7000e+000 92107 -4.5330e+001 -8.2626e+001 -2.4698e+000 41898 91879,91983,91957
 1.7000e+000 92084 -5.8375e+001 -4.1774e+001  1.8731e+001 41898 91879,91931,91905
 1.7000e+000 92061 -5.1649e+001 -7.8817e+001 -1.1693e+001 41898 91827,92035,91853
 1.7000e+000 92248 -4.8936e+001 -1.1035e+002 -3.9090e-001 41898 92009,91983,92222
 1.7000e+000 92271 -4.6852e+001 -1.1382e+002 -1.3583e+001 41898 92009,92222,92035
 1.7000e+000 92320 -4.3852e+001 -1.0374e+002 -1.0581e+001 41898 92035,92222,92294
 1.7000e+000 92343 -5.1198e+001 -1.0034e+002 -1.7030e+001 41898 92035,92294,91853
 1.7000e+000 92770 -9.5183e+000 -7.1472e+001 -6.0280e+000 41437 92865,92793,92525
 1.7000e+000 92747 -1.4874e+001 -9.1141e+001 -1.3891e+000 41437 92793,92473,92629
 1.7000e+000 92724  1.1032e+001 -8.1486e+001 -1.7311e+001 41437 92865,92525,92499
 1.7000e+000 92701 -3.0900e+001 -5.8311e+001 -1.7274e+001 41437 92525,92603,92577
 1.7000e+000 92678  4.8510e+001 -8.9318e+001 -1.4834e+000 41437 92447,92629,92473
 1.7000e+000 92655 -3.6360e+001 -4.7353e+001 -1.0875e+001 41437 92525,92577,92551
 1.7000e+000 92819 -1.0641e+001 -7.4034e+001 -1.4030e+001 41437 92603,92525,92793
 1.7000e+000 92842 -3.1078e+001 -8.1530e+001 -2.2826e+001 41437 92603,92793,92629
 1.7000e+000 92891  2.7779e+001 -7.4907e+001 -5.2903e+000 41437 92473,92793,92865
 1.7000e+000 92914  5.4607e+001 -7.7329e+001 -2.0483e+001 41437 92473,92865,92499
 1.7000e+000 93243 -7.1495e+000 -1.1345e+002  5.1368e+001 41097 93044,93096,93070
 1.7000e+000 93220 -2.9717e+001 -1.1291e+002  2.1159e+001 41097 93044,93122,93096
 1.7000e+000 93197  1.2115e+001 -7.3943e+001  4.8574e+000 41097 93044,93148,93122
 1.7000e+000 93174 -1.2291e+001 -4.4833e+001  2.4803e+001 41097 93018,93148,93044
 1.7000e+000 93393  5.7183e+001 -7.8503e+001  2.3511e+000 40643 93416,93292,93344
 1.7000e+000 93370  4.2388e+001 -7.1694e+001  3.0996e-001 40643 93266,93344,93292
 1.7000e+000 93442  4.1162e+001 -8.1531e+001  7.0708e+000 40643 93318,93292,93416
 1.7000e+000 93901 -1.9111e+001 -6.3978e+001 -6.1197e-001 40132 93924,93731,93705
 1.7000e+000 93878 -2.5506e+001 -6.8240e+001 -3.0410e+000 40132 93996,93924,93705
 1.7000e+000 93855 -2.9003e+001 -7.6530e+001 -2.0222e+000 40132 93996,93705,93653
 1.7000e+000 93832 -1.4644e+001 -7.2696e+001 -4.7067e+000 40132 93653,93705,93679
 1.7000e+000 93809  1.4543e+001 -6.3237e+001 -3.7960e+000 40132 93627,93783,93757
 1.7000e+000 93950 -1.1625e+001 -7.0447e+001 -5.4732e+000 40132 93757,93731,93924
 1.7000e+000 93973 -2.3180e+001 -6.8605e+001 -4.0179e+000 40132 93757,93924,93627
 1.7000e+000 94022 -2.8112e+001 -7.2186e+001  3.3538e+000 40132 93627,93924,93996
 1.7000e+000 94045 -2.8309e+001 -7.5486e+001  3.9005e+000 40132 93627,93996,93653
 1.7000e+000 94423  3.1866e+000 -1.1166e+002 -1.4249e+001 39514 94149,94227,94175
 1.7000e+000 94400  1.2970e+001 -7.1410e+001  1.0573e+001 39514 94149,94305,94227
 1.7000e+000 94377  1.2586e+000 -1.0770e+002 -1.4365e+001 39514 94175,94227,94201
 1.7000e+000 94354  8.5721e+000 -7.9705e+001  8.4880e+000 39514 94227,94305,94279
 1.7000e+000 94331  5.1642e+000 -8.2114e+001  2.9809e+000 39514 94227,94279,94253
 1.7000e+000 94573 -5.6554e+000 -5.4492e+001 -7.9023e+000 38822 94596,94498,94472
 1.7000e+000 94550  5.5898e+000 -6.1525e+001  9.0372e+000 38822 94596,94472,94446
 1.7000e+000 94622 -1.8794e+001 -6.0451e+001 -2.9426e+000 38822 94524,94498,94596
 1.7000e+000 94645 -1.9090e+001 -7.4884e+001  1.5705e+001 38822 94524,94596,94446
 1.7000e+000 95025 -1.7212e+001 -6.7691e+001 -6.7504e-001 38418 95048,94829,94777
 1.7000e+000 95002 -1.2897e+001 -6.3435e+001  2.5289e+000 38418 95120,95048,94777
 1.7000e+000 94979 -1.3340e+001 -6.1179e+001  2.6873e+000 38418 95120,94777,94751
 1.7000e+000 94956  4.3077e+000 -6.5657e+001 -1.3278e+000 38418 95192,94881,94855
 1.7000e+000 94933 -2.1798e+001 -6.8939e+001  5.0187e-001 38418 94777,94829,94803
 1.7000e+000 95074 -1.4403e+001 -7.1205e+001  7.7975e+000 38418 94855,94829,95048
 1.7000e+000 95097  2.4654e-001 -6.2876e+001  4.1729e+000 38418 95192,94855,95048
 1.7000e+000 95146 -1.3752e+001 -5.9877e+001  2.5378e+000 38418 94907,95048,95120
 1.7000e+000 95169 -1.3143e+001 -5.6497e+001  3.2687e+000 38418 94907,95120,94751
 1.7000e+000 95218 -4.1113e+000 -5.9530e+001 -3.0502e+000 38418 94907,94881,95192
 1.7000e+000 95241 -1.4215e+001 -6.2361e+001  3.4155e+000 38418 94907,95192,95048
 1.7000e+000 95511 -7.2338e+000 -6.7940e+001  1.2222e+000 38049 95312,95390,95364
 1.7000e+000 95488 -1.1743e+001 -6.8950e+001 -1.4666e+000 38049 95312,95416,95390
 1.7000e+000 95465 -4.6432e+000 -6.0683e+001  3.2062e-001 38049 95312,95364,95338
 1.7000e+000 95442 -1.9949e+000 -6.0091e+001  2.2587e+000 38049 95286,95416,95312
 1.7000e+000 95808 -2.4088e+001 -8.7647e+001 -5.8255e+000 37437 95831,95586,95560
 1.7000e+000 95785 -1.5729e+001 -7.8492e+001 -1.8734e+000 37437 95831,95560,95534
 1.7000e+000 95762 -2.4706e+001 -7.2591e+001  9.2849e+000 37437 95586,95664,95638
 1.7000e+000 95739 -2.4095e+001 -5.1049e+001 -9.3462e+000 37437 95534,95690,95664
 1.7000e+000 95716 -3.9093e+001 -7.3269e+001  1.2596e+000 37437 95586,95638,95612
 1.7000e+000 95857 -3.0785e+001 -7.7804e+001 -7.2057e-001 37437 95664,95586,95831
 1.7000e+000 95880 -2.1556e+001 -6.7991e+001  3.4975e+000 37437 95664,95831,95534
 1.7000e+000 96390 -2.4782e+001 -5.8883e+001 -3.4891e+000 36883 96413,96145,96093
 1.7000e+000 96367 -2.2962e+001 -5.7496e+001 -1.0846e+000 36883 96413,96093,96067
 1.7000e+000 96344 -5.7389e+000 -7.2693e+001 -6.2220e+000 36883 96067,96249,96171
 1.7000e+000 96321 -2.2210e+001 -6.3869e+001 -2.3693e+000 36883 96093,96145,96119
 1.7000e+000 96298 -2.5531e+001 -1.2554e+002  1.3214e+001 36883 96171,96249,96197
 1.7000e+000 96275  1.0729e+001 -9.4302e+001 -2.7600e+000 36883 96197,96249,96223
 1.7000e+000 96439 -2.3040e+001 -5.5188e+001 -2.3324e+000 36883 96171,96145,96413
 1.7000e+000 96462 -2.2300e+001 -5.6178e+001 -8.6202e-002 36883 96171,96413,96067
 1.7000e+000 96781  2.8311e+000 -6.1758e+001 -9.1670e+000 36215 96559,96663,96637
 1.7000e+000 96758  2.9087e+001 -5.3297e+001 -4.8735e+000 36215 96507,96663,96559
 1.7000e+000 96735 -1.2385e+000 -2.7443e+001  5.6357e+000 36215 96585,96637,96611
 1.7000e+000 96712 -3.5952e+001 -7.0822e+001 -9.7603e+000 36215 96559,96637,96585
 1.7000e+000 96689  4.4070e+000 -7.3407e+001 -1.6688e+001 36215 96507,96559,96533
 1.7000e+000 97161  2.9093e+001 -1.6216e+001 -9.0334e+000 35818 97184,96965,96939
 1.7000e+000 97138  2.2983e+001 -2.1547e+001 -1.2589e+001 35818 97184,96939,96887
 1.7000e+000 97115  1.8210e+001 -4.2537e+001  4.9591e+000 35818 96965,97043,97017
 1.7000e+000 97092  9.6952e+000 -4.9554e+001 -7.8744e+000 35818 96887,96939,96913
 1.7000e+000 97069 -6.1009e+000 -3.1829e+001  4.6667e+000 35818 96965,97017,96991
 1.7000e+000 97210  3.5933e+001 -2.1009e+001 -5.6514e+000 35818 97043,96965,97184
 1.7000e+000 97233  3.0652e+001 -2.4540e+001 -8.6573e+000 35818 97043,97184,96887
 1.7000e+000 97739 -3.3802e+001 -8.1453e+001 -1.8333e+001 35214 97416,97468,97442
 1.7000e+000 97716 -3.8302e+001 -6.3518e+001 -7.3741e+000 35214 97416,97598,97468
 1.7000e+000 97693 -2.6055e+001 -5.7017e+001  2.0728e+000 35214 97762,97520,97468
 1.7000e+000 97670 -2.6796e+001 -5.9146e+001 -1.7835e+000 35214 97762,97468,97598
 1.7000e+000 97647 -1.7727e+001 -6.5966e+001 -1.1311e+000 35214 97546,97598,97572
 1.7000e+000 97624 -2.0834e+001 -5.0122e+001 -4.9914e-001 35214 97468,97520,97494
 1.7000e+000 97788 -2.7621e+001 -6.1394e+001  8.5436e-001 35214 97546,97520,97762
 1.7000e+000 97811 -2.7594e+001 -6.3124e+001 -2.7606e+000 35214 97546,97762,97598
 1.7000e+000 98189  2.6959e+001 -3.7424e+001  6.2560e+000 34760 98356,98212,97967
 1.7000e+000 98166 -7.0103e+000 -5.9358e+001 -3.3429e+000 34760 98284,98212,97941
 1.7000e+000 98143 -2.8357e+001 -4.9958e+001  4.6927e+000 34760 98284,97941,97915
 1.7000e+000 98120  2.0943e+001 -6.2150e+001 -4.1098e+000 34760 98484,97993,97967
 1.7000e+000 98097  1.5574e+001 -5.2967e+001 -9.6457e+000 34760 98556,98045,98019
 1.7000e+000 98238  1.4418e+001 -5.6292e+001 -4.8495e+000 34760 98484,97967,98212
 1.7000e+000 98261  1.7386e+001 -5.7080e+001 -1.0703e+001 34760 98556,98019,98212
 1.7000e+000 98310  1.5605e+001 -4.5627e+001 -1.5375e+001 34760 98071,98212,98284
 1.7000e+000 98333 -3.2140e+000 -2.3567e+001 -1.2714e+001 34760 98071,98284,97915
 1.7000e+000 98382 -1.8249e+001 -6.2865e+001 -5.8641e+000 34760 97941,98212,98356
 1.7000e+000 98510  3.2769e+001 -5.8505e+001 -7.5311e+000 34760 98019,97993,98484
 1.7000e+000 98533  2.1703e+001 -5.6261e+001 -7.9547e+000 34760 98019,98484,98212
 1.7000e+000 98582  1.7549e+001 -4.8780e+001 -7.5857e+000 34760 98071,98045,98556
 1.7000e+000 98605  1.8027e+001 -5.3356e+001 -9.3582e+000 34760 98071,98556,98212
 1.7000e+000 99032 -1.5256e+001 -6.6837e+001  1.4427e+001 34156 98735,98891,98839
 1.7000e+000 99009 -1.0924e+001 -6.6694e+001  1.2466e+001 34156 98709,98891,98735
 1.7000e+000 98986  7.2858e+000 -5.6069e+001  1.3140e+001 34156 98735,98813,98787
 1.7000e+000 98963  6.3250e+000 -6.0743e+001  1.0697e+001 34156 98735,98839,98813
 1.7000e+000 98940  1.2260e+001 -9.8293e+001  1.0873e+001 34156 98735,98787,98761
 1.7000e+000 98917 -8.9849e+000 -5.0875e+001  7.5342e+000 34156 98839,98891,98865
 1.7000e+000 99231  3.3888e-001 -2.2244e+001  7.0080e+000 33766 99055,99133,99107
 1.7000e+000 99208 -1.3769e+001 -2.7421e+001  1.1654e+001 33766 99055,99159,99133
 1.7000e+000 99185 -1.1927e+001 -4.8282e+001  3.1755e+000 33766 99055,99107,99081
 1.7000e+000 99818 -2.1817e+001 -5.9465e+001 -7.7056e-001 33248 99521,99651,99573
 1.7000e+000 99795 -1.9324e+001 -5.5592e+001  4.1842e+000 33248 99521,99677,99651
 1.7000e+000 99772 -3.8363e+001 -8.5916e+001 -7.8916e+000 33248 99573,99651,99599
 1.7000e+000 99749 -2.1900e+001 -6.9176e+001  3.8085e+000 33248 99495,99677,99521
 1.7000e+000 99726 -2.2071e+001 -6.5500e+001 -1.6268e+001 33248 99599,99651,99625
 1.7000e+000 99703 -3.3812e+001 -8.2804e+001  5.4597e+000 33248 99521,99573,99547
 1.7000e+000 100196 -2.0143e+001 -4.9943e+001 -6.1062e+000 32794 100219,99948,99922
 1.7000e+000 100173 -2.0707e+001 -5.0457e+001 -1.1946e+000 32794 100219,99922,100052
 1.7000e+000 100150 -2.1505e+001 -4.7415e+001  8.3414e-001 32794 99974,100052,100026
 1.7000e+000 100127 -2.5665e+001 -4.8657e+001 -1.3238e+000 32794 99922,100078,100052
 1.7000e+000 100104 -2.3674e+001 -5.9005e+001  9.8395e+000 32794 99974,100026,100000
 1.7000e+000 100245 -2.5807e+001 -5.2135e+001 -6.0216e+000 32794 99974,99948,100219
 1.7000e+000 100268 -2.4156e+001 -5.1861e+001 -8.6330e-001 32794 99974,100219,100052
 1.7000e+000 100418  1.4600e+001 -3.5367e+001 -1.4150e+001 32504 100571,100343,100317
 1.7000e+000 100395 -4.0087e+000 -4.3745e+001 -3.3951e+000 32504 100571,100317,100441
 1.7000e+000 100467  3.9287e+001 -8.9213e+000 -2.8059e+001 32504 100291,100369,100441
 1.7000e+000 100597  2.2570e+001 -2.7559e+001 -2.9351e+001 32504 100369,100343,100571
 1.7000e+000 100620  1.3939e+001 -2.5163e+001 -2.0070e+001 32504 100369,100571,100441
 1.7000e+000 101020 -1.0871e+000 -4.9564e+001  3.2915e+000 32142 100772,100902,100876
 1.7000e+000 100997 -6.8275e+000 -5.3952e+001  5.3063e-001 32142 100746,100902,100772
 1.7000e+000 100974 -3.5164e+000 -7.8429e+001 -2.8620e+000 32142 101043,100824,100798
 1.7000e+000 100951  2.0224e+000 -7.1939e+001  7.1039e-002 32142 101043,100798,100772
 1.7000e+000 100928 -3.4818e+001 -8.0392e+001 -2.3034e+001 32142 101115,100876,100850
 1.7000e+000 101069  5.9397e+000 -7.3197e+001 -1.0835e+001 32142 100850,100824,101043
 1.7000e+000 101092 -1.8010e+001 -8.3398e+001 -1.2577e+001 32142 101115,100850,101043
 1.7000e+000 101141 -1.3826e+001 -6.7004e+001 -1.1534e+001 32142 100772,100876,101115
 1.7000e+000 101164 -4.0996e-001 -6.8874e+001 -2.3531e-001 32142 100772,101115,101043
 1.7000e+000 101719 -1.7965e+001 -5.3928e+001  5.0569e+000 31538 101742,101477,101399
 1.7000e+000 101696 -3.0407e+001 -7.3088e+001 -3.9382e+000 31538 101814,101742,101399
 1.7000e+000 101673 -3.8895e+001 -6.2183e+001 -1.4471e+001 31538 101814,101399,101373
 1.7000e+000 101650 -2.0661e+001 -3.4320e+001  3.0973e+000 31538 101425,101477,101451
 1.7000e+000 101627 -1.9563e+001 -4.4477e+001 -2.2635e+000 31538 101399,101477,101425
 1.7000e+000 101604  7.7223e-001 -7.6403e+001  1.4985e+001 31538 101477,101529,101503
 1.7000e+000 101581 -5.6411e+000 -3.0416e+001 -5.7747e+000 31538 101347,101555,101373
 1.7000e+000 101768 -2.1325e+001 -7.4130e+001  3.2849e+000 31538 101529,101477,101742
 1.7000e+000 101791 -1.6421e+001 -7.5813e+001 -7.8936e+000 31538 101529,101742,101555
 1.7000e+000 101840 -1.1082e+001 -6.2937e+001 -8.0686e+000 31538 101555,101742,101814
 1.7000e+000 101863 -2.1984e+001 -5.3711e+001 -1.7630e+001 31538 101555,101814,101373
 1.7000e+000 102111 -3.0421e+001 -1.1126e+002  1.5812e+001 31112 101886,101990,101912
 1.7000e+000 102088  3.1663e-001 -6.7600e+001 -2.1638e+000 31112 101886,102016,101990
 1.7000e+000 102065 -8.5934e+000 -1.0625e+002  2.0314e+001 31112 101912,101990,101964
 1.7000e+000 102042 -1.7520e+001 -1.1951e+002  2.4209e+001 31112 101912,101964,101938
 1.7000e+000 102408 -4.0773e+000 -4.7273e+001  4.1297e+000 30658 102431,102186,102160
 1.7000e+000 102385 -1.3359e+000 -4.0803e+001 -1.9840e+000 30658 102431,102160,102264
 1.7000e+000 102362 -1.4285e-001 -5.5964e+001  3.8963e+000 30658 102186,102238,102212
 1.7000e+000 102339 -1.5739e+001 -5.0233e+001 -7.1509e+000 30658 102134,102264,102160
 1.7000e+000 102316 -8.2034e+000 -3.9310e+001 -2.2154e+001 30658 102134,102290,102264
 1.7000e+000 102457  2.0979e+000 -5.5663e+001  3.3253e+000 30658 102238,102186,102431
 1.7000e+000 102480  4.0907e+000 -5.0296e+001 -2.9100e+000 30658 102238,102431,102264
 1.7000e+000 102681 -1.7919e+001 -6.6225e+001  6.1499e+000 30004 102704,102557,102505
 1.7000e+000 102658 -1.5961e+001 -7.0383e+001  8.0164e+000 30004 102704,102505,102609
 1.7000e+000 102635 -1.0619e+001 -5.8831e+001 -7.2377e-001 30004 102505,102557,102531
 1.7000e+000 102730 -1.7429e+001 -6.3346e+001  6.1531e+000 30004 102583,102557,102704
 1.7000e+000 102753 -1.4362e+001 -6.5665e+001  9.1600e+000 30004 102583,102704,102609
 1.7000e+000 103003 -9.8557e-001 -5.9301e+001  6.8508e+000 29564 103026,102804,102778
 1.7000e+000 102980  4.1890e+000 -5.9692e+001 -2.0151e-001 29564 103026,102778,102908
 1.7000e+000 102957  1.0364e+001 -4.2354e+001  5.8243e-001 29564 102856,102908,102882
 1.7000e+000 102934 -3.8870e+000 -5.8583e+001  9.3820e+000 29564 102804,102856,102830
 1.7000e+000 103052  9.1512e+000 -5.5326e+001  6.9867e+000 29564 102856,102804,103026
 1.7000e+000 103075  9.2376e+000 -5.8311e+001 -3.2358e-001 29564 102856,103026,102908
 1.7000e+000 103634 -3.1691e+001 -7.9375e+001 -1.9249e+001 29160 103657,103418,103392
 1.7000e+000 103611 -2.9661e+001 -7.5699e+001 -1.2224e+001 29160 103657,103392,103314
 1.7000e+000 103588 -1.1070e+001 -7.3081e+001 -1.7805e+001 29160 103314,103392,103366
 1.7000e+000 103565 -2.1152e+001 -8.1412e+001 -1.3389e+001 29160 103314,103366,103340
 1.7000e+000 103542 -4.4453e+001 -7.3777e+001 -1.6707e+001 29160 103262,103444,103314
 1.7000e+000 103519 -5.4366e+001 -8.6874e+001 -3.0244e+001 29160 103262,103314,103288
 1.7000e+000 103496 -2.7275e+001 -7.9344e+001 -1.1431e+001 29160 103262,103470,103444
 1.7000e+000 103683 -4.2100e+001 -8.7216e+001 -2.6281e+001 29160 103444,103418,103657
 1.7000e+000 103706 -3.3934e+001 -7.5440e+001 -1.8238e+001 29160 103444,103657,103314
 1.7000e+000 104035  1.0742e+001 -4.8528e+001  9.1367e+000 28770 103836,103914,103862
 1.7000e+000 104012  7.8934e-001 -5.2895e+001  7.8151e+000 28770 103810,103914,103836
 1.7000e+000 103989  3.1624e+001 -4.6287e+001  1.2464e+001 28770 103810,103940,103914
 1.7000e+000 103966  1.6937e+001 -3.8991e+001  1.1821e+001 28770 103862,103914,103888
 1.7000e+000 104185 -4.9249e+000 -7.8374e+001 -2.3812e+000 28366 104208,104110,104084
 1.7000e+000 104162  1.3910e+001 -5.6661e+001  9.7546e+000 28366 104280,104208,104084
 1.7000e+000 104234  7.6885e+000 -6.4131e+001 -3.5457e+000 28366 104610,104208,104136
 1.7000e+000 104257 -1.9355e+001 -7.4240e+001  1.4413e+000 28366 104538,104410,104208
 1.7000e+000 104306 -2.4646e+001 -7.6474e+001  2.2576e+000 28366 104538,104208,104280
 1.7000e+000 104436 -3.7508e+000 -6.2656e+001 -7.9278e+000 28366 104136,104208,104410
 1.7000e+000 104564 -2.5042e+001 -7.1718e+001 -1.5947e+000 28366 104058,104410,104538
 1.7000e+000 104587 -2.7873e+001 -7.2444e+001 -1.3516e+000 28366 104058,104538,104280
 1.7000e+000 104636 -1.6286e+001 -7.3875e+001 -1.7272e+000 28366 104110,104208,104610
 1.7000e+000 105349  6.3151e+000 -6.8348e+001 -6.6838e+000 27976 105516,105372,105107
 1.7000e+000 105326 -1.2069e+001 -5.8428e+001  4.6982e+000 27976 105588,105372,105055
 1.7000e+000 105303 -3.0133e+001 -6.1198e+001 -2.2810e+001 27976 105444,105159,105133
 1.7000e+000 105280  2.1525e+001 -8.0024e+001  3.0838e+000 27976 105516,105107,105081
 1.7000e+000 105257 -9.5715e+000 -6.4690e+001  9.5051e+000 27976 105588,105055,105029
 1.7000e+000 105234 -2.1916e+000 -4.1141e+001  5.8122e-001 27976 105003,105185,105159
 1.7000e+000 105211 -7.7483e+000 -2.5811e+001  1.1086e+001 27976 104977,105185,105003
 1.7000e+000 105398  2.8432e+001 -6.1847e+001 -1.8060e+001 27976 105133,105107,105372
 1.7000e+000 105421 -9.3730e+000 -7.6538e+001 -1.3837e+001 27976 105444,105133,105372
 1.7000e+000 105470 -1.0392e+001 -3.4629e+001 -1.2341e+001 27976 105003,105159,105444
 1.7000e+000 105493  3.9779e+000 -5.2753e+001 -7.9070e+000 27976 105003,105444,105372
 1.7000e+000 105542  1.7646e+001 -5.4634e+001  1.4826e+000 27976 105055,105372,105516
 1.7000e+000 105565  3.6291e+001 -6.6397e+001  1.0851e+001 27976 105055,105516,105081
 1.7000e+000 105614 -1.6877e+001 -6.4456e+001  7.5542e+000 27976 105003,105372,105588
 1.7000e+000 105637 -1.5627e+001 -7.0836e+001  1.2714e+001 27976 105003,105588,105029
 1.7000e+000 106143 -5.0271e+000 -8.3764e+001 -1.2926e+000 27664 106166,105846,105820
 1.7000e+000 106120 -9.4298e+000 -7.5399e+001  1.7417e+000 27664 106310,106166,105820
 1.7000e+000 106097 -6.8125e-001 -7.2275e+001 -1.2275e+001 27664 106382,106238,105950
 1.7000e+000 106074  5.4770e+000 -8.1803e+001  8.3499e+000 27664 106310,105820,106002
 1.7000e+000 106051  1.3192e+001 -6.5622e+001 -1.0298e+001 27664 106382,105950,105924
 1.7000e+000 106028 -8.2046e+000 -1.2741e+002 -6.9633e+000 27664 105846,105898,105872
 1.7000e+000 106192 -1.8565e+001 -9.8464e+001 -1.6453e+001 27664 105898,105846,106166
 1.7000e+000 106215 -4.1837e+000 -7.6710e+001 -1.6865e+000 27664 106238,105898,106166
 1.7000e+000 106264 -3.2732e+001 -8.1654e+001 -1.5614e+001 27664 105976,105950,106238
 1.7000e+000 106287 -6.3074e+000 -7.9597e+001 -5.8331e-001 27664 105976,106238,106166
 1.7000e+000 106336  4.8456e+000 -6.7330e+001  1.1260e+001 27664 105976,106166,106310
 1.7000e+000 106359  2.0802e+001 -7.3527e+001  1.7631e+001 27664 105976,106310,106002
 1.7000e+000 106408 -7.7321e+000 -6.2656e+001  3.2721e+000 27664 105898,106238,106382
 1.7000e+000 106431  1.0618e+000 -5.8743e+001  4.0050e+000 27664 105898,106382,105924
 1.7000e+000 106728 -7.3734e+000 -4.7890e+001  6.7453e+000 27153 106751,106506,106454
 1.7000e+000 106705 -7.1503e+000 -4.9818e+001  4.1306e+000 27153 106751,106454,106610
 1.7000e+000 106682 -1.4072e+001 -3.7790e+001 -1.7234e+000 27153 106454,106506,106480
 1.7000e+000 106659 -5.9441e-001 -4.6830e+001  6.9828e+000 27153 106532,106610,106584
 1.7000e+000 106636 -2.0164e+001 -3.0227e+001  1.0148e+001 27153 106532,106584,106558
 1.7000e+000 106777 -4.2431e+000 -4.5177e+001  7.8964e+000 27153 106532,106506,106751
 1.7000e+000 106800 -5.1213e+000 -4.8142e+001  4.9035e+000 27153 106532,106751,106610
 1.7000e+000 107180 -2.1544e+001 -7.4290e+001 -7.5700e+000 26642 107203,106984,106958
 1.7000e+000 107157 -3.5725e+001 -7.9687e+001 -5.3718e+000 26642 107203,106958,106932
 1.7000e+000 107134 -3.9235e+001 -8.0142e+001 -1.4847e+001 26642 107275,107036,107010
 1.7000e+000 107111 -2.7310e+001 -7.5587e+001 -1.6472e+001 26642 106932,107062,107036
 1.7000e+000 107088 -5.3259e-001 -5.6999e+001  6.8198e+000 26642 106906,107062,106932
 1.7000e+000 107229 -1.2146e+001 -6.6149e+001 -2.3416e+001 26642 107010,106984,107203
 1.7000e+000 107252 -3.7272e+001 -8.1271e+001 -1.7103e+001 26642 107275,107010,107203
 1.7000e+000 107301 -3.5853e+001 -7.8872e+001 -1.5147e+001 26642 106932,107036,107275
 1.7000e+000 107324 -3.3402e+001 -8.0069e+001 -1.6421e+001 26642 106932,107275,107203
 1.7000e+000 107675 -4.3282e+000 -2.7635e+001  5.2164e+000 26045 107450,107554,107476
 1.7000e+000 107652  3.0191e+000 -2.1042e+001  1.9768e+000 26045 107450,107580,107554
 1.7000e+000 107629  4.7825e+000  3.0464e+001 -1.4049e+001 26045 107476,107528,107502
 1.7000e+000 107606  1.4445e+001 -2.1489e+001  4.2683e+000 26045 107476,107554,107528
 1.7000e+000 107874  2.6001e+001 -5.9335e+001  4.1209e+001 25641 107750,107802,107776
 1.7000e+000 107851 -3.4495e+000 -4.7734e+001  1.2883e+001 25641 107724,107802,107750
 1.7000e+000 107828 -1.0103e+000 -4.6419e+001  1.3418e+001 25641 107698,107802,107724
 1.7000e+000 108431 -1.4128e+000 -7.2969e+001  1.0825e+001 25023 108526,108267,108241
 1.7000e+000 108408  1.7430e+001 -6.7152e+001  4.1107e+000 25023 108059,108267,108085
 1.7000e+000 108385 -2.0601e+000 -8.1508e+001  4.2153e+000 25023 108454,108163,108111
 1.7000e+000 108362 -3.4123e+000 -7.5621e+001  1.1369e+001 25023 108454,108111,108085
 1.7000e+000 108339  1.7435e+001 -9.5478e+001  9.7672e+000 25023 108111,108163,108137
 1.7000e+000 108316 -2.4167e+001 -7.2697e+001 -7.8016e+000 25023 108163,108241,108215
 1.7000e+000 108293  1.7776e+001 -4.9784e+001  1.7809e+001 25023 108163,108215,108189
 1.7000e+000 108480  3.8115e+000 -6.9181e+001  2.2550e+000 25023 108241,108163,108454
 1.7000e+000 108503 -1.6397e+000 -7.1915e+001  1.0450e+001 25023 108526,108241,108454
 1.7000e+000 108552 -1.3982e+000 -7.4467e+001  1.0871e+001 25023 108085,108267,108526
 1.7000e+000 108575 -1.6762e+000 -7.3494e+001  1.0476e+001 25023 108085,108526,108454
 1.7000e+000 108823  1.4795e+001 -3.5089e+001  9.1532e+000 24461 108624,108728,108650
 1.7000e+000 108800  7.6971e+000 -9.0437e+001 -5.7480e+000 24461 108598,108728,108624
 1.7000e+000 108777  1.3790e+001 -6.9395e+001  5.0186e+000 24461 108650,108728,108676
 1.7000e+000 108754 -1.3299e+001 -1.5946e+002  7.6280e+000 24461 108676,108728,108702
 1.7000e+000 109022 -1.4978e+001 -3.9303e+001 -7.4044e-001 24121 108872,108924,108898
 1.7000e+000 108999  1.0267e+001 -6.7516e+001 -4.7825e+000 24121 108846,108924,108872
 1.7000e+000 108976 -5.6395e+000 -7.8211e+001  5.6568e+000 24121 108846,108950,108924
 1.7000e+000 109483 -2.5839e+001 -8.1379e+001 -1.1027e+001 23717 109209,109339,109235
 1.7000e+000 109460 -1.3445e+001 -9.2223e+001 -2.0427e+001 23717 109209,109365,109339
 1.7000e+000 109437 -1.0888e+001 -9.3732e+001 -5.2267e+000 23717 109287,109339,109313
 1.7000e+000 109414 -4.6953e+001 -9.9564e+001 -6.1726e-001 23717 109235,109339,109287
 1.7000e+000 109391 -1.0950e+001 -1.1479e+002  2.8259e+001 23717 109235,109287,109261
 1.7000e+000 109910 -2.0818e+001 -9.7416e+001 -5.0417e+000 23305 109613,109743,109717
 1.7000e+000 109887 -3.2525e+001 -1.0145e+002 -9.9893e+000 23305 109613,109769,109743
 1.7000e+000 109864 -4.1980e+001 -9.1052e+001  8.8635e-002 23305 109613,109717,109639
 1.7000e+000 109841 -2.0087e+001 -8.4177e+001 -4.4345e+000 23305 109587,109769,109613
 1.7000e+000 109818  3.1725e+000 -7.1484e+001 -9.4731e+000 23305 109639,109717,109691
 1.7000e+000 109795 -1.1117e+001 -9.1117e+001  7.1347e+000 23305 109639,109691,109665
 1.7000e+000 110180 -2.0413e+001 -6.7886e+001  4.6656e-001 22851 110007,110059,110033
 1.7000e+000 110157 -3.7846e+001 -1.1003e+002  1.6398e+000 22851 109981,110059,110007
 1.7000e+000 110134 -4.6354e+001 -1.1622e+002 -1.2424e+000 22851 109955,110059,109981
 1.7000e+000 110111 -2.0432e+001 -1.1889e+002 -1.2872e+001 22851 109955,110085,110059
 1.7000e+000 110737 -6.8172e+000 -7.4674e+001 -4.1774e+000 22333 110760,110469,110391
 1.7000e+000 110714 -2.1480e-001 -7.0064e+001 -6.1993e+000 22333 110760,110391,110365
 1.7000e+000 110691  6.7692e+000 -6.8551e+001 -3.7336e+000 22333 110832,110521,110469
 1.7000e+000 110668  1.1681e+001 -1.1767e+002 -2.3590e+000 22333 110417,110469,110443
 1.7000e+000 110645 -2.1722e+001 -1.0944e+002 -3.2308e+000 22333 110391,110469,110417
 1.7000e+000 110622  1.9241e+001 -6.4538e+001 -7.1945e-001 22333 110469,110521,110495
 1.7000e+000 110599 -2.5882e+000 -6.0384e+001 -1.5109e+001 22333 110365,110573,110547
 1.7000e+000 110786  1.7217e-001 -6.7740e+001 -1.3230e+000 22333 110832,110469,110760
 1.7000e+000 110809 -1.1508e+001 -7.9397e+001 -1.2465e+001 22333 110547,110760,110365
 1.7000e+000 110858  2.5182e+001 -6.9130e+001 -9.4335e+000 22333 110547,110521,110832
 1.7000e+000 110881  8.2879e+000 -7.3389e+001 -9.8364e+000 22333 110547,110832,110760
 1.7000e+000 111308 -3.9312e+001 -9.1873e+001  9.9471e-001 21829 111331,111063,111011
 1.7000e+000 111285 -4.3692e+001 -8.8233e+001 -6.1234e+000 21829 111331,111011,111167
 1.7000e+000 111262 -4.3462e+001 -9.3991e+001 -1.4319e+000 21829 111403,111089,111063
 1.7000e+000 111239 -5.0147e+001 -1.0597e+002  6.8718e+000 21829 111011,111063,111037
 1.7000e+000 111216 -3.1017e+001 -7.5307e+001 -2.9467e-001 21829 110985,111167,111011
 1.7000e+000 111193 -5.6520e+001 -1.5681e+002  1.8855e+001 21829 111089,111141,111115
 1.7000e+000 111357 -4.2706e+001 -9.4741e+001 -1.4734e+000 21829 111403,111063,111331
 1.7000e+000 111380 -4.5857e+001 -9.7057e+001 -7.7756e+000 21829 111141,111331,111167
 1.7000e+000 111429 -4.6886e+001 -9.5107e+001 -1.6425e+000 21829 111141,111089,111403
 1.7000e+000 111452 -4.4233e+001 -9.4509e+001 -1.2843e+000 21829 111141,111403,111331
 1.7000e+000 112056  2.9707e+001 -6.9785e+001  1.0227e+000 21489 111687,111765,111739
 1.7000e+000 112033  8.6113e+000 -8.3007e+001  3.8708e+000 21489 112151,112079,111687
 1.7000e+000 112010  1.8363e+000 -1.2804e+002  1.4761e+000 21489 111791,111843,111817
 1.7000e+000 111987 -1.9153e+001 -1.0535e+002 -1.2728e+001 21489 112079,111843,111791
 1.7000e+000 111964  1.9642e+001 -7.5638e+001  1.0112e+001 21489 112151,111687,111661
 1.7000e+000 111941 -1.1033e+001 -5.7382e+001  5.5014e+000 21489 111661,111869,111843
 1.7000e+000 111918  3.0959e+001 -7.5129e+001  1.0124e+001 21489 111687,111739,111713
 1.7000e+000 111895 -4.0519e+000 -4.1422e+001 -7.8529e+000 21489 111635,111869,111661
 1.7000e+000 112105 -9.8412e+000 -8.6241e+001  1.7090e+000 21489 111765,111687,112079
 1.7000e+000 112128 -1.0553e+001 -8.6229e+001  2.1614e+000 21489 111765,112079,111791
 1.7000e+000 112177 -9.2519e+000 -8.0171e+001 -7.3076e+000 21489 111843,112079,112151
 1.7000e+000 112200  3.0436e-001 -7.6840e+001 -2.3311e+000 21489 111843,112151,111661
 1.7000e+000 112578 -2.4342e+000 -9.7165e+001  2.3514e+000 21177 112382,112434,112408
 1.7000e+000 112555 -1.4074e+000 -8.9971e+001  1.2493e+000 21177 112330,112434,112382
 1.7000e+000 112532  9.7401e+000 -8.0123e+001  8.2705e+000 21177 112304,112434,112330
 1.7000e+000 112509  2.3677e+000 -9.4760e+001  0.0000e+000 21177 112330,112382,112356
 1.7000e+000 112486  3.1728e+001 -7.1751e+001  3.9625e+000 21177 112304,112460,112434
 1.7000e+000 112679 -4.1245e+000 -1.1771e+002 -1.0018e+001 20666 112601,112653,112627
 1.7000e+000 112927 -1.9540e+001 -1.0454e+002 -3.3852e+000 19762 112702,112754,112728
 1.7000e+000 112904  3.8451e+001 -1.0446e+002 -1.4262e+001 19762 112702,112832,112754
 1.7000e+000 112881  2.8080e+000 -1.0650e+002  3.9249e+001 19762 112754,112832,112806
 1.7000e+000 112858 -1.8688e+001 -1.3310e+002  2.2377e+001 19762 112754,112806,112780
 1.7000e+000 113297 -5.9277e+000 -1.0141e+002  7.1815e+000 19308 112974,113052,113026
 1.7000e+000 113274 -2.9842e+000 -1.0010e+002  6.2323e+000 19308 112974,113156,113052
 1.7000e+000 113251 -1.5392e+001 -9.5656e+001  5.5923e-001 19308 113052,113130,113104
 1.7000e+000 113228  1.3227e+001 -6.8775e+001  1.2536e+001 19308 113052,113156,113130
 1.7000e+000 113205 -1.4139e+001 -9.5996e+001  0.0000e+000 19308 113052,113104,113078
 1.7000e+000 113182 -7.0826e+000 -1.0008e+002  5.9626e+000 19308 112974,113026,113000
 1.7000e+000 113547 -2.8863e+001 -9.5094e+001 -2.8253e+000 18711 113570,113374,113348
 1.7000e+000 113524 -2.5087e+001 -9.9065e+001 -3.9857e+000 18711 113570,113348,113452
 1.7000e+000 113501 -2.1583e+001 -7.2303e+001 -2.1648e+001 18711 113322,113452,113348
 1.7000e+000 113478 -4.1205e+001 -1.1705e+002 -2.3218e+000 18711 113374,113426,113400
 1.7000e+000 113596 -3.3280e+001 -9.8970e+001 -1.1769e+000 18711 113426,113374,113570
 1.7000e+000 113619 -2.7486e+001 -1.0112e+002 -2.9982e+000 18711 113426,113570,113452
 1.7000e+000 113771 -1.7555e+001 -9.9434e+001 -1.4392e+000 18307 113670,113722,113696
 1.7000e+000 113748 -1.5541e+001 -1.1236e+002 -4.0636e+000 18307 113644,113722,113670
 1.7000e+000 113972  5.8832e+000 -9.7788e+001 -6.8573e-001 17945 113822,113874,113848
 1.7000e+000 113949 -1.9825e+001 -1.0358e+002 -6.3429e-001 17945 113822,113900,113874
 1.7000e+000 113926 -3.2447e+001 -1.1659e+002  1.5907e+001 17945 113796,113900,113822
 1.7000e+000 114075 -4.1068e+000 -7.4530e+001  5.2610e+000 17482 113997,114049,114023
 1.7000e+000 114479  6.2101e+000 -9.5242e+001 -1.2937e+000 17042 114257,114361,114335
 1.7000e+000 114456  2.3719e+001 -7.8293e+001 -1.0955e+001 17042 114205,114361,114257
 1.7000e+000 114433  5.9820e+000 -1.0078e+002 -1.0538e+000 17042 114205,114257,114231
 1.7000e+000 114410  1.4033e+001 -1.3469e+002 -9.5136e+000 17042 114283,114335,114309
 1.7000e+000 114387 -6.8329e+000 -1.0624e+002 -8.5460e+000 17042 114257,114335,114283
 1.7000e+000 114879 -4.2607e+001 -1.0315e+002 -1.3476e+000 16638 114631,114683,114657
 1.7000e+000 114856  3.8374e+000 -8.2536e+001 -4.8818e+000 16638 114605,114683,114631
 1.7000e+000 114833  6.2941e+000 -6.1234e+001  9.4171e-002 16638 114605,114761,114683
 1.7000e+000 114810 -9.2559e+000 -9.8700e+001 -3.6201e+000 16638 114683,114735,114709
 1.7000e+000 114787 -2.2530e+001 -1.1339e+002 -1.1558e+001 16638 114683,114761,114735
 1.7000e+000 115078 -2.3353e+001 -7.4591e+001  5.1273e+000 16232 114954,115006,114980
 1.7000e+000 115055 -1.5770e+001 -9.7842e+001  8.8220e+000 16232 114928,115006,114954
 1.7000e+000 115032  1.1061e+001 -1.3524e+002  1.3587e+001 16232 114902,115006,114928
 1.7000e+000 115228 -4.2905e+001 -9.8684e+001 -5.1348e-001 15482 115101,115153,115127
 1.7000e+000 115205 -3.0933e+001 -9.0157e+001 -4.9694e+000 15482 115101,115179,115153
 1.7000e+000 115331 -1.5283e+001 -9.3577e+001 -1.1455e+001 15163 115253,115305,115279
 1.7000e+000 115434 -2.4542e+001 -1.0365e+002  1.2162e+001 421 115356,115408,115382
 1.8000e+000 68213  5.5649e-001 -5.8692e+001 -2.1352e+000 67888 68112,68164,68138
 1.8000e+000 68190 -2.3614e+001 -6.8527e+001 -9.8966e-001 67888 68086,68164,68112
 1.8000e+000 68314 -1.3130e+001 -1.3474e+002  1.8491e+001 67576 68236,68288,68262
 1.8000e+000 68584 -1.5948e+001 -1.3180e+002  8.6053e+000 67378 68385,68489,68463
 1.8000e+000 68561  6.2324e+001 -9.7058e+001  2.4185e+000 67378 68359,68489,68385
 1.8000e+000 68538 -9.5612e+000 -1.0179e+002  1.1277e+001 67378 68385,68463,68411
 1.8000e+000 68515 -1.4394e+000 -6.3574e+001  8.5396e+000 67378 68411,68463,68437
 1.8000e+000 68964 -1.4772e+001 -1.2266e+002  2.4135e+001 67130 68690,68820,68716
 1.8000e+000 68941  6.0819e+001 -1.2790e+002  4.6184e+001 67130 68690,68846,68820
 1.8000e+000 68918  6.8232e+000 -7.5149e+001  2.3073e+000 67130 68742,68820,68794
 1.8000e+000 68895  2.8494e+001 -7.2182e+001  5.5237e+000 67130 68716,68820,68742
 1.8000e+000 68872  2.4308e+001 -3.4296e+001  8.0976e-001 67130 68742,68794,68768
 1.8000e+000 69065 -1.1500e+001 -7.9551e+001  2.3677e+000 66926 68987,69039,69013
 1.8000e+000 69445 -3.7419e+000 -7.8572e+001 -1.0548e+000 66614 69223,69301,69275
 1.8000e+000 69422 -1.1370e+001 -8.0588e+001 -2.5158e+000 66614 69171,69301,69223
 1.8000e+000 69399 -1.6723e+001 -8.1974e+001  6.3578e-002 66614 69171,69327,69301
 1.8000e+000 69376  6.5680e+000 -3.3138e+001  5.0565e+000 66614 69223,69275,69249
 1.8000e+000 69353 -7.6987e+000 -8.7909e+001 -2.7128e+000 66614 69171,69223,69197
 1.8000e+000 69546  1.3019e+001 -1.1158e+002  1.5087e+001 66416 69468,69520,69494
 1.8000e+000 69997  8.4106e-001 -9.7105e+001 -1.2325e+001 66104 69700,69830,69726
 1.8000e+000 69974 -5.3748e+000 -1.4725e+002 -3.0388e+001 66104 69700,69856,69830
 1.8000e+000 69951 -8.2301e+000 -7.9727e+001 -6.5189e+000 66104 69726,69804,69778
 1.8000e+000 69928 -2.1083e+000 -9.6779e+001 -8.3976e+000 66104 69726,69830,69804
 1.8000e+000 69905 -4.0746e+000 -6.5099e+001  3.4603e+000 66104 69726,69778,69752
 1.8000e+000 69882 -1.6768e+000 -2.4423e+002 -4.1309e+001 66104 69674,69856,69700
 1.8000e+000 70326 -6.2779e+000 -3.1902e+001 -1.0752e+001 65814 70349,70153,70127
 1.8000e+000 70303  2.5058e+001 -3.3570e+001 -8.0480e-001 65814 70349,70127,70101
 1.8000e+000 70280  6.2542e+001  1.0691e+000  2.3402e+001 65814 70101,70231,70205
 1.8000e+000 70257  7.1666e+001 -2.6054e+001  1.5895e+001 65814 70153,70205,70179
 1.8000e+000 70375  9.1499e+000 -3.4367e+001  1.1238e+001 65814 70205,70153,70349
 1.8000e+000 70398  5.4032e+001 -3.0757e+001  1.8355e+001 65814 70205,70349,70101
 1.8000e+000 70904  4.9622e-001 -1.5720e+001 -3.8307e+000 65502 70607,70737,70685
 1.8000e+000 70881  8.2777e+000  7.0233e+000 -1.4543e+001 65502 70581,70737,70607
 1.8000e+000 70858  6.8396e+000  3.1212e+001  1.8033e+000 65502 70581,70763,70737
 1.8000e+000 70835 -4.4732e+000 -1.7896e+001 -4.1281e+000 65502 70685,70737,70711
 1.8000e+000 70812  3.3119e+001 -3.0559e+000 -1.0703e+001 65502 70607,70659,70633
 1.8000e+000 70789  5.6437e+000 -6.7299e+000 -1.3477e+001 65502 70607,70685,70659
 1.8000e+000 71103 -1.2842e+001 -9.9691e+001 -5.8304e+000 65304 71126,70979,70953
 1.8000e+000 71080 -2.3042e+001 -9.8405e+001 -4.4584e+000 65304 71126,70953,70927
 1.8000e+000 71057 -3.4219e+001 -1.1064e+002  3.7544e+000 65304 70927,71031,71005
 1.8000e+000 71152 -2.2720e+001 -9.6411e+001 -8.7934e+000 65304 71005,70979,71126
 1.8000e+000 71175 -3.3634e+001 -9.5971e+001 -5.2123e+000 65304 71005,71126,70927
 1.8000e+000 71374  2.9382e+000 -8.6792e+001  2.8359e+000 65106 71198,71276,71224
 1.8000e+000 71351  1.5510e+001 -8.6257e+001  2.5457e+000 65106 71198,71302,71276
 1.8000e+000 71328  8.5342e+000 -7.1213e+001  1.2588e+001 65106 71224,71276,71250
 1.8000e+000 71756 -4.0344e+000 -5.4216e+001 -5.9074e+000 64652 71508,71638,71534
 1.8000e+000 71733 -7.3122e-001 -5.2739e+001  6.9282e-001 64652 71482,71638,71508
 1.8000e+000 71710 -1.1012e+001 -4.5448e+001 -8.0738e+000 64652 71534,71586,71560
 1.8000e+000 71687 -4.9681e+000 -4.6646e+001 -1.4795e+001 64652 71534,71612,71586
 1.8000e+000 71664 -2.2833e+001 -5.5174e+001 -1.2254e+001 64652 71534,71638,71612
 1.8000e+000 72085 -1.8375e+001 -6.0775e+001 -1.2101e+001 64248 71886,71964,71912
 1.8000e+000 72062  9.4041e+000 -4.8202e+001 -1.5522e+001 64248 71860,71964,71886
 1.8000e+000 72039 -1.6003e-001 -5.9137e+001 -7.7040e+000 64248 71912,71964,71938
 1.8000e+000 72016 -9.1557e+000 -6.0258e+001 -8.4093e+000 64248 71860,71990,71964
 1.8000e+000 72235 -5.0558e+000 -2.6470e+001 -1.0434e+001 63858 72588,72258,72134
 1.8000e+000 72212  2.1878e+000 -3.9177e+000  6.5730e+000 63858 72330,72258,72108
 1.8000e+000 72284  8.8649e+000  4.7689e+000 -1.1524e+000 63858 72160,72134,72258
 1.8000e+000 72307 -1.0658e+001 -1.8217e+001 -1.0111e+001 63858 72460,72258,72186
 1.8000e+000 72356 -6.9915e+000 -8.1147e+000 -6.8326e-001 63858 72186,72258,72330
 1.8000e+000 72486 -1.6703e+000 -2.4388e+001 -4.4790e+000 63858 72160,72258,72460
 1.8000e+000 72614  1.7159e+000 -3.0637e+001  8.7763e+000 63858 72108,72258,72588
 1.8000e+000 73248  9.2124e+000 -5.6176e+001  2.3983e+001 63404 72902,72954,72928
 1.8000e+000 73225 -2.0735e+001 -6.6418e+001  1.0601e+001 63404 73271,72954,72902
 1.8000e+000 73202 -1.4439e+001 -5.6521e+001  7.9091e+000 63404 73271,72902,73032
 1.8000e+000 73179 -1.2431e+001 -4.1625e+001 -7.0255e+000 63404 72902,73058,73032
 1.8000e+000 73156 -3.4208e+001 -7.8745e+001 -2.1167e+001 63404 72980,73032,73006
 1.8000e+000 73133 -1.7763e+001 -3.5994e+000  8.6963e+000 63404 72876,73058,72902
 1.8000e+000 73110 -3.2007e+001 -4.3085e+001  3.1472e+001 63404 72876,73084,73058
 1.8000e+000 73297 -1.3646e+001 -6.6745e+001  3.7978e+000 63404 72980,72954,73271
 1.8000e+000 73320 -1.0314e+001 -6.2119e+001  2.3348e+000 63404 72980,73271,73032
 1.8000e+000 73470 -2.7220e+001 -2.0167e+002  1.9458e+001 63014 73343,73395,73369
 1.8000e+000 73447 -9.3536e+001 -2.6133e+002 -8.0138e+000 63014 73343,73421,73395
 1.8000e+000 73929  3.7394e+001 -8.2497e+001  1.2336e+001 62702 73759,73811,73785
 1.8000e+000 73906  4.1518e+001 -8.2334e+001  8.1761e+000 62702 73655,73811,73759
 1.8000e+000 73883  2.1323e+001 -9.7530e+001 -1.1534e+000 62702 73655,73759,73681
 1.8000e+000 73860  3.8798e+001 -6.2870e+001 -2.5416e+001 62702 73681,73759,73707
 1.8000e+000 73837 -2.0058e+001 -7.6875e+001 -1.8054e+000 62702 73707,73759,73733
 1.8000e+000 74209 -4.3140e+001 -8.7764e+001 -3.3027e-001 62404 74059,74137,74085
 1.8000e+000 74186 -5.1998e+001 -1.2211e+002  1.6151e+001 62404 74033,74137,74059
 1.8000e+000 74163 -4.4130e+001 -7.3431e+001  6.6788e-001 62404 74085,74137,74111
 1.8000e+000 74408  9.3951e+000 -4.6259e+001  1.0411e+000 62000 74258,74336,74284
 1.8000e+000 74385 -1.6878e+000 -4.8810e+001  6.5805e+000 62000 74232,74336,74258
 1.8000e+000 74362 -6.5516e+000 -5.1663e+001 -4.8381e+000 62000 74284,74336,74310
 1.8000e+000 74509  1.8425e+001 -1.1267e+002  2.0043e+001 61802 74431,74483,74457
 1.8000e+000 74759 -1.7726e+001 -8.1398e+001 -3.2972e+000 61554 74782,74586,74560
 1.8000e+000 74736  3.4825e-001 -6.8634e+001  2.8085e+000 61554 74782,74560,74664
 1.8000e+000 74713 -1.4225e+001 -4.4766e+001  3.3770e+001 61554 74854,74612,74586
 1.8000e+000 74690 -6.2025e+000 -7.8045e+001 -6.4944e-001 61554 74534,74664,74560
 1.8000e+000 74808 -3.0012e+001 -6.7376e+001  7.1792e+000 61554 74854,74586,74782
 1.8000e+000 74831 -4.9097e+000 -9.1198e+001  5.8394e+000 61554 74638,74782,74664
 1.8000e+000 74880  2.0178e+001 -6.8101e+001  3.6351e+001 61554 74638,74612,74854
 1.8000e+000 74903  1.9588e+001 -6.5579e+001  1.6323e+001 61554 74638,74854,74782
 1.8000e+000 75285  3.6122e+001 -9.0660e+001 -5.9401e-002 61356 75063,75167,75115
 1.8000e+000 75262  2.4652e+001 -1.0428e+002 -1.6597e+001 61356 75037,75167,75063
 1.8000e+000 75239  4.2884e+001 -9.2135e+001 -4.8541e-001 61356 75115,75167,75141
 1.8000e+000 75216  2.9178e+001 -8.9543e+001  1.8722e+000 61356 75063,75115,75089
 1.8000e+000 75193 -2.9555e+001 -5.3149e+001  1.1509e+001 61356 75011,75167,75037
 1.8000e+000 75631  2.5527e+001 -7.3098e+001  4.1412e+000 60952 75654,75412,75360
 1.8000e+000 75608  2.5378e+001 -8.4373e+001  7.5197e-002 60952 75654,75360,75334
 1.8000e+000 75585  1.6730e+001 -1.0815e+002  1.5706e+000 60952 75726,75438,75412
 1.8000e+000 75562  4.0072e+001 -7.4102e+001 -2.0466e+001 60952 75308,75490,75334
 1.8000e+000 75539  2.1715e+001 -7.2273e+001 -1.7733e+000 60952 75360,75412,75386
 1.8000e+000 75516 -6.2001e+000 -1.3931e+002 -1.9020e+000 60952 75438,75490,75464
 1.8000e+000 75680  2.5041e+001 -8.7646e+001  4.5107e+000 60952 75726,75412,75654
 1.8000e+000 75703  2.4705e+001 -8.3927e+001  1.1407e-001 60952 75490,75654,75334
 1.8000e+000 75752  1.5572e+001 -8.5456e+001 -3.2761e+000 60952 75490,75438,75726
 1.8000e+000 75775  1.5924e+001 -8.5095e+001 -2.6658e+000 60952 75490,75726,75654
 1.8000e+000 76155  1.1302e+001 -5.8967e+001 -8.0470e+000 60754 75933,75985,75959
 1.8000e+000 76132  1.0722e+000 -6.6158e+001  8.2079e+000 60754 75933,76037,75985
 1.8000e+000 76109  2.6522e+001 -5.9964e+001  1.1190e+000 60754 75985,76037,76011
 1.8000e+000 76086 -1.5437e+001 -5.0854e+001 -9.1695e-001 60754 75881,76037,75933
 1.8000e+000 76063 -3.0966e+001 -4.5797e+001  1.6559e+001 60754 75881,75933,75907
 1.8000e+000 76612  1.5361e+001 -4.4196e+001  6.2215e+000 60350 76635,76442,76390
 1.8000e+000 76589  5.1905e+001 -4.6939e+001  1.6903e+001 60350 76635,76390,76364
 1.8000e+000 76566  3.6882e+000 -7.2922e+001  2.0906e+000 60350 76364,76494,76468
 1.8000e+000 76543  2.9400e+001 -3.4413e+001  1.9116e+001 60350 76390,76442,76416
 1.8000e+000 76520  4.4631e+001 -2.5685e+001  1.9547e+001 60350 76338,76494,76364
 1.8000e+000 76661 -8.6484e+000 -4.3272e+001  5.3499e+000 60350 76468,76442,76635
 1.8000e+000 76684  1.5824e+001 -5.5158e+001  1.5339e+001 60350 76468,76635,76364
 1.8000e+000 76932 -1.8578e+001 -9.5207e+001  1.4021e+000 59946 76955,76733,76707
 1.8000e+000 76909 -1.7875e+001 -9.3293e+001  2.5525e+000 59946 77027,76955,76707
 1.8000e+000 76886 -1.7224e+001 -9.2388e+001  2.2656e+000 59946 77027,76707,76837
 1.8000e+000 76863 -4.7441e+000 -9.4797e+001 -6.0426e+000 59946 76733,76785,76759
 1.8000e+000 76981 -1.9897e+001 -9.4924e+001  1.9985e-001 59946 76785,76733,76955
 1.8000e+000 77004 -1.8917e+001 -9.5788e+001  1.7402e+000 59946 76785,76955,76811
 1.8000e+000 77053 -1.6707e+001 -9.4677e+001  1.2957e+000 59946 76811,76955,77027
 1.8000e+000 77076 -1.5664e+001 -9.2939e+001  8.5988e-001 59946 76811,77027,76837
 1.8000e+000 77226  7.0636e+000 -5.9705e+001  5.7683e-001 59542 77099,77151,77125
 1.8000e+000 77203  4.7835e+000 -6.7340e+001 -3.0752e-001 59542 77099,77177,77151
 1.8000e+000 77427 -4.2095e+001 -7.9042e+001  1.9808e+001 59030 77450,77277,77251
 1.8000e+000 77404  8.5113e-001 -5.7482e+001 -4.6682e+001 59030 77450,77251,77355
 1.8000e+000 77381 -9.0293e+000 -1.0851e+002  1.1965e+001 59030 77277,77329,77303
 1.8000e+000 77476  1.7290e+001 -8.1669e+001 -4.1298e+000 59030 77329,77277,77450
 1.8000e+000 77499  7.5348e+001 -7.4369e+001 -5.7503e+001 59030 77329,77450,77355
 1.8000e+000 77749 -3.0878e+001 -1.1418e+002  1.4433e+001 58426 77772,77628,77602
 1.8000e+000 77726 -1.8364e+001 -1.0106e+002  2.5014e+001 58426 77524,77654,77628
 1.8000e+000 77703 -2.6329e+001 -1.2585e+002  1.3460e+001 58426 77772,77602,77550
 1.8000e+000 77680 -1.2846e+001 -1.1897e+002  5.4244e+000 58426 77550,77602,77576
 1.8000e+000 77798 -2.7488e+001 -9.9425e+001  2.0552e+001 58426 77524,77628,77772
 1.8000e+000 77821 -2.9038e+001 -1.1646e+002  1.7283e+001 58426 77524,77772,77550
 1.8000e+000 78071 -4.5170e+001 -1.1097e+002  7.9423e+000 57922 78094,77924,77898
 1.8000e+000 78048 -5.8740e+001 -1.1177e+002 -1.0037e+001 57922 78094,77898,77872
 1.8000e+000 78025 -3.6607e+001 -9.3989e+001  6.2499e+000 57922 78166,77846,77950
 1.8000e+000 78002  7.3781e+000 -9.2872e+001  1.1758e+001 57922 77846,77976,77950
 1.8000e+000 78120 -3.3459e+001 -1.0908e+002  2.9943e+000 57922 77950,77924,78094
 1.8000e+000 78143 -4.1948e+001 -9.7429e+001  3.7205e+000 57922 78166,77950,78094
 1.8000e+000 78192 -2.9088e+001 -1.0125e+002 -1.3003e+000 57922 77872,77846,78166
 1.8000e+000 78215 -3.8725e+001 -1.0849e+002 -4.8350e+000 57922 77872,78166,78094
 1.8000e+000 78416  1.6172e+001 -9.4141e+001 -5.8325e+000 57468 78439,78292,78240
 1.8000e+000 78393  1.4825e+001 -8.7820e+001 -5.7593e+000 57468 78439,78240,78344
 1.8000e+000 78370  7.2684e+000 -1.3232e+002 -5.4766e+000 57468 78240,78292,78266
 1.8000e+000 78465  1.5361e+001 -9.6333e+001 -1.0006e+001 57468 78318,78292,78439
 1.8000e+000 78488  1.4895e+001 -9.1397e+001 -8.6682e+000 57468 78318,78439,78344
 1.8000e+000 78689  2.2909e+001 -1.0854e+002 -1.1626e+001 57014 78712,78539,78513
 1.8000e+000 78666  1.1938e+001 -1.0637e+002 -4.2974e+000 57014 78712,78513,78617
 1.8000e+000 78643  7.8252e+000 -1.0154e+002  6.8282e+000 57014 78565,78617,78591
 1.8000e+000 78738  8.7552e+000 -9.9455e+001 -1.2214e+001 57014 78565,78539,78712
 1.8000e+000 78761 -6.1921e+000 -1.0531e+002 -7.1845e-001 57014 78565,78712,78617
 1.8000e+000 79241 -2.6200e+001 -9.0455e+001 -1.8601e+000 56652 79264,78895,78869
 1.8000e+000 79218 -1.1294e+001 -1.2202e+002 -1.5102e+001 56652 79264,78869,79051
 1.8000e+000 79195 -1.3506e+001 -1.0258e+002 -3.4456e+001 56652 78869,79077,79051
 1.8000e+000 79172 -1.3007e+001 -6.1685e+001 -2.5594e+000 56652 78895,78973,78947
 1.8000e+000 79149 -3.3190e+001 -2.0690e+002 -1.4150e+001 56652 78973,79051,78999
 1.8000e+000 79126 -1.3483e+001 -4.9669e+001 -3.7379e+000 56652 78895,78947,78921
 1.8000e+000 79103 -3.6392e+001 -1.6502e+002  4.4514e+001 56652 78999,79051,79025
 1.8000e+000 79290 -1.5825e+001 -6.9556e+001  1.0560e+001 56652 78973,78895,79264
 1.8000e+000 79313 -8.5012e-001 -1.0499e+002 -1.3390e+000 56652 78973,79264,79051
 1.8000e+000 79512  3.2956e+001 -1.1356e+002  2.6168e+001 56062 79388,79440,79414
 1.8000e+000 79489 -3.0183e+001 -6.0165e+001  2.7021e+001 56062 79336,79440,79388
 1.8000e+000 79466  2.6023e+001 -1.0764e+002  3.1862e+001 56062 79336,79388,79362
 1.8000e+000 79941 -1.8802e+001 -7.3940e+001  2.0485e+001 55658 79964,79670,79644
 1.8000e+000 79918 -1.2146e+001 -7.2352e+001  1.9074e+001 55658 79964,79644,79800
 1.8000e+000 79895  7.9758e+000 -6.4426e+001  2.9565e+001 55658 80036,79696,79670
 1.8000e+000 79872 -3.7072e+000 -7.8237e+001  7.4548e+000 55658 80108,79722,79696
 1.8000e+000 79849 -1.8054e+001 -7.5974e+001 -8.0210e+000 55658 79722,79774,79748
 1.8000e+000 79826 -1.0760e-001 -6.9888e+001  4.0796e+000 55658 79618,79800,79644
 1.8000e+000 79990 -1.2440e+001 -7.4642e+001  2.1576e+001 55658 80036,79670,79964
 1.8000e+000 80013 -1.6935e+001 -7.6588e+001  1.6795e+001 55658 79774,79964,79800
 1.8000e+000 80062  6.6221e+000 -7.5490e+001  1.5066e+001 55658 80108,79696,80036
 1.8000e+000 80085 -5.8892e+000 -7.1672e+001  1.5355e+001 55658 79774,80036,79964
 1.8000e+000 80134 -2.1560e+001 -7.0819e+001  6.7128e+000 55658 79774,79722,80108
 1.8000e+000 80157 -1.6258e+001 -7.3340e+001  1.3228e+001 55658 79774,80108,80036
 1.8000e+000 80307 -2.2699e+001 -6.4159e+001  1.0321e+001 55254 80402,80330,80206
 1.8000e+000 80284 -2.1208e+001 -9.1913e+001  7.8758e+000 55254 80330,80180,80258
 1.8000e+000 80356 -3.2106e+001 -8.5333e+001  2.1232e+001 55254 80232,80206,80330
 1.8000e+000 80379  2.6526e+000 -7.0115e+001  2.4531e+001 55254 80232,80330,80258
 1.8000e+000 80428 -3.5024e+001 -8.4639e+001  2.3946e+000 55254 80180,80330,80402
 1.8000e+000 80659 -1.3824e+000 -1.0721e+002 -1.3528e+001 54850 80558,80610,80584
 1.8000e+000 80636  2.2638e+001 -9.3166e+001 -7.4199e+000 54850 80532,80610,80558
 1.8000e+000 80760  1.2443e+001 -6.8632e+001  4.1471e+000 54652 80682,80734,80708
 1.8000e+000 81164  1.2783e+001 -6.5305e+001  4.1201e+000 54248 81187,80942,80890
 1.8000e+000 81141  1.9082e+001 -7.5955e+001  2.6067e+000 54248 81187,80890,81046
 1.8000e+000 81118 -8.8411e+000 -7.2400e+001  1.3592e+001 54248 80942,81020,80994
 1.8000e+000 81095  9.6941e+000 -6.6951e+001 -2.2454e-001 54248 80890,80942,80916
 1.8000e+000 81072  1.7467e+001 -4.4422e+001  1.7217e+000 54248 80942,80994,80968
 1.8000e+000 81213  1.6923e+001 -5.9672e+001  6.2814e+000 54248 81020,80942,81187
 1.8000e+000 81236  2.4803e+001 -6.8141e+001  5.2485e+000 54248 81020,81187,81046
 1.8000e+000 81663 -1.4286e+001 -6.1516e+001  4.0319e+000 53594 81340,81444,81366
 1.8000e+000 81640 -2.9830e+001 -1.1365e+002  8.4777e+000 53594 81340,81470,81444
 1.8000e+000 81617 -1.5847e+001 -9.1508e+001 -2.8173e+001 53594 81340,81522,81470
 1.8000e+000 81594 -1.4831e+001 -3.9288e+001 -5.6940e+000 53594 81392,81444,81418
 1.8000e+000 81571 -1.9980e+001 -5.8783e+001 -1.0120e+001 53594 81366,81444,81392
 1.8000e+000 81548 -9.3085e+000 -1.4297e+002  4.0350e+000 53594 81470,81522,81496
 1.8000e+000 81943 -4.7115e+000 -4.1740e+001 -3.8927e+000 53104 81966,81845,81819
 1.8000e+000 81920 -1.3481e+001 -3.5061e+001 -7.0182e+000 53104 81966,81819,81767
 1.8000e+000 81897 -1.2013e+001 -2.9336e+001 -9.9488e+000 53104 81767,81819,81793
 1.8000e+000 81992  1.1701e+000 -4.0062e+001 -7.6124e+000 53104 81871,81845,81966
 1.8000e+000 82015 -5.3708e+000 -3.0368e+001 -1.2495e+001 53104 81871,81966,81767
 1.8000e+000 82491 -2.4903e+000 -5.2249e+001 -1.7015e+001 52650 82145,82249,82171
 1.8000e+000 82468 -4.2039e+000 -6.2428e+001 -6.2135e+000 52650 82145,82301,82249
 1.8000e+000 82445 -2.0687e+001 -8.3885e+001  2.9993e+000 52650 82249,82301,82275
 1.8000e+000 82422 -3.1526e+001 -1.2658e+002 -2.7286e+001 52650 82119,82301,82145
 1.8000e+000 82399 -4.1979e+000 -2.4415e+001  5.9549e+000 52650 82171,82249,82223
 1.8000e+000 82376 -2.6742e+000 -1.1549e+002 -1.2485e+001 52650 82119,82327,82301
 1.8000e+000 82353  1.8293e-002 -1.0210e+001 -4.5102e+000 52650 82171,82223,82197
 1.8000e+000 82739 -1.5885e+001 -3.3777e+001 -1.9080e-001 52246 82762,82540,82514
 1.8000e+000 82716 -2.1560e+000 -2.4587e+001 -5.1846e+000 52246 82762,82514,82644
 1.8000e+000 82693 -2.1595e+001 -4.7592e+001  8.5322e+000 52246 82540,82618,82592
 1.8000e+000 82670 -1.5980e+001 -3.7911e+001  2.9084e+000 52246 82540,82592,82566
 1.8000e+000 82788 -3.4355e+000 -4.5434e+001  6.6117e+000 52246 82618,82540,82762
 1.8000e+000 82811  9.8820e+000 -3.8732e+001  4.2466e+000 52246 82618,82762,82644
 1.8000e+000 83059  8.8603e+000 -6.2142e+001  2.4183e+000 51578 82860,82964,82938
 1.8000e+000 83036  1.0056e+001 -5.6341e+001 -1.6389e+001 51578 82834,82964,82860
 1.8000e+000 83013  1.0223e+001 -5.2403e+001  6.9751e+000 51578 82860,82938,82886
 1.8000e+000 82990  1.1652e+001 -4.6563e+001  5.3489e+000 51578 82886,82938,82912
 1.8000e+000 83309 -1.1767e+001 -2.5848e+001  1.8334e+001 51138 83332,83162,83136
 1.8000e+000 83286 -4.4136e+000 -4.2034e+001  8.4938e+000 51138 83332,83136,83110
 1.8000e+000 83263 -1.2183e+001 -4.0693e+001  3.2062e+000 51138 83404,83214,83188
 1.8000e+000 83240 -2.0266e-001 -1.0693e+001  1.2498e+000 51138 83084,83214,83110
 1.8000e+000 83358 -2.7270e+001 -4.8948e+001  2.8694e+001 51138 83188,83162,83332
 1.8000e+000 83381 -7.3176e+000 -5.1209e+001  1.2026e+001 51138 83404,83188,83332
 1.8000e+000 83430 -2.6420e+000 -1.2448e+001 -1.3473e+000 51138 83110,83214,83404
 1.8000e+000 83453 -2.7602e+000 -2.9696e+001  8.0784e+000 51138 83110,83404,83332
 1.8000e+000 83835  1.0807e+001 -4.6221e+001 -2.5248e+000 50734 83613,83717,83691
 1.8000e+000 83812  7.6917e+000 -5.5720e+001 -1.5183e+001 50734 83561,83717,83613
 1.8000e+000 83789  1.3417e+001 -3.5235e+001 -1.9530e+001 50734 83561,83613,83587
 1.8000e+000 83766 -5.2153e+000 -3.7931e+001 -5.0320e+000 50734 83613,83691,83639
 1.8000e+000 83743 -5.9497e+000 -3.5289e+001  6.9436e+000 50734 83639,83691,83665
 1.8000e+000 84034  4.3220e+000 -3.3080e+001 -1.8405e+000 50230 84057,83884,83858
 1.8000e+000 84011  6.4738e+000 -2.6501e+001  5.4366e-001 50230 84129,84057,83858
 1.8000e+000 83988  7.3354e+000 -2.3875e+001 -1.9376e-002 50230 84129,83858,83962
 1.8000e+000 84083 -5.8216e+000 -3.3832e+001 -1.1272e+001 50230 83910,83884,84057
 1.8000e+000 84106  3.5503e+000 -1.9856e+001 -5.4858e+000 50230 83910,84057,83936
 1.8000e+000 84155  8.2590e+000 -2.9990e+001 -5.7689e-001 50230 83936,84057,84129
 1.8000e+000 84178  8.9470e+000 -2.7548e+001 -6.3962e-001 50230 83936,84129,83962
 1.8000e+000 84558 -2.6646e+000 -3.7779e+001 -1.2695e+001 49768 84581,84388,84362
 1.8000e+000 84535 -2.6841e+001 -3.8304e+001 -5.5623e+000 49768 84581,84362,84310
 1.8000e+000 84512  2.0965e+001 -4.2756e+001 -1.3443e+001 49768 84653,84440,84414
 1.8000e+000 84489 -2.0491e+001 -4.5357e+001  1.4399e+000 49768 84310,84362,84336
 1.8000e+000 84466 -1.0563e+000 -3.2437e+001  1.2579e+000 49768 84284,84440,84310
 1.8000e+000 84607  1.4167e+001 -2.6610e+001 -2.0447e+001 49768 84414,84388,84581
 1.8000e+000 84630  1.1383e+001 -3.9330e+001 -9.9303e+000 49768 84653,84414,84581
 1.8000e+000 84679  7.9898e+000 -3.7832e+001 -1.7715e+001 49768 84310,84440,84653
 1.8000e+000 84702 -5.1541e+000 -3.8296e+001 -1.7771e+001 49768 84310,84653,84581
 1.8000e+000 85159 -3.4428e+001 -1.1400e+002 -4.5644e+001 49192 84885,84937,84911
 1.8000e+000 85136 -3.7222e+001 -8.3029e+001 -3.1040e+001 49192 84885,85041,84937
 1.8000e+000 85113 -2.8179e+001 -5.8998e+001 -1.6720e+001 49192 84963,85041,84989
 1.8000e+000 85090 -3.1258e+001 -7.2414e+001 -2.8566e+001 49192 84937,85041,84963
 1.8000e+000 85067 -1.5135e+001 -6.4385e+001 -8.0448e+000 49192 84989,85041,85015
 1.8000e+000 85714 -1.8744e+001 -3.2070e+001  6.8779e+000 48638 85368,85498,85394
 1.8000e+000 85691 -1.2056e+001 -4.0226e+001  3.7826e+000 48638 85368,85524,85498
 1.8000e+000 85668 -3.0993e+001 -3.8470e+001  2.1473e+001 48638 85737,85420,85394
 1.8000e+000 85645 -2.1279e+001 -3.7931e+001  1.3415e+001 48638 85737,85394,85498
 1.8000e+000 85622  1.6370e+001 -4.6894e+001  2.9296e+001 48638 85446,85498,85472
 1.8000e+000 85599 -7.2287e+000 -3.8031e+001  3.2494e+000 48638 85342,85524,85368
 1.8000e+000 85576 -2.6659e+001 -4.1945e+001  2.7155e+000 48638 85342,85550,85524
 1.8000e+000 85763 -1.6844e+001 -3.2572e+001  2.1231e+001 48638 85446,85420,85737
 1.8000e+000 85786 -1.5785e+001 -3.6640e+001  1.3189e+001 48638 85446,85737,85498
 1.8000e+000 86371 -3.2681e+000 -1.6474e+001 -4.3885e+000 48084 86100,86230,86178
 1.8000e+000 86348 -8.7340e+000 -2.5318e+001 -7.0772e+000 48084 86048,86230,86100
 1.8000e+000 86325 -1.4806e+000 -1.4592e+001  3.6651e-001 48084 86100,86178,86126
 1.8000e+000 86302  3.7976e+000  4.1083e+000 -1.1269e+001 48084 86048,86100,86074
 1.8000e+000 86279 -1.0820e+001 -3.3191e+001 -1.8320e+000 48084 86178,86230,86204
 1.8000e+000 86256 -3.1143e+000 -5.5737e+000  1.6188e+000 48084 86126,86178,86152
 1.8000e+000 86619 -2.1170e+001 -5.8130e+001 -5.3794e+000 47630 86642,86446,86420
 1.8000e+000 86596 -2.1582e+001 -6.0879e+001 -1.2623e+001 47630 86642,86420,86394
 1.8000e+000 86573 -2.4002e+001 -5.3988e+001 -1.5487e+001 47630 86394,86524,86498
 1.8000e+000 86550  2.5591e+001 -7.0191e+001  3.2146e+000 47630 86446,86498,86472
 1.8000e+000 86668 -2.4707e+001 -6.6320e+001 -5.8600e+000 47630 86498,86446,86642
 1.8000e+000 86691 -2.4012e+001 -6.6649e+001 -1.3025e+001 47630 86498,86642,86394
 1.8000e+000 87022  1.0167e+001 -8.2305e+000 -4.6893e+000 47226 87045,86875,86849
 1.8000e+000 86999 -1.7033e+000 -1.5343e+001 -1.0436e+001 47226 87045,86849,86797
 1.8000e+000 86976 -1.7151e-001 -2.3677e+000 -3.0697e+000 47226 86797,86849,86823
 1.8000e+000 86953  2.3708e+001 -1.3593e+001 -9.8899e+000 47226 86875,86927,86901
 1.8000e+000 87071  2.0988e+001 -2.0361e+001 -8.3055e+000 47226 86927,86875,87045
 1.8000e+000 87094  1.0709e+001 -2.4547e+001 -1.1967e+001 47226 86927,87045,86797
 1.8000e+000 87244 -2.1923e+000 -4.2443e+001  2.8409e+001 46814 87267,87169,87143
 1.8000e+000 87221 -3.0465e+001 -3.8204e+001  6.7650e+000 46814 87267,87143,87117
 1.8000e+000 87293 -4.0834e+000 -4.7457e+001  8.2985e+000 46814 87339,87267,87195
 1.8000e+000 87316  1.2032e+000 -2.4632e+001 -1.5487e+000 46814 87469,87267,87117
 1.8000e+000 87365  7.3713e+000 -3.5146e+001  2.5049e+001 46814 87169,87267,87339
 1.8000e+000 87495  1.7887e+000  1.5637e+000 -2.6682e+000 46814 87195,87267,87469
 1.8000e+000 88001 -1.3380e+001 -8.3186e+001  1.8477e+001 46310 88024,87834,87808
 1.8000e+000 87978 -2.1715e+001 -8.5041e+001  8.7635e+000 46310 88024,87808,87756
 1.8000e+000 87955 -1.4666e+001 -1.0012e+002  5.6960e+000 46310 88096,87730,87860
 1.8000e+000 87932 -2.2017e+001 -7.8428e+001  9.3952e+000 46310 87756,87808,87782
 1.8000e+000 87909 -1.3448e+001 -1.5928e+002  1.7364e+001 46310 87678,87860,87730
 1.8000e+000 87886 -1.1518e+001 -2.0545e+002 -4.0168e+000 46310 87678,87730,87704
 1.8000e+000 88050 -1.5991e+001 -9.0258e+001  1.2099e+001 46310 87860,87834,88024
 1.8000e+000 88073 -1.4119e+001 -8.4457e+001  9.7941e+000 46310 88096,87860,88024
 1.8000e+000 88122 -1.6702e+001 -1.0759e+002  2.4073e-002 46310 87756,87730,88096
 1.8000e+000 88145 -2.5294e+001 -1.0140e+002  2.2955e+000 46310 87756,88096,88024
 1.8000e+000 88572 -3.2443e+000 -4.9165e+001  2.8506e+000 45856 88249,88405,88275
 1.8000e+000 88549  1.1525e+000 -4.9672e+000 -1.4191e+001 45856 88249,88431,88405
 1.8000e+000 88526 -3.5557e+000 -8.7107e+001 -1.5786e+001 45856 88327,88405,88353
 1.8000e+000 88503  1.4134e+001 -5.9995e+001 -7.5857e+000 45856 88275,88405,88327
 1.8000e+000 88480  1.5712e+001 -6.0291e+001 -3.7655e+001 45856 88353,88405,88379
 1.8000e+000 88457 -5.9691e+001 -1.8974e+002  2.3260e+001 45856 88275,88327,88301
 1.8000e+000 88950  1.4670e+001 -2.6489e+001 -1.9128e+001 45658 88973,88754,88728
 1.8000e+000 88927  4.5452e+001 -4.1437e+001 -1.3429e+001 45658 88973,88728,88676
 1.8000e+000 88904  3.5367e+001 -5.1361e+001  3.0983e+001 45658 88676,88832,88806
 1.8000e+000 88881  3.5320e+001 -5.3768e+001  3.7450e+000 45658 88676,88728,88702
 1.8000e+000 88858  1.0706e-001 -2.2446e+001  7.7999e+000 45658 88754,88806,88780
 1.8000e+000 88999 -1.1379e+001 -3.0022e+001 -5.8897e+000 45658 88806,88754,88973
 1.8000e+000 89022  2.1564e+001 -3.9750e+001 -6.6566e+000 45658 88806,88973,88676
 1.8000e+000 89351  1.0786e+001 -4.7219e+001 -4.9455e+000 45254 89152,89230,89204
 1.8000e+000 89328  3.3154e+000 -4.9470e+001 -1.8952e+000 45254 89152,89256,89230
 1.8000e+000 89305 -3.1999e+000 -5.4245e+001 -4.1908e+000 45254 89126,89256,89152
 1.8000e+000 89282 -8.9230e+000 -5.9852e+001  3.6061e+000 45254 89152,89204,89178
 1.8000e+000 89523 -1.9639e+001 -6.3495e+001  2.7466e-001 45006 89422,89474,89448
 1.8000e+000 89500 -1.3880e+001 -6.1043e+001  4.8814e+000 45006 89396,89474,89422
 1.8000e+000 89673 -4.3362e+001 -7.7440e+001  5.9908e+000 44495 89572,89624,89598
 1.8000e+000 89650 -4.6752e+001 -8.8558e+001  8.5671e+000 44495 89546,89624,89572
 1.8000e+000 90104 -1.0618e+001 -8.4899e+001 -7.5455e+000 44005 90199,90127,89937
 1.8000e+000 90081 -1.5762e+001 -7.8522e+001 -2.5615e+000 44005 90271,90127,89859
 1.8000e+000 90058 -7.6439e+000 -8.5846e+001 -7.5464e+000 44005 90199,89937,89885
 1.8000e+000 90035 -2.4449e+001 -6.8923e+001  2.6085e+000 44005 90271,89859,89807
 1.8000e+000 90012 -1.5184e+001 -9.7650e+001 -1.0844e+001 44005 89885,89937,89911
 1.8000e+000 89989 -1.2917e+001 -8.0481e+001  1.5841e+001 44005 89807,89859,89833
 1.8000e+000 90153 -1.4162e+001 -8.5252e+001 -4.4098e+000 44005 89963,89937,90127
 1.8000e+000 90176 -2.0904e+001 -1.0303e+002 -1.7945e+000 44005 89963,90127,89781
 1.8000e+000 90225 -1.9228e+001 -8.3354e+001 -5.6712e+000 44005 89859,90127,90199
 1.8000e+000 90248 -1.1856e+001 -8.1132e+001 -4.0076e+000 44005 89859,90199,89885
 1.8000e+000 90297 -2.6690e+001 -8.9100e+001 -8.4717e+000 44005 89781,90127,90271
 1.8000e+000 90320 -3.1464e+001 -7.7752e+001 -2.1709e+000 44005 89781,90271,89807
 1.8000e+000 90470 -1.1637e+001 -8.1052e+001 -4.2612e+000 43601 90493,90369,90343
 1.8000e+000 90447 -2.0399e+001 -6.3345e+001  3.4317e+000 43601 90493,90343,90421
 1.8000e+000 90519 -2.5192e+001 -1.1384e+002 -1.5447e+001 43601 90395,90369,90493
 1.8000e+000 90542 -1.8112e+001 -7.6428e+001 -5.8409e+000 43601 90395,90493,90421
 1.8000e+000 90922 -1.9807e+001 -8.1665e+001 -1.4725e-001 43154 90945,90700,90674
 1.8000e+000 90899 -1.5670e+001 -8.3678e+001 -1.8613e+001 43154 90945,90674,90648
 1.8000e+000 90876 -2.2173e+001 -5.2067e+001 -1.4691e+001 43154 90648,90778,90752
 1.8000e+000 90853 -1.4457e+001 -1.2707e+002  1.6032e-001 43154 90700,90752,90726
 1.8000e+000 90830 -1.3829e+001 -5.9721e+001 -4.9922e+000 43154 90648,90804,90778
 1.8000e+000 90971 -2.5063e+001 -9.7903e+001  3.1417e+000 43154 90752,90700,90945
 1.8000e+000 90994 -1.9706e+001 -9.3584e+001 -1.4834e+001 43154 90752,90945,90648
 1.8000e+000 91451  2.5068e+001 -6.9543e+001 -2.2216e+001 42650 91203,91255,91229
 1.8000e+000 91428  2.7532e+000 -7.9069e+001 -6.7135e-001 42650 91203,91333,91255
 1.8000e+000 91405 -8.5003e+000 -1.0926e+002 -1.0280e+001 42650 91177,91333,91203
 1.8000e+000 91382 -1.4834e+001 -1.1475e+002  5.3393e+000 42650 91255,91333,91281
 1.8000e+000 91359  2.4167e+001 -1.0099e+002  4.3142e+000 42650 91281,91333,91307
 1.8000e+000 91721 -3.0733e+001 -8.3059e+001  1.1185e+001 42288 91496,91600,91522
 1.8000e+000 91698 -7.7972e+000 -3.7428e+001 -1.3583e+000 42288 91496,91626,91600
 1.8000e+000 91675 -2.2128e+001 -8.2531e+001  1.9220e+001 42288 91522,91574,91548
 1.8000e+000 91652  1.7994e+000 -7.0054e+001  1.2155e+001 42288 91522,91600,91574
 1.8000e+000 92199 -6.1627e+001 -9.6764e+001 -4.5947e+000 41898 92222,91983,91879
 1.8000e+000 92176 -6.9395e+001 -1.2009e+002 -1.4010e+001 41898 92294,92222,91879
 1.8000e+000 92153 -8.1378e+001 -1.2021e+002 -2.2038e+001 41898 92294,91879,91853
 1.8000e+000 92130 -5.2914e+001 -4.8072e+001  8.4084e+000 41898 91879,91957,91931
 1.8000e+000 92107 -5.2215e+001 -9.3034e+001 -2.2421e+000 41898 91879,91983,91957
 1.8000e+000 92084 -6.7116e+001 -4.8644e+001  2.1460e+001 41898 91879,91931,91905
 1.8000e+000 92061 -5.8443e+001 -8.9767e+001 -1.1977e+001 41898 91827,92035,91853
 1.8000e+000 92248 -5.8068e+001 -1.2468e+002  9.6897e-001 41898 92009,91983,92222
 1.8000e+000 92271 -5.3620e+001 -1.2770e+002 -1.3835e+001 41898 92009,92222,92035
 1.8000e+000 92320 -5.0407e+001 -1.1714e+002 -1.0865e+001 41898 92035,92222,92294
 1.8000e+000 92343 -5.8468e+001 -1.1348e+002 -1.7930e+001 41898 92035,92294,91853
 1.8000e+000 92770 -1.0219e+001 -8.0982e+001 -6.3764e+000 41437 92865,92793,92525
 1.8000e+000 92747 -1.6381e+001 -1.0315e+002 -1.3970e+000 41437 92793,92473,92629
 1.8000e+000 92724  1.3950e+001 -9.2667e+001 -1.9657e+001 41437 92865,92525,92499
 1.8000e+000 92701 -3.2956e+001 -6.5980e+001 -1.8748e+001 41437 92525,92603,92577
 1.8000e+000 92678  5.8436e+001 -1.0225e+002 -2.1822e+000 41437 92447,92629,92473
 1.8000e+000 92655 -3.8561e+001 -5.3696e+001 -1.1612e+001 41437 92525,92577,92551
 1.8000e+000 92819 -1.1555e+001 -8.4007e+001 -1.5526e+001 41437 92603,92525,92793
 1.8000e+000 92842 -3.5696e+001 -9.2771e+001 -2.6452e+001 41437 92603,92793,92629
 1.8000e+000 92891  3.3696e+001 -8.4828e+001 -5.4670e+000 41437 92473,92793,92865
 1.8000e+000 92914  6.5167e+001 -8.7664e+001 -2.3326e+001 41437 92473,92865,92499
 1.8000e+000 93243 -8.9483e+000 -1.2899e+002  5.7351e+001 41097 93044,93096,93070
 1.8000e+000 93220 -3.3881e+001 -1.2726e+002  2.3432e+001 41097 93044,93122,93096
 1.8000e+000 93197  1.2535e+001 -8.4205e+001  5.4028e+000 41097 93044,93148,93122
 1.8000e+000 93174 -1.4779e+001 -5.1473e+001  2.7787e+001 41097 93018,93148,93044
 1.8000e+000 93393  6.3204e+001 -8.8407e+001  2.8221e+000 40643 93416,93292,93344
 1.8000e+000 93370  4.7121e+001 -8.1680e+001  4.7892e-001 40643 93266,93344,93292
 1.8000e+000 93442  4.5063e+001 -9.1872e+001  8.1083e+000 40643 93318,93292,93416
 1.8000e+000 93901 -2.1109e+001 -7.1825e+001 -4.1991e-001 40132 93924,93731,93705
 1.8000e+000 93878 -2.8238e+001 -7.8546e+001 -3.3071e+000 40132 93996,93924,93705
 1.8000e+000 93855 -3.2360e+001 -8.8337e+001 -1.9770e+000 40132 93996,93705,93653
 1.8000e+000 93832 -1.5043e+001 -8.2665e+001 -5.5332e+000 40132 93653,93705,93679
 1.8000e+000 93809  1.6471e+001 -7.3598e+001 -4.5550e+000 40132 93627,93783,93757
 1.8000e+000 93950 -1.2895e+001 -8.0957e+001 -5.9426e+000 40132 93757,93731,93924
 1.8000e+000 93973 -2.5937e+001 -7.9754e+001 -4.7390e+000 40132 93757,93924,93627
 1.8000e+000 94022 -3.1632e+001 -8.3342e+001  4.2504e+000 40132 93627,93924,93996
 1.8000e+000 94045 -3.1704e+001 -8.7180e+001  5.0063e+000 40132 93627,93996,93653
 1.8000e+000 94423  2.7217e+000 -1.2223e+002 -1.5252e+001 39514 94149,94227,94175
 1.8000e+000 94400  1.5779e+001 -7.2418e+001  1.2059e+001 39514 94149,94305,94227
 1.8000e+000 94377  9.9359e-001 -1.1844e+002 -1.5394e+001 39514 94175,94227,94201
 1.8000e+000 94354  1.0897e+001 -8.9687e+001  9.2158e+000 39514 94227,94305,94279
 1.8000e+000 94331  4.0266e+000 -9.2312e+001  1.0936e+001 39514 94227,94279,94253
 1.8000e+000 94573 -4.6624e+000 -6.1865e+001 -8.9933e+000 38822 94596,94498,94472
 1.8000e+000 94550  8.9499e+000 -7.0292e+001  1.1426e+001 38822 94596,94472,94446
 1.8000e+000 94622 -2.0537e+001 -6.9073e+001 -2.9757e+000 38822 94524,94498,94596
 1.8000e+000 94645 -2.0855e+001 -8.6452e+001  1.9510e+001 38822 94524,94596,94446
 1.8000e+000 95025 -1.8189e+001 -7.7853e+001 -1.0363e-002 38418 95048,94829,94777
 1.8000e+000 95002 -1.3734e+001 -7.3169e+001  3.6434e+000 38418 95120,95048,94777
 1.8000e+000 94979 -1.4418e+001 -7.0181e+001  3.8268e+000 38418 95120,94777,94751
 1.8000e+000 94956  6.2209e+000 -7.5992e+001 -1.2999e+000 38418 95192,94881,94855
 1.8000e+000 94933 -2.4316e+001 -7.8867e+001  1.4369e+000 38418 94777,94829,94803
 1.8000e+000 95074 -1.4975e+001 -8.1419e+001  9.2959e+000 38418 94855,94829,95048
 1.8000e+000 95097  1.4993e+000 -7.2238e+001  5.3005e+000 38418 95192,94855,95048
 1.8000e+000 95146 -1.4421e+001 -6.8780e+001  3.5324e+000 38418 94907,95048,95120
 1.8000e+000 95169 -1.3962e+001 -6.4523e+001  4.3844e+000 38418 94907,95120,94751
 1.8000e+000 95218 -3.6484e+000 -6.9617e+001 -3.4108e+000 38418 94907,94881,95192
 1.8000e+000 95241 -1.5385e+001 -7.2236e+001  4.2103e+000 38418 94907,95192,95048
 1.8000e+000 95511 -8.1691e+000 -7.9946e+001  1.4186e+000 38049 95312,95390,95364
 1.8000e+000 95488 -1.3737e+001 -8.1084e+001 -2.2340e+000 38049 95312,95416,95390
 1.8000e+000 95465 -5.3093e+000 -7.1907e+001  4.2525e-001 38049 95312,95364,95338
 1.8000e+000 95442 -2.3814e+000 -6.9035e+001  2.4468e+000 38049 95286,95416,95312
 1.8000e+000 95808 -2.7570e+001 -9.9530e+001 -6.0279e+000 37437 95831,95586,95560
 1.8000e+000 95785 -1.8432e+001 -8.9258e+001 -1.5949e+000 37437 95831,95560,95534
 1.8000e+000 95762 -2.8513e+001 -8.3306e+001  1.0361e+001 37437 95586,95664,95638
 1.8000e+000 95739 -2.7509e+001 -5.7816e+001 -1.0586e+001 37437 95534,95690,95664
 1.8000e+000 95716 -4.4196e+001 -8.3401e+001  1.5647e+000 37437 95586,95638,95612
 1.8000e+000 95857 -3.4924e+001 -8.8581e+001 -4.0100e-001 37437 95664,95586,95831
 1.8000e+000 95880 -2.4824e+001 -7.7579e+001  4.3250e+000 37437 95664,95831,95534
 1.8000e+000 96390 -2.8180e+001 -6.6499e+001 -4.0973e+000 36883 96413,96145,96093
 1.8000e+000 96367 -2.6350e+001 -6.5074e+001 -1.5634e+000 36883 96413,96093,96067
 1.8000e+000 96344 -6.7716e+000 -8.2720e+001 -7.5648e+000 36883 96067,96249,96171
 1.8000e+000 96321 -2.4781e+001 -7.1424e+001 -3.0915e+000 36883 96093,96145,96119
 1.8000e+000 96298 -2.8371e+001 -1.4091e+002  1.5356e+001 36883 96171,96249,96197
 1.8000e+000 96275  9.9155e+000 -1.1394e+002  2.8495e+000 36883 96197,96249,96223
 1.8000e+000 96439 -2.6347e+001 -6.2584e+001 -2.9639e+000 36883 96171,96145,96413
 1.8000e+000 96462 -2.5651e+001 -6.3663e+001 -5.8993e-001 36883 96171,96413,96067
 1.8000e+000 96781  1.6593e+001 -6.4246e+001 -2.0080e+001 36215 96559,96663,96637
 1.8000e+000 96758 -1.5116e+001 -5.3837e+001 -1.7492e+001 36215 96507,96663,96559
 1.8000e+000 96735 -2.6114e-002 -3.6192e+001  4.6414e+000 36215 96585,96637,96611
 1.8000e+000 96712 -4.8341e+001 -8.4696e+001 -1.7284e+001 36215 96559,96637,96585
 1.8000e+000 96689  1.8836e+000 -9.3183e+001 -5.5925e+000 36215 96507,96559,96533
 1.8000e+000 97161  3.0981e+001 -1.9559e+001 -1.0281e+001 35818 97184,96965,96939
 1.8000e+000 97138  2.4322e+001 -2.5831e+001 -1.4060e+001 35818 97184,96939,96887
 1.8000e+000 97115  1.8467e+001 -4.9684e+001  5.4122e+000 35818 96965,97043,97017
 1.8000e+000 97092  9.8121e+000 -5.6187e+001 -8.8809e+000 35818 96887,96939,96913
 1.8000e+000 97069 -8.1014e+000 -3.7218e+001  5.3003e+000 35818 96965,97017,96991
 1.8000e+000 97210  3.8400e+001 -2.5122e+001 -6.4053e+000 35818 97043,96965,97184
 1.8000e+000 97233  3.2709e+001 -2.9340e+001 -9.5808e+000 35818 97043,97184,96887
 1.8000e+000 97739 -3.7240e+001 -9.0947e+001 -1.9021e+001 35214 97416,97468,97442
 1.8000e+000 97716 -4.2201e+001 -7.1995e+001 -7.2147e+000 35214 97416,97598,97468
 1.8000e+000 97693 -2.9712e+001 -6.5575e+001  4.0997e+000 35214 97762,97520,97468
 1.8000e+000 97670 -3.0474e+001 -6.8523e+001 -1.4754e+000 35214 97762,97468,97598
 1.8000e+000 97647 -1.9827e+001 -7.6488e+001 -1.2923e+000 35214 97546,97598,97572
 1.8000e+000 97624 -2.3014e+001 -5.8158e+001  1.1920e+000 35214 97468,97520,97494
 1.8000e+000 97788 -3.1970e+001 -7.1780e+001  2.5289e+000 35214 97546,97520,97762
 1.8000e+000 97811 -3.1732e+001 -7.4204e+001 -2.7094e+000 35214 97546,97762,97598
 1.8000e+000 98189  3.1475e+001 -4.4300e+001  7.5716e+000 34760 98356,98212,97967
 1.8000e+000 98166 -8.2403e+000 -7.0363e+001 -3.5740e+000 34760 98284,98212,97941
 1.8000e+000 98143 -3.3918e+001 -5.8894e+001  6.1794e+000 34760 98284,97941,97915
 1.8000e+000 98120  2.4242e+001 -7.3319e+001 -4.3761e+000 34760 98484,97993,97967
 1.8000e+000 98097  1.7830e+001 -6.2036e+001 -1.0471e+001 34760 98556,98045,98019
 1.8000e+000 98238  1.6785e+001 -6.6622e+001 -5.2197e+000 34760 98484,97967,98212
 1.8000e+000 98261  2.0602e+001 -6.7164e+001 -1.2043e+001 34760 98556,98019,98212
 1.8000e+000 98310  1.8700e+001 -5.3295e+001 -1.7828e+001 34760 98071,98212,98284
 1.8000e+000 98333 -3.6019e+000 -2.6271e+001 -1.4475e+001 34760 98071,98284,97915
 1.8000e+000 98382 -2.1539e+001 -7.4433e+001 -6.7372e+000 34760 97941,98212,98356
 1.8000e+000 98510  3.7709e+001 -6.9056e+001 -8.2916e+000 34760 98019,97993,98484
 1.8000e+000 98533  2.5093e+001 -6.6461e+001 -8.7625e+000 34760 98019,98484,98212
 1.8000e+000 98582  2.0962e+001 -5.6713e+001 -7.8864e+000 34760 98071,98045,98556
 1.8000e+000 98605  2.1794e+001 -6.2609e+001 -1.0371e+001 34760 98071,98556,98212
 1.8000e+000 99032 -1.8192e+001 -7.5373e+001  1.5162e+001 34156 98735,98891,98839
 1.8000e+000 99009 -1.3909e+001 -7.5007e+001  1.3534e+001 34156 98709,98891,98735
 1.8000e+000 98986  6.4440e+000 -6.4630e+001  1.4467e+001 34156 98735,98813,98787
 1.8000e+000 98963  5.5979e+000 -6.9646e+001  1.1384e+001 34156 98735,98839,98813
 1.8000e+000 98940  1.1693e+001 -1.1123e+002  1.1889e+001 34156 98735,98787,98761
 1.8000e+000 98917 -1.1495e+001 -5.8227e+001  7.2451e+000 34156 98839,98891,98865
 1.8000e+000 99231 -5.0446e-001 -2.7652e+001  9.3143e+000 33766 99055,99133,99107
 1.8000e+000 99208 -1.5949e+001 -3.2248e+001  1.4273e+001 33766 99055,99159,99133
 1.8000e+000 99185 -1.2681e+001 -5.4549e+001  5.7689e+000 33766 99055,99107,99081
 1.8000e+000 99818 -2.6209e+001 -7.0766e+001 -5.3964e-001 33248 99521,99651,99573
 1.8000e+000 99795 -2.3314e+001 -6.6693e+001  4.4905e+000 33248 99521,99677,99651
 1.8000e+000 99772 -4.4040e+001 -9.8673e+001 -8.3237e+000 33248 99573,99651,99599
 1.8000e+000 99749 -2.5831e+001 -8.2516e+001  4.3144e+000 33248 99495,99677,99521
 1.8000e+000 99726 -2.5196e+001 -7.6645e+001 -1.8366e+001 33248 99599,99651,99625
 1.8000e+000 99703 -3.9356e+001 -9.6473e+001  6.3030e+000 33248 99521,99573,99547
 1.8000e+000 100196 -2.3324e+001 -5.7571e+001 -6.0061e+000 32794 100219,99948,99922
 1.8000e+000 100173 -2.4066e+001 -5.8388e+001 -4.0247e-001 32794 100219,99922,100052
 1.8000e+000 100150 -2.6514e+001 -5.5920e+001  1.7170e+000 32794 99974,100052,100026
 1.8000e+000 100127 -2.8567e+001 -5.5062e+001 -1.0599e+000 32794 99922,100078,100052
 1.8000e+000 100104 -2.8538e+001 -6.9610e+001  1.2487e+001 32794 99974,100026,100000
 1.8000e+000 100245 -2.9785e+001 -5.9912e+001 -5.6353e+000 32794 99974,99948,100219
 1.8000e+000 100268 -2.8056e+001 -5.9963e+001  2.4070e-001 32794 99974,100219,100052
 1.8000e+000 100418  1.4393e+001 -4.2127e+001 -1.5125e+001 32504 100571,100343,100317
 1.8000e+000 100395 -6.5729e+000 -5.1592e+001 -2.2514e+000 32504 100571,100317,100441
 1.8000e+000 100467  3.9855e+001 -1.2837e+001 -2.8804e+001 32504 100291,100369,100441
 1.8000e+000 100597  2.3672e+001 -3.2399e+001 -3.1956e+001 32504 100369,100343,100571
 1.8000e+000 100620  1.4079e+001 -2.9217e+001 -2.0820e+001 32504 100369,100571,100441
 1.8000e+000 101020 -2.0739e-001 -5.8514e+001  4.3390e+000 32142 100772,100902,100876
 1.8000e+000 100997 -7.8239e+000 -6.4242e+001  6.6970e-001 32142 100746,100902,100772
 1.8000e+000 100974 -4.6222e+000 -9.1370e+001 -2.5682e+000 32142 101043,100824,100798
 1.8000e+000 100951  2.4646e+000 -8.4848e+001  3.3601e-001 32142 101043,100798,100772
 1.8000e+000 100928 -4.0554e+001 -9.4886e+001 -2.6256e+001 32142 101115,100876,100850
 1.8000e+000 101069  5.5354e+000 -8.6455e+001 -1.1379e+001 32142 100850,100824,101043
 1.8000e+000 101092 -2.1116e+001 -9.8421e+001 -1.4099e+001 32142 101115,100850,101043
 1.8000e+000 101141 -1.6339e+001 -7.9347e+001 -1.3010e+001 32142 100772,100876,101115
 1.8000e+000 101164 -7.9936e-001 -8.1545e+001  1.1428e-001 32142 100772,101115,101043
 1.8000e+000 101719 -2.1843e+001 -6.2947e+001  5.8843e+000 31538 101742,101477,101399
 1.8000e+000 101696 -3.5674e+001 -8.4433e+001 -4.2067e+000 31538 101814,101742,101399
 1.8000e+000 101673 -4.5209e+001 -7.1987e+001 -1.6098e+001 31538 101814,101399,101373
 1.8000e+000 101650 -2.5072e+001 -4.0524e+001  3.9525e+000 31538 101425,101477,101451
 1.8000e+000 101627 -2.3328e+001 -5.2312e+001 -2.2942e+000 31538 101399,101477,101425
 1.8000e+000 101604 -1.4356e+000 -8.7613e+001  1.6955e+001 31538 101477,101529,101503
 1.8000e+000 101581 -6.9389e+000 -3.7474e+001 -7.2938e+000 31538 101347,101555,101373
 1.8000e+000 101768 -2.5817e+001 -8.5570e+001  4.0687e+000 31538 101529,101477,101742
 1.8000e+000 101791 -2.0004e+001 -8.7369e+001 -8.5813e+000 31538 101529,101742,101555
 1.8000e+000 101840 -1.3889e+001 -7.2814e+001 -8.9557e+000 31538 101555,101742,101814
 1.8000e+000 101863 -2.6165e+001 -6.2295e+001 -1.9751e+001 31538 101555,101814,101373
 1.8000e+000 102111 -3.5740e+001 -1.2545e+002  1.7546e+001 31112 101886,101990,101912
 1.8000e+000 102088 -1.0866e+000 -7.5785e+001 -2.5302e+000 31112 101886,102016,101990
 1.8000e+000 102065 -1.0868e+001 -1.1987e+002  2.2860e+001 31112 101912,101990,101964
 1.8000e+000 102042 -2.1005e+001 -1.3628e+002  2.7122e+001 31112 101912,101964,101938
 1.8000e+000 102408 -6.6735e+000 -5.4715e+001  4.8564e+000 30658 102431,102186,102160
 1.8000e+000 102385 -3.2934e+000 -4.7428e+001 -1.9147e+000 30658 102431,102160,102264
 1.8000e+000 102362 -9.7634e-001 -6.4185e+001  4.5657e+000 30658 102186,102238,102212
 1.8000e+000 102339 -1.8674e+001 -5.7641e+001 -7.6111e+000 30658 102134,102264,102160
 1.8000e+000 102316 -1.0993e+001 -4.5606e+001 -2.4596e+001 30658 102134,102290,102264
 1.8000e+000 102457  5.4847e-001 -6.4129e+001  4.0043e+000 30658 102238,102186,102431
 1.8000e+000 102480  3.1011e+000 -5.8060e+001 -2.8925e+000 30658 102238,102431,102264
 1.8000e+000 102681 -1.9453e+001 -7.5061e+001  8.1338e+000 30004 102704,102557,102505
 1.8000e+000 102658 -1.7728e+001 -7.9220e+001  9.9984e+000 30004 102704,102505,102609
 1.8000e+000 102635 -1.0793e+001 -6.7085e+001 -4.9749e-001 30004 102505,102557,102531
 1.8000e+000 102730 -1.9132e+001 -7.2027e+001  8.0233e+000 30004 102583,102557,102704
 1.8000e+000 102753 -1.6545e+001 -7.4511e+001  1.1041e+001 30004 102583,102704,102609
 1.8000e+000 103003 -2.8552e+000 -6.8311e+001  7.6233e+000 29564 103026,102804,102778
 1.8000e+000 102980  2.7832e+000 -6.9205e+001 -2.9469e-001 29564 103026,102778,102908
 1.8000e+000 102957  9.8929e+000 -5.0200e+001  9.3742e-001 29564 102856,102908,102882
 1.8000e+000 102934 -5.8455e+000 -6.8263e+001  1.1005e+001 29564 102804,102856,102830
 1.8000e+000 103052  8.4006e+000 -6.3685e+001  8.0839e+000 29564 102856,102804,103026
 1.8000e+000 103075  8.3627e+000 -6.7369e+001 -1.6349e-001 29564 102856,103026,102908
 1.8000e+000 103634 -3.7293e+001 -9.1784e+001 -2.0847e+001 29160 103657,103418,103392
 1.8000e+000 103611 -3.5134e+001 -8.7899e+001 -1.3191e+001 29160 103657,103392,103314
 1.8000e+000 103588 -1.3310e+001 -8.3479e+001 -1.9904e+001 29160 103314,103392,103366
 1.8000e+000 103565 -2.6767e+001 -9.3976e+001 -1.4010e+001 29160 103314,103366,103340
 1.8000e+000 103542 -5.2112e+001 -8.6924e+001 -1.8406e+001 29160 103262,103444,103314
 1.8000e+000 103519 -6.3788e+001 -1.0354e+002 -3.2843e+001 29160 103262,103314,103288
 1.8000e+000 103496 -3.2383e+001 -9.4719e+001 -1.1491e+001 29160 103262,103470,103444
 1.8000e+000 103683 -4.8600e+001 -1.0022e+002 -2.8330e+001 29160 103444,103418,103657
 1.8000e+000 103706 -3.9831e+001 -8.7691e+001 -1.9575e+001 29160 103444,103657,103314
 1.8000e+000 104035  1.0054e+001 -5.6371e+001  1.0375e+001 28770 103836,103914,103862
 1.8000e+000 104012 -1.2482e+000 -6.1532e+001  8.7271e+000 28770 103810,103914,103836
 1.8000e+000 103989  3.3848e+001 -5.3738e+001  1.3720e+001 28770 103810,103940,103914
 1.8000e+000 103966  1.7216e+001 -4.6477e+001  1.3504e+001 28770 103862,103914,103888
 1.8000e+000 104185 -6.9246e+000 -9.1049e+001 -1.5775e+000 28366 104208,104110,104084
 1.8000e+000 104162  1.4602e+001 -6.6241e+001  1.2291e+001 28366 104280,104208,104084
 1.8000e+000 104234  7.3114e+000 -7.5890e+001 -3.1421e+000 28366 104610,104208,104136
 1.8000e+000 104257 -2.2877e+001 -8.7684e+001  2.4642e+000 28366 104538,104410,104208
 1.8000e+000 104306 -2.9536e+001 -8.9440e+001  2.9124e+000 28366 104538,104208,104280
 1.8000e+000 104436 -5.4692e+000 -7.5156e+001 -8.0691e+000 28366 104136,104208,104410
 1.8000e+000 104564 -2.9949e+001 -8.5902e+001 -1.2386e+000 28366 104058,104410,104538
 1.8000e+000 104587 -3.3756e+001 -8.5925e+001 -1.3836e+000 28366 104058,104538,104280
 1.8000e+000 104636 -1.8913e+001 -8.6480e+001 -8.4276e-001 28366 104110,104208,104610
 1.8000e+000 105349  5.2907e+000 -7.9001e+001 -7.2266e+000 27976 105516,105372,105107
 1.8000e+000 105326 -1.5280e+001 -6.8135e+001  5.5409e+000 27976 105588,105372,105055
 1.8000e+000 105303 -3.5062e+001 -7.1137e+001 -2.4811e+001 27976 105444,105159,105133
 1.8000e+000 105280  2.2319e+001 -9.1964e+001  3.6378e+000 27976 105516,105107,105081
 1.8000e+000 105257 -1.2524e+001 -7.5293e+001  1.0931e+001 27976 105588,105055,105029
 1.8000e+000 105234 -3.9526e+000 -4.8668e+001  6.3681e-001 27976 105003,105185,105159
 1.8000e+000 105211 -1.0513e+001 -3.1784e+001  1.2257e+001 27976 104977,105185,105003
 1.8000e+000 105398  2.9705e+001 -7.1855e+001 -1.9787e+001 27976 105133,105107,105372
 1.8000e+000 105421 -1.2099e+001 -8.8041e+001 -1.4917e+001 27976 105444,105133,105372
 1.8000e+000 105470 -1.3209e+001 -4.1833e+001 -1.3258e+001 27976 105003,105159,105444
 1.8000e+000 105493  2.6626e+000 -6.1831e+001 -8.3635e+000 27976 105003,105444,105372
 1.8000e+000 105542  1.7948e+001 -6.3850e+001  1.9734e+000 27976 105055,105372,105516
 1.8000e+000 105565  3.8869e+001 -7.6869e+001  1.2371e+001 27976 105055,105516,105081
 1.8000e+000 105614 -2.0609e+001 -7.5066e+001  8.8363e+000 27976 105003,105372,105588
 1.8000e+000 105637 -1.9237e+001 -8.2322e+001  1.4633e+001 27976 105003,105588,105029
 1.8000e+000 106143 -5.5305e+000 -9.7623e+001 -7.7670e-001 27664 106166,105846,105820
 1.8000e+000 106120 -1.0688e+001 -8.7611e+001  2.7941e+000 27664 106310,106166,105820
 1.8000e+000 106097 -1.6209e+000 -8.3506e+001 -1.3043e+001 27664 106382,106238,105950
 1.8000e+000 106074  6.2808e+000 -9.4417e+001  9.9907e+000 27664 106310,105820,106002
 1.8000e+000 106051  1.4006e+001 -7.5888e+001 -1.0674e+001 27664 106382,105950,105924
 1.8000e+000 106028 -9.5103e+000 -1.4826e+002 -7.8007e+000 27664 105846,105898,105872
 1.8000e+000 106192 -2.1858e+001 -1.1509e+002 -1.8646e+001 27664 105898,105846,106166
 1.8000e+000 106215 -4.5691e+000 -8.8665e+001 -1.2529e+000 27664 106238,105898,106166
 1.8000e+000 106264 -3.7468e+001 -9.4174e+001 -1.6542e+001 27664 105976,105950,106238
 1.8000e+000 106287 -7.7211e+000 -9.3352e+001  5.0800e-001 27664 105976,106238,106166
 1.8000e+000 106336  5.6151e+000 -7.9250e+001  1.3849e+001 27664 105976,106166,106310
 1.8000e+000 106359  2.3826e+001 -8.5780e+001  2.0758e+001 27664 105976,106310,106002
 1.8000e+000 106408 -9.4287e+000 -7.2293e+001  4.4939e+000 27664 105898,106238,106382
 1.8000e+000 106431  4.1465e-001 -6.7866e+001  5.4600e+000 27664 105898,106382,105924
 1.8000e+000 106728 -1.0058e+001 -5.7278e+001  9.3212e+000 27153 106751,106506,106454
 1.8000e+000 106705 -9.5049e+000 -5.9242e+001  5.8198e+000 27153 106751,106454,106610
 1.8000e+000 106682 -1.7578e+001 -4.5084e+001 -4.0831e-001 27153 106454,106506,106480
 1.8000e+000 106659 -2.3415e+000 -5.5615e+001  8.3434e+000 27153 106532,106610,106584
 1.8000e+000 106636 -2.4143e+001 -3.5717e+001  1.2296e+001 27153 106532,106584,106558
 1.8000e+000 106777 -5.7354e+000 -5.4754e+001  1.0544e+001 27153 106532,106506,106751
 1.8000e+000 106800 -6.4191e+000 -5.7581e+001  6.4866e+000 27153 106532,106751,106610
 1.8000e+000 107180 -2.5991e+001 -8.5616e+001 -7.4909e+000 26642 107203,106984,106958
 1.8000e+000 107157 -4.1682e+001 -9.1589e+001 -5.0694e+000 26642 107203,106958,106932
 1.8000e+000 107134 -4.6627e+001 -9.2844e+001 -1.5248e+001 26642 107275,107036,107010
 1.8000e+000 107111 -3.1736e+001 -8.7453e+001 -1.7494e+001 26642 106932,107062,107036
 1.8000e+000 107088 -7.2291e-001 -6.6391e+001  7.9187e+000 26642 106906,107062,106932
 1.8000e+000 107229 -1.5031e+001 -7.5707e+001 -2.5493e+001 26642 107010,106984,107203
 1.8000e+000 107252 -4.3932e+001 -9.3421e+001 -1.8034e+001 26642 107275,107010,107203
 1.8000e+000 107301 -4.2256e+001 -9.1331e+001 -1.5944e+001 26642 106932,107036,107275
 1.8000e+000 107324 -3.9343e+001 -9.2658e+001 -1.7453e+001 26642 106932,107275,107203
 1.8000e+000 107675 -6.5910e+000 -3.4211e+001  5.8666e+000 26045 107450,107554,107476
 1.8000e+000 107652  1.5689e+000 -2.6660e+001  2.1216e+000 26045 107450,107580,107554
 1.8000e+000 107629  3.7669e+000  2.7961e+001 -1.4851e+001 26045 107476,107528,107502
 1.8000e+000 107606  1.4362e+001 -2.7467e+001  4.6623e+000 26045 107476,107554,107528
 1.8000e+000 107874  2.5953e+001 -7.0822e+001  4.6242e+001 25641 107750,107802,107776
 1.8000e+000 107851 -5.8217e+000 -5.6942e+001  1.5353e+001 25641 107724,107802,107750
 1.8000e+000 107828 -3.7894e+000 -5.5749e+001  1.5924e+001 25641 107698,107802,107724
 1.8000e+000 108431 -3.4250e+000 -8.4264e+001  1.2440e+001 25023 108526,108267,108241
 1.8000e+000 108408  1.7592e+001 -7.7274e+001  4.4196e+000 25023 108059,108267,108085
 1.8000e+000 108385 -4.4212e+000 -9.4584e+001  4.7454e+000 25023 108454,108163,108111
 1.8000e+000 108362 -6.2009e+000 -8.7696e+001  1.3199e+001 25023 108454,108111,108085
 1.8000e+000 108339  1.7325e+001 -1.0983e+002  1.0792e+001 25023 108111,108163,108137
 1.8000e+000 108316 -2.8772e+001 -8.3632e+001 -8.4556e+000 25023 108163,108241,108215
 1.8000e+000 108293  1.8031e+001 -5.8043e+001  2.0183e+001 25023 108163,108215,108189
 1.8000e+000 108480  2.2811e+000 -8.0364e+001  2.6606e+000 25023 108241,108163,108454
 1.8000e+000 108503 -3.7335e+000 -8.3406e+001  1.2142e+001 25023 108526,108241,108454
 1.8000e+000 108552 -3.5772e+000 -8.5463e+001  1.2400e+001 25023 108085,108267,108526
 1.8000e+000 108575 -3.9320e+000 -8.4676e+001  1.2082e+001 25023 108085,108526,108454
 1.8000e+000 108823  1.7191e+001 -3.9989e+001  1.0553e+001 24461 108624,108728,108650
 1.8000e+000 108800  8.9809e+000 -1.0431e+002 -6.7382e+000 24461 108598,108728,108624
 1.8000e+000 108777  1.5427e+001 -7.9305e+001  5.6509e+000 24461 108650,108728,108676
 1.8000e+000 108754 -1.6074e+001 -1.8443e+002  8.8220e+000 24461 108676,108728,108702
 1.8000e+000 109022 -1.8369e+001 -4.8551e+001 -2.5832e-001 24121 108872,108924,108898
 1.8000e+000 108999  8.8409e+000 -7.8048e+001 -4.3677e+000 24121 108846,108924,108872
 1.8000e+000 108976 -8.6007e+000 -8.9769e+001  7.0665e+000 24121 108846,108950,108924
 1.8000e+000 109483 -2.9416e+001 -9.3487e+001 -1.2335e+001 23717 109209,109339,109235
 1.8000e+000 109460 -1.4828e+001 -1.0601e+002 -2.3353e+001 23717 109209,109365,109339
 1.8000e+000 109437 -1.2002e+001 -1.0758e+002 -6.1539e+000 23717 109287,109339,109313
 1.8000e+000 109414 -5.4238e+001 -1.1426e+002 -6.3279e-001 23717 109235,109339,109287
 1.8000e+000 109391 -1.4581e+001 -1.3177e+002  3.1309e+001 23717 109235,109287,109261
 1.8000e+000 109910 -2.5378e+001 -1.1214e+002 -5.4458e+000 23305 109613,109743,109717
 1.8000e+000 109887 -3.8508e+001 -1.1682e+002 -1.0221e+001 23305 109613,109769,109743
 1.8000e+000 109864 -5.0300e+001 -1.0527e+002  6.7030e-001 23305 109613,109717,109639
 1.8000e+000 109841 -2.4854e+001 -9.8873e+001 -4.0196e+000 23305 109587,109769,109613
 1.8000e+000 109818  2.8616e+000 -8.2225e+001 -1.0463e+001 23305 109639,109717,109691
 1.8000e+000 109795 -1.3547e+001 -1.0448e+002  8.2776e+000 23305 109639,109691,109665
 1.8000e+000 110180 -2.3117e+001 -7.7359e+001  4.7710e-001 22851 110007,110059,110033
 1.8000e+000 110157 -4.2890e+001 -1.2500e+002  1.5610e+000 22851 109981,110059,110007
 1.8000e+000 110134 -5.2291e+001 -1.3156e+002 -1.4279e+000 22851 109955,110059,109981
 1.8000e+000 110111 -2.3005e+001 -1.3341e+002 -1.4553e+001 22851 109955,110085,110059
 1.8000e+000 110737 -9.1581e+000 -8.6378e+001 -4.2011e+000 22333 110760,110469,110391
 1.8000e+000 110714 -1.9965e+000 -8.1450e+001 -6.3652e+000 22333 110760,110391,110365
 1.8000e+000 110691  6.0084e+000 -7.9599e+001 -3.9494e+000 22333 110832,110521,110469
 1.8000e+000 110668  1.2614e+001 -1.3627e+002 -2.2583e+000 22333 110417,110469,110443
 1.8000e+000 110645 -2.6615e+001 -1.2711e+002 -3.1094e+000 22333 110391,110469,110417
 1.8000e+000 110622  1.9796e+001 -7.5018e+001 -1.0010e+000 22333 110469,110521,110495
 1.8000e+000 110599 -4.5007e+000 -6.9607e+001 -1.6682e+001 22333 110365,110573,110547
 1.8000e+000 110786 -1.5790e+000 -7.8552e+001 -1.0763e+000 22333 110832,110469,110760
 1.8000e+000 110809 -1.4871e+001 -9.1629e+001 -1.3583e+001 22333 110547,110760,110365
 1.8000e+000 110858  2.6963e+001 -8.0041e+001 -1.0460e+001 22333 110547,110521,110832
 1.8000e+000 110881  7.7564e+000 -8.4643e+001 -1.0763e+001 22333 110547,110832,110760
 1.8000e+000 111308 -4.6626e+001 -1.0493e+002  1.2987e+000 21829 111331,111063,111011
 1.8000e+000 111285 -5.1938e+001 -1.0122e+002 -6.3849e+000 21829 111331,111011,111167
 1.8000e+000 111262 -5.1004e+001 -1.0768e+002 -1.5574e+000 21829 111403,111089,111063
 1.8000e+000 111239 -5.9300e+001 -1.2171e+002  8.0896e+000 21829 111011,111063,111037
 1.8000e+000 111216 -3.7548e+001 -8.6926e+001  2.5244e-001 21829 110985,111167,111011
 1.8000e+000 111193 -6.4650e+001 -1.7608e+002  1.9804e+001 21829 111089,111141,111115
 1.8000e+000 111357 -5.0537e+001 -1.0814e+002 -1.5812e+000 21829 111403,111063,111331
 1.8000e+000 111380 -5.4003e+001 -1.1084e+002 -8.5988e+000 21829 111141,111331,111167
 1.8000e+000 111429 -5.3509e+001 -1.0842e+002 -1.8176e+000 21829 111141,111089,111403
 1.8000e+000 111452 -5.1617e+001 -1.0779e+002 -1.4901e+000 21829 111141,111403,111331
 1.8000e+000 112056  3.2765e+001 -8.1448e+001  4.8192e-001 21489 111687,111765,111739
 1.8000e+000 112033  9.0291e+000 -9.6069e+001  4.3921e+000 21489 112151,112079,111687
 1.8000e+000 112010  1.5166e+000 -1.4695e+002  2.0254e+000 21489 111791,111843,111817
 1.8000e+000 111987 -2.2670e+001 -1.2099e+002 -1.4236e+001 21489 112079,111843,111791
 1.8000e+000 111964  2.1776e+001 -8.7868e+001  1.1649e+001 21489 112151,111687,111661
 1.8000e+000 111941 -1.3240e+001 -6.7160e+001  6.5844e+000 21489 111661,111869,111843
 1.8000e+000 111918  3.4907e+001 -8.7898e+001  1.1825e+001 21489 111687,111739,111713
 1.8000e+000 111895 -4.6545e+000 -4.7513e+001 -9.3329e+000 21489 111635,111869,111661
 1.8000e+000 112105 -1.2100e+001 -1.0031e+002  1.7199e+000 21489 111765,111687,112079
 1.8000e+000 112128 -1.2888e+001 -9.9690e+001  2.2999e+000 21489 111765,112079,111791
 1.8000e+000 112177 -1.1694e+001 -9.3080e+001 -8.1977e+000 21489 111843,112079,112151
 1.8000e+000 112200 -5.6720e-001 -8.9415e+001 -2.3932e+000 21489 111843,112151,111661
 1.8000e+000 112578 -3.0282e+000 -1.1234e+002  2.6664e+000 21177 112382,112434,112408
 1.8000e+000 112555 -2.1368e+000 -1.0443e+002  1.2419e+000 21177 112330,112434,112382
 1.8000e+000 112532  1.1265e+001 -9.2868e+001  9.3514e+000 21177 112304,112434,112330
 1.8000e+000 112509  1.7410e+000 -1.1039e+002  0.0000e+000 21177 112330,112382,112356
 1.8000e+000 112486  3.5806e+001 -8.4191e+001  4.7825e+000 21177 112304,112460,112434
 1.8000e+000 112679 -4.3069e+000 -1.3519e+002 -1.1706e+001 20666 112601,112653,112627
 1.8000e+000 112927 -2.3268e+001 -1.2007e+002 -3.3696e+000 19762 112702,112754,112728
 1.8000e+000 112904  4.0364e+001 -1.1903e+002 -1.5494e+001 19762 112702,112832,112754
 1.8000e+000 112881  7.5171e-001 -1.2200e+002  4.3545e+001 19762 112754,112832,112806
 1.8000e+000 112858 -2.3045e+001 -1.5180e+002  2.5082e+001 19762 112754,112806,112780
 1.8000e+000 113297 -8.3124e+000 -1.1584e+002  8.1056e+000 19308 112974,113052,113026
 1.8000e+000 113274 -4.6255e+000 -1.1418e+002  6.9131e+000 19308 112974,113156,113052
 1.8000e+000 113251 -1.8014e+001 -1.0988e+002  2.8756e-001 19308 113052,113130,113104
 1.8000e+000 113228  1.3435e+001 -7.9287e+001  1.3946e+001 19308 113052,113156,113130
 1.8000e+000 113205 -1.6742e+001 -1.0987e+002  0.0000e+000 19308 113052,113104,113078
 1.8000e+000 113182 -9.7548e+000 -1.1465e+002  6.6900e+000 19308 112974,113026,113000
 1.8000e+000 113547 -3.4344e+001 -1.1027e+002 -3.3493e+000 18711 113570,113374,113348
 1.8000e+000 113524 -3.0446e+001 -1.1448e+002 -4.5860e+000 18711 113570,113348,113452
 1.8000e+000 113501 -2.6650e+001 -8.5001e+001 -2.4197e+001 18711 113322,113452,113348
 1.8000e+000 113478 -4.7091e+001 -1.3330e+002 -2.6447e+000 18711 113374,113426,113400
 1.8000e+000 113596 -3.8864e+001 -1.1437e+002 -1.6334e+000 18711 113426,113374,113570
 1.8000e+000 113619 -3.2893e+001 -1.1669e+002 -3.5728e+000 18711 113426,113570,113452
 1.8000e+000 113771 -2.1106e+001 -1.1394e+002 -1.6989e+000 18307 113670,113722,113696
 1.8000e+000 113748 -1.8483e+001 -1.2871e+002 -4.6449e+000 18307 113644,113722,113670
 1.8000e+000 113972  4.2198e+000 -1.1283e+002 -8.7525e-001 17945 113822,113874,113848
 1.8000e+000 113949 -2.4106e+001 -1.1895e+002 -6.4035e-001 17945 113822,113900,113874
 1.8000e+000 113926 -3.8601e+001 -1.3425e+002  1.8021e+001 17945 113796,113900,113822
 1.8000e+000 114075 -4.8016e+000 -8.6987e+001  6.2757e+000 17482 113997,114049,114023
 1.8000e+000 114479  4.8776e+000 -1.0927e+002 -1.4997e+000 17042 114257,114361,114335
 1.8000e+000 114456  2.4677e+001 -8.9843e+001 -1.2379e+001 17042 114205,114361,114257
 1.8000e+000 114433  4.5926e+000 -1.1524e+002 -1.1964e+000 17042 114205,114257,114231
 1.8000e+000 114410  1.3678e+001 -1.5357e+002 -1.0637e+001 17042 114283,114335,114309
 1.8000e+000 114387 -9.6711e+000 -1.2152e+002 -9.5897e+000 17042 114257,114335,114283
 1.8000e+000 114879 -4.9721e+001 -1.1804e+002 -2.9003e+000 16638 114631,114683,114657
 1.8000e+000 114856  3.4466e+000 -9.4705e+001 -5.8077e+000 16638 114605,114683,114631
 1.8000e+000 114833  5.7677e+000 -7.1084e+001  1.3438e-001 16638 114605,114761,114683
 1.8000e+000 114810 -1.2343e+001 -1.1390e+002 -4.2082e+000 16638 114683,114735,114709
 1.8000e+000 114787 -2.7344e+001 -1.3075e+002 -1.3345e+001 16638 114683,114761,114735
 1.8000e+000 115078 -2.8120e+001 -8.4549e+001  5.2220e+000 16232 114954,115006,114980
 1.8000e+000 115055 -2.0140e+001 -1.1269e+002  9.9098e+000 16232 114928,115006,114954
 1.8000e+000 115032  1.0938e+001 -1.5485e+002  1.5531e+001 16232 114902,115006,114928
 1.8000e+000 115228 -5.0375e+001 -1.1174e+002 -1.2560e+000 15482 115101,115153,115127
 1.8000e+000 115205 -3.6900e+001 -1.0278e+002 -5.6572e+000 15482 115101,115179,115153
 1.8000e+000 115331 -1.7860e+001 -1.0833e+002 -1.3282e+001 15163 115253,115305,115279
 1.8000e+000 115434 -2.9679e+001 -1.2027e+002  1.3257e+001 421 115356,115408,115382
 1.9000e+000 68213  5.0009e-001 -6.8452e+001 -3.2935e+000 67888 68112,68164,68138
 1.9000e+000 68190 -3.6027e+001 -8.1726e+001 -3.1335e+000 67888 68086,68164,68112
 1.9000e+000 68314 -1.5527e+001 -1.4283e+002  1.7750e+001 67576 68236,68288,68262
 1.9000e+000 68584 -2.3382e+001 -1.4973e+002  9.4878e+000 67378 68385,68489,68463
 1.9000e+000 68561  4.9958e+001 -1.1719e+002  3.7292e+000 67378 68359,68489,68385
 1.9000e+000 68538 -1.5848e+001 -1.1798e+002  1.2656e+001 67378 68385,68463,68411
 1.9000e+000 68515 -6.6148e+000 -8.0010e+001  9.3732e+000 67378 68411,68463,68437
 1.9000e+000 68964 -1.8852e+001 -1.4151e+002  2.6953e+001 67130 68690,68820,68716
 1.9000e+000 68941  6.6484e+001 -1.4717e+002  5.1872e+001 67130 68690,68846,68820
 1.9000e+000 68918  4.5520e+000 -8.8434e+001  3.0144e+000 67130 68742,68820,68794
 1.9000e+000 68895  2.9186e+001 -8.4583e+001  6.2595e+000 67130 68716,68820,68742
 1.9000e+000 68872  2.4419e+001 -4.2153e+001  1.1607e+000 67130 68742,68794,68768
 1.9000e+000 69065 -2.0573e+001 -9.0441e+001  2.0726e+000 66926 68987,69039,69013
 1.9000e+000 69445 -9.0603e+000 -8.7608e+001 -3.2375e+000 66614 69223,69301,69275
 1.9000e+000 69422 -1.9456e+001 -9.2162e+001 -2.4273e+000 66614 69171,69301,69223
 1.9000e+000 69399 -2.4240e+001 -9.1435e+001 -4.4836e-002 66614 69171,69327,69301
 1.9000e+000 69376  4.9465e-002 -4.4875e+001  3.1627e+000 66614 69223,69275,69249
 1.9000e+000 69353 -1.5046e+001 -9.8829e+001 -2.3399e+000 66614 69171,69223,69197
 1.9000e+000 69546  1.1291e+001 -1.2767e+002  1.7171e+001 66416 69468,69520,69494
 1.9000e+000 69997 -5.5774e+000 -1.1547e+002 -1.2641e+001 66104 69700,69830,69726
 1.9000e+000 69974 -1.0749e+001 -1.6163e+002 -2.9231e+001 66104 69700,69856,69830
 1.9000e+000 69951 -1.3507e+001 -9.3279e+001 -6.6984e+000 66104 69726,69804,69778
 1.9000e+000 69928 -7.4176e+000 -1.1287e+002 -9.0590e+000 66104 69726,69830,69804
 1.9000e+000 69905 -8.5350e+000 -7.7100e+001  4.2628e+000 66104 69726,69778,69752
 1.9000e+000 69882 -1.0259e+000 -2.5437e+002 -4.3171e+001 66104 69674,69856,69700
 1.9000e+000 70326 -1.3995e+001 -4.1513e+001 -1.0274e+001 65814 70349,70153,70127
 1.9000e+000 70303  1.3242e+001 -4.3861e+001 -8.0475e-001 65814 70349,70127,70101
 1.9000e+000 70280  3.9289e+001 -1.2431e+001  2.9292e+001 65814 70101,70231,70205
 1.9000e+000 70257  4.6108e+001 -3.8692e+001  1.1064e+001 65814 70153,70205,70179
 1.9000e+000 70375 -3.8209e-001 -4.2402e+001  8.5569e+000 65814 70205,70153,70349
 1.9000e+000 70398  3.8321e+001 -4.0447e+001  1.5663e+001 65814 70205,70349,70101
 1.9000e+000 70904 -1.5806e+000 -1.6830e+001 -5.1894e+000 65502 70607,70737,70685
 1.9000e+000 70881  8.3875e+000  8.2282e+000 -1.6957e+001 65502 70581,70737,70607
 1.9000e+000 70858  6.5431e+000  3.4932e+001  1.4639e+000 65502 70581,70763,70737
 1.9000e+000 70835 -6.5089e+000 -1.9276e+001 -6.5882e+000 65502 70685,70737,70711
 1.9000e+000 70812  3.5766e+001 -1.0165e+000 -1.4879e+001 65502 70607,70659,70633
 1.9000e+000 70789  6.0713e+000 -2.7145e+000 -1.7053e+001 65502 70607,70685,70659
 1.9000e+000 71103 -1.5296e+001 -1.1753e+002 -5.5622e+000 65304 71126,70979,70953
 1.9000e+000 71080 -2.5884e+001 -1.1690e+002 -3.9714e+000 65304 71126,70953,70927
 1.9000e+000 71057 -4.0815e+001 -1.3157e+002  1.8864e+000 65304 70927,71031,71005
 1.9000e+000 71152 -2.5840e+001 -1.1300e+002 -8.6397e+000 65304 71005,70979,71126
 1.9000e+000 71175 -3.7588e+001 -1.1377e+002 -4.6861e+000 65304 71005,71126,70927
 1.9000e+000 71374 -4.5539e+000 -1.0326e+002  2.9825e+000 65106 71198,71276,71224
 1.9000e+000 71351  1.5220e+001 -9.9622e+001  3.9263e+000 65106 71198,71302,71276
 1.9000e+000 71328  1.0760e+000 -8.6971e+001  1.5432e+001 65106 71224,71276,71250
 1.9000e+000 71756 -5.9656e+000 -6.9788e+001 -1.0953e+001 64652 71508,71638,71534
 1.9000e+000 71733 -1.7493e+000 -6.7711e+001  2.4385e+000 64652 71482,71638,71508
 1.9000e+000 71710 -1.1886e+001 -4.9050e+001 -2.5702e+000 64652 71534,71586,71560
 1.9000e+000 71687 -1.8240e+000 -6.3873e+001 -1.8202e+001 64652 71534,71612,71586
 1.9000e+000 71664 -3.3111e+001 -7.2666e+001 -2.0272e+001 64652 71534,71638,71612
 1.9000e+000 72085 -1.9384e+001 -7.6079e+001 -1.1430e+001 64248 71886,71964,71912
 1.9000e+000 72062  8.2354e+000 -6.2086e+001 -1.6236e+001 64248 71860,71964,71886
 1.9000e+000 72039 -2.2349e+000 -6.4719e+001 -5.5652e+000 64248 71912,71964,71938
 1.9000e+000 72016 -1.5418e+001 -8.0100e+001 -6.9580e+000 64248 71860,71990,71964
 1.9000e+000 72235 -2.4725e+000 -3.3248e+001 -7.4682e+000 63858 72588,72258,72134
 1.9000e+000 72212  2.9020e-001 -6.5053e+000  9.7386e+000 63858 72330,72258,72108
 1.9000e+000 72284  4.7485e+000 -1.0931e+001 -1.3530e+000 63858 72160,72134,72258
 1.9000e+000 72307 -1.4620e+001 -2.4386e+001 -8.6743e+000 63858 72460,72258,72186
 1.9000e+000 72356 -1.2131e+001 -1.4758e+001  6.7763e-001 63858 72186,72258,72330
 1.9000e+000 72486 -2.9648e+000 -3.0848e+001 -2.4174e+000 63858 72160,72258,72460
 1.9000e+000 72614  6.6806e+000 -3.5701e+001  9.8279e+000 63858 72108,72258,72588
 1.9000e+000 73248  7.3922e+000 -6.4180e+001  1.9900e+001 63404 72902,72954,72928
 1.9000e+000 73225 -1.8886e+001 -7.1170e+001  8.1261e+000 63404 73271,72954,72902
 1.9000e+000 73202 -1.4334e+001 -6.2449e+001  6.3065e+000 63404 73271,72902,73032
 1.9000e+000 73179 -1.1317e+001 -4.5731e+001 -1.0184e+001 63404 72902,73058,73032
 1.9000e+000 73156 -3.9572e+001 -8.7834e+001 -2.5736e+001 63404 72980,73032,73006
 1.9000e+000 73133 -1.7536e+001 -6.0360e+000  6.2146e+000 63404 72876,73058,72902
 1.9000e+000 73110 -3.4296e+001 -5.0365e+001  3.1711e+001 63404 72876,73084,73058
 1.9000e+000 73297 -1.3552e+001 -7.1730e+001  2.3522e+000 63404 72980,72954,73271
 1.9000e+000 73320 -1.1489e+001 -6.7460e+001  1.5223e+000 63404 72980,73271,73032
 1.9000e+000 73470 -3.0957e+001 -2.3014e+002  2.2482e+001 63014 73343,73395,73369
 1.9000e+000 73447 -1.0704e+002 -2.9774e+002 -8.9822e+000 63014 73343,73421,73395
 1.9000e+000 73929  4.2448e+001 -9.5506e+001  1.2841e+001 62702 73759,73811,73785
 1.9000e+000 73906  4.4336e+001 -9.5677e+001  1.0190e+001 62702 73655,73811,73759
 1.9000e+000 73883  2.0154e+001 -1.1362e+002 -9.9013e-001 62702 73655,73759,73681
 1.9000e+000 73860  3.8755e+001 -7.6479e+001 -2.5823e+001 62702 73681,73759,73707
 1.9000e+000 73837 -2.6393e+001 -9.1990e+001  3.1884e-001 62702 73707,73759,73733
 1.9000e+000 74209 -5.0591e+001 -9.8292e+001 -1.6934e-001 62404 74059,74137,74085
 1.9000e+000 74186 -6.4004e+001 -1.3869e+002  1.9115e+001 62404 74033,74137,74059
 1.9000e+000 74163 -5.3308e+001 -8.1928e+001  4.5076e-001 62404 74085,74137,74111
 1.9000e+000 74408  9.5007e+000 -6.4665e+001  3.5648e+000 62000 74258,74336,74284
 1.9000e+000 74385 -1.7950e+000 -6.7581e+001  8.3932e+000 62000 74232,74336,74258
 1.9000e+000 74362 -8.9188e+000 -6.2817e+001 -2.6630e+000 62000 74284,74336,74310
 1.9000e+000 74509  1.4289e+001 -1.2748e+002  2.1561e+001 61802 74431,74483,74457
 1.9000e+000 74759 -2.3960e+001 -9.0289e+001 -1.2131e+000 61554 74782,74586,74560
 1.9000e+000 74736 -7.2361e+000 -7.8411e+001  4.4911e+000 61554 74782,74560,74664
 1.9000e+000 74713 -1.9117e+001 -5.3493e+001  3.6699e+001 61554 74854,74612,74586
 1.9000e+000 74690 -1.5769e+001 -9.0616e+001 -3.3213e-002 61554 74534,74664,74560
 1.9000e+000 74808 -3.5838e+001 -7.7559e+001  8.7905e+000 61554 74854,74586,74782
 1.9000e+000 74831 -1.0573e+001 -1.0410e+002  6.9522e+000 61554 74638,74782,74664
 1.9000e+000 74880  1.7024e+001 -7.8200e+001  3.9460e+001 61554 74638,74612,74854
 1.9000e+000 74903  1.6326e+001 -7.5749e+001  1.8470e+001 61554 74638,74854,74782
 1.9000e+000 75285  3.1995e+001 -1.0071e+002 -5.2718e-001 61356 75063,75167,75115
 1.9000e+000 75262  2.0936e+001 -1.1449e+002 -1.5694e+001 61356 75037,75167,75063
 1.9000e+000 75239  3.7645e+001 -1.0531e+002  6.0824e-002 61356 75115,75167,75141
 1.9000e+000 75216  2.3270e+001 -1.0177e+002  1.9682e-001 61356 75063,75115,75089
 1.9000e+000 75193 -3.4729e+001 -6.4148e+001  1.2112e+001 61356 75011,75167,75037
 1.9000e+000 75631  2.0909e+001 -8.2792e+001  4.7675e+000 60952 75654,75412,75360
 1.9000e+000 75608  2.0641e+001 -9.5848e+001  5.4875e-002 60952 75654,75360,75334
 1.9000e+000 75585  1.0654e+001 -1.2277e+002  2.5901e+000 60952 75726,75438,75412
 1.9000e+000 75562  3.6574e+001 -8.5255e+001 -2.1382e+001 60952 75308,75490,75334
 1.9000e+000 75539  2.0430e+001 -8.0632e+001 -1.0627e+000 60952 75360,75412,75386
 1.9000e+000 75516 -1.1760e+001 -1.5471e+002 -3.2767e+000 60952 75438,75490,75464
 1.9000e+000 75680  2.0163e+001 -9.9549e+001  5.2740e+000 60952 75726,75412,75654
 1.9000e+000 75703  2.0322e+001 -9.5596e+001  6.4808e-002 60952 75490,75654,75334
 1.9000e+000 75752  1.0620e+001 -9.6816e+001 -3.1872e+000 60952 75490,75438,75726
 1.9000e+000 75775  1.0966e+001 -9.6268e+001 -2.8376e+000 60952 75490,75726,75654
 1.9000e+000 76155  9.7813e+000 -7.0549e+001 -8.5806e+000 60754 75933,75985,75959
 1.9000e+000 76132 -3.7864e+000 -7.9803e+001  1.1129e+001 60754 75933,76037,75985
 1.9000e+000 76109  2.6566e+001 -7.5452e+001  3.1572e+000 60754 75985,76037,76011
 1.9000e+000 76086 -2.1766e+001 -6.1275e+001  1.1183e+000 60754 75881,76037,75933
 1.9000e+000 76063 -3.8527e+001 -5.5283e+001  2.0191e+001 60754 75881,75933,75907
 1.9000e+000 76612  1.5833e+001 -5.1534e+001  6.5924e+000 60350 76635,76442,76390
 1.9000e+000 76589  5.6971e+001 -5.2142e+001  1.8898e+001 60350 76635,76390,76364
 1.9000e+000 76566  3.8011e+000 -7.8976e+001  1.3593e+000 60350 76364,76494,76468
 1.9000e+000 76543  2.7450e+001 -4.1369e+001  2.4011e+001 60350 76390,76442,76416
 1.9000e+000 76520  4.6118e+001 -3.0541e+001  1.9377e+001 60350 76338,76494,76364
 1.9000e+000 76661 -1.1564e+001 -4.8504e+001  4.6762e+000 60350 76468,76442,76635
 1.9000e+000 76684  1.5774e+001 -5.9963e+001  1.5863e+001 60350 76468,76635,76364
 1.9000e+000 76932 -2.6424e+001 -1.0496e+002  1.6923e-001 59946 76955,76733,76707
 1.9000e+000 76909 -2.6450e+001 -1.0424e+002  3.5326e+000 59946 77027,76955,76707
 1.9000e+000 76886 -2.5087e+001 -1.0350e+002  3.0032e+000 59946 77027,76707,76837
 1.9000e+000 76863 -1.0302e+001 -1.1103e+002 -9.7921e+000 59946 76733,76785,76759
 1.9000e+000 76981 -3.1457e+001 -1.0601e+002 -1.1809e+000 59946 76785,76733,76955
 1.9000e+000 77004 -2.8348e+001 -1.0649e+002  2.7262e+000 59946 76785,76955,76811
 1.9000e+000 77053 -2.4354e+001 -1.0528e+002  2.3468e+000 59946 76811,76955,77027
 1.9000e+000 77076 -2.2843e+001 -1.0382e+002  1.5633e+000 59946 76811,77027,76837
 1.9000e+000 77226  3.0008e-001 -7.2868e+001  1.2451e-001 59542 77099,77151,77125
 1.9000e+000 77203  6.0729e-001 -7.3868e+001 -8.4713e-001 59542 77099,77177,77151
 1.9000e+000 77427 -4.6752e+001 -8.6436e+001 -8.7849e+000 59030 77450,77277,77251
 1.9000e+000 77404 -2.3514e+001 -6.6087e+001 -3.7755e+001 59030 77450,77251,77355
 1.9000e+000 77381  2.0584e+001 -9.6296e+001 -8.1289e+000 59030 77277,77329,77303
 1.9000e+000 77476 -1.7563e+001 -9.0514e+001 -2.3146e+001 59030 77329,77277,77450
 1.9000e+000 77499  9.8154e+000 -8.1101e+001 -4.6197e+001 59030 77329,77450,77355
 1.9000e+000 77749 -2.7527e+001 -1.2150e+002  1.2528e+001 58426 77772,77628,77602
 1.9000e+000 77726 -2.0660e+001 -1.1526e+002  2.5162e+001 58426 77524,77654,77628
 1.9000e+000 77703 -2.1622e+001 -1.3162e+002  1.0978e+001 58426 77772,77602,77550
 1.9000e+000 77680 -6.1983e+000 -1.2354e+002  2.5269e-001 58426 77550,77602,77576
 1.9000e+000 77798 -2.2418e+001 -1.0842e+002  1.7994e+001 58426 77524,77628,77772
 1.9000e+000 77821 -2.2848e+001 -1.2382e+002  1.4176e+001 58426 77524,77772,77550
 1.9000e+000 78071 -5.2903e+001 -1.2673e+002  1.3048e+001 57922 78094,77924,77898
 1.9000e+000 78048 -6.6064e+001 -1.2313e+002 -6.5547e+000 57922 78094,77898,77872
 1.9000e+000 78025 -4.4560e+001 -1.0515e+002  9.8989e+000 57922 78166,77846,77950
 1.9000e+000 78002  3.8686e+000 -1.0311e+002  1.5414e+001 57922 77846,77976,77950
 1.9000e+000 78120 -3.6971e+001 -1.2152e+002  6.2728e+000 57922 77950,77924,78094
 1.9000e+000 78143 -4.8800e+001 -1.0851e+002  6.6388e+000 57922 78166,77950,78094
 1.9000e+000 78192 -3.8016e+001 -1.1264e+002  3.0561e+000 57922 77872,77846,78166
 1.9000e+000 78215 -4.6608e+001 -1.2033e+002 -1.0334e+000 57922 77872,78166,78094
 1.9000e+000 78416  1.5183e+001 -1.0540e+002 -6.7523e+000 57468 78439,78292,78240
 1.9000e+000 78393  1.4494e+001 -9.8145e+001 -6.9714e+000 57468 78439,78240,78344
 1.9000e+000 78370  5.3725e+000 -1.5229e+002 -5.5322e+000 57468 78240,78292,78266
 1.9000e+000 78465  1.5199e+001 -1.0757e+002 -1.1626e+001 57468 78318,78292,78439
 1.9000e+000 78488  1.4988e+001 -1.0224e+002 -1.0401e+001 57468 78318,78439,78344
 1.9000e+000 78689  2.4081e+001 -1.1875e+002 -1.0533e+001 57014 78712,78539,78513
 1.9000e+000 78666  1.1545e+001 -1.1616e+002 -2.1261e+000 57014 78712,78513,78617
 1.9000e+000 78643  6.3967e+000 -1.1029e+002  9.6560e+000 57014 78565,78617,78591
 1.9000e+000 78738  8.0405e+000 -1.0938e+002 -1.1388e+001 57014 78565,78539,78712
 1.9000e+000 78761 -8.6697e+000 -1.1534e+002  1.6402e+000 57014 78565,78712,78617
 1.9000e+000 79241 -3.4122e+001 -9.5709e+001  2.0896e-001 56652 79264,78895,78869
 1.9000e+000 79218 -1.4906e+001 -1.3484e+002 -1.6618e+001 56652 79264,78869,79051
 1.9000e+000 79195 -2.0756e+001 -1.1814e+002 -3.4547e+001 56652 78869,79077,79051
 1.9000e+000 79172 -2.1678e+001 -5.8308e+001 -8.4939e+000 56652 78895,78973,78947
 1.9000e+000 79149 -4.3992e+001 -1.9187e+002 -1.8214e+001 56652 78973,79051,78999
 1.9000e+000 79126 -2.0701e+001 -5.7258e+001 -8.9032e+000 56652 78895,78947,78921
 1.9000e+000 79103 -2.7494e+001 -1.1210e+002  2.7605e+001 56652 78999,79051,79025
 1.9000e+000 79290 -2.0549e+001 -7.0082e+001  1.5298e+001 56652 78973,78895,79264
 1.9000e+000 79313 -1.0128e+000 -1.1370e+002  8.8277e-002 56652 78973,79264,79051
 1.9000e+000 79512  5.2788e+001 -1.3198e+002  3.3447e+001 56062 79388,79440,79414
 1.9000e+000 79489 -3.3046e+001 -6.9988e+001  3.2223e+001 56062 79336,79440,79388
 1.9000e+000 79466  3.5562e+001 -1.2560e+002  3.8568e+001 56062 79336,79388,79362
 1.9000e+000 79941 -1.4066e+001 -9.2539e+001  1.5441e+001 55658 79964,79670,79644
 1.9000e+000 79918 -2.4668e+001 -9.2450e+001  1.7035e+001 55658 79964,79644,79800
 1.9000e+000 79895 -2.6774e+001 -1.0042e+002  6.3260e+000 55658 80036,79696,79670
 1.9000e+000 79872 -2.7804e+001 -7.6318e+001 -5.5341e-001 55658 80108,79722,79696
 1.9000e+000 79849 -3.9069e+001 -8.4321e+001  1.2796e+000 55658 79722,79774,79748
 1.9000e+000 79826 -2.9416e-001 -8.4221e+001  4.8825e+000 55658 79618,79800,79644
 1.9000e+000 79990 -2.5352e+001 -9.8722e+001  1.1975e+001 55658 80036,79670,79964
 1.9000e+000 80013 -2.3540e+001 -8.8171e+001  1.7347e+001 55658 79774,79964,79800
 1.9000e+000 80062 -2.0899e+001 -8.6143e+001  7.0900e+000 55658 80108,79696,80036
 1.9000e+000 80085 -2.6418e+001 -8.9338e+001  1.6926e+001 55658 79774,80036,79964
 1.9000e+000 80134 -4.2097e+001 -8.8570e+001  4.6613e+000 55658 79774,79722,80108
 1.9000e+000 80157 -3.8002e+001 -9.8991e+001  1.2734e+001 55658 79774,80108,80036
 1.9000e+000 80307 -3.6340e+001 -8.1523e+001  1.3253e+001 55254 80402,80330,80206
 1.9000e+000 80284 -3.7574e+001 -1.1485e+002  9.7382e+000 55254 80330,80180,80258
 1.9000e+000 80356 -4.6815e+001 -1.0535e+002  2.2564e+001 55254 80232,80206,80330
 1.9000e+000 80379 -1.2207e+001 -9.0087e+001  2.6889e+001 55254 80232,80330,80258
 1.9000e+000 80428 -5.4772e+001 -1.0650e+002  3.3403e+000 55254 80180,80330,80402
 1.9000e+000 80659  4.4727e+000 -1.1637e+002 -1.7072e+001 54850 80558,80610,80584
 1.9000e+000 80636  1.9305e+001 -1.0702e+002 -1.2597e+001 54850 80532,80610,80558
 1.9000e+000 80760  4.6121e+000 -9.5381e+001 -1.3213e+000 54652 80682,80734,80708
 1.9000e+000 81164  5.6178e+000 -9.6443e+001  4.4513e+000 54248 81187,80942,80890
 1.9000e+000 81141  1.4058e+001 -1.0456e+002  2.0225e+000 54248 81187,80890,81046
 1.9000e+000 81118 -1.5366e+001 -1.0876e+002  2.2880e+001 54248 80942,81020,80994
 1.9000e+000 81095  1.5660e+000 -1.0199e+002  1.1795e+000 54248 80890,80942,80916
 1.9000e+000 81072  6.7498e+000 -6.6442e+001  5.4429e+000 54248 80942,80994,80968
 1.9000e+000 81213  1.2678e+001 -9.2733e+001  6.2915e+000 54248 81020,80942,81187
 1.9000e+000 81236  2.1915e+001 -9.9651e+001  4.6807e+000 54248 81020,81187,81046
 1.9000e+000 81663 -1.7516e+001 -7.0777e+001  5.2662e+000 53594 81340,81444,81366
 1.9000e+000 81640 -3.3216e+001 -1.3240e+002  9.0725e+000 53594 81340,81470,81444
 1.9000e+000 81617 -2.0213e+001 -1.0857e+002 -3.2413e+001 53594 81340,81522,81470
 1.9000e+000 81594 -1.6688e+001 -4.7556e+001 -6.9450e+000 53594 81392,81444,81418
 1.9000e+000 81571 -2.2418e+001 -6.6801e+001 -1.1466e+001 53594 81366,81444,81392
 1.9000e+000 81548 -3.6215e+000 -1.6204e+002  2.2853e+000 53594 81470,81522,81496
 1.9000e+000 81943 -1.4677e+001 -5.3230e+001 -1.3080e+001 53104 81966,81845,81819
 1.9000e+000 81920 -1.9292e+001 -4.7602e+001 -1.4644e+001 53104 81966,81819,81767
 1.9000e+000 81897 -1.5687e+001 -3.9495e+001 -1.3982e+001 53104 81767,81819,81793
 1.9000e+000 81992 -1.1560e+001 -5.0460e+001 -1.4759e+001 53104 81871,81845,81966
 1.9000e+000 82015 -1.4506e+001 -4.2466e+001 -1.7331e+001 53104 81871,81966,81767
 1.9000e+000 82491 -1.3902e+000 -5.2745e+001 -1.0882e+001 52650 82145,82249,82171
 1.9000e+000 82468 -5.0821e+001 -7.8960e+001 -1.0171e+000 52650 82145,82301,82249
 1.9000e+000 82445 -4.5898e+001 -1.1024e+002 -1.6093e+001 52650 82249,82301,82275
 1.9000e+000 82422 -1.2127e+001 -1.3553e+002 -1.1860e+001 52650 82119,82301,82145
 1.9000e+000 82399 -4.9573e+000 -2.8426e+001  9.8719e+000 52650 82171,82249,82223
 1.9000e+000 82376  3.2920e+001 -1.1538e+002 -2.0291e+001 52650 82119,82327,82301
 1.9000e+000 82353 -1.9776e+000 -1.0480e+001 -3.7444e+000 52650 82171,82223,82197
 1.9000e+000 82739 -1.0344e+001 -3.8417e+001 -3.5234e+000 52246 82762,82540,82514
 1.9000e+000 82716 -1.9865e-001 -2.9434e+001 -7.4881e+000 52246 82762,82514,82644
 1.9000e+000 82693 -1.9706e+001 -5.4300e+001  2.9697e-001 52246 82540,82618,82592
 1.9000e+000 82670 -7.4399e+000 -2.7822e+001 -1.5393e+001 52246 82540,82592,82566
 1.9000e+000 82788 -1.2219e+000 -4.7846e+001  1.4928e+000 52246 82618,82540,82762
 1.9000e+000 82811  7.6132e+000 -4.2321e+001 -9.0644e-001 52246 82618,82762,82644
 1.9000e+000 83059  1.1068e+001 -6.2848e+001  1.3009e+000 51578 82860,82964,82938
 1.9000e+000 83036  1.0713e+001 -6.0627e+001 -1.7427e+001 51578 82834,82964,82860
 1.9000e+000 83013  1.3354e+001 -5.2859e+001  5.9581e+000 51578 82860,82938,82886
 1.9000e+000 82990  1.4421e+001 -4.8893e+001  5.0447e+000 51578 82886,82938,82912
 1.9000e+000 83309 -1.5039e+001 -3.2189e+001  1.6263e+001 51138 83332,83162,83136
 1.9000e+000 83286  4.2666e-002 -4.7917e+001  5.9672e+000 51138 83332,83136,83110
 1.9000e+000 83263 -1.3099e+001 -4.5487e+001  2.2019e+000 51138 83404,83214,83188
 1.9000e+000 83240 -4.2730e-001 -1.1554e+001  1.6009e+000 51138 83084,83214,83110
 1.9000e+000 83358 -3.3782e+001 -5.6063e+001  3.1355e+001 51138 83188,83162,83332
 1.9000e+000 83381 -7.5840e+000 -5.7353e+001  1.2107e+001 51138 83404,83188,83332
 1.9000e+000 83430 -2.3764e+000 -1.3637e+001 -2.9362e+000 51138 83110,83214,83404
 1.9000e+000 83453 -2.4814e+000 -3.3085e+001  7.6512e+000 51138 83110,83404,83332
 1.9000e+000 83835  9.9896e+000 -5.4352e+001 -6.5273e+000 50734 83613,83717,83691
 1.9000e+000 83812  3.6152e+000 -7.1255e+001 -1.8029e+001 50734 83561,83717,83613
 1.9000e+000 83789  1.0280e+001 -1.9598e+001 -2.6889e+001 50734 83561,83613,83587
 1.9000e+000 83766 -3.1980e+000 -3.7979e+001 -7.0534e+000 50734 83613,83691,83639
 1.9000e+000 83743 -5.7386e+000 -3.8880e+001  6.8013e+000 50734 83639,83691,83665
 1.9000e+000 84034  3.2583e+000 -3.3140e+001 -7.8992e+000 50230 84057,83884,83858
 1.9000e+000 84011  2.5404e+000 -3.0384e+001 -6.7764e-001 50230 84129,84057,83858
 1.9000e+000 83988  4.9733e+000 -2.6572e+001 -1.8302e+000 50230 84129,83858,83962
 1.9000e+000 84083 -9.5245e+000 -3.6944e+001 -1.2008e+001 50230 83910,83884,84057
 1.9000e+000 84106 -2.0937e+000 -3.5943e+001 -1.9272e+000 50230 83910,84057,83936
 1.9000e+000 84155  6.6683e+000 -3.5118e+001 -2.0964e+000 50230 83936,84057,84129
 1.9000e+000 84178  8.1799e+000 -3.2043e+001 -2.6306e+000 50230 83936,84129,83962
 1.9000e+000 84558  8.9026e-001 -4.5279e+001 -1.5953e+001 49768 84581,84388,84362
 1.9000e+000 84535 -3.1278e+001 -4.5763e+001 -6.2568e+000 49768 84581,84362,84310
 1.9000e+000 84512  3.0918e+001 -5.0062e+001 -1.7241e+001 49768 84653,84440,84414
 1.9000e+000 84489 -2.3335e+001 -5.3299e+001  2.1930e+000 49768 84310,84362,84336
 1.9000e+000 84466 -2.0659e+000 -3.6909e+001  1.8248e+000 49768 84284,84440,84310
 1.9000e+000 84607  2.2260e+001 -3.1683e+001 -2.5816e+001 49768 84414,84388,84581
 1.9000e+000 84630  1.8375e+001 -4.7829e+001 -1.2557e+001 49768 84653,84414,84581
 1.9000e+000 84679  1.3983e+001 -4.2227e+001 -2.2745e+001 49768 84310,84440,84653
 1.9000e+000 84702 -2.2210e+000 -4.3686e+001 -2.2413e+001 49768 84310,84653,84581
 1.9000e+000 85159 -2.8846e+001 -8.2431e+001 -3.1155e+001 49192 84885,84937,84911
 1.9000e+000 85136 -3.0374e+001 -7.3570e+001 -2.6168e+001 49192 84885,85041,84937
 1.9000e+000 85113 -2.5677e+001 -5.1217e+001 -1.7115e+001 49192 84963,85041,84989
 1.9000e+000 85090 -2.7503e+001 -5.9943e+001 -2.5538e+001 49192 84937,85041,84963
 1.9000e+000 85067 -2.4842e+001 -5.4042e+001 -1.4319e+001 49192 84989,85041,85015
 1.9000e+000 85714 -2.4441e+001 -4.4156e+001  5.1308e+000 48638 85368,85498,85394
 1.9000e+000 85691 -1.5109e+001 -5.2386e+001  8.4265e-001 48638 85368,85524,85498
 1.9000e+000 85668 -4.1067e+001 -4.8525e+001  2.2010e+001 48638 85737,85420,85394
 1.9000e+000 85645 -2.8804e+001 -5.0347e+001  1.1195e+001 48638 85737,85394,85498
 1.9000e+000 85622  1.0294e+001 -5.9058e+001  2.8163e+001 48638 85446,85498,85472
 1.9000e+000 85599 -7.9205e+000 -5.0473e+001  3.7471e+000 48638 85342,85524,85368
 1.9000e+000 85576 -3.0832e+001 -5.1632e+001  7.1515e-001 48638 85342,85550,85524
 1.9000e+000 85763 -2.2602e+001 -4.0406e+001  2.3272e+001 48638 85446,85420,85737
 1.9000e+000 85786 -2.1599e+001 -4.7124e+001  1.2133e+001 48638 85446,85737,85498
 1.9000e+000 86371 -1.1175e+001 -2.3483e+001 -9.7508e+000 48084 86100,86230,86178
 1.9000e+000 86348 -2.5177e+001 -4.6232e+001 -1.6660e+001 48084 86048,86230,86100
 1.9000e+000 86325 -3.6295e+000 -1.8167e+001 -6.8721e-001 48084 86100,86178,86126
 1.9000e+000 86302 -2.3542e+000  6.7372e+000 -1.1557e+001 48084 86048,86100,86074
 1.9000e+000 86279 -1.4590e+001 -5.0324e+001 -1.1351e+001 48084 86178,86230,86204
 1.9000e+000 86256 -5.5351e+000 -9.6302e+000  4.2582e-001 48084 86126,86178,86152
 1.9000e+000 86619 -2.2634e+001 -5.6799e+001 -7.9772e+000 47630 86642,86446,86420
 1.9000e+000 86596 -2.0923e+001 -5.9566e+001 -1.7676e+001 47630 86642,86420,86394
 1.9000e+000 86573 -2.7174e+001 -5.2924e+001 -1.8496e+001 47630 86394,86524,86498
 1.9000e+000 86550 -1.0746e+001 -6.6262e+001 -3.0507e+000 47630 86446,86498,86472
 1.9000e+000 86668 -2.7214e+001 -6.7683e+001 -6.6029e+000 47630 86498,86446,86642
 1.9000e+000 86691 -2.4380e+001 -6.7337e+001 -1.6264e+001 47630 86498,86642,86394
 1.9000e+000 87022  5.7080e+000 -1.3018e+001 -5.8550e+000 47226 87045,86875,86849
 1.9000e+000 86999 -3.2147e+000 -1.9121e+001 -1.0124e+001 47226 87045,86849,86797
 1.9000e+000 86976 -1.0309e+000 -7.2142e+000 -4.8754e+000 47226 86797,86849,86823
 1.9000e+000 86953  1.6490e+001 -1.5542e+001 -1.1308e+001 47226 86875,86927,86901
 1.9000e+000 87071  1.3681e+001 -2.2846e+001 -8.5027e+000 47226 86927,86875,87045
 1.9000e+000 87094  6.1519e+000 -2.6493e+001 -1.1231e+001 47226 86927,87045,86797
 1.9000e+000 87244 -1.8434e+000 -5.6826e+001  3.0720e+001 46814 87267,87169,87143
 1.9000e+000 87221 -3.6049e+001 -5.2887e+001  4.8880e+000 46814 87267,87143,87117
 1.9000e+000 87293 -6.8485e+000 -6.3194e+001 -2.5146e+000 46814 87339,87267,87195
 1.9000e+000 87316  1.0659e+001 -3.2771e+001 -1.4198e+001 46814 87469,87267,87117
 1.9000e+000 87365 -1.0106e+001 -4.9672e+001  3.0882e+001 46814 87169,87267,87339
 1.9000e+000 87495  8.2496e+000  1.8241e+001 -1.4827e+001 46814 87195,87267,87469
 1.9000e+000 88001  3.6303e+000 -6.5048e+001  2.4310e+001 46310 88024,87834,87808
 1.9000e+000 87978 -1.5382e+001 -7.0492e+001  9.2939e+000 46310 88024,87808,87756
 1.9000e+000 87955 -1.7336e+001 -8.7880e+001  2.8591e+000 46310 88096,87730,87860
 1.9000e+000 87932 -1.3741e+001 -7.4796e+001  9.3187e+000 46310 87756,87808,87782
 1.9000e+000 87909 -1.6952e+001 -1.3295e+002  1.1382e+001 46310 87678,87860,87730
 1.9000e+000 87886 -1.7391e+001 -1.7293e+002 -4.6553e+000 46310 87678,87730,87704
 1.9000e+000 88050  4.5133e-001 -7.5431e+001  5.2069e+000 46310 87860,87834,88024
 1.9000e+000 88073 -1.3289e+001 -7.1091e+001  4.0502e+000 46310 88096,87860,88024
 1.9000e+000 88122 -1.2824e+001 -9.6136e+001 -5.0508e+000 46310 87756,87730,88096
 1.9000e+000 88145 -1.6802e+001 -8.9775e+001 -4.2946e+000 46310 87756,88096,88024
 1.9000e+000 88572 -3.0304e+000 -5.5207e+001  1.7087e+000 45856 88249,88405,88275
 1.9000e+000 88549  2.1034e+000 -6.6514e+000 -1.6935e+001 45856 88249,88431,88405
 1.9000e+000 88526 -8.6121e+000 -9.1626e+001 -1.5959e+001 45856 88327,88405,88353
 1.9000e+000 88503  1.1423e+001 -6.4197e+001 -7.0111e+000 45856 88275,88405,88327
 1.9000e+000 88480  1.0007e+001 -7.0109e+001 -4.2142e+001 45856 88353,88405,88379
 1.9000e+000 88457 -6.2494e+001 -1.9792e+002  2.3626e+001 45856 88275,88327,88301
 1.9000e+000 88950 -5.1443e+000 -3.7920e+001 -2.3867e+001 45658 88973,88754,88728
 1.9000e+000 88927  1.7401e+001 -4.8356e+001 -1.9630e+001 45658 88973,88728,88676
 1.9000e+000 88904 -7.9628e+000 -5.9329e+001  5.3889e+000 45658 88676,88832,88806
 1.9000e+000 88881  3.8866e+000 -5.8822e+001  1.2265e+001 45658 88676,88728,88702
 1.9000e+000 88858 -1.9756e+001 -3.5897e+001 -9.7687e+000 45658 88754,88806,88780
 1.9000e+000 88999 -2.4138e+001 -4.0096e+001 -1.4179e+001 45658 88806,88754,88973
 1.9000e+000 89022 -2.1506e-001 -4.6940e+001 -1.4659e+001 45658 88806,88973,88676
 1.9000e+000 89351  1.1107e+001 -5.9231e+001 -6.5799e+000 45254 89152,89230,89204
 1.9000e+000 89328  5.4986e+000 -6.0488e+001 -2.8006e+000 45254 89152,89256,89230
 1.9000e+000 89305 -4.3886e+000 -6.7678e+001 -6.2413e+000 45254 89126,89256,89152
 1.9000e+000 89282 -1.0483e+001 -7.1229e+001  2.7847e+000 45254 89152,89204,89178
 1.9000e+000 89523 -1.6931e+001 -6.7122e+001  7.7116e-001 45006 89422,89474,89448
 1.9000e+000 89500 -1.3719e+001 -6.5760e+001  3.3385e+000 45006 89396,89474,89422
 1.9000e+000 89673 -4.8846e+001 -9.4723e+001  7.3925e+000 44495 89572,89624,89598
 1.9000e+000 89650 -5.3758e+001 -1.0924e+002  9.6685e+000 44495 89546,89624,89572
 1.9000e+000 90104 -1.1772e+001 -8.4247e+001 -5.0359e+000 44005 90199,90127,89937
 1.9000e+000 90081 -1.2310e+001 -8.1050e+001 -1.7794e+000 44005 90271,90127,89859
 1.9000e+000 90058 -1.0024e+001 -8.5516e+001 -5.2583e+000 44005 90199,89937,89885
 1.9000e+000 90035 -1.9342e+001 -7.5705e+001  2.2491e+000 44005 90271,89859,89807
 1.9000e+000 90012 -1.9117e+001 -9.9300e+001 -9.3252e+000 44005 89885,89937,89911
 1.9000e+000 89989 -6.3802e+000 -8.1917e+001  1.1184e+001 44005 89807,89859,89833
 1.9000e+000 90153 -1.3902e+001 -8.4533e+001 -3.3470e+000 44005 89963,89937,90127
 1.9000e+000 90176 -1.6647e+001 -9.1565e+001 -2.5950e+000 44005 89963,90127,89781
 1.9000e+000 90225 -1.5036e+001 -8.4974e+001 -4.1206e+000 44005 89859,90127,90199
 1.9000e+000 90248 -1.2135e+001 -8.5723e+001 -3.8756e+000 44005 89859,90199,89885
 1.9000e+000 90297 -2.1652e+001 -8.7359e+001 -4.6892e+000 44005 89781,90127,90271
 1.9000e+000 90320 -2.5691e+001 -8.0501e+001  1.8837e-002 44005 89781,90271,89807
 1.9000e+000 90470 -1.1991e+001 -8.0947e+001 -3.5626e+000 43601 90493,90369,90343
 1.9000e+000 90447 -1.8669e+001 -6.3713e+001  2.7632e+000 43601 90493,90343,90421
 1.9000e+000 90519 -2.2549e+001 -1.1406e+002 -1.4513e+001 43601 90395,90369,90493
 1.9000e+000 90542 -1.4073e+001 -7.6933e+001 -6.9630e+000 43601 90395,90493,90421
 1.9000e+000 90922 -2.0438e+001 -8.7252e+001  3.4394e+000 43154 90945,90700,90674
 1.9000e+000 90899 -1.8337e+001 -9.0027e+001 -1.4562e+001 43154 90945,90674,90648
 1.9000e+000 90876 -2.9701e+001 -5.9143e+001 -9.7214e+000 43154 90648,90778,90752
 1.9000e+000 90853 -1.5740e+001 -1.3673e+002  1.6675e+000 43154 90700,90752,90726
 1.9000e+000 90830 -1.9542e+001 -6.7472e+001  1.1507e+000 43154 90648,90804,90778
 1.9000e+000 90971 -2.6027e+001 -1.0307e+002  5.5426e+000 43154 90752,90700,90945
 1.9000e+000 90994 -2.2239e+001 -9.9473e+001 -1.1934e+001 43154 90752,90945,90648
 1.9000e+000 91451  2.3974e+001 -7.2990e+001 -2.0057e+001 42650 91203,91255,91229
 1.9000e+000 91428 -4.5121e-001 -8.3455e+001  4.6227e-001 42650 91203,91333,91255
 1.9000e+000 91405 -1.1579e+001 -1.0912e+002 -7.9249e+000 42650 91177,91333,91203
 1.9000e+000 91382 -1.8431e+001 -1.2074e+002  6.4243e+000 42650 91255,91333,91281
 1.9000e+000 91359  1.8691e+001 -1.0423e+002  2.1686e+000 42650 91281,91333,91307
 1.9000e+000 91721 -3.8169e+001 -9.8957e+001  1.2361e+001 42288 91496,91600,91522
 1.9000e+000 91698 -1.2543e+001 -4.7584e+001 -1.1202e+000 42288 91496,91626,91600
 1.9000e+000 91675 -2.6509e+001 -9.5584e+001  2.0286e+001 42288 91522,91574,91548
 1.9000e+000 91652 -1.9818e+000 -8.4507e+001  1.3416e+001 42288 91522,91600,91574
 1.9000e+000 92199 -7.0180e+001 -1.0758e+002 -3.4877e+000 41898 92222,91983,91879
 1.9000e+000 92176 -7.6395e+001 -1.3207e+002 -1.3316e+001 41898 92294,92222,91879
 1.9000e+000 92153 -8.6943e+001 -1.3185e+002 -2.0423e+001 41898 92294,91879,91853
 1.9000e+000 92130 -5.9325e+001 -5.2689e+001  1.1614e+001 41898 91879,91957,91931
 1.9000e+000 92107 -5.8711e+001 -1.0309e+002 -2.1380e-001 41898 91879,91983,91957
 1.9000e+000 92084 -7.6413e+001 -5.4118e+001  2.7120e+001 41898 91879,91931,91905
 1.9000e+000 92061 -6.8638e+001 -1.0361e+002 -1.1905e+001 41898 91827,92035,91853
 1.9000e+000 92248 -6.5771e+001 -1.3730e+002  2.3203e+000 41898 92009,91983,92222
 1.9000e+000 92271 -6.3177e+001 -1.4195e+002 -1.5091e+001 41898 92009,92222,92035
 1.9000e+000 92320 -5.9493e+001 -1.2908e+002 -1.0871e+001 41898 92035,92222,92294
 1.9000e+000 92343 -6.6638e+001 -1.2568e+002 -1.7154e+001 41898 92035,92294,91853
 1.9000e+000 92770 -1.1033e+001 -8.8081e+001 -8.6694e+000 41437 92865,92793,92525
 1.9000e+000 92747 -1.7481e+001 -1.0581e+002 -5.2423e+000 41437 92793,92473,92629
 1.9000e+000 92724  1.2059e+001 -9.9748e+001 -2.1389e+001 41437 92865,92525,92499
 1.9000e+000 92701 -3.0524e+001 -7.4258e+001 -2.0815e+001 41437 92525,92603,92577
 1.9000e+000 92678  5.0041e+001 -1.0140e+002 -4.2809e+000 41437 92447,92629,92473
 1.9000e+000 92655 -4.4124e+001 -6.0913e+001 -1.2505e+001 41437 92525,92577,92551
 1.9000e+000 92819 -1.1892e+001 -8.9993e+001 -1.8020e+001 41437 92603,92525,92793
 1.9000e+000 92842 -3.7959e+001 -9.9423e+001 -3.0046e+001 41437 92603,92793,92629
 1.9000e+000 92891  3.0679e+001 -9.0623e+001 -7.3940e+000 41437 92473,92793,92865
 1.9000e+000 92914  6.0488e+001 -9.4276e+001 -2.4383e+001 41437 92473,92865,92499
 1.9000e+000 93243 -1.1550e+001 -1.3942e+002  6.2891e+001 41097 93044,93096,93070
 1.9000e+000 93220 -3.8592e+001 -1.3833e+002  2.6595e+001 41097 93044,93122,93096
 1.9000e+000 93197  1.0808e+001 -9.1139e+001  6.9567e+000 41097 93044,93148,93122
 1.9000e+000 93174 -1.9038e+001 -6.0786e+001  2.8255e+001 41097 93018,93148,93044
 1.9000e+000 93393  5.8114e+001 -9.8689e+001  5.7804e+000 40643 93416,93292,93344
 1.9000e+000 93370  4.0927e+001 -9.4115e+001  2.8218e+000 40643 93266,93344,93292
 1.9000e+000 93442  4.4092e+001 -9.9217e+001  1.3116e+001 40643 93318,93292,93416
 1.9000e+000 93901 -3.5801e+001 -9.4945e+001 -3.0329e+000 40132 93924,93731,93705
 1.9000e+000 93878 -3.9733e+001 -1.0002e+002 -4.7511e+000 40132 93996,93924,93705
 1.9000e+000 93855 -4.3881e+001 -1.0991e+002 -3.1583e+000 40132 93996,93705,93653
 1.9000e+000 93832 -3.1565e+001 -1.0474e+002 -6.0300e+000 40132 93653,93705,93679
 1.9000e+000 93809 -3.0943e+001 -9.3300e+001 -2.2480e+000 40132 93627,93783,93757
 1.9000e+000 93950 -3.3590e+001 -1.0156e+002 -4.9010e+000 40132 93757,93731,93924
 1.9000e+000 93973 -3.7676e+001 -9.5416e+001 -1.6201e+000 40132 93757,93924,93627
 1.9000e+000 94022 -4.3660e+001 -1.0503e+002  2.7896e+000 40132 93627,93924,93996
 1.9000e+000 94045 -4.3442e+001 -1.0885e+002  3.7658e+000 40132 93627,93996,93653
 1.9000e+000 94423 -2.5561e+000 -1.3534e+002 -1.5029e+001 39514 94149,94227,94175
 1.9000e+000 94400  9.9863e+000 -8.6744e+001  1.2358e+001 39514 94149,94305,94227
 1.9000e+000 94377 -2.1620e+000 -1.3314e+002 -1.5462e+001 39514 94175,94227,94201
 1.9000e+000 94354  8.3707e+000 -1.0117e+002  1.0842e+001 39514 94227,94305,94279
 1.9000e+000 94331  1.3421e+000 -1.0344e+002  1.4974e+001 39514 94227,94279,94253
 1.9000e+000 94573 -1.2305e+001 -6.1730e+001 -2.5352e+001 38822 94596,94498,94472
 1.9000e+000 94550  7.0526e-002 -7.3620e+001 -4.8744e+000 38822 94596,94472,94446
 1.9000e+000 94622 -2.7027e+001 -6.8720e+001 -1.5066e+001 38822 94524,94498,94596
 1.9000e+000 94645 -2.9855e+001 -9.2046e+001  7.5415e+000 38822 94524,94596,94446
 1.9000e+000 95025 -2.3216e+001 -9.0722e+001 -4.1014e+000 38418 95048,94829,94777
 1.9000e+000 95002 -1.5821e+001 -8.6234e+001 -1.9362e+000 38418 95120,95048,94777
 1.9000e+000 94979 -1.4654e+001 -8.8169e+001 -1.8528e+000 38418 95120,94777,94751
 1.9000e+000 94956  4.4718e+000 -9.1615e+001 -2.9358e+000 38418 95192,94881,94855
 1.9000e+000 94933 -3.0494e+001 -9.0647e+001 -2.6335e+000 38418 94777,94829,94803
 1.9000e+000 95074 -2.0201e+001 -9.7451e+001  7.3672e+000 38418 94855,94829,95048
 1.9000e+000 95097  1.7687e-001 -8.7851e+001  3.1994e+000 38418 95192,94855,95048
 1.9000e+000 95146 -1.7264e+001 -8.8263e+001 -1.2948e+000 38418 94907,95048,95120
 1.9000e+000 95169 -1.5898e+001 -9.0254e+001 -1.3367e+000 38418 94907,95120,94751
 1.9000e+000 95218 -4.6120e+000 -8.6314e+001 -4.9448e+000 38418 94907,94881,95192
 1.9000e+000 95241 -1.5285e+001 -8.8254e+001  2.0578e+000 38418 94907,95192,95048
 1.9000e+000 95511 -6.2204e+000 -8.7625e+001  1.1560e-002 38049 95312,95390,95364
 1.9000e+000 95488 -1.5127e+001 -9.0560e+001 -2.4123e+000 38049 95312,95416,95390
 1.9000e+000 95465 -6.8069e+000 -8.2832e+001  6.3669e-001 38049 95312,95364,95338
 1.9000e+000 95442 -1.9267e+000 -7.9949e+001  2.3585e+000 38049 95286,95416,95312
 1.9000e+000 95808 -3.4506e+001 -1.1933e+002 -9.4737e+000 37437 95831,95586,95560
 1.9000e+000 95785 -2.1512e+001 -1.0638e+002 -3.8707e+000 37437 95831,95560,95534
 1.9000e+000 95762 -3.8069e+001 -1.0092e+002  1.0752e+001 37437 95586,95664,95638
 1.9000e+000 95739 -3.2947e+001 -7.1233e+001 -1.0818e+001 37437 95534,95690,95664
 1.9000e+000 95716 -5.4425e+001 -9.8361e+001  1.3635e+000 37437 95586,95638,95612
 1.9000e+000 95857 -4.4760e+001 -1.0519e+002 -1.7490e+000 37437 95664,95586,95831
 1.9000e+000 95880 -3.0477e+001 -9.1283e+001  4.2479e+000 37437 95664,95831,95534
 1.9000e+000 96390 -3.4836e+001 -7.7560e+001 -1.4378e+000 36883 96413,96145,96093
 1.9000e+000 96367 -3.3675e+001 -7.5979e+001  2.8048e+000 36883 96413,96093,96067
 1.9000e+000 96344 -1.2553e+001 -9.4669e+001 -4.6948e+000 36883 96067,96249,96171
 1.9000e+000 96321 -3.0531e+001 -8.8539e+001  1.1958e+000 36883 96093,96145,96119
 1.9000e+000 96298 -3.8545e+001 -1.6347e+002  1.9212e+001 36883 96171,96249,96197
 1.9000e+000 96275  5.2884e+000 -1.3221e+002  4.6173e+000 36883 96197,96249,96223
 1.9000e+000 96439 -3.1975e+001 -7.0850e+001 -1.4369e+000 36883 96171,96145,96413
 1.9000e+000 96462 -3.2607e+001 -7.3456e+001  2.6845e+000 36883 96171,96413,96067
 1.9000e+000 96781  1.3999e+001 -7.5925e+001 -2.1259e+001 36215 96559,96663,96637
 1.9000e+000 96758 -1.9423e+001 -6.4625e+001 -1.8416e+001 36215 96507,96663,96559
 1.9000e+000 96735 -3.3957e+000 -4.6797e+001  5.2446e+000 36215 96585,96637,96611
 1.9000e+000 96712 -5.4943e+001 -9.7796e+001 -1.8179e+001 36215 96559,96637,96585
 1.9000e+000 96689  2.9305e+000 -1.0532e+002 -3.5402e+000 36215 96507,96559,96533
 1.9000e+000 97161  2.4815e+001 -3.1202e+001 -7.7719e+000 35818 97184,96965,96939
 1.9000e+000 97138  1.7275e+001 -3.6950e+001 -1.2320e+001 35818 97184,96939,96887
 1.9000e+000 97115  1.3924e+001 -5.9835e+001  7.6705e+000 35818 96965,97043,97017
 1.9000e+000 97092  8.6602e+000 -6.7013e+001 -1.0930e+001 35818 96887,96939,96913
 1.9000e+000 97069 -1.5529e+001 -4.4877e+001  7.8815e+000 35818 96965,97017,96991
 1.9000e+000 97210  3.3298e+001 -3.6440e+001 -3.9972e+000 35818 97043,96965,97184
 1.9000e+000 97233  2.6662e+001 -4.0154e+001 -7.8787e+000 35818 97043,97184,96887
 1.9000e+000 97739 -4.5122e+001 -1.0443e+002 -1.8102e+001 35214 97416,97468,97442
 1.9000e+000 97716 -4.8773e+001 -7.9764e+001 -5.6398e+000 35214 97416,97598,97468
 1.9000e+000 97693 -3.6518e+001 -7.4061e+001  3.8725e+000 35214 97762,97520,97468
 1.9000e+000 97670 -4.0048e+001 -7.7959e+001 -1.3342e+000 35214 97762,97468,97598
 1.9000e+000 97647 -3.1748e+001 -8.0988e+001 -5.3206e+000 35214 97546,97598,97572
 1.9000e+000 97624 -2.6787e+001 -6.8609e+001  1.1045e+000 35214 97468,97520,97494
 1.9000e+000 97788 -3.8418e+001 -8.0476e+001  3.9583e-001 35214 97546,97520,97762
 1.9000e+000 97811 -3.9883e+001 -8.3382e+001 -4.4060e+000 35214 97546,97762,97598
 1.9000e+000 98189  3.4538e+001 -5.2119e+001  9.6133e+000 34760 98356,98212,97967
 1.9000e+000 98166 -1.0584e+001 -8.1540e+001 -2.9302e+000 34760 98284,98212,97941
 1.9000e+000 98143 -3.8715e+001 -6.9078e+001  7.6855e+000 34760 98284,97941,97915
 1.9000e+000 98120  2.6365e+001 -8.5673e+001 -4.3839e+000 34760 98484,97993,97967
 1.9000e+000 98097  1.9178e+001 -7.2393e+001 -1.1729e+001 34760 98556,98045,98019
 1.9000e+000 98238  1.7684e+001 -7.7473e+001 -5.3050e+000 34760 98484,97967,98212
 1.9000e+000 98261  2.1337e+001 -7.7949e+001 -1.3015e+001 34760 98556,98019,98212
 1.9000e+000 98310  1.8991e+001 -6.3212e+001 -1.8618e+001 34760 98071,98212,98284
 1.9000e+000 98333 -5.5730e+000 -3.3890e+001 -1.5053e+001 34760 98071,98284,97915
 1.9000e+000 98382 -2.4599e+001 -8.5786e+001 -6.3645e+000 34760 97941,98212,98356
 1.9000e+000 98510  4.1835e+001 -8.0256e+001 -8.9658e+000 34760 98019,97993,98484
 1.9000e+000 98533  2.7219e+001 -7.6794e+001 -9.3728e+000 34760 98019,98484,98212
 1.9000e+000 98582  2.1406e+001 -6.6803e+001 -8.9552e+000 34760 98071,98045,98556
 1.9000e+000 98605  2.1926e+001 -7.2864e+001 -1.1198e+001 34760 98071,98556,98212
 1.9000e+000 99032 -2.6330e+001 -8.6788e+001  2.0423e+001 34156 98735,98891,98839
 1.9000e+000 99009 -1.9311e+001 -8.7989e+001  1.5202e+001 34156 98709,98891,98735
 1.9000e+000 98986 -1.6823e+000 -7.0306e+001  1.7433e+001 34156 98735,98813,98787
 1.9000e+000 98963 -3.4723e+000 -7.6721e+001  1.5261e+001 34156 98735,98839,98813
 1.9000e+000 98940  2.7134e+000 -1.1810e+002  1.4448e+001 34156 98735,98787,98761
 1.9000e+000 98917 -1.9234e+001 -6.9171e+001  1.5042e+001 34156 98839,98891,98865
 1.9000e+000 99231 -2.2511e+000 -3.2224e+001  7.0719e+000 33766 99055,99133,99107
 1.9000e+000 99208 -2.4219e+001 -3.9553e+001  1.4221e+001 33766 99055,99159,99133
 1.9000e+000 99185 -1.7846e+001 -6.6552e+001  2.5012e+000 33766 99055,99107,99081
 1.9000e+000 99818 -3.1421e+001 -8.3101e+001 -2.3814e-001 33248 99521,99651,99573
 1.9000e+000 99795 -2.8783e+001 -7.8719e+001  5.4948e+000 33248 99521,99677,99651
 1.9000e+000 99772 -5.1795e+001 -1.1326e+002 -9.4523e+000 33248 99573,99651,99599
 1.9000e+000 99749 -3.1563e+001 -9.7592e+001  5.4062e+000 33248 99495,99677,99521
 1.9000e+000 99726 -3.0418e+001 -8.9379e+001 -2.1086e+001 33248 99599,99651,99625
 1.9000e+000 99703 -4.6377e+001 -1.1086e+002  7.3675e+000 33248 99521,99573,99547
 1.9000e+000 100196 -2.8952e+001 -6.8887e+001 -9.8365e+000 32794 100219,99948,99922
 1.9000e+000 100173 -3.0566e+001 -7.1901e+001 -5.2127e+000 32794 100219,99922,100052
 1.9000e+000 100150 -3.0218e+001 -6.7324e+001 -1.5315e-001 32794 99974,100052,100026
 1.9000e+000 100127 -3.6772e+001 -6.9541e+001 -5.4074e+000 32794 99922,100078,100052
 1.9000e+000 100104 -3.3953e+001 -8.4330e+001  1.2952e+001 32794 99974,100026,100000
 1.9000e+000 100245 -3.4256e+001 -6.9411e+001 -7.1205e+000 32794 99974,99948,100219
 1.9000e+000 100268 -3.4335e+001 -7.2966e+001 -2.3648e+000 32794 99974,100219,100052
 1.9000e+000 100418  1.1537e+001 -5.2027e+001 -1.2532e+001 32504 100571,100343,100317
 1.9000e+000 100395 -1.4393e+001 -6.3719e+001  2.6391e+000 32504 100571,100317,100441
 1.9000e+000 100467  4.0842e+001 -1.7620e+001 -3.0605e+001 32504 100291,100369,100441
 1.9000e+000 100597  2.2681e+001 -4.0950e+001 -3.3607e+001 32504 100369,100343,100571
 1.9000e+000 100620  1.0723e+001 -3.7471e+001 -2.0519e+001 32504 100369,100571,100441
 1.9000e+000 101020  1.2578e+000 -6.6086e+001  5.9959e+000 32142 100772,100902,100876
 1.9000e+000 100997 -9.7200e+000 -7.7006e+001  8.8116e-001 32142 100746,100902,100772
 1.9000e+000 100974 -5.3112e+000 -1.0321e+002 -2.6043e+000 32142 101043,100824,100798
 1.9000e+000 100951  3.3946e+000 -9.6065e+001  5.5216e-001 32142 101043,100798,100772
 1.9000e+000 100928 -4.5378e+001 -1.0733e+002 -2.8831e+001 32142 101115,100876,100850
 1.9000e+000 101069  5.8857e+000 -9.7696e+001 -1.2280e+001 32142 100850,100824,101043
 1.9000e+000 101092 -2.3578e+001 -1.1106e+002 -1.5466e+001 32142 101115,100850,101043
 1.9000e+000 101141 -1.8278e+001 -9.0388e+001 -1.3956e+001 32142 100772,100876,101115
 1.9000e+000 101164 -9.5375e-001 -9.2742e+001  5.0833e-001 32142 100772,101115,101043
 1.9000e+000 101719 -2.5992e+001 -7.6919e+001  1.0282e+001 31538 101742,101477,101399
 1.9000e+000 101696 -3.7788e+001 -9.6151e+001  1.2196e+000 31538 101814,101742,101399
 1.9000e+000 101673 -4.5963e+001 -8.1978e+001 -9.9252e+000 31538 101814,101399,101373
 1.9000e+000 101650 -3.1803e+001 -5.1428e+001  5.0880e+000 31538 101425,101477,101451
 1.9000e+000 101627 -2.7203e+001 -6.2235e+001 -8.2948e-001 31538 101399,101477,101425
 1.9000e+000 101604 -3.9662e+000 -9.8581e+001  2.1399e+001 31538 101477,101529,101503
 1.9000e+000 101581 -9.0254e+000 -4.3263e+001 -1.3132e+000 31538 101347,101555,101373
 1.9000e+000 101768 -2.8951e+001 -9.6917e+001  8.2353e+000 31538 101529,101477,101742
 1.9000e+000 101791 -2.5422e+001 -9.9928e+001 -5.2326e+000 31538 101529,101742,101555
 1.9000e+000 101840 -1.8357e+001 -8.2259e+001 -4.8862e+000 31538 101555,101742,101814
 1.9000e+000 101863 -2.9483e+001 -7.0500e+001 -1.5055e+001 31538 101555,101814,101373
 1.9000e+000 102111 -4.0443e+001 -1.4046e+002  1.9811e+001 31112 101886,101990,101912
 1.9000e+000 102088 -2.4345e+000 -8.6063e+001 -2.2472e+000 31112 101886,102016,101990
 1.9000e+000 102065 -1.2845e+001 -1.3408e+002  2.5448e+001 31112 101912,101990,101964
 1.9000e+000 102042 -2.4895e+001 -1.5278e+002  3.0616e+001 31112 101912,101964,101938
 1.9000e+000 102408 -7.5433e+000 -6.4879e+001  4.3375e+000 30658 102431,102186,102160
 1.9000e+000 102385 -1.0734e+001 -5.8706e+001 -3.7497e+000 30658 102431,102160,102264
 1.9000e+000 102362 -1.5807e+001 -7.9400e+001  7.7159e-002 30658 102186,102238,102212
 1.9000e+000 102339 -2.6615e+001 -6.8808e+001 -9.0834e+000 30658 102134,102264,102160
 1.9000e+000 102316 -1.5488e+001 -5.4203e+001 -2.8281e+001 30658 102134,102290,102264
 1.9000e+000 102457 -6.8007e+000 -7.4201e+001  2.3714e+000 30658 102238,102186,102431
 1.9000e+000 102480 -1.1019e+001 -6.9543e+001 -6.0565e+000 30658 102238,102431,102264
 1.9000e+000 102681 -2.5469e+001 -9.6506e+001  7.1679e+000 30004 102704,102557,102505
 1.9000e+000 102658 -2.5877e+001 -9.9281e+001  8.4015e+000 30004 102704,102505,102609
 1.9000e+000 102635 -1.4357e+001 -8.2489e+001 -1.6231e+000 30004 102505,102557,102531
 1.9000e+000 102730 -2.6542e+001 -9.3208e+001  6.2169e+000 30004 102583,102557,102704
 1.9000e+000 102753 -2.8228e+001 -9.6073e+001  8.3526e+000 30004 102583,102704,102609
 1.9000e+000 103003 -1.3457e+001 -7.6068e+001  2.2978e+000 29564 103026,102804,102778
 1.9000e+000 102980 -1.5025e+001 -7.8584e+001  3.1316e+000 29564 103026,102778,102908
 1.9000e+000 102957 -2.3255e+000 -5.9784e+001  1.0619e+001 29564 102856,102908,102882
 1.9000e+000 102934 -1.9132e+001 -7.6530e+001  4.7246e+000 29564 102804,102856,102830
 1.9000e+000 103052 -1.5276e+001 -7.5580e+001  4.0247e+000 29564 102856,102804,103026
 1.9000e+000 103075 -1.6045e+001 -7.7108e+001  4.6660e+000 29564 102856,103026,102908
 1.9000e+000 103634 -4.1909e+001 -1.0457e+002 -2.3639e+001 29160 103657,103418,103392
 1.9000e+000 103611 -3.9457e+001 -1.0019e+002 -1.4631e+001 29160 103657,103392,103314
 1.9000e+000 103588 -1.6516e+001 -9.4820e+001 -2.1771e+001 29160 103314,103392,103366
 1.9000e+000 103565 -3.0894e+001 -1.0608e+002 -1.5476e+001 29160 103314,103366,103340
 1.9000e+000 103542 -5.9190e+001 -9.9568e+001 -2.0776e+001 29160 103262,103444,103314
 1.9000e+000 103519 -7.2452e+001 -1.1917e+002 -3.6284e+001 29160 103262,103314,103288
 1.9000e+000 103496 -3.8012e+001 -1.0806e+002 -1.3263e+001 29160 103262,103470,103444
 1.9000e+000 103683 -5.5148e+001 -1.1435e+002 -3.2191e+001 29160 103444,103418,103657
 1.9000e+000 103706 -4.5022e+001 -1.0004e+002 -2.1905e+001 29160 103444,103657,103314
 1.9000e+000 104035 -4.5604e-001 -6.5137e+001  1.7809e+001 28770 103836,103914,103862
 1.9000e+000 104012 -1.2171e+001 -7.2650e+001  1.4516e+001 28770 103810,103914,103836
 1.9000e+000 103989  2.2475e+001 -6.6178e+001  2.0767e+001 28770 103810,103940,103914
 1.9000e+000 103966  1.4797e+001 -6.1261e+001  2.4850e+001 28770 103862,103914,103888
 1.9000e+000 104185 -9.7097e+000 -1.0374e+002 -1.2429e+000 28366 104208,104110,104084
 1.9000e+000 104162  1.3791e+001 -7.6951e+001  1.4006e+001 28366 104280,104208,104084
 1.9000e+000 104234  6.9074e+000 -8.8214e+001 -3.0817e+000 28366 104610,104208,104136
 1.9000e+000 104257 -2.7874e+001 -1.0065e+002  3.2730e+000 28366 104538,104410,104208
 1.9000e+000 104306 -3.5068e+001 -1.0254e+002  3.7571e+000 28366 104538,104208,104280
 1.9000e+000 104436 -8.2487e+000 -8.8354e+001 -8.9625e+000 28366 104136,104208,104410
 1.9000e+000 104564 -3.5471e+001 -9.8687e+001 -7.0569e-001 28366 104058,104410,104538
 1.9000e+000 104587 -3.9591e+001 -9.8712e+001 -8.6192e-001 28366 104058,104538,104280
 1.9000e+000 104636 -2.1724e+001 -9.9730e+001 -3.6714e-001 28366 104110,104208,104610
 1.9000e+000 105349 -8.6425e+000 -8.2417e+001 -2.5706e+001 27976 105516,105372,105107
 1.9000e+000 105326 -2.1886e+001 -8.7152e+001 -5.9072e-001 27976 105588,105372,105055
 1.9000e+000 105303 -4.3057e+001 -7.5806e+001 -2.2971e+001 27976 105444,105159,105133
 1.9000e+000 105280  1.9415e+001 -9.1648e+001 -1.5604e+001 27976 105516,105107,105081
 1.9000e+000 105257 -1.4763e+001 -9.6996e+001  1.0253e+001 27976 105588,105055,105029
 1.9000e+000 105234 -8.7718e+000 -6.0304e+001  3.6092e+000 27976 105003,105185,105159
 1.9000e+000 105211 -1.5826e+001 -4.2053e+001  1.6178e+001 27976 104977,105185,105003
 1.9000e+000 105398 -2.5059e+001 -8.9500e+001 -1.7430e+001 27976 105133,105107,105372
 1.9000e+000 105421 -2.3352e+001 -8.8254e+001 -1.5569e+001 27976 105444,105133,105372
 1.9000e+000 105470 -2.3401e+001 -5.2887e+001 -1.3735e+001 27976 105003,105159,105444
 1.9000e+000 105493 -1.0547e+001 -6.8655e+001 -9.9387e+000 27976 105003,105444,105372
 1.9000e+000 105542  1.0219e+001 -8.0257e+001 -1.9404e+000 27976 105055,105372,105516
 1.9000e+000 105565  5.2436e+001 -8.3853e+001  5.1918e+000 27976 105055,105516,105081
 1.9000e+000 105614 -3.3947e+001 -9.6170e+001  3.3984e+000 27976 105003,105372,105588
 1.9000e+000 105637 -3.0008e+001 -1.0718e+002  1.4759e+001 27976 105003,105588,105029
 1.9000e+000 106143 -6.1257e+000 -1.0994e+002 -5.1295e-001 27664 106166,105846,105820
 1.9000e+000 106120 -1.2596e+001 -1.0000e+002  3.7706e+000 27664 106310,106166,105820
 1.9000e+000 106097 -2.8055e+000 -9.3643e+001 -1.3520e+001 27664 106382,106238,105950
 1.9000e+000 106074  6.9363e+000 -1.0830e+002  1.2373e+001 27664 106310,105820,106002
 1.9000e+000 106051  1.4297e+001 -8.5058e+001 -1.0646e+001 27664 106382,105950,105924
 1.9000e+000 106028 -1.2175e+001 -1.6631e+002 -8.4260e+000 27664 105846,105898,105872
 1.9000e+000 106192 -2.5257e+001 -1.2977e+002 -2.0413e+001 27664 105898,105846,106166
 1.9000e+000 106215 -5.4467e+000 -9.9253e+001 -7.8616e-001 27664 106238,105898,106166
 1.9000e+000 106264 -4.1781e+001 -1.0533e+002 -1.7205e+001 27664 105976,105950,106238
 1.9000e+000 106287 -9.2985e+000 -1.0539e+002  1.4917e+000 27664 105976,106238,106166
 1.9000e+000 106336  6.1159e+000 -8.9541e+001  1.6263e+001 27664 105976,106166,106310
 1.9000e+000 106359  2.7000e+001 -9.7586e+001  2.4548e+001 27664 105976,106310,106002
 1.9000e+000 106408 -1.1138e+001 -8.0816e+001  5.6822e+000 27664 105898,106238,106382
 1.9000e+000 106431 -4.6996e-001 -7.5924e+001  7.0272e+000 27664 105898,106382,105924
 1.9000e+000 106728 -1.3844e+001 -6.9019e+001  5.3118e+000 27153 106751,106506,106454
 1.9000e+000 106705 -1.3630e+001 -7.2035e+001  1.5798e+000 27153 106751,106454,106610
 1.9000e+000 106682 -2.1079e+001 -5.2720e+001 -5.2803e+000 27153 106454,106506,106480
 1.9000e+000 106659 -1.5983e+001 -6.8360e+001  5.0924e-001 27153 106532,106610,106584
 1.9000e+000 106636 -3.2188e+001 -4.7567e+001  5.2568e+000 27153 106532,106584,106558
 1.9000e+000 106777 -9.4911e+000 -6.4597e+001  7.1059e+000 27153 106532,106506,106751
 1.9000e+000 106800 -1.0970e+001 -6.9360e+001  2.8652e+000 27153 106532,106751,106610
 1.9000e+000 107180 -2.6805e+001 -9.5598e+001 -8.0832e+000 26642 107203,106984,106958
 1.9000e+000 107157 -4.7147e+001 -1.0337e+002 -5.0618e+000 26642 107203,106958,106932
 1.9000e+000 107134 -5.0008e+001 -1.0475e+002 -1.9219e+001 26642 107275,107036,107010
 1.9000e+000 107111 -3.5430e+001 -1.0018e+002 -2.1107e+001 26642 106932,107062,107036
 1.9000e+000 107088 -1.1757e+000 -7.6184e+001  8.9551e+000 26642 106906,107062,106932
 1.9000e+000 107229 -1.3570e+001 -8.4195e+001 -3.0338e+001 26642 107010,106984,107203
 1.9000e+000 107252 -4.7777e+001 -1.0517e+002 -2.1502e+001 26642 107275,107010,107203
 1.9000e+000 107301 -4.6424e+001 -1.0353e+002 -1.9829e+001 26642 106932,107036,107275
 1.9000e+000 107324 -4.4050e+001 -1.0464e+002 -2.1055e+001 26642 106932,107275,107203
 1.9000e+000 107675 -9.2639e+000 -4.2685e+001  6.5559e+000 26045 107450,107554,107476
 1.9000e+000 107652  5.0309e-002 -3.5578e+001  3.2537e+000 26045 107450,107580,107554
 1.9000e+000 107629 -2.2855e+000  2.0293e+001 -1.2834e+001 26045 107476,107528,107502
 1.9000e+000 107606  1.3668e+001 -3.4574e+001  6.1541e+000 26045 107476,107554,107528
 1.9000e+000 107874 -1.3674e+001 -1.0339e+002  2.4777e+001 25641 107750,107802,107776
 1.9000e+000 107851 -2.2726e+001 -7.4172e+001  9.2783e+000 25641 107724,107802,107750
 1.9000e+000 107828 -1.9187e+001 -7.3905e+001  7.9466e+000 25641 107698,107802,107724
 1.9000e+000 108431  2.6926e+000 -9.3498e+001  2.0581e+001 25023 108526,108267,108241
 1.9000e+000 108408  2.6079e+001 -8.9957e+001  3.0007e+000 25023 108059,108267,108085
 1.9000e+000 108385 -1.3368e+000 -1.0100e+002  1.2034e+001 25023 108454,108163,108111
 1.9000e+000 108362 -8.2389e+000 -9.4907e+001  2.1745e+001 25023 108454,108111,108085
 1.9000e+000 108339 -3.6512e+001 -1.3265e+002  2.5698e+001 25023 108111,108163,108137
 1.9000e+000 108316 -2.1265e+001 -6.7570e+001 -2.7866e+000 25023 108163,108241,108215
 1.9000e+000 108293 -4.3986e+000 -5.9191e+001  3.5630e+000 25023 108163,108215,108189
 1.9000e+000 108480  7.7820e+000 -8.4450e+001  6.2077e+000 25023 108241,108163,108454
 1.9000e+000 108503 -3.4138e-001 -8.8645e+001  1.8980e+001 25023 108526,108241,108454
 1.9000e+000 108552  1.4052e-001 -9.9394e+001  1.9524e+001 25023 108085,108267,108526
 1.9000e+000 108575 -3.2052e+000 -9.4987e+001  1.7787e+001 25023 108085,108526,108454
 1.9000e+000 108823  1.9925e+001 -4.4015e+001  1.2458e+001 24461 108624,108728,108650
 1.9000e+000 108800  9.4310e+000 -1.1814e+002 -7.6048e+000 24461 108598,108728,108624
 1.9000e+000 108777  1.8090e+001 -8.9487e+001  6.8640e+000 24461 108650,108728,108676
 1.9000e+000 108754 -1.7278e+001 -2.0860e+002  1.0776e+001 24461 108676,108728,108702
 1.9000e+000 109022 -3.7775e+001 -8.5453e+001  7.3167e+000 24121 108872,108924,108898
 1.9000e+000 108999 -2.9280e+001 -9.0648e+001  7.0719e+000 24121 108846,108924,108872
 1.9000e+000 108976 -1.8572e+001 -8.9641e+001  1.5659e+001 24121 108846,108950,108924
 1.9000e+000 109483 -3.3021e+001 -1.0394e+002 -1.4336e+001 23717 109209,109339,109235
 1.9000e+000 109460 -1.7260e+001 -1.1914e+002 -2.6416e+001 23717 109209,109365,109339
 1.9000e+000 109437 -1.5542e+001 -1.2113e+002 -9.2460e+000 23717 109287,109339,109313
 1.9000e+000 109414 -6.0170e+001 -1.2633e+002 -1.8177e+000 23717 109235,109339,109287
 1.9000e+000 109391 -1.3311e+001 -1.4826e+002  3.6215e+001 23717 109235,109287,109261
 1.9000e+000 109910 -4.7002e+001 -1.2279e+002 -8.0003e+000 23305 109613,109743,109717
 1.9000e+000 109887 -4.2450e+001 -1.2094e+002 -7.5662e+000 23305 109613,109769,109743
 1.9000e+000 109864 -5.1751e+001 -1.1242e+002 -7.9770e+000 23305 109613,109717,109639
 1.9000e+000 109841 -3.2563e+001 -1.1161e+002 -2.6928e+000 23305 109587,109769,109613
 1.9000e+000 109818 -1.3316e+001 -9.6148e+001  3.8670e+000 23305 109639,109717,109691
 1.9000e+000 109795 -1.9398e+001 -8.5568e+001 -1.0787e+001 23305 109639,109691,109665
 1.9000e+000 110180 -2.2104e+001 -6.0161e+001 -2.0284e+000 22851 110007,110059,110033
 1.9000e+000 110157 -3.5986e+001 -9.5551e+001  1.7484e+000 22851 109981,110059,110007
 1.9000e+000 110134 -4.2221e+001 -1.0939e+002 -6.8147e+000 22851 109955,110059,109981
 1.9000e+000 110111 -1.9372e+001 -1.4193e+002 -1.7321e+001 22851 109955,110085,110059
 1.9000e+000 110737 -1.1027e+001 -9.6077e+001 -3.8662e+000 22333 110760,110469,110391
 1.9000e+000 110714 -2.8684e+000 -9.1304e+001 -5.9947e+000 22333 110760,110391,110365
 1.9000e+000 110691  6.4841e+000 -8.8520e+001 -3.8977e+000 22333 110832,110521,110469
 1.9000e+000 110668  1.3017e+001 -1.5075e+002 -1.4169e+000 22333 110417,110469,110443
 1.9000e+000 110645 -3.0078e+001 -1.4039e+002 -2.4630e+000 22333 110391,110469,110417
 1.9000e+000 110622  2.1318e+001 -8.3391e+001 -1.2517e+000 22333 110469,110521,110495
 1.9000e+000 110599 -6.0835e+000 -7.9784e+001 -1.7994e+001 22333 110365,110573,110547
 1.9000e+000 110786 -2.5817e+000 -8.7153e+001 -3.6459e-001 22333 110832,110469,110760
 1.9000e+000 110809 -1.7217e+001 -1.0180e+002 -1.4180e+001 22333 110547,110760,110365
 1.9000e+000 110858  3.0698e+001 -8.8595e+001 -1.1463e+001 22333 110547,110521,110832
 1.9000e+000 110881  8.4059e+000 -9.3528e+001 -1.1552e+001 22333 110547,110832,110760
 1.9000e+000 111308 -5.3110e+001 -1.1779e+002  1.8515e+000 21829 111331,111063,111011
 1.9000e+000 111285 -5.8503e+001 -1.1410e+002 -5.8466e+000 21829 111331,111011,111167
 1.9000e+000 111262 -5.7241e+001 -1.2012e+002 -1.1694e+000 21829 111403,111089,111063
 1.9000e+000 111239 -6.7242e+001 -1.3527e+002  9.7813e+000 21829 111011,111063,111037
 1.9000e+000 111216 -4.3360e+001 -9.8294e+001  1.0969e+000 21829 110985,111167,111011
 1.9000e+000 111193 -6.6914e+001 -1.9169e+002  2.5209e+001 21829 111089,111141,111115
 1.9000e+000 111357 -5.6942e+001 -1.2034e+002 -1.1697e+000 21829 111403,111063,111331
 1.9000e+000 111380 -6.0473e+001 -1.2455e+002 -8.6344e+000 21829 111141,111331,111167
 1.9000e+000 111429 -5.7411e+001 -1.2045e+002 -8.0996e-001 21829 111141,111089,111403
 1.9000e+000 111452 -5.7173e+001 -1.2096e+002 -9.8361e-001 21829 111141,111403,111331
 1.9000e+000 112056  3.5002e+001 -9.1489e+001  1.0458e+000 21489 111687,111765,111739
 1.9000e+000 112033  9.0219e+000 -1.0740e+002  5.1360e+000 21489 112151,112079,111687
 1.9000e+000 112010  5.1645e-001 -1.6487e+002  3.3213e+000 21489 111791,111843,111817
 1.9000e+000 111987 -2.6450e+001 -1.3485e+002 -1.5402e+001 21489 112079,111843,111791
 1.9000e+000 111964  2.3366e+001 -9.8553e+001  1.3355e+001 21489 112151,111687,111661
 1.9000e+000 111941 -1.5288e+001 -7.5063e+001  8.1048e+000 21489 111661,111869,111843
 1.9000e+000 111918  3.8102e+001 -9.8044e+001  1.3140e+001 21489 111687,111739,111713
 1.9000e+000 111895 -6.1891e+000 -5.4253e+001 -9.5803e+000 21489 111635,111869,111661
 1.9000e+000 112105 -1.4700e+001 -1.1226e+002  2.1027e+000 21489 111765,111687,112079
 1.9000e+000 112128 -1.5698e+001 -1.1137e+002  2.8506e+000 21489 111765,112079,111791
 1.9000e+000 112177 -1.4434e+001 -1.0431e+002 -8.7540e+000 21489 111843,112079,112151
 1.9000e+000 112200 -1.8351e+000 -1.0045e+002 -2.1658e+000 21489 111843,112151,111661
 1.9000e+000 112578 -3.9739e+000 -1.2563e+002  3.0763e+000 21177 112382,112434,112408
 1.9000e+000 112555 -2.9597e+000 -1.1694e+002  1.5446e+000 21177 112330,112434,112382
 1.9000e+000 112532  1.1921e+001 -1.0405e+002  1.0615e+001 21177 112304,112434,112330
 1.9000e+000 112509  1.7202e+000 -1.2300e+002  0.0000e+000 21177 112330,112382,112356
 1.9000e+000 112486  3.9305e+001 -9.4897e+001  5.7072e+000 21177 112304,112460,112434
 1.9000e+000 112679 -5.7058e+000 -1.5247e+002 -1.3017e+001 20666 112601,112653,112627
 1.9000e+000 112927 -3.6384e+001 -1.2762e+002  8.6778e-001 19762 112702,112754,112728
 1.9000e+000 112904 -1.3020e+001 -1.1760e+002 -5.6628e+000 19762 112702,112832,112754
 1.9000e+000 112881 -2.6428e+001 -1.1959e+002  1.3807e+001 19762 112754,112832,112806
 1.9000e+000 112858 -4.3415e+001 -1.7741e+002  2.1697e+001 19762 112754,112806,112780
 1.9000e+000 113297  3.8831e+000 -1.3693e+002  1.2045e+001 19308 112974,113052,113026
 1.9000e+000 113274 -2.3206e+001 -1.1051e+002  1.5307e+001 19308 112974,113156,113052
 1.9000e+000 113251 -2.9909e+001 -1.4242e+002 -1.5856e+001 19308 113052,113130,113104
 1.9000e+000 113228 -3.5303e+001 -1.1319e+002 -1.7948e+000 19308 113052,113156,113130
 1.9000e+000 113205 -3.4181e+001 -1.2397e+002  0.0000e+000 19308 113052,113104,113078
 1.9000e+000 113182 -2.8789e+001 -1.5126e+002 -1.0872e+001 19308 112974,113026,113000
 1.9000e+000 113547 -2.5750e+001 -1.2659e+002 -8.7143e+000 18711 113570,113374,113348
 1.9000e+000 113524 -2.9493e+001 -1.2166e+002 -7.2108e+000 18711 113570,113348,113452
 1.9000e+000 113501 -2.5863e+001 -9.1824e+001 -2.7631e+001 18711 113322,113452,113348
 1.9000e+000 113478 -3.1844e+001 -1.2652e+002 -3.0639e+001 18711 113374,113426,113400
 1.9000e+000 113596 -2.2004e+001 -1.2156e+002 -1.0498e+001 18711 113426,113374,113570
 1.9000e+000 113619 -2.7530e+001 -1.1839e+002 -8.1028e+000 18711 113426,113570,113452
 1.9000e+000 113771 -6.4941e+001 -1.5546e+002 -7.2070e+000 18307 113670,113722,113696
 1.9000e+000 113748 -5.1277e+001 -1.4874e+002 -3.3276e+000 18307 113644,113722,113670
 1.9000e+000 113972 -2.8166e+001 -1.3469e+002  1.9093e+000 17945 113822,113874,113848
 1.9000e+000 113949 -3.5990e+001 -1.3621e+002  2.0886e+000 17945 113822,113900,113874
 1.9000e+000 113926 -4.7090e+001 -1.1671e+002  4.5963e+001 17945 113796,113900,113822
 1.9000e+000 114075  1.7627e+000 -1.6804e+002  2.2633e+001 17482 113997,114049,114023
 1.9000e+000 114479 -5.7870e+000 -1.1627e+002 -2.1587e+001 17042 114257,114361,114335
 1.9000e+000 114456 -2.9127e+001 -1.0754e+002 -2.8585e+000 17042 114205,114361,114257
 1.9000e+000 114433 -3.3552e+001 -1.2342e+002  4.1941e+000 17042 114205,114257,114231
 1.9000e+000 114410  1.6550e+001 -1.8261e+002 -2.2680e+000 17042 114283,114335,114309
 1.9000e+000 114387  9.2440e+000 -1.4478e+002 -6.1266e+000 17042 114257,114335,114283
 1.9000e+000 114879 -5.5717e+001 -1.3091e+002 -2.9454e+000 16638 114631,114683,114657
 1.9000e+000 114856  2.9974e+000 -1.0510e+002 -6.3269e+000 16638 114605,114683,114631
 1.9000e+000 114833  6.0360e+000 -7.8473e+001 -6.2712e-002 16638 114605,114761,114683
 1.9000e+000 114810 -1.3990e+001 -1.2679e+002 -4.8379e+000 16638 114683,114735,114709
 1.9000e+000 114787 -3.0731e+001 -1.4528e+002 -1.4818e+001 16638 114683,114761,114735
 1.9000e+000 115078 -3.2369e+001 -9.3023e+001  6.4674e+000 16232 114954,115006,114980
 1.9000e+000 115055 -2.2822e+001 -1.2341e+002  1.1362e+001 16232 114928,115006,114954
 1.9000e+000 115032  1.0339e+001 -1.7256e+002  1.6950e+001 16232 114902,115006,114928
 1.9000e+000 115228 -5.7305e+001 -1.2341e+002 -8.4623e-001 15482 115101,115153,115127
 1.9000e+000 115205 -3.9352e+001 -1.1257e+002 -5.6513e+000 15482 115101,115179,115153
 1.9000e+000 115331 -2.0496e+001 -1.2108e+002 -1.4471e+001 15163 115253,115305,115279
 1.9000e+000 115434 -3.3930e+001 -1.3412e+002  1.5076e+001 421 115356,115408,115382
 2.0000e+000 68213 -1.1227e+000 -7.3995e+001 -4.3123e+000 67888 68112,68164,68138
 2.0000e+000 68190 -4.8641e+001 -9.0563e+001 -4.7733e+000 67888 68086,68164,68112
 2.0000e+000 68314 -1.3927e+001 -1.5757e+002  2.1123e+001 67576 68236,68288,68262
 2.0000e+000 68584 -2.9116e+001 -1.6710e+002  1.0049e+001 67378 68385,68489,68463
 2.0000e+000 68561  5.0509e+001 -1.3212e+002  4.5551e+000 67378 68359,68489,68385
 2.0000e+000 68538 -2.1514e+001 -1.3394e+002  1.3240e+001 67378 68385,68463,68411
 2.0000e+000 68515 -9.9622e+000 -9.3490e+001  8.9192e+000 67378 68411,68463,68437
 2.0000e+000 68964 -2.0899e+001 -1.5825e+002  2.9607e+001 67130 68690,68820,68716
 2.0000e+000 68941  7.2974e+001 -1.6420e+002  5.7051e+001 67130 68690,68846,68820
 2.0000e+000 68918  3.0849e+000 -9.8911e+001  3.2884e+000 67130 68742,68820,68794
 2.0000e+000 68895  3.0977e+001 -9.4808e+001  7.1919e+000 67130 68716,68820,68742
 2.0000e+000 68872  2.4761e+001 -4.9538e+001  3.2540e-002 67130 68742,68794,68768
 2.0000e+000 69065 -1.9576e+001 -1.0073e+002  8.5560e-001 66926 68987,69039,69013
 2.0000e+000 69445 -1.1475e+001 -9.9021e+001 -3.3538e+000 66614 69223,69301,69275
 2.0000e+000 69422 -2.1841e+001 -1.0323e+002 -3.0575e+000 66614 69171,69301,69223
 2.0000e+000 69399 -2.9851e+001 -1.0584e+002  7.8267e-001 66614 69171,69327,69301
 2.0000e+000 69376  1.3927e+000 -4.5905e+001  2.9086e+000 66614 69223,69275,69249
 2.0000e+000 69353 -1.7555e+001 -1.1076e+002 -3.1327e+000 66614 69171,69223,69197
 2.0000e+000 69546  1.0708e+001 -1.4248e+002  1.7971e+001 66416 69468,69520,69494
 2.0000e+000 69997 -6.7941e+000 -1.2886e+002 -1.3415e+001 66104 69700,69830,69726
 2.0000e+000 69974 -1.6623e+001 -1.8025e+002 -3.2159e+001 66104 69700,69856,69830
 2.0000e+000 69951 -1.4367e+001 -1.0422e+002 -7.6633e+000 66104 69726,69804,69778
 2.0000e+000 69928 -8.1397e+000 -1.2623e+002 -1.0449e+001 66104 69726,69830,69804
 2.0000e+000 69905 -9.2908e+000 -8.7082e+001  3.9807e+000 66104 69726,69778,69752
 2.0000e+000 69882 -2.9356e+000 -2.8234e+002 -4.9187e+001 66104 69674,69856,69700
 2.0000e+000 70326 -1.7487e+001 -4.9376e+001 -1.1525e+001 65814 70349,70153,70127
 2.0000e+000 70303  1.2454e+001 -5.1249e+001 -1.7384e+000 65814 70349,70127,70101
 2.0000e+000 70280  4.2272e+001 -1.5813e+001  3.0974e+001 65814 70101,70231,70205
 2.0000e+000 70257  4.8253e+001 -4.8879e+001  1.1548e+001 65814 70153,70205,70179
 2.0000e+000 70375 -2.6819e+000 -5.1371e+001  9.4623e+000 65814 70205,70153,70349
 2.0000e+000 70398  4.0150e+001 -4.8272e+001  1.6571e+001 65814 70205,70349,70101
 2.0000e+000 70904 -1.1295e+000 -2.1523e+001 -5.8579e+000 65502 70607,70737,70685
 2.0000e+000 70881  9.3723e+000  4.3474e+000 -1.8005e+001 65502 70581,70737,70607
 2.0000e+000 70858  7.7769e+000  3.4099e+001  1.8167e+000 65502 70581,70763,70737
 2.0000e+000 70835 -6.5471e+000 -2.4032e+001 -6.7066e+000 65502 70685,70737,70711
 2.0000e+000 70812  3.4872e+001 -9.1044e+000 -1.4885e+001 65502 70607,70659,70633
 2.0000e+000 70789  5.0500e+000 -1.0641e+001 -1.7010e+001 65502 70607,70685,70659
 2.0000e+000 71103 -1.6617e+001 -1.3096e+002 -6.8143e+000 65304 71126,70979,70953
 2.0000e+000 71080 -2.9228e+001 -1.3092e+002 -4.7516e+000 65304 71126,70953,70927
 2.0000e+000 71057 -4.7631e+001 -1.4845e+002  3.0169e+000 65304 70927,71031,71005
 2.0000e+000 71152 -2.9376e+001 -1.2416e+002 -1.0430e+001 65304 71005,70979,71126
 2.0000e+000 71175 -4.3824e+001 -1.2637e+002 -5.4683e+000 65304 71005,71126,70927
 2.0000e+000 71374 -6.9430e+000 -1.1892e+002  3.1948e+000 65106 71198,71276,71224
 2.0000e+000 71351  1.4236e+001 -1.1424e+002  4.5977e+000 65106 71198,71302,71276
 2.0000e+000 71328 -5.3423e-002 -9.9719e+001  1.5385e+001 65106 71224,71276,71250
 2.0000e+000 71756 -8.8311e+000 -8.1962e+001 -1.1264e+001 64652 71508,71638,71534
 2.0000e+000 71733 -1.7839e+000 -7.8675e+001  2.5127e+000 64652 71482,71638,71508
 2.0000e+000 71710 -1.4480e+001 -5.6906e+001 -3.3125e+000 64652 71534,71586,71560
 2.0000e+000 71687 -4.4192e+000 -7.3580e+001 -1.9595e+001 64652 71534,71612,71586
 2.0000e+000 71664 -3.8424e+001 -8.3646e+001 -2.1307e+001 64652 71534,71638,71612
 2.0000e+000 72085 -2.1317e+001 -8.6834e+001 -1.3021e+001 64248 71886,71964,71912
 2.0000e+000 72062  6.2664e+000 -7.3447e+001 -1.7266e+001 64248 71860,71964,71886
 2.0000e+000 72039 -3.6234e+000 -7.3509e+001 -6.6919e+000 64248 71912,71964,71938
 2.0000e+000 72016 -1.7243e+001 -9.1244e+001 -8.0525e+000 64248 71860,71990,71964
 2.0000e+000 72235 -2.9562e+000 -4.1668e+001 -9.1032e+000 63858 72588,72258,72134
 2.0000e+000 72212 -3.7708e+000 -1.3020e+001  1.0003e+001 63858 72330,72258,72108
 2.0000e+000 72284  2.9771e+000 -1.7454e+001 -2.8177e+000 63858 72160,72134,72258
 2.0000e+000 72307 -2.0778e+001 -3.1248e+001 -1.1946e+001 63858 72460,72258,72186
 2.0000e+000 72356 -1.6261e+001 -1.8451e+001  5.7608e-002 63858 72186,72258,72330
 2.0000e+000 72486 -5.7735e+000 -3.9772e+001 -3.7634e+000 63858 72160,72258,72460
 2.0000e+000 72614  3.7876e+000 -4.5776e+001  9.9607e+000 63858 72108,72258,72588
 2.0000e+000 73248  6.8230e+000 -7.3536e+001  1.7377e+001 63404 72902,72954,72928
 2.0000e+000 73225 -2.5242e+001 -8.8594e+001  3.0841e+000 63404 73271,72954,72902
 2.0000e+000 73202 -2.7023e+001 -6.9253e+001  5.6554e+000 63404 73271,72902,73032
 2.0000e+000 73179 -1.5721e+001 -5.2313e+001 -8.0443e+000 63404 72902,73058,73032
 2.0000e+000 73156 -4.0856e+001 -8.4716e+001 -1.4312e+001 63404 72980,73032,73006
 2.0000e+000 73133 -2.1827e+001 -9.9750e+000  9.4973e+000 63404 72876,73058,72902
 2.0000e+000 73110 -4.5255e+001 -6.3581e+001  3.9916e+001 63404 72876,73084,73058
 2.0000e+000 73297 -2.5772e+001 -9.3522e+001 -6.9174e+000 63404 72980,72954,73271
 2.0000e+000 73320 -3.1350e+001 -8.1477e+001 -3.3763e+000 63404 72980,73271,73032
 2.0000e+000 73470 -3.5237e+001 -2.5698e+002  2.5048e+001 63014 73343,73395,73369
 2.0000e+000 73447 -1.1966e+002 -3.3144e+002 -9.8299e+000 63014 73343,73421,73395
 2.0000e+000 73929  4.5002e+001 -1.0693e+002  1.5656e+001 62702 73759,73811,73785
 2.0000e+000 73906  4.8779e+001 -1.0693e+002  1.1409e+001 62702 73655,73811,73759
 2.0000e+000 73883  2.1117e+001 -1.2641e+002 -1.4159e+000 62702 73655,73759,73681
 2.0000e+000 73860  4.1343e+001 -8.6083e+001 -2.8595e+001 62702 73681,73759,73707
 2.0000e+000 73837 -3.1865e+001 -1.0384e+002  7.9215e-001 62702 73707,73759,73733
 2.0000e+000 74209 -5.8367e+001 -1.1018e+002 -2.6189e-002 62404 74059,74137,74085
 2.0000e+000 74186 -7.1133e+001 -1.5360e+002  2.0765e+001 62404 74033,74137,74059
 2.0000e+000 74163 -6.3598e+001 -9.3676e+001 -2.0155e-001 62404 74085,74137,74111
 2.0000e+000 74408  1.1123e+001 -7.0708e+001  4.3071e+000 62000 74258,74336,74284
 2.0000e+000 74385 -1.1526e+000 -7.3498e+001  1.0568e+001 62000 74232,74336,74258
 2.0000e+000 74362 -1.0481e+001 -7.2254e+001 -3.2488e+000 62000 74284,74336,74310
 2.0000e+000 74509  1.5362e+001 -1.4032e+002  2.3260e+001 61802 74431,74483,74457
 2.0000e+000 74759 -2.8389e+001 -9.9308e+001 -2.0338e+000 61554 74782,74586,74560
 2.0000e+000 74736 -8.1717e+000 -8.6299e+001  3.7856e+000 61554 74782,74560,74664
 2.0000e+000 74713 -2.5682e+001 -6.2824e+001  4.1416e+001 61554 74854,74612,74586
 2.0000e+000 74690 -1.7400e+001 -9.9778e+001 -1.0109e+000 61554 74534,74664,74560
 2.0000e+000 74808 -4.3080e+001 -8.6426e+001  9.8932e+000 61554 74854,74586,74782
 2.0000e+000 74831 -1.3586e+001 -1.1352e+002  7.0955e+000 61554 74638,74782,74664
 2.0000e+000 74880  1.5241e+001 -8.6693e+001  4.3341e+001 61554 74638,74612,74854
 2.0000e+000 74903  1.4942e+001 -8.2700e+001  1.9331e+001 61554 74638,74854,74782
 2.0000e+000 75285  3.3578e+001 -1.1185e+002 -7.1922e-001 61356 75063,75167,75115
 2.0000e+000 75262  2.2012e+001 -1.2605e+002 -1.6817e+001 61356 75037,75167,75063
 2.0000e+000 75239  4.0227e+001 -1.1517e+002 -6.1336e-001 61356 75115,75167,75141
 2.0000e+000 75216  2.2126e+001 -1.1442e+002 -5.9557e-001 61356 75063,75115,75089
 2.0000e+000 75193 -3.9989e+001 -7.2013e+001  1.3079e+001 61356 75011,75167,75037
 2.0000e+000 75631  2.0124e+001 -9.2154e+001  4.8654e+000 60952 75654,75412,75360
 2.0000e+000 75608  2.0220e+001 -1.0631e+002 -2.2148e-001 60952 75654,75360,75334
 2.0000e+000 75585  9.2705e+000 -1.3494e+002  2.8940e+000 60952 75726,75438,75412
 2.0000e+000 75562  3.9493e+001 -9.4554e+001 -2.4079e+001 60952 75308,75490,75334
 2.0000e+000 75539  1.9444e+001 -9.0310e+001 -4.0206e-001 60952 75360,75412,75386
 2.0000e+000 75516 -1.5504e+001 -1.7154e+002 -3.0226e+000 60952 75438,75490,75464
 2.0000e+000 75680  1.9357e+001 -1.1042e+002  5.4007e+000 60952 75726,75412,75654
 2.0000e+000 75703  1.9841e+001 -1.0676e+002 -5.6002e-002 60952 75490,75654,75334
 2.0000e+000 75752  9.4431e+000 -1.0754e+002 -3.2471e+000 60952 75490,75438,75726
 2.0000e+000 75775  9.7236e+000 -1.0696e+002 -3.1400e+000 60952 75490,75726,75654
 2.0000e+000 76155  8.6208e+000 -8.1155e+001 -9.2119e+000 60754 75933,75985,75959
 2.0000e+000 76132 -6.0546e+000 -9.1190e+001  1.2080e+001 60754 75933,76037,75985
 2.0000e+000 76109  2.6305e+001 -8.7449e+001  3.7162e+000 60754 75985,76037,76011
 2.0000e+000 76086 -2.5279e+001 -7.1027e+001  1.3753e+000 60754 75881,76037,75933
 2.0000e+000 76063 -4.4593e+001 -6.2155e+001  2.4070e+001 60754 75881,75933,75907
 2.0000e+000 76612  1.7804e+001 -4.8903e+001  1.7020e+000 60350 76635,76442,76390
 2.0000e+000 76589  7.0480e+001 -5.8379e+001  1.6484e+001 60350 76635,76390,76364
 2.0000e+000 76566  4.8756e+000 -9.3393e+001  2.4297e+000 60350 76364,76494,76468
 2.0000e+000 76543  2.3208e+001 -3.8787e+001  2.7444e+001 60350 76390,76442,76416
 2.0000e+000 76520  4.9617e+001 -3.4931e+001  2.1925e+001 60350 76338,76494,76364
 2.0000e+000 76661 -1.5905e+001 -5.1961e+001  2.4858e+000 60350 76468,76442,76635
 2.0000e+000 76684  1.9996e+001 -7.3284e+001  1.7044e+001 60350 76468,76635,76364
 2.0000e+000 76932 -3.3188e+001 -1.1776e+002  9.0969e-001 59946 76955,76733,76707
 2.0000e+000 76909 -3.2329e+001 -1.1511e+002  3.6371e+000 59946 77027,76955,76707
 2.0000e+000 76886 -3.1266e+001 -1.1392e+002  3.1864e+000 59946 77027,76707,76837
 2.0000e+000 76863 -1.3593e+001 -1.2445e+002 -1.1275e+001 59946 76733,76785,76759
 2.0000e+000 76981 -3.7502e+001 -1.1779e+002 -1.5703e+000 59946 76785,76733,76955
 2.0000e+000 77004 -3.4440e+001 -1.1729e+002  1.8617e+000 59946 76785,76955,76811
 2.0000e+000 77053 -3.0659e+001 -1.1696e+002  1.9369e+000 59946 76811,76955,77027
 2.0000e+000 77076 -2.9136e+001 -1.1468e+002  1.2644e+000 59946 76811,77027,76837
 2.0000e+000 77226  2.0077e+000 -7.7630e+001  4.6789e-001 59542 77099,77151,77125
 2.0000e+000 77203  9.3356e-001 -8.2958e+001 -8.8337e-001 59542 77099,77177,77151
 2.0000e+000 77427 -5.2414e+001 -9.6854e+001 -9.9122e+000 59030 77450,77277,77251
 2.0000e+000 77404 -2.6505e+001 -7.4279e+001 -4.2240e+001 59030 77450,77251,77355
 2.0000e+000 77381  2.0824e+001 -1.0901e+002 -8.7395e+000 59030 77277,77329,77303
 2.0000e+000 77476 -1.9791e+001 -1.0142e+002 -2.5970e+001 59030 77329,77277,77450
 2.0000e+000 77499  1.0680e+001 -9.1098e+001 -5.1668e+001 59030 77329,77450,77355
 2.0000e+000 77749 -3.7873e+001 -1.3452e+002  1.5191e+001 58426 77772,77628,77602
 2.0000e+000 77726 -2.3404e+001 -1.3150e+002  3.1895e+001 58426 77524,77654,77628
 2.0000e+000 77703 -2.7046e+001 -1.4432e+002  1.1842e+001 58426 77772,77602,77550
 2.0000e+000 77680 -6.6909e+000 -1.3368e+002 -2.0237e+000 58426 77550,77602,77576
 2.0000e+000 77798 -2.7086e+001 -1.2126e+002  2.0844e+001 58426 77524,77628,77772
 2.0000e+000 77821 -2.5109e+001 -1.3776e+002  1.4585e+001 58426 77524,77772,77550
 2.0000e+000 78071 -5.8734e+001 -1.4093e+002  1.4687e+001 57922 78094,77924,77898
 2.0000e+000 78048 -7.4342e+001 -1.3963e+002 -7.0021e+000 57922 78094,77898,77872
 2.0000e+000 78025 -5.0317e+001 -1.1973e+002  1.1694e+001 57922 78166,77846,77950
 2.0000e+000 78002  2.1210e+000 -1.1739e+002  1.7576e+001 57922 77846,77976,77950
 2.0000e+000 78120 -4.1515e+001 -1.3749e+002  7.3774e+000 57922 77950,77924,78094
 2.0000e+000 78143 -5.4408e+001 -1.2336e+002  7.7764e+000 57922 78166,77950,78094
 2.0000e+000 78192 -4.3501e+001 -1.2819e+002  4.4143e+000 57922 77872,77846,78166
 2.0000e+000 78215 -5.2453e+001 -1.3684e+002 -3.4166e-001 57922 77872,78166,78094
 2.0000e+000 78416  1.7203e+001 -1.1880e+002 -7.4155e+000 57468 78439,78292,78240
 2.0000e+000 78393  1.6362e+001 -1.1050e+002 -7.6462e+000 57468 78439,78240,78344
 2.0000e+000 78370  8.1273e+000 -1.6821e+002 -5.2504e+000 57468 78240,78292,78266
 2.0000e+000 78465  1.7231e+001 -1.2126e+002 -1.2963e+001 57468 78318,78292,78439
 2.0000e+000 78488  1.6971e+001 -1.1513e+002 -1.1540e+001 57468 78318,78439,78344
 2.0000e+000 78689  2.4820e+001 -1.3294e+002 -1.1549e+001 57014 78712,78539,78513
 2.0000e+000 78666  1.1069e+001 -1.3040e+002 -2.3575e+000 57014 78712,78513,78617
 2.0000e+000 78643  5.5618e+000 -1.2473e+002  1.0972e+001 57014 78565,78617,78591
 2.0000e+000 78738  7.1941e+000 -1.2223e+002 -1.2392e+001 57014 78565,78539,78712
 2.0000e+000 78761 -1.1323e+001 -1.2936e+002  1.9125e+000 57014 78565,78712,78617
 2.0000e+000 79241 -3.7716e+001 -1.0699e+002 -1.8778e-001 56652 79264,78895,78869
 2.0000e+000 79218 -1.6600e+001 -1.5065e+002 -1.8743e+001 56652 79264,78869,79051
 2.0000e+000 79195 -2.3174e+001 -1.3244e+002 -3.8378e+001 56652 78869,79077,79051
 2.0000e+000 79172 -2.4652e+001 -6.5527e+001 -9.1130e+000 56652 78895,78973,78947
 2.0000e+000 79149 -5.0746e+001 -2.1559e+002 -2.0796e+001 56652 78973,79051,78999
 2.0000e+000 79126 -2.3357e+001 -6.6768e+001 -9.3671e+000 56652 78895,78947,78921
 2.0000e+000 79103 -3.4473e+001 -1.3090e+002  3.1230e+001 56652 78999,79051,79025
 2.0000e+000 79290 -2.2994e+001 -7.8194e+001  1.6843e+001 56652 78973,78895,79264
 2.0000e+000 79313 -1.6095e+000 -1.2697e+002  1.3737e-001 56652 78973,79264,79051
 2.0000e+000 79512  5.7019e+001 -1.4261e+002  3.6105e+001 56062 79388,79440,79414
 2.0000e+000 79489 -3.6500e+001 -7.6295e+001  3.4492e+001 56062 79336,79440,79388
 2.0000e+000 79466  3.9130e+001 -1.3100e+002  4.2635e+001 56062 79336,79388,79362
 2.0000e+000 79941 -1.5288e+001 -1.0444e+002  1.6673e+001 55658 79964,79670,79644
 2.0000e+000 79918 -2.7785e+001 -1.0309e+002  1.8243e+001 55658 79964,79644,79800
 2.0000e+000 79895 -2.8539e+001 -1.1405e+002  6.6364e+000 55658 80036,79696,79670
 2.0000e+000 79872 -3.1281e+001 -8.8490e+001 -2.8212e+000 55658 80108,79722,79696
 2.0000e+000 79849 -4.6381e+001 -9.5259e+001  2.7464e-001 55658 79722,79774,79748
 2.0000e+000 79826 -7.0349e-001 -9.3752e+001  5.7698e+000 55658 79618,79800,79644
 2.0000e+000 79990 -2.8565e+001 -1.1296e+002  1.2338e+001 55658 80036,79670,79964
 2.0000e+000 80013 -2.6819e+001 -9.9359e+001  1.8507e+001 55658 79774,79964,79800
 2.0000e+000 80062 -2.2115e+001 -9.8835e+001  6.7321e+000 55658 80108,79696,80036
 2.0000e+000 80085 -2.9221e+001 -1.0033e+002  1.8127e+001 55658 79774,80036,79964
 2.0000e+000 80134 -4.9695e+001 -1.0095e+002  2.8384e+000 55658 79774,79722,80108
 2.0000e+000 80157 -4.4357e+001 -1.1271e+002  1.2704e+001 55658 79774,80108,80036
 2.0000e+000 80307 -4.2013e+001 -9.0390e+001  1.3314e+001 55254 80402,80330,80206
 2.0000e+000 80284 -4.3122e+001 -1.2848e+002  8.2021e+000 55254 80330,80180,80258
 2.0000e+000 80356 -5.4731e+001 -1.1931e+002  2.4940e+001 55254 80232,80206,80330
 2.0000e+000 80379 -1.3163e+001 -1.0110e+002  2.9070e+001 55254 80232,80330,80258
 2.0000e+000 80428 -6.4437e+001 -1.2018e+002  1.4567e+000 55254 80180,80330,80402
 2.0000e+000 80659  1.3533e+001 -1.2131e+002 -2.1235e+001 54850 80558,80610,80584
 2.0000e+000 80636  2.6689e+001 -1.0947e+002 -1.3564e+001 54850 80532,80610,80558
 2.0000e+000 80760  5.0168e+000 -1.0428e+002 -2.7957e+000 54652 80682,80734,80708
 2.0000e+000 81164  5.1678e+000 -1.0778e+002  5.0294e+000 54248 81187,80942,80890
 2.0000e+000 81141  1.5511e+001 -1.1721e+002  2.0195e+000 54248 81187,80890,81046
 2.0000e+000 81118 -1.8575e+001 -1.2211e+002  2.6231e+001 54248 80942,81020,80994
 2.0000e+000 81095  2.8873e-001 -1.1274e+002 -1.5202e-001 54248 80890,80942,80916
 2.0000e+000 81072  6.0568e+000 -7.4308e+001  6.5408e+000 54248 80942,80994,80968
 2.0000e+000 81213  1.3789e+001 -1.0364e+002  7.1534e+000 54248 81020,80942,81187
 2.0000e+000 81236  2.5012e+001 -1.1174e+002  5.1559e+000 54248 81020,81187,81046
 2.0000e+000 81663 -3.6703e+001 -8.5883e+001  6.6359e+000 53594 81340,81444,81366
 2.0000e+000 81640 -3.9078e+001 -1.5009e+002  2.9269e+000 53594 81340,81470,81444
 2.0000e+000 81617  7.1495e-001 -1.1793e+002 -3.3021e+001 53594 81340,81522,81470
 2.0000e+000 81594 -2.0275e+001 -5.5343e+001 -8.0789e+000 53594 81392,81444,81418
 2.0000e+000 81571 -2.7714e+001 -7.5050e+001 -1.3083e+001 53594 81366,81444,81392
 2.0000e+000 81548 -1.1349e+001 -1.7582e+002  1.1632e+000 53594 81470,81522,81496
 2.0000e+000 81943 -1.6503e+001 -6.2443e+001 -1.4169e+001 53104 81966,81845,81819
 2.0000e+000 81920 -2.2093e+001 -5.6219e+001 -1.6083e+001 53104 81966,81819,81767
 2.0000e+000 81897 -1.8083e+001 -4.8001e+001 -1.4298e+001 53104 81767,81819,81793
 2.0000e+000 81992 -1.2729e+001 -5.9553e+001 -1.6275e+001 53104 81871,81845,81966
 2.0000e+000 82015 -1.6433e+001 -5.0676e+001 -1.9384e+001 53104 81871,81966,81767
 2.0000e+000 82491 -2.2751e+000 -5.9718e+001 -1.2889e+001 52650 82145,82249,82171
 2.0000e+000 82468 -5.6341e+001 -8.7809e+001 -2.7501e+000 52650 82145,82301,82249
 2.0000e+000 82445 -5.0384e+001 -1.1970e+002 -1.9105e+001 52650 82249,82301,82275
 2.0000e+000 82422 -1.5337e+001 -1.5033e+002 -1.5067e+001 52650 82119,82301,82145
 2.0000e+000 82399 -6.6036e+000 -3.3422e+001  9.7116e+000 52650 82171,82249,82223
 2.0000e+000 82376  3.1894e+001 -1.2925e+002 -2.3330e+001 52650 82119,82327,82301
 2.0000e+000 82353 -2.5978e+000 -1.2908e+001 -5.6891e+000 52650 82171,82223,82197
 2.0000e+000 82739 -1.3296e+001 -4.7027e+001 -4.9485e+000 52246 82762,82540,82514
 2.0000e+000 82716 -2.1787e+000 -3.7174e+001 -9.2948e+000 52246 82762,82514,82644
 2.0000e+000 82693 -2.1507e+001 -6.2546e+001  4.2823e-001 52246 82540,82618,82592
 2.0000e+000 82670 -5.3342e+000 -3.0675e+001 -1.8226e+001 52246 82540,82592,82566
 2.0000e+000 82788 -3.1418e+000 -5.7465e+001  6.2371e-001 52246 82618,82540,82762
 2.0000e+000 82811  6.5026e+000 -5.1426e+001 -2.0007e+000 52246 82618,82762,82644
 2.0000e+000 83059  1.3411e+001 -7.2383e+001  8.1461e-001 51578 82860,82964,82938
 2.0000e+000 83036  1.3527e+001 -6.8866e+001 -1.8877e+001 51578 82834,82964,82860
 2.0000e+000 83013  1.2672e+001 -5.9883e+001  6.7366e+000 51578 82860,82938,82886
 2.0000e+000 82990  1.3964e+001 -5.6659e+001  6.7713e+000 51578 82886,82938,82912
 2.0000e+000 83309 -1.5523e+001 -3.7595e+001  1.6860e+001 51138 83332,83162,83136
 2.0000e+000 83286  7.7486e-001 -5.4837e+001  5.5813e+000 51138 83332,83136,83110
 2.0000e+000 83263 -1.4609e+001 -5.2602e+001  9.0381e-001 51138 83404,83214,83188
 2.0000e+000 83240 -3.8512e-001 -1.5637e+001  2.4282e+000 51138 83084,83214,83110
 2.0000e+000 83358 -3.5444e+001 -6.3501e+001  3.2580e+001 51138 83188,83162,83332
 2.0000e+000 83381 -8.1730e+000 -6.5366e+001  1.1638e+001 51138 83404,83188,83332
 2.0000e+000 83430 -2.7886e+000 -1.8404e+001 -3.8970e+000 51138 83110,83214,83404
 2.0000e+000 83453 -2.1571e+000 -3.9256e+001  7.4929e+000 51138 83110,83404,83332
 2.0000e+000 83835  8.7852e+000 -6.7480e+001 -9.0514e+000 50734 83613,83717,83691
 2.0000e+000 83812  4.6820e+000 -7.9235e+001 -2.1699e+001 50734 83561,83717,83613
 2.0000e+000 83789  1.2522e+001 -2.4865e+001 -3.1224e+001 50734 83561,83613,83587
 2.0000e+000 83766 -3.8987e+000 -4.3621e+001 -8.2368e+000 50734 83613,83691,83639
 2.0000e+000 83743 -7.0546e+000 -4.4828e+001  8.8507e+000 50734 83639,83691,83665
 2.0000e+000 84034  3.5381e+000 -3.8857e+001 -9.8805e+000 50230 84057,83884,83858
 2.0000e+000 84011  2.2058e+000 -3.7211e+001 -2.0708e+000 50230 84129,84057,83858
 2.0000e+000 83988  5.2589e+000 -3.3830e+001 -3.3478e+000 50230 84129,83858,83962
 2.0000e+000 84083 -1.0377e+001 -4.3252e+001 -1.3649e+001 50230 83910,83884,84057
 2.0000e+000 84106 -2.4833e+000 -4.2423e+001 -2.8267e+000 50230 83910,84057,83936
 2.0000e+000 84155  7.0926e+000 -4.1180e+001 -3.1747e+000 50230 83936,84057,84129
 2.0000e+000 84178  8.8100e+000 -3.8826e+001 -3.9808e+000 50230 83936,84129,83962
 2.0000e+000 84558 -3.8336e+000 -5.3385e+001 -1.7897e+001 49768 84581,84388,84362
 2.0000e+000 84535 -4.0551e+001 -5.5682e+001 -8.5086e+000 49768 84581,84362,84310
 2.0000e+000 84512  3.2714e+001 -6.2402e+001 -1.9993e+001 49768 84653,84440,84414
 2.0000e+000 84489 -2.9756e+001 -6.1456e+001  1.8760e+000 49768 84310,84362,84336
 2.0000e+000 84466 -3.2766e+000 -4.6913e+001  1.9745e+000 49768 84284,84440,84310
 2.0000e+000 84607  1.6044e+001 -4.3648e+001 -2.7167e+001 49768 84414,84388,84581
 2.0000e+000 84630  1.7649e+001 -5.7473e+001 -1.4464e+001 49768 84653,84414,84581
 2.0000e+000 84679  1.2392e+001 -5.4432e+001 -2.6701e+001 49768 84310,84440,84653
 2.0000e+000 84702 -8.1067e+000 -5.5365e+001 -2.6714e+001 49768 84310,84653,84581
 2.0000e+000 85159 -3.6262e+001 -9.9756e+001 -3.9995e+001 49192 84885,84937,84911
 2.0000e+000 85136 -4.0748e+001 -8.5830e+001 -2.9885e+001 49192 84885,85041,84937
 2.0000e+000 85113 -2.7755e+001 -5.6306e+001 -1.9520e+001 49192 84963,85041,84989
 2.0000e+000 85090 -2.8045e+001 -5.9753e+001 -2.4840e+001 49192 84937,85041,84963
 2.0000e+000 85067 -2.8636e+001 -5.9766e+001 -1.6646e+001 49192 84989,85041,85015
 2.0000e+000 85714 -2.8096e+001 -5.0319e+001  5.1640e+000 48638 85368,85498,85394
 2.0000e+000 85691 -1.9502e+001 -6.0194e+001  1.1890e+000 48638 85368,85524,85498
 2.0000e+000 85668 -4.5807e+001 -5.4784e+001  2.4037e+001 48638 85737,85420,85394
 2.0000e+000 85645 -3.2586e+001 -5.7314e+001  1.2232e+001 48638 85737,85394,85498
 2.0000e+000 85622  7.7754e+000 -6.6850e+001  2.9901e+001 48638 85446,85498,85472
 2.0000e+000 85599 -9.3403e+000 -5.6949e+001  3.8202e+000 48638 85342,85524,85368
 2.0000e+000 85576 -3.5320e+001 -5.7849e+001  1.0265e-001 48638 85342,85550,85524
 2.0000e+000 85763 -2.5735e+001 -4.5868e+001  2.5748e+001 48638 85446,85420,85737
 2.0000e+000 85786 -2.4731e+001 -5.3474e+001  1.3519e+001 48638 85446,85737,85498
 2.0000e+000 86371 -1.3451e+001 -2.7633e+001 -1.1047e+001 48084 86100,86230,86178
 2.0000e+000 86348 -2.8677e+001 -5.2985e+001 -1.8653e+001 48084 86048,86230,86100
 2.0000e+000 86325 -5.3279e+000 -2.1616e+001 -3.5175e-003 48084 86100,86178,86126
 2.0000e+000 86302 -3.2477e+000  6.1021e+000 -1.4335e+001 48084 86048,86100,86074
 2.0000e+000 86279 -1.7676e+001 -5.8325e+001 -1.2675e+001 48084 86178,86230,86204
 2.0000e+000 86256 -7.9295e+000 -1.2882e+001  9.9215e-001 48084 86126,86178,86152
 2.0000e+000 86619 -2.2123e+001 -5.8795e+001 -6.3083e+000 47630 86642,86446,86420
 2.0000e+000 86596 -2.2650e+001 -6.3493e+001 -1.8835e+001 47630 86642,86420,86394
 2.0000e+000 86573 -3.1207e+001 -6.2067e+001 -2.0639e+001 47630 86394,86524,86498
 2.0000e+000 86550 -1.1091e+001 -7.0310e+001 -2.9921e+000 47630 86446,86498,86472
 2.0000e+000 86668 -2.8211e+001 -7.2925e+001 -6.9149e+000 47630 86498,86446,86642
 2.0000e+000 86691 -2.6867e+001 -7.3457e+001 -1.9316e+001 47630 86498,86642,86394
 2.0000e+000 87022  5.7713e+000 -1.8472e+001 -7.1462e+000 47226 87045,86875,86849
 2.0000e+000 86999 -4.1838e+000 -2.4675e+001 -1.1944e+001 47226 87045,86849,86797
 2.0000e+000 86976 -1.5487e+000 -1.0863e+001 -6.0634e+000 47226 86797,86849,86823
 2.0000e+000 86953  1.8016e+001 -2.0474e+001 -1.3367e+001 47226 86875,86927,86901
 2.0000e+000 87071  1.4804e+001 -2.8816e+001 -1.0175e+001 47226 86927,86875,87045
 2.0000e+000 87094  6.2444e+000 -3.2493e+001 -1.3235e+001 47226 86927,87045,86797
 2.0000e+000 87244 -1.8623e+000 -6.2994e+001  3.2504e+001 46814 87267,87169,87143
 2.0000e+000 87221 -3.9062e+001 -5.8888e+001  4.5221e+000 46814 87267,87143,87117
 2.0000e+000 87293 -7.6176e+000 -6.9554e+001 -4.2158e+000 46814 87339,87267,87195
 2.0000e+000 87316  1.1702e+001 -3.6977e+001 -1.6517e+001 46814 87469,87267,87117
 2.0000e+000 87365 -1.2034e+001 -5.5008e+001  3.2890e+001 46814 87169,87267,87339
 2.0000e+000 87495  9.5334e+000  2.1012e+001 -1.7394e+001 46814 87195,87267,87469
 2.0000e+000 88001  6.9453e+000 -6.7332e+001  2.9482e+001 46310 88024,87834,87808
 2.0000e+000 87978 -1.6739e+001 -7.4190e+001  1.1381e+001 46310 88024,87808,87756
 2.0000e+000 87955 -1.8948e+001 -9.4080e+001  3.2138e+000 46310 88096,87730,87860
 2.0000e+000 87932 -1.6298e+001 -7.9879e+001  1.0894e+001 46310 87756,87808,87782
 2.0000e+000 87909 -1.9636e+001 -1.4038e+002  1.1181e+001 46310 87678,87860,87730
 2.0000e+000 87886 -2.1435e+001 -1.8612e+002 -5.6577e+000 46310 87678,87730,87704
 2.0000e+000 88050  2.6076e+000 -8.1035e+001  6.2603e+000 46310 87860,87834,88024
 2.0000e+000 88073 -1.4202e+001 -7.4805e+001  4.4914e+000 46310 88096,87860,88024
 2.0000e+000 88122 -1.3536e+001 -1.0356e+002 -5.9341e+000 46310 87756,87730,88096
 2.0000e+000 88145 -1.7960e+001 -9.6275e+001 -5.1072e+000 46310 87756,88096,88024
 2.0000e+000 88572 -4.7071e+000 -6.3252e+001  1.0142e+000 45856 88249,88405,88275
 2.0000e+000 88549  9.0270e-001 -9.6354e+000 -1.9568e+001 45856 88249,88431,88405
 2.0000e+000 88526 -1.1509e+001 -1.0342e+002 -1.8645e+001 45856 88327,88405,88353
 2.0000e+000 88503  1.0783e+001 -7.3490e+001 -8.7505e+000 45856 88275,88405,88327
 2.0000e+000 88480  8.5188e+000 -8.0412e+001 -4.6948e+001 45856 88353,88405,88379
 2.0000e+000 88457 -7.0586e+001 -2.1976e+002  2.5031e+001 45856 88275,88327,88301
 2.0000e+000 88950 -5.7870e+000 -4.5578e+001 -2.6306e+001 45658 88973,88754,88728
 2.0000e+000 88927  2.0412e+001 -5.0048e+001 -2.0281e+001 45658 88973,88728,88676
 2.0000e+000 88904 -7.9726e+000 -5.7919e+001  7.9956e+000 45658 88676,88832,88806
 2.0000e+000 88881  5.2941e+000 -6.3328e+001  1.3319e+001 45658 88676,88728,88702
 2.0000e+000 88858 -2.7330e+001 -4.3783e+001 -1.5123e+001 45658 88754,88806,88780
 2.0000e+000 88999 -2.6426e+001 -4.1089e+001 -1.5363e+001 45658 88806,88754,88973
 2.0000e+000 89022 -1.0165e+000 -4.4603e+001 -1.4639e+001 45658 88806,88973,88676
 2.0000e+000 89351  7.3955e+000 -6.6642e+001 -6.6477e+000 45254 89152,89230,89204
 2.0000e+000 89328  1.0379e+000 -6.8286e+001 -3.1199e+000 45254 89152,89256,89230
 2.0000e+000 89305 -8.8480e+000 -7.5674e+001 -6.7104e+000 45254 89126,89256,89152
 2.0000e+000 89282 -1.5155e+001 -8.0360e+001  3.1368e+000 45254 89152,89204,89178
 2.0000e+000 89523 -1.6790e+001 -6.1751e+001 -1.1617e+000 45006 89422,89474,89448
 2.0000e+000 89500 -1.0969e+001 -5.9272e+001  3.4957e+000 45006 89396,89474,89422
 2.0000e+000 89673 -5.3891e+001 -1.0402e+002  8.4417e+000 44495 89572,89624,89598
 2.0000e+000 89650 -5.9411e+001 -1.1864e+002  9.4476e+000 44495 89546,89624,89572
 2.0000e+000 90104 -1.2021e+001 -9.3179e+001 -5.2871e+000 44005 90199,90127,89937
 2.0000e+000 90081 -1.1953e+001 -8.9085e+001 -2.2806e+000 44005 90271,90127,89859
 2.0000e+000 90058 -1.0747e+001 -9.4013e+001 -5.4208e+000 44005 90199,89937,89885
 2.0000e+000 90035 -2.0074e+001 -8.3143e+001  2.3572e+000 44005 90271,89859,89807
 2.0000e+000 90012 -2.0885e+001 -1.0891e+002 -1.0050e+001 44005 89885,89937,89911
 2.0000e+000 89989 -3.9260e+000 -9.0725e+001  1.3359e+001 44005 89807,89859,89833
 2.0000e+000 90153 -1.3802e+001 -9.3422e+001 -3.8870e+000 44005 89963,89937,90127
 2.0000e+000 90176 -1.6383e+001 -9.9678e+001 -3.7109e+000 44005 89963,90127,89781
 2.0000e+000 90225 -1.4840e+001 -9.3500e+001 -4.5445e+000 44005 89859,90127,90199
 2.0000e+000 90248 -1.2443e+001 -9.3715e+001 -4.2397e+000 44005 89859,90199,89885
 2.0000e+000 90297 -2.2721e+001 -9.6186e+001 -5.5016e+000 44005 89781,90127,90271
 2.0000e+000 90320 -2.7407e+001 -8.8498e+001 -9.8083e-002 44005 89781,90271,89807
 2.0000e+000 90470 -1.4333e+001 -8.8958e+001 -3.1881e+000 43601 90493,90369,90343
 2.0000e+000 90447 -2.0866e+001 -7.0179e+001  3.2487e+000 43601 90493,90343,90421
 2.0000e+000 90519 -2.4847e+001 -1.2532e+002 -1.5102e+001 43601 90395,90369,90493
 2.0000e+000 90542 -1.5022e+001 -8.4677e+001 -7.5597e+000 43601 90395,90493,90421
 2.0000e+000 90922 -2.3247e+001 -9.5376e+001  4.1117e+000 43154 90945,90700,90674
 2.0000e+000 90899 -1.9599e+001 -9.7901e+001 -1.5967e+001 43154 90945,90674,90648
 2.0000e+000 90876 -3.3808e+001 -6.6356e+001 -9.1506e+000 43154 90648,90778,90752
 2.0000e+000 90853 -1.7501e+001 -1.5281e+002  2.4270e+000 43154 90700,90752,90726
 2.0000e+000 90830 -2.1730e+001 -7.2869e+001  5.6136e-001 43154 90648,90804,90778
 2.0000e+000 90971 -2.9122e+001 -1.1289e+002  7.1742e+000 43154 90752,90700,90945
 2.0000e+000 90994 -2.3909e+001 -1.0844e+002 -1.2357e+001 43154 90752,90945,90648
 2.0000e+000 91451  2.8473e+001 -8.0334e+001 -2.2344e+001 42650 91203,91255,91229
 2.0000e+000 91428 -9.6546e-002 -9.2567e+001  3.0414e-001 42650 91203,91333,91255
 2.0000e+000 91405 -1.1796e+001 -1.2135e+002 -8.9929e+000 42650 91177,91333,91203
 2.0000e+000 91382 -2.0057e+001 -1.3317e+002  7.0976e+000 42650 91255,91333,91281
 2.0000e+000 91359  2.1211e+001 -1.1409e+002  1.6705e+000 42650 91281,91333,91307
 2.0000e+000 91721 -4.3087e+001 -1.0815e+002  1.2549e+001 42288 91496,91600,91522
 2.0000e+000 91698 -1.6103e+001 -5.4020e+001 -1.5869e+000 42288 91496,91626,91600
 2.0000e+000 91675 -3.0944e+001 -1.0657e+002  2.0874e+001 42288 91522,91574,91548
 2.0000e+000 91652 -6.3517e+000 -9.3527e+001  1.3563e+001 42288 91522,91600,91574
 2.0000e+000 92199 -7.8847e+001 -1.2038e+002 -4.4013e+000 41898 92222,91983,91879
 2.0000e+000 92176 -8.5662e+001 -1.4704e+002 -1.5098e+001 41898 92294,92222,91879
 2.0000e+000 92153 -9.7371e+001 -1.4665e+002 -2.3015e+001 41898 92294,91879,91853
 2.0000e+000 92130 -6.7283e+001 -6.0303e+001  1.2182e+001 41898 91879,91957,91931
 2.0000e+000 92107 -6.6649e+001 -1.1562e+002 -7.5906e-001 41898 91879,91983,91957
 2.0000e+000 92084 -8.4760e+001 -6.0804e+001  2.8331e+001 41898 91879,91931,91905
 2.0000e+000 92061 -7.6408e+001 -1.1609e+002 -1.3816e+001 41898 91827,92035,91853
 2.0000e+000 92248 -7.4759e+001 -1.5275e+002  2.0622e+000 41898 92009,91983,92222
 2.0000e+000 92271 -7.1011e+001 -1.5741e+002 -1.6815e+001 41898 92009,92222,92035
 2.0000e+000 92320 -6.6973e+001 -1.4361e+002 -1.2517e+001 41898 92035,92222,92294
 2.0000e+000 92343 -7.4929e+001 -1.3975e+002 -1.9535e+001 41898 92035,92294,91853
 2.0000e+000 92770 -1.2372e+001 -9.8629e+001 -8.5344e+000 41437 92865,92793,92525
 2.0000e+000 92747 -1.9327e+001 -1.1868e+002 -5.1098e+000 41437 92793,92473,92629
 2.0000e+000 92724  1.3016e+001 -1.1121e+002 -2.2522e+001 41437 92865,92525,92499
 2.0000e+000 92701 -3.1729e+001 -8.3630e+001 -2.0840e+001 41437 92525,92603,92577
 2.0000e+000 92678  5.6010e+001 -1.1140e+002 -3.0213e+000 41437 92447,92629,92473
 2.0000e+000 92655 -4.7986e+001 -6.6625e+001 -1.0333e+001 41437 92525,92577,92551
 2.0000e+000 92819 -1.3687e+001 -1.0157e+002 -1.8517e+001 41437 92603,92525,92793
 2.0000e+000 92842 -4.1792e+001 -1.1161e+002 -3.2263e+001 41437 92603,92793,92629
 2.0000e+000 92891  3.3792e+001 -1.0209e+002 -7.3879e+000 41437 92473,92793,92865
 2.0000e+000 92914  6.6715e+001 -1.0558e+002 -2.6142e+001 41437 92473,92865,92499
 2.0000e+000 93243 -1.0725e+001 -1.5346e+002  7.0305e+001 41097 93044,93096,93070
 2.0000e+000 93220 -4.2051e+001 -1.5387e+002  2.9083e+001 41097 93044,93122,93096
 2.0000e+000 93197  1.1036e+001 -1.0127e+002  7.3469e+000 41097 93044,93148,93122
 2.0000e+000 93174 -2.0842e+001 -6.8589e+001  3.0219e+001 41097 93018,93148,93044
 2.0000e+000 93393  6.2787e+001 -1.1040e+002  5.6469e+000 40643 93416,93292,93344
 2.0000e+000 93370  4.4278e+001 -1.0476e+002  2.5847e+000 40643 93266,93344,93292
 2.0000e+000 93442  4.5584e+001 -1.1191e+002  1.3335e+001 40643 93318,93292,93416
 2.0000e+000 93901 -4.1157e+001 -1.0735e+002 -4.2580e+000 40132 93924,93731,93705
 2.0000e+000 93878 -4.4328e+001 -1.1313e+002 -5.7980e+000 40132 93996,93924,93705
 2.0000e+000 93855 -4.9209e+001 -1.2491e+002 -2.8121e+000 40132 93996,93705,93653
 2.0000e+000 93832 -3.4972e+001 -1.1732e+002 -6.6190e+000 40132 93653,93705,93679
 2.0000e+000 93809 -3.4465e+001 -1.0735e+002 -3.2088e+000 40132 93627,93783,93757
 2.0000e+000 93950 -3.8504e+001 -1.1513e+002 -6.4849e+000 40132 93757,93731,93924
 2.0000e+000 93973 -4.4015e+001 -1.0894e+002 -3.1167e+000 40132 93757,93924,93627
 2.0000e+000 94022 -5.1262e+001 -1.1987e+002  2.8433e+000 40132 93627,93924,93996
 2.0000e+000 94045 -4.9729e+001 -1.2416e+002  4.9354e+000 40132 93627,93996,93653
 2.0000e+000 94423 -6.9489e+000 -1.4877e+002 -1.6250e+001 39514 94149,94227,94175
 2.0000e+000 94400  6.7181e+000 -9.6176e+001  1.2983e+001 39514 94149,94305,94227
 2.0000e+000 94377 -3.6371e+000 -1.4574e+002 -1.7540e+001 39514 94175,94227,94201
 2.0000e+000 94354  3.8812e+000 -1.1230e+002  1.0929e+001 39514 94227,94305,94279
 2.0000e+000 94331 -3.1151e+000 -1.1469e+002  1.4281e+001 39514 94227,94279,94253
 2.0000e+000 94573 -1.4920e+001 -6.9860e+001 -2.9806e+001 38822 94596,94498,94472
 2.0000e+000 94550  1.6351e+000 -8.1597e+001 -4.3177e+000 38822 94596,94472,94446
 2.0000e+000 94622 -3.4248e+001 -7.8742e+001 -2.0779e+001 38822 94524,94498,94596
 2.0000e+000 94645 -3.5546e+001 -1.0256e+002  7.3196e+000 38822 94524,94596,94446
 2.0000e+000 95025 -2.4135e+001 -1.0123e+002 -4.7818e+000 38418 95048,94829,94777
 2.0000e+000 95002 -1.5602e+001 -9.6574e+001 -2.9018e+000 38418 95120,95048,94777
 2.0000e+000 94979 -1.3923e+001 -9.9415e+001 -2.7888e+000 38418 95120,94777,94751
 2.0000e+000 94956  6.7224e+000 -1.0262e+002 -3.5076e+000 38418 95192,94881,94855
 2.0000e+000 94933 -3.3368e+001 -1.0130e+002 -2.8862e+000 38418 94777,94829,94803
 2.0000e+000 95074 -2.1302e+001 -1.1035e+002  8.2550e+000 38418 94855,94829,95048
 2.0000e+000 95097  1.9755e+000 -9.8692e+001  3.1873e+000 38418 95192,94855,95048
 2.0000e+000 95146 -1.7693e+001 -9.9578e+001 -1.9674e+000 38418 94907,95048,95120
 2.0000e+000 95169 -1.5740e+001 -1.0252e+002 -2.0438e+000 38418 94907,95120,94751
 2.0000e+000 95218 -3.2905e+000 -9.6486e+001 -5.6883e+000 38418 94907,94881,95192
 2.0000e+000 95241 -1.5090e+001 -9.8913e+001  2.0067e+000 38418 94907,95192,95048
 2.0000e+000 95511 -8.5306e+000 -9.6349e+001  1.3419e+000 38049 95312,95390,95364
 2.0000e+000 95488 -1.6337e+001 -9.8480e+001 -2.1387e+000 38049 95312,95416,95390
 2.0000e+000 95465 -7.4458e+000 -8.6840e+001  1.3885e+000 38049 95312,95364,95338
 2.0000e+000 95442 -2.7539e+000 -8.7039e+001  2.8734e+000 38049 95286,95416,95312
 2.0000e+000 95808 -3.7644e+001 -1.3214e+002 -1.1107e+001 37437 95831,95586,95560
 2.0000e+000 95785 -2.2637e+001 -1.1854e+002 -5.2068e+000 37437 95831,95560,95534
 2.0000e+000 95762 -4.2066e+001 -1.1275e+002  1.1367e+001 37437 95586,95664,95638
 2.0000e+000 95739 -3.5778e+001 -8.0479e+001 -1.2541e+001 37437 95534,95690,95664
 2.0000e+000 95716 -5.9829e+001 -1.0920e+002  1.1094e+000 37437 95586,95638,95612
 2.0000e+000 95857 -4.9246e+001 -1.1692e+002 -2.4561e+000 37437 95664,95586,95831
 2.0000e+000 95880 -3.2815e+001 -1.0228e+002  3.8809e+000 37437 95664,95831,95534
 2.0000e+000 96390 -3.9898e+001 -8.6284e+001 -2.9880e+000 36883 96413,96145,96093
 2.0000e+000 96367 -3.8710e+001 -8.4704e+001  1.1942e+000 36883 96413,96093,96067
 2.0000e+000 96344 -1.7767e+001 -1.0558e+002 -6.1009e+000 36883 96067,96249,96171
 2.0000e+000 96321 -3.3901e+001 -9.8202e+001 -2.7835e-001 36883 96093,96145,96119
 2.0000e+000 96298 -4.4775e+001 -1.7741e+002  1.9950e+001 36883 96171,96249,96197
 2.0000e+000 96275  6.9158e-001 -1.4365e+002  3.8330e+000 36883 96197,96249,96223
 2.0000e+000 96439 -3.7077e+001 -7.9690e+001 -2.9245e+000 36883 96171,96145,96413
 2.0000e+000 96462 -3.7660e+001 -8.2237e+001  1.1356e+000 36883 96171,96413,96067
 2.0000e+000 96781  9.2380e+000 -8.4779e+001 -2.2515e+001 36215 96559,96663,96637
 2.0000e+000 96758 -2.2430e+001 -7.2969e+001 -1.9408e+001 36215 96507,96663,96559
 2.0000e+000 96735 -8.8294e+000 -5.4065e+001  5.6645e+000 36215 96585,96637,96611
 2.0000e+000 96712 -6.3598e+001 -1.0792e+002 -1.9236e+001 36215 96559,96637,96585
 2.0000e+000 96689 -3.4631e+000 -1.1670e+002 -6.1298e+000 36215 96507,96559,96533
 2.0000e+000 97161  2.8093e+001 -3.4764e+001 -9.8368e+000 35818 97184,96965,96939
 2.0000e+000 97138  2.0532e+001 -4.2192e+001 -1.4060e+001 35818 97184,96939,96887
 2.0000e+000 97115  1.3881e+001 -6.8435e+001  8.4145e+000 35818 96965,97043,97017
 2.0000e+000 97092  1.0883e+001 -7.5578e+001 -1.2462e+001 35818 96887,96939,96913
 2.0000e+000 97069 -1.9579e+001 -5.3575e+001  8.0657e+000 35818 96965,97017,96991
 2.0000e+000 97210  3.6514e+001 -4.1348e+001 -5.2947e+000 35818 97043,96965,97184
 2.0000e+000 97233  3.0104e+001 -4.6370e+001 -8.8265e+000 35818 97043,97184,96887
 2.0000e+000 97739 -4.8626e+001 -1.1211e+002 -1.7028e+001 35214 97416,97468,97442
 2.0000e+000 97716 -5.2373e+001 -8.6032e+001 -3.9671e+000 35214 97416,97598,97468
 2.0000e+000 97693 -4.0526e+001 -8.1534e+001  5.6078e+000 35214 97762,97520,97468
 2.0000e+000 97670 -4.5696e+001 -8.6564e+001 -5.8420e-001 35214 97762,97468,97598
 2.0000e+000 97647 -3.6923e+001 -8.8801e+001 -6.7532e+000 35214 97546,97598,97572
 2.0000e+000 97624 -2.8115e+001 -7.5570e+001  2.3493e+000 35214 97468,97520,97494
 2.0000e+000 97788 -4.2728e+001 -8.9432e+001  7.4516e-001 35214 97546,97520,97762
 2.0000e+000 97811 -4.5033e+001 -9.3102e+001 -4.9312e+000 35214 97546,97762,97598
 2.0000e+000 98189  3.8602e+001 -5.8939e+001  1.3773e+001 34760 98356,98212,97967
 2.0000e+000 98166 -1.1183e+001 -9.0260e+001 -1.5573e+000 34760 98284,98212,97941
 2.0000e+000 98143 -4.2169e+001 -7.6404e+001  1.0213e+001 34760 98284,97941,97915
 2.0000e+000 98120  2.9626e+001 -9.7728e+001 -1.9792e+000 34760 98484,97993,97967
 2.0000e+000 98097  1.9128e+001 -8.2017e+001 -1.0824e+001 34760 98556,98045,98019
 2.0000e+000 98238  1.9604e+001 -8.7619e+001 -2.9442e+000 34760 98484,97967,98212
 2.0000e+000 98261  2.2119e+001 -8.7477e+001 -1.2518e+001 34760 98556,98019,98212
 2.0000e+000 98310  2.1252e+001 -6.9724e+001 -1.8718e+001 34760 98071,98212,98284
 2.0000e+000 98333 -5.5914e+000 -3.7074e+001 -1.4679e+001 34760 98071,98284,97915
 2.0000e+000 98382 -2.6419e+001 -9.5582e+001 -3.6706e+000 34760 97941,98212,98356
 2.0000e+000 98510  4.7156e+001 -9.0517e+001 -7.3454e+000 34760 98019,97993,98484
 2.0000e+000 98533  3.0432e+001 -8.5774e+001 -7.5704e+000 34760 98019,98484,98212
 2.0000e+000 98582  2.2535e+001 -7.6438e+001 -8.1223e+000 34760 98071,98045,98556
 2.0000e+000 98605  2.3423e+001 -8.2763e+001 -1.0783e+001 34760 98071,98556,98212
 2.0000e+000 99032 -2.9625e+001 -9.7886e+001  2.1508e+001 34156 98735,98891,98839
 2.0000e+000 99009 -2.3288e+001 -9.9301e+001  1.6356e+001 34156 98709,98891,98735
 2.0000e+000 98986 -6.2061e-001 -8.0870e+001  1.9830e+001 34156 98735,98813,98787
 2.0000e+000 98963 -3.1075e+000 -8.9858e+001  1.6746e+001 34156 98735,98839,98813
 2.0000e+000 98940  3.5263e+000 -1.3403e+002  1.6289e+001 34156 98735,98787,98761
 2.0000e+000 98917 -2.2427e+001 -7.9517e+001  1.3324e+001 34156 98839,98891,98865
 2.0000e+000 99231 -1.3630e+000 -3.5149e+001  8.1193e+000 33766 99055,99133,99107
 2.0000e+000 99208 -2.5508e+001 -4.3728e+001  1.6036e+001 33766 99055,99159,99133
 2.0000e+000 99185 -1.8203e+001 -7.2739e+001  3.3155e+000 33766 99055,99107,99081
 2.0000e+000 99818 -3.4595e+001 -9.1394e+001  4.0809e-001 33248 99521,99651,99573
 2.0000e+000 99795 -3.2089e+001 -8.7081e+001  6.1109e+000 33248 99521,99677,99651
 2.0000e+000 99772 -5.6569e+001 -1.2397e+002 -9.5206e+000 33248 99573,99651,99599
 2.0000e+000 99749 -3.4797e+001 -1.0740e+002  6.1709e+000 33248 99495,99677,99521
 2.0000e+000 99726 -3.2206e+001 -9.7219e+001 -2.2879e+001 33248 99599,99651,99625
 2.0000e+000 99703 -5.1866e+001 -1.2284e+002  9.1177e+000 33248 99521,99573,99547
 2.0000e+000 100196 -3.2118e+001 -7.6929e+001 -1.0554e+001 32794 100219,99948,99922
 2.0000e+000 100173 -3.3936e+001 -8.0439e+001 -6.0882e+000 32794 100219,99922,100052
 2.0000e+000 100150 -3.2691e+001 -7.4874e+001 -1.6412e-001 32794 99974,100052,100026
 2.0000e+000 100127 -4.0657e+001 -7.8126e+001 -6.2228e+000 32794 99922,100078,100052
 2.0000e+000 100104 -3.7069e+001 -9.2364e+001  1.3196e+001 32794 99974,100026,100000
 2.0000e+000 100245 -3.7201e+001 -7.7054e+001 -7.3036e+000 32794 99974,99948,100219
 2.0000e+000 100268 -3.7667e+001 -8.1391e+001 -2.7353e+000 32794 99974,100219,100052
 2.0000e+000 100418  7.0273e+000 -6.1073e+001 -1.5170e+001 32504 100571,100343,100317
 2.0000e+000 100395 -1.9692e+001 -7.3142e+001  1.3080e+000 32504 100571,100317,100441
 2.0000e+000 100467  3.8609e+001 -2.3092e+001 -3.3448e+001 32504 100291,100369,100441
 2.0000e+000 100597  1.8863e+001 -4.8637e+001 -3.6603e+001 32504 100369,100343,100571
 2.0000e+000 100620  6.6967e+000 -4.4502e+001 -2.2353e+001 32504 100369,100571,100441
 2.0000e+000 101020 -3.6247e+000 -7.5056e+001  6.6897e+000 32142 100772,100902,100876
 2.0000e+000 100997 -1.4374e+001 -8.5042e+001  1.6359e+000 32142 100746,100902,100772
 2.0000e+000 100974 -1.2339e+001 -1.0802e+002  1.1758e+000 32142 101043,100824,100798
 2.0000e+000 100951 -3.7870e+000 -1.0665e+002  1.5830e+000 32142 101043,100798,100772
 2.0000e+000 100928 -5.3103e+001 -1.1996e+002 -2.9307e+001 32142 101115,100876,100850
 2.0000e+000 101069 -3.9765e+000 -1.0944e+002 -7.9949e+000 32142 100850,100824,101043
 2.0000e+000 101092 -3.0763e+001 -1.2458e+002 -1.4689e+001 32142 101115,100850,101043
 2.0000e+000 101141 -2.5223e+001 -1.0091e+002 -1.4216e+001 32142 100772,100876,101115
 2.0000e+000 101164 -7.1254e+000 -1.0374e+002  1.4659e+000 32142 100772,101115,101043
 2.0000e+000 101719 -3.1820e+001 -8.6805e+001  9.4636e+000 31538 101742,101477,101399
 2.0000e+000 101696 -4.6469e+001 -1.0975e+002 -1.3179e+000 31538 101814,101742,101399
 2.0000e+000 101673 -5.6597e+001 -9.4625e+001 -1.4483e+001 31538 101814,101399,101373
 2.0000e+000 101650 -3.4245e+001 -5.5778e+001  5.9638e+000 31538 101425,101477,101451
 2.0000e+000 101627 -3.1384e+001 -7.1028e+001 -2.1543e+000 31538 101399,101477,101425
 2.0000e+000 101604 -1.0023e+001 -1.1350e+002  2.0932e+001 31538 101477,101529,101503
 2.0000e+000 101581 -1.1194e+001 -5.3231e+001 -4.9854e+000 31538 101347,101555,101373
 2.0000e+000 101768 -3.5715e+001 -1.1071e+002  7.3100e+000 31538 101529,101477,101742
 2.0000e+000 101791 -3.0392e+001 -1.1339e+002 -7.3505e+000 31538 101529,101742,101555
 2.0000e+000 101840 -2.2896e+001 -9.5213e+001 -7.5001e+000 31538 101555,101742,101814
 2.0000e+000 101863 -3.6268e+001 -8.2556e+001 -1.9480e+001 31538 101555,101814,101373
 2.0000e+000 102111 -4.9341e+001 -1.5607e+002  2.0390e+001 31112 101886,101990,101912
 2.0000e+000 102088 -9.1545e+000 -9.7069e+001 -2.2832e+000 31112 101886,102016,101990
 2.0000e+000 102065 -1.9823e+001 -1.4995e+002  2.7394e+001 31112 101912,101990,101964
 2.0000e+000 102042 -3.3078e+001 -1.7278e+002  3.2808e+001 31112 101912,101964,101938
 2.0000e+000 102408 -7.0468e+000 -7.2374e+001  5.0617e+000 30658 102431,102186,102160
 2.0000e+000 102385 -1.0734e+001 -6.5697e+001 -3.7862e+000 30658 102431,102160,102264
 2.0000e+000 102362 -1.6265e+001 -8.8257e+001  3.5003e-001 30658 102186,102238,102212
 2.0000e+000 102339 -2.8626e+001 -7.7148e+001 -9.8802e+000 30658 102134,102264,102160
 2.0000e+000 102316 -1.5176e+001 -5.9608e+001 -3.2864e+001 30658 102134,102290,102264
 2.0000e+000 102457 -6.4356e+000 -8.2558e+001  2.8815e+000 30658 102238,102186,102431
 2.0000e+000 102480 -1.1248e+001 -7.7539e+001 -6.3441e+000 30658 102238,102431,102264
 2.0000e+000 102681 -2.7654e+001 -1.0816e+002  8.2029e+000 30004 102704,102557,102505
 2.0000e+000 102658 -2.8351e+001 -1.1125e+002  9.5760e+000 30004 102704,102505,102609
 2.0000e+000 102635 -1.5448e+001 -9.2827e+001 -1.4834e+000 30004 102505,102557,102531
 2.0000e+000 102730 -2.9043e+001 -1.0421e+002  7.0019e+000 30004 102583,102557,102704
 2.0000e+000 102753 -3.1475e+001 -1.0761e+002  9.4098e+000 30004 102583,102704,102609
 2.0000e+000 103003 -1.2639e+001 -8.4720e+001  2.4831e+000 29564 103026,102804,102778
 2.0000e+000 102980 -1.4654e+001 -8.8145e+001  3.4592e+000 29564 103026,102778,102908
 2.0000e+000 102957 -6.9552e-001 -6.6222e+001  1.2174e+001 29564 102856,102908,102882
 2.0000e+000 102934 -1.8742e+001 -8.4034e+001  5.2606e+000 29564 102804,102856,102830
 2.0000e+000 103052 -1.4905e+001 -8.3977e+001  4.8298e+000 29564 102856,102804,103026
 2.0000e+000 103075 -1.5947e+001 -8.6117e+001  5.5379e+000 29564 102856,103026,102908
 2.0000e+000 103634 -4.5658e+001 -1.1517e+002 -2.6412e+001 29160 103657,103418,103392
 2.0000e+000 103611 -4.3258e+001 -1.1106e+002 -1.6300e+001 29160 103657,103392,103314
 2.0000e+000 103588 -1.7772e+001 -1.0358e+002 -2.4415e+001 29160 103314,103392,103366
 2.0000e+000 103565 -3.4077e+001 -1.1564e+002 -1.7276e+001 29160 103314,103366,103340
 2.0000e+000 103542 -6.5526e+001 -1.1070e+002 -2.2127e+001 29160 103262,103444,103314
 2.0000e+000 103519 -7.9316e+001 -1.3119e+002 -3.8141e+001 29160 103262,103314,103288
 2.0000e+000 103496 -4.1535e+001 -1.2078e+002 -1.3320e+001 29160 103262,103470,103444
 2.0000e+000 103683 -6.0201e+001 -1.2545e+002 -3.4907e+001 29160 103444,103418,103657
 2.0000e+000 103706 -4.9667e+001 -1.1132e+002 -2.3434e+001 29160 103444,103657,103314
 2.0000e+000 104035  4.5500e+000 -7.1997e+001  2.0382e+001 28770 103836,103914,103862
 2.0000e+000 104012 -9.8000e+000 -8.1993e+001  1.5767e+001 28770 103810,103914,103836
 2.0000e+000 103989  3.1404e+001 -7.3363e+001  2.2187e+001 28770 103810,103940,103914
 2.0000e+000 103966  2.0365e+001 -6.9096e+001  2.7712e+001 28770 103862,103914,103888
 2.0000e+000 104185 -1.1069e+001 -1.1328e+002 -1.2780e+000 28366 104208,104110,104084
 2.0000e+000 104162  1.4785e+001 -8.3683e+001  1.5443e+001 28366 104280,104208,104084
 2.0000e+000 104234  8.2451e+000 -9.5786e+001 -2.1916e+000 28366 104610,104208,104136
 2.0000e+000 104257 -3.0276e+001 -1.1053e+002  4.1122e+000 28366 104538,104410,104208
 2.0000e+000 104306 -3.8848e+001 -1.1180e+002  4.1464e+000 28366 104538,104208,104280
 2.0000e+000 104436 -9.4513e+000 -9.8992e+001 -9.1686e+000 28366 104136,104208,104410
 2.0000e+000 104564 -3.9294e+001 -1.0965e+002 -5.3491e-001 28366 104058,104410,104538
 2.0000e+000 104587 -4.4443e+001 -1.0886e+002 -1.1360e+000 28366 104058,104538,104280
 2.0000e+000 104636 -2.2745e+001 -1.0856e+002 -6.2851e-001 28366 104110,104208,104610
 2.0000e+000 105349 -1.8821e+000 -8.1298e+001 -3.2199e+001 27976 105516,105372,105107
 2.0000e+000 105326 -1.5916e+001 -9.0687e+001  3.6923e-001 27976 105588,105372,105055
 2.0000e+000 105303 -4.9160e+001 -7.9676e+001 -2.4973e+001 27976 105444,105159,105133
 2.0000e+000 105280  3.6484e+001 -9.2959e+001 -1.8859e+001 27976 105516,105107,105081
 2.0000e+000 105257 -6.9787e+000 -1.0128e+002  1.3392e+001 27976 105588,105055,105029
 2.0000e+000 105234 -1.1768e+001 -6.6646e+001 -2.1694e-001 27976 105003,105185,105159
 2.0000e+000 105211 -1.9115e+001 -4.7393e+001  1.3001e+001 27976 104977,105185,105003
 2.0000e+000 105398 -2.2839e+001 -8.9355e+001 -2.1611e+001 27976 105133,105107,105372
 2.0000e+000 105421 -2.2311e+001 -8.8392e+001 -1.9040e+001 27976 105444,105133,105372
 2.0000e+000 105470 -1.9401e+001 -5.8205e+001 -1.5466e+001 27976 105003,105159,105444
 2.0000e+000 105493 -4.9997e+000 -7.4363e+001 -1.1659e+001 27976 105003,105444,105372
 2.0000e+000 105542  2.3636e+001 -7.9572e+001  7.2513e-001 27976 105055,105372,105516
 2.0000e+000 105565  8.1613e+001 -8.3328e+001  9.8833e+000 27976 105055,105516,105081
 2.0000e+000 105614 -3.1101e+001 -1.0035e+002  4.5111e+000 27976 105003,105372,105588
 2.0000e+000 105637 -2.6092e+001 -1.1260e+002  1.8064e+001 27976 105003,105588,105029
 2.0000e+000 106143 -3.6960e+000 -1.2053e+002  1.3503e+000 27664 106166,105846,105820
 2.0000e+000 106120 -1.0930e+001 -1.0864e+002  6.1985e+000 27664 106310,106166,105820
 2.0000e+000 106097 -1.1045e+000 -1.0121e+002 -1.3363e+001 27664 106382,106238,105950
 2.0000e+000 106074  1.0401e+001 -1.1754e+002  1.5478e+001 27664 106310,105820,106002
 2.0000e+000 106051  1.7350e+001 -9.2175e+001 -1.0520e+001 27664 106382,105950,105924
 2.0000e+000 106028 -8.7482e+000 -1.8689e+002 -6.8571e+000 27664 105846,105898,105872
 2.0000e+000 106192 -2.5044e+001 -1.4289e+002 -2.1267e+001 27664 105898,105846,106166
 2.0000e+000 106215 -2.5856e+000 -1.0782e+002  3.7987e-001 27664 106238,105898,106166
 2.0000e+000 106264 -4.3556e+001 -1.1411e+002 -1.7158e+001 27664 105976,105950,106238
 2.0000e+000 106287 -8.2040e+000 -1.1544e+002  3.2911e+000 27664 105976,106238,106166
 2.0000e+000 106336  9.4985e+000 -9.7500e+001  1.9890e+001 27664 105976,106166,106310
 2.0000e+000 106359  3.2309e+001 -1.0611e+002  2.8817e+001 27664 105976,106310,106002
 2.0000e+000 106408 -1.0252e+001 -8.7944e+001  7.2837e+000 27664 105898,106238,106382
 2.0000e+000 106431  1.3827e+000 -8.2697e+001  8.4722e+000 27664 105898,106382,105924
 2.0000e+000 106728 -1.4469e+001 -7.6500e+001  5.6020e+000 27153 106751,106506,106454
 2.0000e+000 106705 -1.4412e+001 -7.9918e+001  1.8520e+000 27153 106751,106454,106610
 2.0000e+000 106682 -2.2256e+001 -5.7842e+001 -6.1078e+000 27153 106454,106506,106480
 2.0000e+000 106659 -1.6690e+001 -7.6214e+001  1.1835e+000 27153 106532,106610,106584
 2.0000e+000 106636 -3.4551e+001 -5.2866e+001  6.5335e+000 27153 106532,106584,106558
 2.0000e+000 106777 -1.0195e+001 -7.1329e+001  7.6113e+000 27153 106532,106506,106751
 2.0000e+000 106800 -1.1996e+001 -7.6848e+001  3.3847e+000 27153 106532,106751,106610
 2.0000e+000 107180 -2.8898e+001 -1.0434e+002 -8.7498e+000 26642 107203,106984,106958
 2.0000e+000 107157 -5.1749e+001 -1.1294e+002 -4.8729e+000 26642 107203,106958,106932
 2.0000e+000 107134 -5.3535e+001 -1.1412e+002 -2.1304e+001 26642 107275,107036,107010
 2.0000e+000 107111 -3.8060e+001 -1.1029e+002 -2.2649e+001 26642 106932,107062,107036
 2.0000e+000 107088 -1.3421e+000 -8.4511e+001  9.5589e+000 26642 106906,107062,106932
 2.0000e+000 107229 -1.4013e+001 -9.1232e+001 -3.3426e+001 26642 107010,106984,107203
 2.0000e+000 107252 -5.1601e+001 -1.1482e+002 -2.3384e+001 26642 107275,107010,107203
 2.0000e+000 107301 -5.0316e+001 -1.1298e+002 -2.1727e+001 26642 106932,107036,107275
 2.0000e+000 107324 -4.8108e+001 -1.1404e+002 -2.2867e+001 26642 106932,107275,107203
 2.0000e+000 107675 -1.4400e+001 -4.7303e+001  5.0531e+000 26045 107450,107554,107476
 2.0000e+000 107652 -7.2230e+000 -4.0894e+001  1.9087e+000 26045 107450,107580,107554
 2.0000e+000 107629 -4.6268e+000 -9.0791e+000 -7.0750e+000 26045 107476,107528,107502
 2.0000e+000 107606  4.0065e+000 -4.1252e+001  4.1541e+000 26045 107476,107554,107528
 2.0000e+000 107874 -1.4165e+001 -1.1229e+002  2.7281e+001 25641 107750,107802,107776
 2.0000e+000 107851 -2.3987e+001 -8.1779e+001  1.0759e+001 25641 107724,107802,107750
 2.0000e+000 107828 -2.0001e+001 -8.2161e+001  8.3834e+000 25641 107698,107802,107724
 2.0000e+000 108431  5.9731e+000 -1.0346e+002  2.3278e+001 25023 108526,108267,108241
 2.0000e+000 108408  3.1982e+001 -1.0252e+002  6.1487e+000 25023 108059,108267,108085
 2.0000e+000 108385  5.2648e+000 -1.0853e+002  1.6213e+001 25023 108454,108163,108111
 2.0000e+000 108362 -2.7841e+000 -1.0327e+002  2.5433e+001 25023 108454,108111,108085
 2.0000e+000 108339 -3.7682e+001 -1.4074e+002  3.0245e+001 25023 108111,108163,108137
 2.0000e+000 108316 -1.9925e+001 -6.8465e+001 -3.6821e+000 25023 108163,108241,108215
 2.0000e+000 108293  2.0657e+001 -5.1142e+001 -3.2431e+000 25023 108163,108215,108189
 2.0000e+000 108480  1.5974e+001 -9.0995e+001  7.3710e+000 25023 108241,108163,108454
 2.0000e+000 108503  3.7590e+000 -9.6975e+001  2.1032e+001 25023 108526,108241,108454
 2.0000e+000 108552  5.0141e+000 -1.1235e+002  2.3047e+001 25023 108085,108267,108526
 2.0000e+000 108575  2.4593e+000 -1.0639e+002  2.0654e+001 25023 108085,108526,108454
 2.0000e+000 108823 -5.0620e+000 -6.4554e+001  6.1318e+000 24461 108624,108728,108650
 2.0000e+000 108800  6.3108e-001 -1.3615e+002 -1.0771e+001 24461 108598,108728,108624
 2.0000e+000 108777  2.9867e-001 -8.9097e+001  5.0317e+000 24461 108650,108728,108676
 2.0000e+000 108754 -3.6950e+001 -2.4590e+002  1.9428e+001 24461 108676,108728,108702
 2.0000e+000 109022 -4.0937e+001 -9.2337e+001  9.8019e+000 24121 108872,108924,108898
 2.0000e+000 108999 -3.0237e+001 -1.0096e+002  8.9442e+000 24121 108846,108924,108872
 2.0000e+000 108976 -1.8292e+001 -9.9273e+001  1.7118e+001 24121 108846,108950,108924
 2.0000e+000 109483 -3.6068e+001 -1.1434e+002 -1.5140e+001 23717 109209,109339,109235
 2.0000e+000 109460 -1.8311e+001 -1.3074e+002 -2.8630e+001 23717 109209,109365,109339
 2.0000e+000 109437 -1.6547e+001 -1.3235e+002 -9.9572e+000 23717 109287,109339,109313
 2.0000e+000 109414 -6.5861e+001 -1.3830e+002 -1.9392e+000 23717 109235,109339,109287
 2.0000e+000 109391 -1.3715e+001 -1.6164e+002  4.0194e+001 23717 109235,109287,109261
 2.0000e+000 109910 -5.0561e+001 -1.3309e+002 -9.0573e+000 23305 109613,109743,109717
 2.0000e+000 109887 -4.5973e+001 -1.3138e+002 -7.7916e+000 23305 109613,109769,109743
 2.0000e+000 109864 -5.6229e+001 -1.2214e+002 -8.8555e+000 23305 109613,109717,109639
 2.0000e+000 109841 -3.5881e+001 -1.2289e+002 -2.7065e+000 23305 109587,109769,109613
 2.0000e+000 109818 -1.3340e+001 -1.0397e+002  4.3522e+000 23305 109639,109717,109691
 2.0000e+000 109795 -1.9699e+001 -9.1457e+001 -1.2654e+001 23305 109639,109691,109665
 2.0000e+000 110180 -1.5924e+001 -6.1700e+001 -3.3855e+000 22851 110007,110059,110033
 2.0000e+000 110157 -3.7331e+001 -1.1668e+002  3.0697e+000 22851 109981,110059,110007
 2.0000e+000 110134 -4.6509e+001 -1.2497e+002 -1.1553e+000 22851 109955,110059,109981
 2.0000e+000 110111 -2.0402e+001 -1.3536e+002 -1.2939e+001 22851 109955,110085,110059
 2.0000e+000 110737 -1.1549e+001 -1.0452e+002 -3.9981e+000 22333 110760,110469,110391
 2.0000e+000 110714 -2.9387e+000 -9.8863e+001 -6.4937e+000 22333 110760,110391,110365
 2.0000e+000 110691  7.2179e+000 -9.6140e+001 -3.9268e+000 22333 110832,110521,110469
 2.0000e+000 110668  1.5946e+001 -1.6448e+002 -8.2403e-001 22333 110417,110469,110443
 2.0000e+000 110645 -3.2474e+001 -1.5289e+002 -1.9871e+000 22333 110391,110469,110417
 2.0000e+000 110622  2.3400e+001 -9.0677e+001 -6.9891e-001 22333 110469,110521,110495
 2.0000e+000 110599 -5.5101e+000 -8.4325e+001 -2.0165e+001 22333 110365,110573,110547
 2.0000e+000 110786 -2.4683e+000 -9.4757e+001 -2.1635e-001 22333 110832,110469,110760
 2.0000e+000 110809 -1.8934e+001 -1.1087e+002 -1.5567e+001 22333 110547,110760,110365
 2.0000e+000 110858  3.3406e+001 -9.6431e+001 -1.2089e+001 22333 110547,110521,110832
 2.0000e+000 110881  9.3258e+000 -1.0197e+002 -1.2321e+001 22333 110547,110832,110760
 2.0000e+000 111308 -5.7588e+001 -1.2727e+002  2.3412e+000 21829 111331,111063,111011
 2.0000e+000 111285 -6.4147e+001 -1.2311e+002 -6.5868e+000 21829 111331,111011,111167
 2.0000e+000 111262 -6.2147e+001 -1.3046e+002 -1.2516e+000 21829 111403,111089,111063
 2.0000e+000 111239 -7.3670e+001 -1.4721e+002  1.1356e+001 21829 111011,111063,111037
 2.0000e+000 111216 -4.7437e+001 -1.0888e+002  1.2505e+000 21829 110985,111167,111011
 2.0000e+000 111193 -7.1705e+001 -2.0693e+002  2.6696e+001 21829 111089,111141,111115
 2.0000e+000 111357 -6.2157e+001 -1.3039e+002 -1.2392e+000 21829 111403,111063,111331
 2.0000e+000 111380 -6.6236e+001 -1.3517e+002 -1.0062e+001 21829 111141,111331,111167
 2.0000e+000 111429 -6.1302e+001 -1.3033e+002 -1.0039e+000 21829 111141,111089,111403
 2.0000e+000 111452 -6.1852e+001 -1.3077e+002 -1.1961e+000 21829 111141,111403,111331
 2.0000e+000 112056  4.9488e+001 -9.8958e+001  3.1752e+000 21489 111687,111765,111739
 2.0000e+000 112033  1.8429e+001 -1.1459e+002  9.1671e+000 21489 112151,112079,111687
 2.0000e+000 112010  2.5243e+000 -1.7685e+002  5.3619e+000 21489 111791,111843,111817
 2.0000e+000 111987 -2.3877e+001 -1.4477e+002 -1.4447e+001 21489 112079,111843,111791
 2.0000e+000 111964  3.6119e+001 -1.0423e+002  1.9388e+001 21489 112151,111687,111661
 2.0000e+000 111941 -5.9637e+000 -7.3255e+001  1.4563e+001 21489 111661,111869,111843
 2.0000e+000 111918  4.8939e+001 -1.0877e+002  1.8143e+001 21489 111687,111739,111713
 2.0000e+000 111895  8.4747e+000 -3.9753e+001  5.4012e+000 21489 111635,111869,111661
 2.0000e+000 112105 -1.0042e+001 -1.2380e+002  4.2865e+000 21489 111765,111687,112079
 2.0000e+000 112128 -1.0738e+001 -1.1881e+002  5.3756e+000 21489 111765,112079,111791
 2.0000e+000 112177 -1.0681e+001 -1.1132e+002 -7.3910e+000 21489 111843,112079,112151
 2.0000e+000 112200  5.0139e+000 -1.0687e+002  8.3672e-001 21489 111843,112151,111661
 2.0000e+000 112578 -2.7367e+001 -1.4484e+002  2.7878e+000 21177 112382,112434,112408
 2.0000e+000 112555 -2.3791e+001 -1.3577e+002  3.4539e+000 21177 112330,112434,112382
 2.0000e+000 112532 -3.1650e+001 -1.2393e+002  2.1179e+001 21177 112304,112434,112330
 2.0000e+000 112509 -1.4336e+001 -1.3978e+002  0.0000e+000 21177 112330,112382,112356
 2.0000e+000 112486 -6.5121e+000 -8.3852e+001  5.3390e+000 21177 112304,112460,112434
 2.0000e+000 112679  8.7513e+001 -1.0585e+002 -1.9886e+001 20666 112601,112653,112627
 2.0000e+000 112927 -3.9744e+001 -1.3909e+002  2.0266e+000 19762 112702,112754,112728
 2.0000e+000 112904 -1.4433e+001 -1.2833e+002 -5.0254e+000 19762 112702,112832,112754
 2.0000e+000 112881 -2.9465e+001 -1.3134e+002  1.6331e+001 19762 112754,112832,112806
 2.0000e+000 112858 -4.6941e+001 -1.9065e+002  2.4350e+001 19762 112754,112806,112780
 2.0000e+000 113297  1.6803e+001 -1.6250e+002  1.1949e+001 19308 112974,113052,113026
 2.0000e+000 113274 -2.0296e+001 -1.3171e+002  1.7215e+001 19308 112974,113156,113052
 2.0000e+000 113251 -3.2713e+001 -1.6235e+002 -1.8597e+001 19308 113052,113130,113104
 2.0000e+000 113228 -3.2194e+001 -1.2902e+002 -2.7355e+000 19308 113052,113156,113130
 2.0000e+000 113205 -3.9731e+001 -1.4129e+002  0.0000e+000 19308 113052,113104,113078
 2.0000e+000 113182 -1.9874e+001 -1.7129e+002 -1.5467e+001 19308 112974,113026,113000
 2.0000e+000 113547 -2.8006e+001 -1.3859e+002 -9.5403e+000 18711 113570,113374,113348
 2.0000e+000 113524 -3.2889e+001 -1.3244e+002 -7.6805e+000 18711 113570,113348,113452
 2.0000e+000 113501 -2.8946e+001 -9.9842e+001 -3.0071e+001 18711 113322,113452,113348
 2.0000e+000 113478 -3.2889e+001 -1.3520e+002 -3.4281e+001 18711 113374,113426,113400
 2.0000e+000 113596 -2.3006e+001 -1.3229e+002 -1.1827e+001 18711 113426,113374,113570
 2.0000e+000 113619 -3.0244e+001 -1.2843e+002 -8.8614e+000 18711 113426,113570,113452
 2.0000e+000 113771 -7.0782e+001 -1.6905e+002 -7.9063e+000 18307 113670,113722,113696
 2.0000e+000 113748 -5.5570e+001 -1.6179e+002 -3.6386e+000 18307 113644,113722,113670
 2.0000e+000 113972 -3.1042e+001 -1.4551e+002  2.2162e+000 17945 113822,113874,113848
 2.0000e+000 113949 -3.9567e+001 -1.4752e+002  2.1718e+000 17945 113822,113900,113874
 2.0000e+000 113926 -5.2034e+001 -1.2659e+002  5.0626e+001 17945 113796,113900,113822
 2.0000e+000 114075  7.8733e+000 -1.9182e+002  2.5446e+001 17482 113997,114049,114023
 2.0000e+000 114479 -8.6641e-002 -1.2336e+002 -2.6079e+001 17042 114257,114361,114335
 2.0000e+000 114456 -2.9793e+001 -1.1637e+002 -3.0384e+000 17042 114205,114361,114257
 2.0000e+000 114433 -3.5214e+001 -1.3328e+002  4.4713e+000 17042 114205,114257,114231
 2.0000e+000 114410  4.7534e+001 -1.9344e+002 -1.0356e+001 17042 114283,114335,114309
 2.0000e+000 114387  1.7008e+001 -1.6084e+002 -7.6144e+000 17042 114257,114335,114283
 2.0000e+000 114879 -6.0903e+001 -1.4433e+002 -1.7377e+000 16638 114631,114683,114657
 2.0000e+000 114856  5.2159e+000 -1.1529e+002 -5.5917e+000 16638 114605,114683,114631
 2.0000e+000 114833  8.7135e+000 -8.4197e+001  1.7735e+000 16638 114605,114761,114683
 2.0000e+000 114810 -1.4305e+001 -1.3820e+002 -4.7124e+000 16638 114683,114735,114709
 2.0000e+000 114787 -3.2185e+001 -1.5746e+002 -1.5038e+001 16638 114683,114761,114735
 2.0000e+000 115078 -3.4581e+001 -1.0052e+002  7.2123e+000 16232 114954,115006,114980
 2.0000e+000 115055 -2.4622e+001 -1.3491e+002  1.2910e+001 16232 114928,115006,114954
 2.0000e+000 115032  1.2040e+001 -1.8816e+002  1.9189e+001 16232 114902,115006,114928
 2.0000e+000 115228 -6.2734e+001 -1.3389e+002 -8.8139e-001 15482 115101,115153,115127
 2.0000e+000 115205 -4.2497e+001 -1.2222e+002 -5.7579e+000 15482 115101,115179,115153
 2.0000e+000 115331 -2.9466e+001 -1.3467e+002 -2.2804e+001 15163 115253,115305,115279
 2.0000e+000 115434 -3.4853e+001 -1.5080e+002  2.1484e+001 421 115356,115408,115382
 2.1000e+000 68213 -5.2133e+000 -8.3054e+001 -5.3992e+000 67888 68112,68164,68138
 2.1000e+000 68190 -6.3609e+001 -1.0113e+002 -8.4024e+000 67888 68086,68164,68112
 2.1000e+000 68314 -1.2755e+001 -1.6522e+002  2.0841e+001 67576 68236,68288,68262
 2.1000e+000 68584 -3.0989e+001 -1.8578e+002  1.1076e+001 67378 68385,68489,68463
 2.1000e+000 68561  5.1122e+001 -1.4954e+002  5.0514e+000 67378 68359,68489,68385
 2.1000e+000 68538 -2.1926e+001 -1.4874e+002  1.4890e+001 67378 68385,68463,68411
 2.1000e+000 68515 -1.0159e+001 -1.0413e+002  1.0589e+001 67378 68411,68463,68437
 2.1000e+000 68964 -2.7170e+001 -1.7580e+002  3.1354e+001 67130 68690,68820,68716
 2.1000e+000 68941  7.5193e+001 -1.8099e+002  6.1414e+001 67130 68690,68846,68820
 2.1000e+000 68918 -9.4406e+000 -1.1190e+002  4.3387e+000 67130 68742,68820,68794
 2.1000e+000 68895  2.2786e+001 -1.0795e+002  9.5284e+000 67130 68716,68820,68742
 2.1000e+000 68872  1.1662e+001 -6.7739e+001 -3.1335e+000 67130 68742,68794,68768
 2.1000e+000 69065 -2.8132e+001 -1.1245e+002  2.1703e+000 66926 68987,69039,69013
 2.1000e+000 69445 -1.6970e+001 -1.0820e+002 -4.1396e+000 66614 69223,69301,69275
 2.1000e+000 69422 -2.8687e+001 -1.1348e+002 -2.9949e+000 66614 69171,69301,69223
 2.1000e+000 69399 -3.6627e+001 -1.1657e+002  7.9163e-001 66614 69171,69327,69301
 2.1000e+000 69376 -3.7781e+000 -5.4002e+001  2.1836e+000 66614 69223,69275,69249
 2.1000e+000 69353 -2.3880e+001 -1.2147e+002 -3.0093e+000 66614 69171,69223,69197
 2.1000e+000 69546 -1.4312e+000 -1.5813e+002  1.7090e+001 66416 69468,69520,69494
 2.1000e+000 69997 -1.2203e+001 -1.4802e+002 -1.5152e+001 66104 69700,69830,69726
 2.1000e+000 69974 -2.0321e+001 -2.0333e+002 -3.5178e+001 66104 69700,69856,69830
 2.1000e+000 69951 -2.0476e+001 -1.1795e+002 -8.5009e+000 66104 69726,69804,69778
 2.1000e+000 69928 -1.3034e+001 -1.4259e+002 -1.1519e+001 66104 69726,69830,69804
 2.1000e+000 69905 -1.6986e+001 -1.0318e+002  1.7046e+000 66104 69726,69778,69752
 2.1000e+000 69882 -4.9591e+000 -3.1378e+002 -5.3919e+001 66104 69674,69856,69700
 2.1000e+000 70326 -2.0034e+001 -5.7876e+001 -1.2141e+001 65814 70349,70153,70127
 2.1000e+000 70303  1.2599e+001 -5.9803e+001 -1.5606e+000 65814 70349,70127,70101
 2.1000e+000 70280  4.4526e+001 -2.1012e+001  3.5197e+001 65814 70101,70231,70205
 2.1000e+000 70257  5.1625e+001 -5.5854e+001  1.3739e+001 65814 70153,70205,70179
 2.1000e+000 70375 -3.8831e+000 -6.0168e+001  1.0819e+001 65814 70205,70153,70349
 2.1000e+000 70398  4.2846e+001 -5.6645e+001  1.8464e+001 65814 70205,70349,70101
 2.1000e+000 70904 -2.6507e+000 -2.3743e+001 -7.7962e+000 65502 70607,70737,70685
 2.1000e+000 70881  6.9178e+000 -7.6607e-001 -1.8577e+001 65502 70581,70737,70607
 2.1000e+000 70858  5.8473e+000  3.0488e+001  1.3201e+000 65502 70581,70763,70737
 2.1000e+000 70835 -5.3718e+000 -2.4087e+001 -4.7225e+000 65502 70685,70737,70711
 2.1000e+000 70812 -7.5155e+000  1.3957e+000 -9.9438e+000 65502 70607,70659,70633
 2.1000e+000 70789  3.4879e+000 -1.1359e+001 -1.4040e+001 65502 70607,70685,70659
 2.1000e+000 71103 -1.8610e+001 -1.4622e+002 -6.5378e+000 65304 71126,70979,70953
 2.1000e+000 71080 -3.2174e+001 -1.4554e+002 -4.4707e+000 65304 71126,70953,70927
 2.1000e+000 71057 -5.0633e+001 -1.6439e+002  4.4580e+000 65304 70927,71031,71005
 2.1000e+000 71152 -3.2046e+001 -1.4006e+002 -1.0432e+001 65304 71005,70979,71126
 2.1000e+000 71175 -4.7180e+001 -1.4129e+002 -5.3247e+000 65304 71005,71126,70927
 2.1000e+000 71374 -8.0368e+000 -1.3097e+002  3.3454e+000 65106 71198,71276,71224
 2.1000e+000 71351  1.6175e+001 -1.2631e+002  4.6051e+000 65106 71198,71302,71276
 2.1000e+000 71328 -9.7068e-001 -1.1081e+002  1.7879e+001 65106 71224,71276,71250
 2.1000e+000 71756 -1.0865e+001 -9.3051e+001 -1.1880e+001 64652 71508,71638,71534
 2.1000e+000 71733 -1.9349e+000 -8.9003e+001  6.1974e-001 64652 71482,71638,71508
 2.1000e+000 71710 -1.7606e+001 -6.3774e+001 -1.8897e+000 64652 71534,71586,71560
 2.1000e+000 71687 -6.0694e+000 -8.2899e+001 -2.0550e+001 64652 71534,71612,71586
 2.1000e+000 71664 -4.3118e+001 -9.3580e+001 -2.2727e+001 64652 71534,71638,71612
 2.1000e+000 72085 -2.3775e+001 -9.5935e+001 -1.4256e+001 64248 71886,71964,71912
 2.1000e+000 72062  6.5576e+000 -8.1334e+001 -1.8811e+001 64248 71860,71964,71886
 2.1000e+000 72039 -3.6634e+000 -8.0500e+001 -7.0115e+000 64248 71912,71964,71938
 2.1000e+000 72016 -1.9276e+001 -1.0075e+002 -8.6988e+000 64248 71860,71990,71964
 2.1000e+000 72235 -2.2483e+000 -4.9134e+001 -9.1626e+000 63858 72588,72258,72134
 2.1000e+000 72212 -1.8477e+000 -1.8246e+001  1.0848e+001 63858 72330,72258,72108
 2.1000e+000 72284  5.0678e+000 -1.8584e+001 -1.2690e+000 63858 72160,72134,72258
 2.1000e+000 72307 -2.5548e+001 -4.0297e+001 -1.0185e+001 63858 72460,72258,72186
 2.1000e+000 72356 -1.7511e+001 -2.8544e+001 -6.0254e-001 63858 72186,72258,72330
 2.1000e+000 72486 -5.5066e+000 -4.6172e+001 -2.9888e+000 63858 72160,72258,72460
 2.1000e+000 72614  6.7033e+000 -5.2567e+001  1.0597e+001 63858 72108,72258,72588
 2.1000e+000 73248  1.1990e+001 -7.9290e+001  2.2410e+001 63404 72902,72954,72928
 2.1000e+000 73225 -2.7038e+001 -9.6006e+001  4.9904e+000 63404 73271,72954,72902
 2.1000e+000 73202 -2.5750e+001 -7.4450e+001  6.0224e+000 63404 73271,72902,73032
 2.1000e+000 73179 -1.5041e+001 -5.8807e+001 -6.5612e+000 63404 72902,73058,73032
 2.1000e+000 73156 -3.6335e+001 -8.5706e+001 -1.7089e+001 63404 72980,73032,73006
 2.1000e+000 73133 -1.1591e+001 -3.4744e+001  3.5120e+000 63404 72876,73058,72902
 2.1000e+000 73110 -7.8603e+000 -1.7846e+001 -6.5009e+000 63404 72876,73084,73058
 2.1000e+000 73297 -2.4163e+001 -1.0049e+002 -6.9725e+000 63404 72980,72954,73271
 2.1000e+000 73320 -2.7593e+001 -8.7797e+001 -4.5102e+000 63404 72980,73271,73032
 2.1000e+000 73470 -3.8566e+001 -2.8094e+002  2.7521e+001 63014 73343,73395,73369
 2.1000e+000 73447 -1.3067e+002 -3.6116e+002 -1.0470e+001 63014 73343,73421,73395
 2.1000e+000 73929  4.5445e+001 -1.1807e+002  1.7938e+001 62702 73759,73811,73785
 2.1000e+000 73906  5.1338e+001 -1.1745e+002  1.3042e+001 62702 73655,73811,73759
 2.1000e+000 73883  2.1001e+001 -1.3937e+002 -1.0027e+000 62702 73655,73759,73681
 2.1000e+000 73860  4.4148e+001 -9.3148e+001 -3.1665e+001 62702 73681,73759,73707
 2.1000e+000 73837 -3.6834e+001 -1.1375e+002  8.5342e-001 62702 73707,73759,73733
 2.1000e+000 74209 -6.5322e+001 -1.2466e+002  1.7976e-001 62404 74059,74137,74085
 2.1000e+000 74186 -7.6903e+001 -1.7015e+002  2.2034e+001 62404 74033,74137,74059
 2.1000e+000 74163 -7.2079e+001 -1.0822e+002 -4.9052e-001 62404 74085,74137,74111
 2.1000e+000 74408  1.1153e+001 -8.0402e+001  4.8533e+000 62000 74258,74336,74284
 2.1000e+000 74385 -1.2728e+000 -8.3406e+001  1.0738e+001 62000 74232,74336,74258
 2.1000e+000 74362 -1.1220e+001 -8.0163e+001 -2.8395e+000 62000 74284,74336,74310
 2.1000e+000 74509  6.0742e+000 -1.5370e+002  2.4968e+001 61802 74431,74483,74457
 2.1000e+000 74759 -3.2698e+001 -1.1203e+002 -1.4361e+000 61554 74782,74586,74560
 2.1000e+000 74736 -1.4151e+001 -9.7790e+001  5.7405e+000 61554 74782,74560,74664
 2.1000e+000 74713 -2.7572e+001 -6.9642e+001  4.4178e+001 61554 74854,74612,74586
 2.1000e+000 74690 -2.5340e+001 -1.1188e+002 -8.6783e-001 61554 74534,74664,74560
 2.1000e+000 74808 -4.7227e+001 -9.7365e+001  1.0677e+001 61554 74854,74586,74782
 2.1000e+000 74831 -1.6911e+001 -1.2629e+002  8.1203e+000 61554 74638,74782,74664
 2.1000e+000 74880  1.5847e+001 -9.8019e+001  4.7062e+001 61554 74638,74612,74854
 2.1000e+000 74903  1.5170e+001 -9.4639e+001  2.1798e+001 61554 74638,74854,74782
 2.1000e+000 75285  2.4107e+001 -1.2245e+002 -7.0981e-001 61356 75063,75167,75115
 2.1000e+000 75262  1.2530e+001 -1.3720e+002 -1.6177e+001 61356 75037,75167,75063
 2.1000e+000 75239  3.1654e+001 -1.2629e+002 -5.7009e-001 61356 75115,75167,75141
 2.1000e+000 75216  1.4172e+001 -1.2468e+002 -6.0113e-001 61356 75063,75115,75089
 2.1000e+000 75193 -4.7363e+001 -8.4867e+001  1.2812e+001 61356 75011,75167,75037
 2.1000e+000 75631  1.4193e+001 -1.0297e+002  4.7835e+000 60952 75654,75412,75360
 2.1000e+000 75608  1.4368e+001 -1.1701e+002 -2.5550e-001 60952 75654,75360,75334
 2.1000e+000 75585 -1.3632e+000 -1.5288e+002  5.4585e+000 60952 75726,75438,75412
 2.1000e+000 75562  3.4238e+001 -1.0196e+002 -2.4112e+001 60952 75308,75490,75334
 2.1000e+000 75539  1.5674e+001 -9.9836e+001 -1.4618e+000 60952 75360,75412,75386
 2.1000e+000 75516 -2.1743e+001 -1.8336e+002 -4.3804e+000 60952 75438,75490,75464
 2.1000e+000 75680  1.1468e+001 -1.2257e+002  6.1571e+000 60952 75726,75412,75654
 2.1000e+000 75703  1.3391e+001 -1.1460e+002 -5.5958e-001 60952 75490,75654,75334
 2.1000e+000 75752  2.3050e+000 -1.1869e+002 -2.8070e+000 60952 75490,75438,75726
 2.1000e+000 75775  2.3873e+000 -1.1742e+002 -4.1847e+000 60952 75490,75726,75654
 2.1000e+000 76155  9.6557e+000 -8.8885e+001 -8.5143e+000 60754 75933,75985,75959
 2.1000e+000 76132 -6.2598e+000 -9.9475e+001  1.2857e+001 60754 75933,76037,75985
 2.1000e+000 76109  2.8133e+001 -9.5010e+001  3.8827e+000 60754 75985,76037,76011
 2.1000e+000 76086 -2.8049e+001 -7.8734e+001  8.3412e-001 60754 75881,76037,75933
 2.1000e+000 76063 -5.0819e+001 -6.9706e+001  2.7126e+001 60754 75881,75933,75907
 2.1000e+000 76612  2.8944e+000 -6.5867e+001  5.3667e+000 60350 76635,76442,76390
 2.1000e+000 76589  3.4141e+001 -7.4015e+001  1.3834e+001 60350 76635,76390,76364
 2.1000e+000 76566  1.5458e+000 -1.0421e+002 -2.5885e+000 60350 76364,76494,76468
 2.1000e+000 76543  7.6188e+001 -3.6579e+001  3.2948e-001 60350 76390,76442,76416
 2.1000e+000 76520  1.1977e+001 -5.2847e+001  4.2568e+000 60350 76338,76494,76364
 2.1000e+000 76661 -1.6481e+001 -6.9695e+001  6.7884e+000 60350 76468,76442,76635
 2.1000e+000 76684  5.0283e+000 -8.4285e+001  1.5482e+001 60350 76468,76635,76364
 2.1000e+000 76932 -3.7025e+001 -1.3093e+002  2.7372e-001 59946 76955,76733,76707
 2.1000e+000 76909 -3.6350e+001 -1.2863e+002  3.4142e+000 59946 77027,76955,76707
 2.1000e+000 76886 -3.5758e+001 -1.2759e+002  3.1395e+000 59946 77027,76707,76837
 2.1000e+000 76863 -1.6481e+001 -1.3817e+002 -1.2913e+001 59946 76733,76785,76759
 2.1000e+000 76981 -4.2432e+001 -1.3128e+002 -2.3630e+000 59946 76785,76733,76955
 2.1000e+000 77004 -3.8708e+001 -1.2974e+002  1.4080e+000 59946 76785,76955,76811
 2.1000e+000 77053 -3.5207e+001 -1.3031e+002  1.9388e+000 59946 76811,76955,77027
 2.1000e+000 77076 -3.4112e+001 -1.2828e+002  1.5110e+000 59946 76811,77027,76837
 2.1000e+000 77226  2.5902e+001 -4.4995e+001  2.6329e+000 59542 77099,77151,77125
 2.1000e+000 77203  4.4495e+000 -9.7560e+001  4.6834e+000 59542 77099,77177,77151
 2.1000e+000 77427 -5.6224e+001 -1.0591e+002 -1.0383e+001 59030 77450,77277,77251
 2.1000e+000 77404 -2.8331e+001 -8.2749e+001 -4.5947e+001 59030 77450,77251,77355
 2.1000e+000 77381  2.3249e+001 -1.1834e+002 -9.0393e+000 59030 77277,77329,77303
 2.1000e+000 77476 -2.0814e+001 -1.1052e+002 -2.7420e+001 59030 77329,77277,77450
 2.1000e+000 77499  1.2467e+001 -1.0010e+002 -5.5711e+001 59030 77329,77450,77355
 2.1000e+000 77749 -4.2038e+001 -1.4856e+002  1.8012e+001 58426 77772,77628,77602
 2.1000e+000 77726 -2.7563e+001 -1.5030e+002  3.8107e+001 58426 77524,77654,77628
 2.1000e+000 77703 -3.0427e+001 -1.5772e+002  1.4347e+001 58426 77772,77602,77550
 2.1000e+000 77680 -5.4615e+000 -1.4465e+002 -2.8462e+000 58426 77550,77602,77576
 2.1000e+000 77798 -3.0295e+001 -1.3598e+002  2.3400e+001 58426 77524,77628,77772
 2.1000e+000 77821 -2.7751e+001 -1.5188e+002  1.6806e+001 58426 77524,77772,77550
 2.1000e+000 78071 -6.5634e+001 -1.5332e+002  1.4988e+001 57922 78094,77924,77898
 2.1000e+000 78048 -8.1545e+001 -1.5199e+002 -7.1050e+000 57922 78094,77898,77872
 2.1000e+000 78025 -5.6462e+001 -1.3087e+002  1.2371e+001 57922 78166,77846,77950
 2.1000e+000 78002  5.3900e-001 -1.2998e+002  1.9831e+001 57922 77846,77976,77950
 2.1000e+000 78120 -4.8822e+001 -1.4944e+002  7.8411e+000 57922 77950,77924,78094
 2.1000e+000 78143 -6.1152e+001 -1.3473e+002  8.4766e+000 57922 78166,77950,78094
 2.1000e+000 78192 -4.8890e+001 -1.3983e+002  4.3733e+000 57922 77872,77846,78166
 2.1000e+000 78215 -5.8734e+001 -1.4884e+002 -4.7421e-001 57922 77872,78166,78094
 2.1000e+000 78416  1.4140e+001 -1.2987e+002 -6.2491e+000 57468 78439,78292,78240
 2.1000e+000 78393  1.6576e+001 -1.2232e+002 -7.5865e+000 57468 78439,78240,78344
 2.1000e+000 78370  4.0407e+000 -1.8065e+002 -4.5776e+000 57468 78240,78292,78266
 2.1000e+000 78465  1.7166e+001 -1.3093e+002 -1.1417e+001 57468 78318,78292,78439
 2.1000e+000 78488  1.8248e+001 -1.2648e+002 -1.1341e+001 57468 78318,78439,78344
 2.1000e+000 78689  2.5018e+001 -1.4336e+002 -1.2561e+001 57014 78712,78539,78513
 2.1000e+000 78666  1.0533e+001 -1.4075e+002 -2.8790e+000 57014 78712,78513,78617
 2.1000e+000 78643  5.0276e+000 -1.3275e+002  1.1556e+001 57014 78565,78617,78591
 2.1000e+000 78738  6.3244e+000 -1.3152e+002 -1.3345e+001 57014 78565,78539,78712
 2.1000e+000 78761 -1.3404e+001 -1.3946e+002  1.8104e+000 57014 78565,78712,78617
 2.1000e+000 79241 -4.3796e+001 -1.2010e+002  1.8361e+000 56652 79264,78895,78869
 2.1000e+000 79218 -1.9663e+001 -1.6743e+002 -1.9022e+001 56652 79264,78869,79051
 2.1000e+000 79195 -2.5993e+001 -1.4689e+002 -4.0867e+001 56652 78869,79077,79051
 2.1000e+000 79172 -2.8590e+001 -7.4709e+001 -1.0127e+001 56652 78895,78973,78947
 2.1000e+000 79149 -5.6803e+001 -2.3760e+002 -2.2645e+001 56652 78973,79051,78999
 2.1000e+000 79126 -2.6486e+001 -7.6008e+001 -1.0617e+001 56652 78895,78947,78921
 2.1000e+000 79103 -3.6243e+001 -1.3917e+002  3.3103e+001 56652 78999,79051,79025
 2.1000e+000 79290 -2.6533e+001 -8.9279e+001  1.9829e+001 56652 78973,78895,79264
 2.1000e+000 79313 -1.7570e+000 -1.4172e+002  8.8324e-001 56652 78973,79264,79051
 2.1000e+000 79512 -2.8398e+001 -1.8664e+002  3.0001e+001 56062 79388,79440,79414
 2.1000e+000 79489 -1.1107e+002 -1.3982e+002  2.5950e+001 56062 79336,79440,79388
 2.1000e+000 79466  4.6728e+000 -1.2398e+002  5.5324e+001 56062 79336,79388,79362
 2.1000e+000 79941 -1.7203e+001 -1.1218e+002  1.9284e+001 55658 79964,79670,79644
 2.1000e+000 79918 -3.0172e+001 -1.1255e+002  2.1361e+001 55658 79964,79644,79800
 2.1000e+000 79895 -2.9141e+001 -1.2175e+002  8.0176e+000 55658 80036,79696,79670
 2.1000e+000 79872 -3.2085e+001 -9.4620e+001 -3.1619e+000 55658 80108,79722,79696
 2.1000e+000 79849 -4.8281e+001 -1.0270e+002 -7.3215e-001 55658 79722,79774,79748
 2.1000e+000 79826 -4.7776e-001 -1.0253e+002  6.2665e+000 55658 79618,79800,79644
 2.1000e+000 79990 -3.1364e+001 -1.2143e+002  1.4632e+001 55658 80036,79670,79964
 2.1000e+000 80013 -2.9529e+001 -1.0640e+002  2.1288e+001 55658 79774,79964,79800
 2.1000e+000 80062 -2.2181e+001 -1.0578e+002  7.1336e+000 55658 80108,79696,80036
 2.1000e+000 80085 -3.0394e+001 -1.0651e+002  1.9513e+001 55658 79774,80036,79964
 2.1000e+000 80134 -5.1860e+001 -1.0804e+002  2.9300e+000 55658 79774,79722,80108
 2.1000e+000 80157 -4.6078e+001 -1.2073e+002  1.3568e+001 55658 79774,80108,80036
 2.1000e+000 80307 -4.8522e+001 -1.0292e+002  1.4103e+001 55254 80402,80330,80206
 2.1000e+000 80284 -5.0153e+001 -1.4229e+002  9.8453e+000 55254 80330,80180,80258
 2.1000e+000 80356 -6.0952e+001 -1.3121e+002  2.5719e+001 55254 80232,80206,80330
 2.1000e+000 80379 -1.7784e+001 -1.1208e+002  3.2170e+001 55254 80232,80330,80258
 2.1000e+000 80428 -7.3617e+001 -1.3258e+002  2.1032e+000 55254 80180,80330,80402
 2.1000e+000 80659  2.6295e+001 -1.2878e+002 -2.1858e+001 54850 80558,80610,80584
 2.1000e+000 80636  3.3709e+001 -1.2096e+002 -1.6353e+001 54850 80532,80610,80558
 2.1000e+000 80760  9.2544e+000 -1.2506e+002 -9.6876e+000 54652 80682,80734,80708
 2.1000e+000 81164  1.0537e+001 -1.2938e+002 -4.3284e+000 54248 81187,80942,80890
 2.1000e+000 81141  3.5003e+000 -1.3144e+002 -1.7297e+000 54248 81187,80890,81046
 2.1000e+000 81118  6.5255e+000 -1.3304e+002  2.8951e+001 54248 80942,81020,80994
 2.1000e+000 81095  1.0410e+001 -1.3661e+002  6.8880e-001 54248 80890,80942,80916
 2.1000e+000 81072  5.8123e-001 -6.3248e+001  1.2379e+000 54248 80942,80994,80968
 2.1000e+000 81213  2.8163e+000 -1.2651e+002 -4.1871e+000 54248 81020,80942,81187
 2.1000e+000 81236 -3.0169e+000 -1.2708e+002 -2.5293e+000 54248 81020,81187,81046
 2.1000e+000 81663 -6.2378e+001 -9.5627e+001  1.1570e+001 53594 81340,81444,81366
 2.1000e+000 81640 -3.0441e+001 -1.5137e+002 -1.0013e+001 53594 81340,81470,81444
 2.1000e+000 81617 -3.6878e+001 -1.4814e+002 -2.3804e+001 53594 81340,81522,81470
 2.1000e+000 81594 -1.5457e+001 -6.0343e+001 -1.5269e+001 53594 81392,81444,81418
 2.1000e+000 81571 -3.1769e+001 -7.1326e+001 -2.0937e+001 53594 81366,81444,81392
 2.1000e+000 81548  7.3093e+001 -1.3453e+002 -1.8425e+001 53594 81470,81522,81496
 2.1000e+000 81943 -1.9222e+001 -6.9209e+001 -1.1838e+001 53104 81966,81845,81819
 2.1000e+000 81920 -2.7417e+001 -6.3721e+001 -1.4775e+001 53104 81966,81819,81767
 2.1000e+000 81897 -2.4021e+001 -5.6323e+001 -1.3840e+001 53104 81767,81819,81793
 2.1000e+000 81992 -1.3554e+001 -6.8285e+001 -1.5539e+001 53104 81871,81845,81966
 2.1000e+000 82015 -1.9869e+001 -6.0270e+001 -2.0097e+001 53104 81871,81966,81767
 2.1000e+000 82491 -2.0406e+000 -6.5699e+001 -1.4304e+001 52650 82145,82249,82171
 2.1000e+000 82468 -6.2572e+001 -9.7902e+001 -2.1233e+000 52650 82145,82301,82249
 2.1000e+000 82445 -5.4575e+001 -1.3305e+002 -2.1617e+001 52650 82249,82301,82275
 2.1000e+000 82422 -1.5947e+001 -1.6671e+002 -1.5624e+001 52650 82119,82301,82145
 2.1000e+000 82399 -8.1923e+000 -3.7580e+001  1.0289e+001 52650 82171,82249,82223
 2.1000e+000 82376  3.6960e+001 -1.4285e+002 -2.6694e+001 52650 82119,82327,82301
 2.1000e+000 82353 -2.1647e+000 -1.4888e+001 -6.3569e+000 52650 82171,82223,82197
 2.1000e+000 82739 -1.9218e+001 -5.5222e+001 -4.8045e+000 52246 82762,82540,82514
 2.1000e+000 82716 -5.6816e+000 -4.4480e+001 -9.9420e+000 52246 82762,82514,82644
 2.1000e+000 82693 -2.9412e+001 -7.0857e+001  3.7993e+000 52246 82540,82618,82592
 2.1000e+000 82670 -1.8233e+001 -5.0923e+001 -7.7529e+000 52246 82540,82592,82566
 2.1000e+000 82788 -6.9074e+000 -6.7473e+001  1.9220e+000 52246 82618,82540,82762
 2.1000e+000 82811  5.4354e+000 -6.0435e+001 -9.0566e-001 52246 82618,82762,82644
 2.1000e+000 83059  1.2710e+001 -8.2079e+001  1.6093e+000 51578 82860,82964,82938
 2.1000e+000 83036  1.2482e+001 -7.9367e+001 -1.7832e+001 51578 82834,82964,82860
 2.1000e+000 83013  1.4886e+001 -6.9318e+001  7.5868e+000 51578 82860,82938,82886
 2.1000e+000 82990  1.6318e+001 -6.5620e+001  7.5356e+000 51578 82886,82938,82912
 2.1000e+000 83309 -1.7211e+001 -4.5885e+001  1.7567e+001 51138 83332,83162,83136
 2.1000e+000 83286  1.7012e+000 -6.3479e+001  5.8300e+000 51138 83332,83136,83110
 2.1000e+000 83263 -1.7790e+001 -6.1070e+001 -3.1695e-002 51138 83404,83214,83188
 2.1000e+000 83240 -5.4328e-003 -2.0350e+001  1.9547e+000 51138 83084,83214,83110
 2.1000e+000 83358 -3.8123e+001 -7.2714e+001  3.4324e+001 51138 83188,83162,83332
 2.1000e+000 83381 -9.9962e+000 -7.5104e+001  1.1877e+001 51138 83404,83188,83332
 2.1000e+000 83430 -4.4081e+000 -2.3855e+001 -4.0578e+000 51138 83110,83214,83404
 2.1000e+000 83453 -2.5576e+000 -4.6628e+001  8.4356e+000 51138 83110,83404,83332
 2.1000e+000 83835  6.9983e+000 -7.7902e+001 -1.0551e+001 50734 83613,83717,83691
 2.1000e+000 83812  3.1209e+000 -8.8990e+001 -2.2355e+001 50734 83561,83717,83613
 2.1000e+000 83789  1.2485e+001 -2.6700e+001 -3.3361e+001 50734 83561,83613,83587
 2.1000e+000 83766 -2.0237e+000 -4.5957e+001 -7.5613e+000 50734 83613,83691,83639
 2.1000e+000 83743 -4.1295e+000 -4.4998e+001  8.5916e+000 50734 83639,83691,83665
 2.1000e+000 84034  1.4765e+000 -4.7423e+001 -9.3334e+000 50230 84057,83884,83858
 2.1000e+000 84011 -1.1476e-002 -4.5872e+001 -1.0378e+000 50230 84129,84057,83858
 2.1000e+000 83988  3.4769e+000 -4.2025e+001 -2.4951e+000 50230 84129,83858,83962
 2.1000e+000 84083 -1.2205e+001 -5.1995e+001 -1.2344e+001 50230 83910,83884,84057
 2.1000e+000 84106 -4.9295e+000 -5.3932e+001 -9.2063e-001 50230 83910,84057,83936
 2.1000e+000 84155  5.7251e+000 -5.0438e+001 -2.3058e+000 50230 83936,84057,84129
 2.1000e+000 84178  7.6626e+000 -4.7794e+001 -3.2177e+000 50230 83936,84129,83962
 2.1000e+000 84558 -1.4604e+001 -6.4362e+001 -1.6171e+001 49768 84581,84388,84362
 2.1000e+000 84535 -5.2793e+001 -6.6982e+001 -6.6142e+000 49768 84581,84362,84310
 2.1000e+000 84512  2.1957e+001 -7.4223e+001 -1.9074e+001 49768 84653,84440,84414
 2.1000e+000 84489 -3.9841e+001 -7.5049e+001  6.1024e+000 49768 84310,84362,84336
 2.1000e+000 84466  9.5407e+000 -3.6067e+001  2.9411e+001 49768 84284,84440,84310
 2.1000e+000 84607  8.4331e+000 -5.3855e+001 -2.6945e+001 49768 84414,84388,84581
 2.1000e+000 84630  6.9106e+000 -6.9437e+001 -1.3544e+001 49768 84653,84414,84581
 2.1000e+000 84679  1.6406e+000 -6.6172e+001 -2.5772e+001 49768 84310,84440,84653
 2.1000e+000 84702 -1.8768e+001 -6.7154e+001 -2.5759e+001 49768 84310,84653,84581
 2.1000e+000 85159 -4.5976e+001 -1.1356e+002 -3.8792e+001 49192 84885,84937,84911
 2.1000e+000 85136 -4.8126e+001 -9.6123e+001 -2.9875e+001 49192 84885,85041,84937
 2.1000e+000 85113 -3.4232e+001 -7.0984e+001 -1.8054e+001 49192 84963,85041,84989
 2.1000e+000 85090 -3.2989e+001 -7.0849e+001 -2.3485e+001 49192 84937,85041,84963
 2.1000e+000 85067 -2.8944e+001 -6.9851e+001 -1.7607e+001 49192 84989,85041,85015
 2.1000e+000 85714 -3.2256e+001 -5.9027e+001  7.5366e+000 48638 85368,85498,85394
 2.1000e+000 85691 -2.7633e+001 -6.9384e+001  5.3402e+000 48638 85368,85524,85498
 2.1000e+000 85668 -5.1466e+001 -6.2899e+001  2.7780e+001 48638 85737,85420,85394
 2.1000e+000 85645 -3.7195e+001 -6.6370e+001  1.4837e+001 48638 85737,85394,85498
 2.1000e+000 85622  7.0446e+000 -7.5893e+001  3.4513e+001 48638 85446,85498,85472
 2.1000e+000 85599 -1.1222e+001 -6.2621e+001  5.4555e+000 48638 85342,85524,85368
 2.1000e+000 85576 -4.3083e+001 -6.6510e+001  2.8570e+000 48638 85342,85550,85524
 2.1000e+000 85763 -2.9569e+001 -5.3054e+001  3.0091e+001 48638 85446,85420,85737
 2.1000e+000 85786 -2.8590e+001 -6.1733e+001  1.6595e+001 48638 85446,85737,85498
 2.1000e+000 86371 -1.5303e+001 -3.1953e+001 -1.2512e+001 48084 86100,86230,86178
 2.1000e+000 86348 -3.1757e+001 -5.8766e+001 -2.0649e+001 48084 86048,86230,86100
 2.1000e+000 86325 -5.1895e+000 -2.5028e+001 -1.1568e+000 48084 86100,86178,86126
 2.1000e+000 86302 -4.5945e+000  4.2324e+000 -1.4326e+001 48084 86048,86100,86074
 2.1000e+000 86279 -1.6689e+001 -6.2450e+001 -1.5978e+001 48084 86178,86230,86204
 2.1000e+000 86256 -6.5005e+000 -1.6189e+001  1.4601e-001 48084 86126,86178,86152
 2.1000e+000 86619 -2.8876e+001 -7.0773e+001 -3.7008e+000 47630 86642,86446,86420
 2.1000e+000 86596 -2.9862e+001 -7.5759e+001 -1.6542e+001 47630 86642,86420,86394
 2.1000e+000 86573 -3.6247e+001 -7.1506e+001 -1.9767e+001 47630 86394,86524,86498
 2.1000e+000 86550 -1.3817e+001 -8.3363e+001 -1.0519e-001 47630 86446,86498,86472
 2.1000e+000 86668 -3.5134e+001 -8.5244e+001 -4.7010e+000 47630 86498,86446,86642
 2.1000e+000 86691 -3.4136e+001 -8.5937e+001 -1.7402e+001 47630 86498,86642,86394
 2.1000e+000 87022  5.8156e+000 -2.5107e+001 -9.1643e+000 47226 87045,86875,86849
 2.1000e+000 86999 -4.8249e+000 -3.0669e+001 -1.4353e+001 47226 87045,86849,86797
 2.1000e+000 86976 -2.1071e+000 -1.4670e+001 -6.8701e+000 47226 86797,86849,86823
 2.1000e+000 86953  2.0223e+001 -2.4059e+001 -1.5185e+001 47226 86875,86927,86901
 2.1000e+000 87071  1.5723e+001 -3.5275e+001 -1.2535e+001 47226 86927,86875,87045
 2.1000e+000 87094  6.3215e+000 -3.8474e+001 -1.5818e+001 47226 86927,87045,86797
 2.1000e+000 87244 -1.4349e+000 -7.1022e+001  3.5874e+001 46814 87267,87169,87143
 2.1000e+000 87221 -4.3117e+001 -6.8117e+001  4.9432e+000 46814 87267,87143,87117
 2.1000e+000 87293 -8.8511e+000 -7.8674e+001 -4.3167e+000 46814 87339,87267,87195
 2.1000e+000 87316  1.2709e+001 -4.3971e+001 -1.7139e+001 46814 87469,87267,87117
 2.1000e+000 87365 -1.2714e+001 -6.2497e+001  3.6393e+001 46814 87169,87267,87339
 2.1000e+000 87495  1.0771e+001  2.2141e+001 -1.8273e+001 46814 87195,87267,87469
 2.1000e+000 88001 -2.9668e+001 -7.9294e+001  1.4288e+001 46310 88024,87834,87808
 2.1000e+000 87978 -3.1742e+001 -7.9748e+001  1.1959e+001 46310 88024,87808,87756
 2.1000e+000 87955 -5.6539e+000 -9.9621e+001  5.6350e+000 46310 88096,87730,87860
 2.1000e+000 87932 -2.0685e+001 -8.3165e+001  1.4855e+001 46310 87756,87808,87782
 2.1000e+000 87909 -1.3010e+001 -1.3615e+002  6.9780e+000 46310 87678,87860,87730
 2.1000e+000 87886 -2.7447e+001 -2.1656e+002 -9.5343e+000 46310 87678,87730,87704
 2.1000e+000 88050 -2.3927e+001 -6.5953e+001  1.3794e+001 46310 87860,87834,88024
 2.1000e+000 88073 -8.7336e+000 -7.3832e+001  1.6167e+001 46310 88096,87860,88024
 2.1000e+000 88122 -1.6488e+001 -1.1144e+002 -1.5355e+000 46310 87756,87730,88096
 2.1000e+000 88145 -3.6759e+001 -1.0093e+002  4.2361e+000 46310 87756,88096,88024
 2.1000e+000 88572 -5.8593e+000 -7.1301e+001  7.0215e-002 45856 88249,88405,88275
 2.1000e+000 88549 -9.6846e-001 -1.3477e+001 -2.2057e+001 45856 88249,88431,88405
 2.1000e+000 88526 -1.3188e+001 -1.1481e+002 -2.1121e+001 45856 88327,88405,88353
 2.1000e+000 88503  1.0189e+001 -8.2797e+001 -1.0677e+001 45856 88275,88405,88327
 2.1000e+000 88480  8.8568e+000 -8.9792e+001 -5.2652e+001 45856 88353,88405,88379
 2.1000e+000 88457 -7.8904e+001 -2.3746e+002  2.6629e+001 45856 88275,88327,88301
 2.1000e+000 88950 -1.2652e+001 -5.3307e+001 -2.0202e+001 45658 88973,88754,88728
 2.1000e+000 88927  6.4893e+000 -5.8559e+001 -1.6126e+001 45658 88973,88728,88676
 2.1000e+000 88904 -1.3297e+001 -6.9332e+001  1.3638e+001 45658 88676,88832,88806
 2.1000e+000 88881 -6.0184e+000 -6.7545e+001  1.4969e+001 45658 88676,88728,88702
 2.1000e+000 88858 -2.9126e+001 -5.0695e+001 -1.4518e+001 45658 88754,88806,88780
 2.1000e+000 88999 -2.8099e+001 -5.1972e+001 -1.2092e+001 45658 88806,88754,88973
 2.1000e+000 89022 -8.9441e+000 -5.5682e+001 -1.1925e+001 45658 88806,88973,88676
 2.1000e+000 89351  9.8174e-001 -7.5797e+001 -4.9422e+000 45254 89152,89230,89204
 2.1000e+000 89328 -8.0543e+000 -7.8776e+001 -2.1290e+000 45254 89152,89256,89230
 2.1000e+000 89305 -1.4106e+001 -8.4431e+001 -5.1863e+000 45254 89126,89256,89152
 2.1000e+000 89282 -2.2924e+001 -9.0915e+001  5.4345e+000 45254 89152,89204,89178
 2.1000e+000 89523 -1.4796e+001 -7.2868e+001 -1.8207e+000 45006 89422,89474,89448
 2.1000e+000 89500 -8.7516e+000 -7.0292e+001  3.0166e+000 45006 89396,89474,89422
 2.1000e+000 89673 -5.9631e+001 -1.1235e+002  9.2643e+000 44495 89572,89624,89598
 2.1000e+000 89650 -6.5103e+001 -1.2722e+002  1.0603e+001 44495 89546,89624,89572
 2.1000e+000 90104 -1.2102e+001 -1.0306e+002 -6.2627e+000 44005 90199,90127,89937
 2.1000e+000 90081 -1.1325e+001 -9.9222e+001 -2.2070e+000 44005 90271,90127,89859
 2.1000e+000 90058 -1.0638e+001 -1.0418e+002 -6.4680e+000 44005 90199,89937,89885
 2.1000e+000 90035 -2.0945e+001 -9.3214e+001  3.2324e+000 44005 90271,89859,89807
 2.1000e+000 90012 -2.2649e+001 -1.2111e+002 -1.2097e+001 44005 89885,89937,89911
 2.1000e+000 89989 -4.3806e-001 -9.9909e+001  1.4608e+001 44005 89807,89859,89833
 2.1000e+000 90153 -1.5287e+001 -1.0391e+002 -4.9121e+000 44005 89963,89937,90127
 2.1000e+000 90176 -1.7043e+001 -1.0862e+002 -4.1099e+000 44005 89963,90127,89781
 2.1000e+000 90225 -1.4784e+001 -1.0383e+002 -5.4826e+000 44005 89859,90127,90199
 2.1000e+000 90248 -1.2436e+001 -1.0461e+002 -5.3282e+000 44005 89859,90199,89885
 2.1000e+000 90297 -2.4282e+001 -1.0665e+002 -5.2069e+000 44005 89781,90127,90271
 2.1000e+000 90320 -2.9902e+001 -9.8521e+001  1.0401e+000 44005 89781,90271,89807
 2.1000e+000 90470 -1.2962e+001 -1.0664e+002 -3.4466e+000 43601 90493,90369,90343
 2.1000e+000 90447 -2.4020e+001 -8.6063e+001  6.0597e+000 43601 90493,90343,90421
 2.1000e+000 90519 -3.0194e+001 -1.4458e+002 -1.6570e+001 43601 90395,90369,90493
 2.1000e+000 90542 -2.2629e+001 -1.0126e+002 -4.5356e+000 43601 90395,90493,90421
 2.1000e+000 90922 -3.2365e+001 -1.1175e+002  8.4404e+000 43154 90945,90700,90674
 2.1000e+000 90899 -3.1728e+001 -1.1575e+002 -1.2655e+001 43154 90945,90674,90648
 2.1000e+000 90876 -4.6115e+001 -8.5825e+001 -7.3890e+000 43154 90648,90778,90752
 2.1000e+000 90853 -2.3431e+001 -1.7356e+002  5.3606e+000 43154 90700,90752,90726
 2.1000e+000 90830 -2.5912e+001 -8.8508e+001  1.1774e+000 43154 90648,90804,90778
 2.1000e+000 90971 -3.9329e+001 -1.3016e+002  9.8197e+000 43154 90752,90700,90945
 2.1000e+000 90994 -3.6219e+001 -1.2650e+002 -1.0623e+001 43154 90752,90945,90648
 2.1000e+000 91451  3.0779e+001 -8.8339e+001 -2.6083e+001 42650 91203,91255,91229
 2.1000e+000 91428 -8.6021e-001 -1.0190e+002 -6.5470e-001 42650 91203,91333,91255
 2.1000e+000 91405 -1.2914e+001 -1.3446e+002 -1.1015e+001 42650 91177,91333,91203
 2.1000e+000 91382 -2.1124e+001 -1.4442e+002  5.9582e+000 42650 91255,91333,91281
 2.1000e+000 91359  2.3642e+001 -1.2321e+002 -4.2107e-001 42650 91281,91333,91307
 2.1000e+000 91721 -5.0701e+001 -1.1924e+002  1.3635e+001 42288 91496,91600,91522
 2.1000e+000 91698 -2.2971e+001 -6.4600e+001 -2.2663e+000 42288 91496,91626,91600
 2.1000e+000 91675 -3.5178e+001 -1.1887e+002  2.2676e+001 42288 91522,91574,91548
 2.1000e+000 91652 -1.0852e+001 -1.0328e+002  1.4856e+001 42288 91522,91600,91574
 2.1000e+000 92199 -8.9143e+001 -1.3444e+002 -3.9937e+000 41898 92222,91983,91879
 2.1000e+000 92176 -9.6317e+001 -1.6457e+002 -1.6067e+001 41898 92294,92222,91879
 2.1000e+000 92153 -1.0899e+002 -1.6454e+002 -2.4574e+001 41898 92294,91879,91853
 2.1000e+000 92130 -7.6300e+001 -6.9091e+001  1.4258e+001 41898 91879,91957,91931
 2.1000e+000 92107 -7.5233e+001 -1.2898e+002 -6.6769e-002 41898 91879,91983,91957
 2.1000e+000 92084 -9.6361e+001 -6.9862e+001  3.2755e+001 41898 91879,91931,91905
 2.1000e+000 92061 -8.6622e+001 -1.3116e+002 -1.4182e+001 41898 91827,92035,91853
 2.1000e+000 92248 -8.4581e+001 -1.7117e+002  3.3602e+000 41898 92009,91983,92222
 2.1000e+000 92271 -8.0498e+001 -1.7653e+002 -1.8036e+001 41898 92009,92222,92035
 2.1000e+000 92320 -7.6140e+001 -1.6121e+002 -1.2947e+001 41898 92035,92222,92294
 2.1000e+000 92343 -8.4700e+001 -1.5728e+002 -2.0449e+001 41898 92035,92294,91853
 2.1000e+000 92770 -2.3065e+001 -1.1911e+002 -5.6004e+000 41437 92865,92793,92525
 2.1000e+000 92747 -2.9205e+001 -1.3257e+002 -4.7964e+000 41437 92793,92473,92629
 2.1000e+000 92724 -1.8109e+000 -1.2974e+002 -1.7344e+001 41437 92865,92525,92499
 2.1000e+000 92701 -3.2308e+001 -1.0385e+002 -1.3544e+001 41437 92525,92603,92577
 2.1000e+000 92678  4.0078e+001 -1.2525e+002 -2.5790e+000 41437 92447,92629,92473
 2.1000e+000 92655 -5.2955e+001 -8.9388e+001 -4.0412e+000 41437 92525,92577,92551
 2.1000e+000 92819 -2.4310e+001 -1.2188e+002 -1.3925e+001 41437 92603,92525,92793
 2.1000e+000 92842 -4.9823e+001 -1.3076e+002 -2.7920e+001 41437 92603,92793,92629
 2.1000e+000 92891  1.5330e+001 -1.2167e+002 -4.5351e+000 41437 92473,92793,92865
 2.1000e+000 92914  4.2824e+001 -1.2483e+002 -2.0227e+001 41437 92473,92865,92499
 2.1000e+000 93243 -1.2561e+001 -1.6959e+002  7.7049e+001 41097 93044,93096,93070
 2.1000e+000 93220 -4.6954e+001 -1.6899e+002  3.1348e+001 41097 93044,93122,93096
 2.1000e+000 93197  1.0738e+001 -1.1240e+002  7.9191e+000 41097 93044,93148,93122
 2.1000e+000 93174 -2.3427e+001 -7.7098e+001  3.2593e+001 41097 93018,93148,93044
 2.1000e+000 93393  6.9278e+001 -1.2270e+002  6.4994e+000 40643 93416,93292,93344
 2.1000e+000 93370  4.7069e+001 -1.1778e+002  2.4951e+000 40643 93266,93344,93292
 2.1000e+000 93442  5.0967e+001 -1.2365e+002  1.5679e+001 40643 93318,93292,93416
 2.1000e+000 93901 -4.5317e+001 -1.2785e+002 -7.7777e+000 40132 93924,93731,93705
 2.1000e+000 93878 -4.6932e+001 -1.3158e+002 -8.6358e+000 40132 93996,93924,93705
 2.1000e+000 93855 -5.3472e+001 -1.4752e+002 -3.6351e+000 40132 93996,93705,93653
 2.1000e+000 93832 -3.8682e+001 -1.4571e+002 -5.7742e+000 40132 93653,93705,93679
 2.1000e+000 93809 -4.2111e+001 -1.2426e+002 -1.6083e+000 40132 93627,93783,93757
 2.1000e+000 93950 -4.4189e+001 -1.3461e+002 -9.0476e+000 40132 93757,93731,93924
 2.1000e+000 93973 -4.8191e+001 -1.2282e+002 -2.9191e+000 40132 93757,93924,93627
 2.1000e+000 94022 -5.8452e+001 -1.4146e+002  2.7860e+000 40132 93627,93924,93996
 2.1000e+000 94045 -5.5244e+001 -1.4704e+002  6.4324e+000 40132 93627,93996,93653
 2.1000e+000 94423 -1.1756e+001 -1.6609e+002 -1.6245e+001 39514 94149,94227,94175
 2.1000e+000 94400  4.0134e+000 -1.0688e+002  1.5277e+001 39514 94149,94305,94227
 2.1000e+000 94377 -6.7965e+000 -1.6305e+002 -1.7947e+001 39514 94175,94227,94201
 2.1000e+000 94354 -4.9247e-001 -1.2496e+002  1.2510e+001 39514 94227,94305,94279
 2.1000e+000 94331 -6.8732e+000 -1.2708e+002  1.5946e+001 39514 94227,94279,94253
 2.1000e+000 94573 -2.0012e+001 -8.4599e+001 -2.6396e+001 38822 94596,94498,94472
 2.1000e+000 94550 -7.8122e-001 -9.6952e+001  2.5828e+000 38822 94596,94472,94446
 2.1000e+000 94622 -4.2514e+001 -9.4839e+001 -1.7483e+001 38822 94524,94498,94596
 2.1000e+000 94645 -4.3208e+001 -1.2017e+002  1.4469e+001 38822 94524,94596,94446
 2.1000e+000 95025 -2.6209e+001 -1.0882e+002 -8.7079e+000 38418 95048,94829,94777
 2.1000e+000 95002 -1.3335e+001 -1.0257e+002 -6.7912e+000 38418 95120,95048,94777
 2.1000e+000 94979 -9.4277e+000 -1.0969e+002 -6.5995e+000 38418 95120,94777,94751
 2.1000e+000 94956  6.6675e+000 -1.1165e+002 -5.3604e+000 38418 95192,94881,94855
 2.1000e+000 94933 -3.6128e+001 -1.0080e+002 -8.2459e+000 38418 94777,94829,94803
 2.1000e+000 95074 -2.1753e+001 -1.1558e+002  5.6239e+000 38418 94855,94829,95048
 2.1000e+000 95097  2.0777e+000 -1.0644e+002  1.6606e+000 38418 95192,94855,95048
 2.1000e+000 95146 -1.7987e+001 -1.1034e+002 -4.6284e+000 38418 94907,95048,95120
 2.1000e+000 95169 -1.3689e+001 -1.1794e+002 -5.0037e+000 38418 94907,95120,94751
 2.1000e+000 95218 -3.1194e+000 -1.0776e+002 -7.7328e+000 38418 94907,94881,95192
 2.1000e+000 95241 -1.4449e+001 -1.0824e+002 -3.6553e-002 38418 94907,95192,95048
 2.1000e+000 95511 -3.3829e+001 -1.2621e+002 -6.4923e+000 38049 95312,95390,95364
 2.1000e+000 95488 -2.9188e+001 -1.2499e+002 -4.2878e+000 38049 95312,95416,95390
 2.1000e+000 95465  2.5285e+001 -1.1549e+002 -3.7038e+001 38049 95312,95364,95338
 2.1000e+000 95442 -3.4465e+000 -1.1253e+002  3.3902e+000 38049 95286,95416,95312
 2.1000e+000 95808 -4.0072e+001 -1.4234e+002 -1.1876e+001 37437 95831,95586,95560
 2.1000e+000 95785 -2.4812e+001 -1.2858e+002 -5.9089e+000 37437 95831,95560,95534
 2.1000e+000 95762 -4.4782e+001 -1.2454e+002  1.2180e+001 37437 95586,95664,95638
 2.1000e+000 95739 -3.8390e+001 -8.8354e+001 -1.4627e+001 37437 95534,95690,95664
 2.1000e+000 95716 -6.3739e+001 -1.2097e+002  1.2685e+000 37437 95586,95638,95612
 2.1000e+000 95857 -5.1854e+001 -1.2702e+002 -3.0916e+000 37437 95664,95586,95831
 2.1000e+000 95880 -3.5153e+001 -1.1221e+002  3.3171e+000 37437 95664,95831,95534
 2.1000e+000 96390 -4.5072e+001 -9.6727e+001 -2.6615e+000 36883 96413,96145,96093
 2.1000e+000 96367 -4.4205e+001 -9.5166e+001  1.9657e+000 36883 96413,96093,96067
 2.1000e+000 96344 -2.1630e+001 -1.1732e+002 -6.2893e+000 36883 96067,96249,96171
 2.1000e+000 96321 -3.7998e+001 -1.0978e+002  2.4856e-001 36883 96093,96145,96119
 2.1000e+000 96298 -5.0987e+001 -1.9521e+002  2.1573e+001 36883 96171,96249,96197
 2.1000e+000 96275 -1.9607e+000 -1.5851e+002  3.9835e+000 36883 96197,96249,96223
 2.1000e+000 96439 -4.1989e+001 -8.9376e+001 -3.0258e+000 36883 96171,96145,96413
 2.1000e+000 96462 -4.3058e+001 -9.2380e+001  1.5009e+000 36883 96171,96413,96067
 2.1000e+000 96781  6.6071e+000 -9.5353e+001 -2.3716e+001 36215 96559,96663,96637
 2.1000e+000 96758 -2.5463e+001 -8.2567e+001 -2.0265e+001 36215 96507,96663,96559
 2.1000e+000 96735 -1.2529e+001 -6.2128e+001  6.0375e+000 36215 96585,96637,96611
 2.1000e+000 96712 -7.0605e+001 -1.1975e+002 -2.0346e+001 36215 96559,96637,96585
 2.1000e+000 96689 -5.8820e+000 -1.3004e+002 -6.3862e+000 36215 96507,96559,96533
 2.1000e+000 97161  2.9392e+001 -4.0302e+001 -1.0471e+001 35818 97184,96965,96939
 2.1000e+000 97138  2.0762e+001 -4.8250e+001 -1.5395e+001 35818 97184,96939,96887
 2.1000e+000 97115  1.4531e+001 -7.7265e+001  9.1200e+000 35818 96965,97043,97017
 2.1000e+000 97092  1.1392e+001 -8.4175e+001 -1.4341e+001 35818 96887,96939,96913
 2.1000e+000 97069 -2.1936e+001 -5.9643e+001  9.1429e+000 35818 96965,97017,96991
 2.1000e+000 97210  3.8998e+001 -4.7423e+001 -5.5229e+000 35818 97043,96965,97184
 2.1000e+000 97233  3.1607e+001 -5.2738e+001 -9.6650e+000 35818 97043,97184,96887
 2.1000e+000 97739 -4.6392e+001 -1.1796e+002 -1.6784e+001 35214 97416,97468,97442
 2.1000e+000 97716 -4.7796e+001 -8.3121e+001 -3.0036e+000 35214 97416,97598,97468
 2.1000e+000 97693 -3.8405e+001 -8.0428e+001  4.8642e+000 35214 97762,97520,97468
 2.1000e+000 97670 -4.4998e+001 -8.6087e+001 -1.4645e+000 35214 97762,97468,97598
 2.1000e+000 97647 -3.9684e+001 -8.5040e+001 -1.0399e+001 35214 97546,97598,97572
 2.1000e+000 97624 -2.4034e+001 -7.4855e+001  1.4506e+000 35214 97468,97520,97494
 2.1000e+000 97788 -4.0588e+001 -8.8826e+001 -1.0345e+000 35214 97546,97520,97762
 2.1000e+000 97811 -4.3732e+001 -9.2865e+001 -6.7941e+000 35214 97546,97762,97598
 2.1000e+000 98189 -1.2723e+001 -7.6522e+001 -8.7660e+000 34760 98356,98212,97967
 2.1000e+000 98166 -2.4602e+001 -9.6681e+001 -1.2782e+001 34760 98284,98212,97941
 2.1000e+000 98143 -4.5023e+001 -8.6145e+001 -4.1913e+000 34760 98284,97941,97915
 2.1000e+000 98120 -1.1246e+001 -9.4626e+001 -3.2874e+000 34760 98484,97993,97967
 2.1000e+000 98097 -6.7721e+000 -8.7563e+001 -3.5445e+000 34760 98556,98045,98019
 2.1000e+000 98238 -1.7216e+001 -9.2138e+001 -4.3871e+000 34760 98484,97967,98212
 2.1000e+000 98261  3.8854e-001 -9.2592e+001 -7.2956e+000 34760 98556,98019,98212
 2.1000e+000 98310 -5.5308e+000 -7.8765e+001 -2.2239e+001 34760 98071,98212,98284
 2.1000e+000 98333 -2.0740e+001 -5.3161e+001 -1.8147e+001 34760 98071,98284,97915
 2.1000e+000 98382 -5.5945e+001 -1.0555e+002 -2.1902e+001 34760 97941,98212,98356
 2.1000e+000 98510  1.4044e+000 -9.5246e+001 -6.2379e+000 34760 98019,97993,98484
 2.1000e+000 98533 -9.4034e+000 -9.6517e+001 -7.7074e+000 34760 98019,98484,98212
 2.1000e+000 98582  2.2885e+000 -8.1432e+001 -8.8244e-001 34760 98071,98045,98556
 2.1000e+000 98605  5.1194e+000 -8.8923e+001 -5.7010e+000 34760 98071,98556,98212
 2.1000e+000 99032 -3.3377e+001 -1.0808e+002  2.3736e+001 34156 98735,98891,98839
 2.1000e+000 99009 -2.5408e+001 -1.0957e+002  1.7630e+001 34156 98709,98891,98735
 2.1000e+000 98986 -1.2994e+000 -8.8249e+001  2.1827e+001 34156 98735,98813,98787
 2.1000e+000 98963 -4.1924e+000 -9.8650e+001  1.8294e+001 34156 98735,98839,98813
 2.1000e+000 98940  3.7228e+000 -1.4725e+002  1.8014e+001 34156 98735,98787,98761
 2.1000e+000 98917 -2.5419e+001 -8.7872e+001  1.5231e+001 34156 98839,98891,98865
 2.1000e+000 99231 -2.0874e+000 -3.9861e+001  7.9618e+000 33766 99055,99133,99107
 2.1000e+000 99208 -2.8475e+001 -5.0525e+001  1.6776e+001 33766 99055,99159,99133
 2.1000e+000 99185 -1.9309e+001 -7.8807e+001  3.1694e+000 33766 99055,99107,99081
 2.1000e+000 99818 -2.8375e+001 -9.2060e+001 -4.4834e-001 33248 99521,99651,99573
 2.1000e+000 99795 -3.1479e+001 -8.9174e+001  6.6542e+000 33248 99521,99677,99651
 2.1000e+000 99772 -5.2546e+001 -1.1941e+002 -1.2923e+001 33248 99573,99651,99599
 2.1000e+000 99749 -3.1785e+001 -1.1527e+002  8.4293e+000 33248 99495,99677,99521
 2.1000e+000 99726 -3.0381e+001 -1.0206e+002 -2.6652e+001 33248 99599,99651,99625
 2.1000e+000 99703 -3.9341e+001 -1.1169e+002  5.0319e+000 33248 99521,99573,99547
 2.1000e+000 100196 -3.5062e+001 -7.9809e+001 -1.1620e+001 32794 100219,99948,99922
 2.1000e+000 100173 -3.8033e+001 -8.6107e+001 -7.6343e+000 32794 100219,99922,100052
 2.1000e+000 100150 -3.7102e+001 -7.9154e+001  1.4640e+000 32794 99974,100052,100026
 2.1000e+000 100127 -4.5157e+001 -8.4539e+001 -7.4898e+000 32794 99922,100078,100052
 2.1000e+000 100104 -4.0561e+001 -9.8336e+001  1.6436e+001 32794 99974,100026,100000
 2.1000e+000 100245 -3.9586e+001 -7.7992e+001 -5.3852e+000 32794 99974,99948,100219
 2.1000e+000 100268 -4.2045e+001 -8.6646e+001 -1.4320e+000 32794 99974,100219,100052
 2.1000e+000 100418  5.4019e+000 -6.9380e+001 -1.6131e+001 32504 100571,100343,100317
 2.1000e+000 100395 -2.3702e+001 -8.2523e+001  1.7004e+000 32504 100571,100317,100441
 2.1000e+000 100467  3.9226e+001 -2.8447e+001 -3.6034e+001 32504 100291,100369,100441
 2.1000e+000 100597  1.8218e+001 -5.5975e+001 -3.9421e+001 32504 100369,100343,100571
 2.1000e+000 100620  4.9281e+000 -5.1546e+001 -2.4011e+001 32504 100369,100571,100441
 2.1000e+000 101020 -7.3988e+000 -7.4768e+001  1.2568e+001 32142 100772,100902,100876
 2.1000e+000 100997  3.1703e+001 -6.9502e+001  3.2871e+001 32142 100746,100902,100772
 2.1000e+000 100974 -5.3300e-001 -8.5269e+001  1.2085e+001 32142 101043,100824,100798
 2.1000e+000 100951 -1.0577e+000 -8.8780e+001  1.0418e+001 32142 101043,100798,100772
 2.1000e+000 100928 -4.4001e+001 -1.0351e+002 -1.8838e+001 32142 101115,100876,100850
 2.1000e+000 101069  1.2755e+001 -8.9346e+001 -3.1719e+000 32142 100850,100824,101043
 2.1000e+000 101092 -2.0497e+001 -1.0495e+002 -7.4225e+000 32142 101115,100850,101043
 2.1000e+000 101141 -1.5053e+001 -9.0415e+001 -2.3104e+000 32142 100772,100876,101115
 2.1000e+000 101164  2.5155e+000 -9.1628e+001  1.0476e+001 32142 100772,101115,101043
 2.1000e+000 101719 -3.5431e+001 -9.5342e+001  1.0551e+001 31538 101742,101477,101399
 2.1000e+000 101696 -5.0926e+001 -1.2026e+002 -1.1765e+000 31538 101814,101742,101399
 2.1000e+000 101673 -6.1626e+001 -1.0431e+002 -1.5076e+001 31538 101814,101399,101373
 2.1000e+000 101650 -3.7573e+001 -6.1092e+001  6.9286e+000 31538 101425,101477,101451
 2.1000e+000 101627 -3.4498e+001 -7.8050e+001 -2.0928e+000 31538 101399,101477,101425
 2.1000e+000 101604 -1.2414e+001 -1.2394e+002  2.2777e+001 31538 101477,101529,101503
 2.1000e+000 101581 -1.2465e+001 -6.0372e+001 -4.9730e+000 31538 101347,101555,101373
 2.1000e+000 101768 -3.9797e+001 -1.2146e+002  8.2861e+000 31538 101529,101477,101742
 2.1000e+000 101791 -3.3956e+001 -1.2435e+002 -7.6503e+000 31538 101529,101742,101555
 2.1000e+000 101840 -2.6022e+001 -1.0496e+002 -7.6761e+000 31538 101555,101742,101814
 2.1000e+000 101863 -4.0141e+001 -9.1611e+001 -2.0322e+001 31538 101555,101814,101373
 2.1000e+000 102111 -5.4860e+001 -1.7076e+002  2.1774e+001 31112 101886,101990,101912
 2.1000e+000 102088 -1.1707e+001 -1.0731e+002 -2.5363e+000 31112 101886,102016,101990
 2.1000e+000 102065 -2.3006e+001 -1.6435e+002  2.9609e+001 31112 101912,101990,101964
 2.1000e+000 102042 -3.8031e+001 -1.8952e+002  3.5832e+001 31112 101912,101964,101938
 2.1000e+000 102408 -7.4846e+000 -7.9017e+001  4.7536e+000 30658 102431,102186,102160
 2.1000e+000 102385 -1.1367e+001 -7.1944e+001 -4.5986e+000 30658 102431,102160,102264
 2.1000e+000 102362 -1.8242e+001 -9.5791e+001  2.6444e-001 30658 102186,102238,102212
 2.1000e+000 102339 -2.9684e+001 -8.3978e+001 -1.1230e+001 30658 102134,102264,102160
 2.1000e+000 102316 -1.6601e+001 -6.6205e+001 -3.4880e+001 30658 102134,102290,102264
 2.1000e+000 102457 -6.7094e+000 -8.9769e+001  2.4715e+000 30658 102238,102186,102431
 2.1000e+000 102480 -1.1785e+001 -8.4449e+001 -7.2795e+000 30658 102238,102431,102264
 2.1000e+000 102681 -2.8341e+001 -1.1573e+002  9.6781e+000 30004 102704,102557,102505
 2.1000e+000 102658 -2.9973e+001 -1.1716e+002  1.0307e+001 30004 102704,102505,102609
 2.1000e+000 102635 -1.5545e+001 -9.9447e+001 -3.5740e-001 30004 102505,102557,102531
 2.1000e+000 102730 -2.9978e+001 -1.1289e+002  8.4436e+000 30004 102583,102557,102704
 2.1000e+000 102753 -3.3883e+001 -1.1543e+002  9.6455e+000 30004 102583,102704,102609
 2.1000e+000 103003 -1.3590e+001 -9.1760e+001  2.3267e+000 29564 103026,102804,102778
 2.1000e+000 102980 -1.6196e+001 -9.6166e+001  3.6015e+000 29564 103026,102778,102908
 2.1000e+000 102957 -8.7531e-001 -7.1981e+001  1.3666e+001 29564 102856,102908,102882
 2.1000e+000 102934 -2.1008e+001 -9.0702e+001  5.8203e+000 29564 102804,102856,102830
 2.1000e+000 103052 -1.6520e+001 -9.0799e+001  5.3638e+000 29564 102856,102804,103026
 2.1000e+000 103075 -1.7856e+001 -9.3536e+001  6.2951e+000 29564 102856,103026,102908
 2.1000e+000 103634 -4.9421e+001 -1.1933e+002 -2.2594e+001 29160 103657,103418,103392
 2.1000e+000 103611 -4.6695e+001 -1.1437e+002 -1.3001e+001 29160 103657,103392,103314
 2.1000e+000 103588 -2.2848e+001 -1.0822e+002 -2.0488e+001 29160 103314,103392,103366
 2.1000e+000 103565 -4.0564e+001 -1.2254e+002 -1.2735e+001 29160 103314,103366,103340
 2.1000e+000 103542 -6.7326e+001 -1.1436e+002 -2.0462e+001 29160 103262,103444,103314
 2.1000e+000 103519 -7.8750e+001 -1.3019e+002 -3.5169e+001 29160 103262,103314,103288
 2.1000e+000 103496 -4.2123e+001 -1.2268e+002 -1.2591e+001 29160 103262,103470,103444
 2.1000e+000 103683 -6.3655e+001 -1.3006e+002 -3.2193e+001 29160 103444,103418,103657
 2.1000e+000 103706 -5.2540e+001 -1.1404e+002 -2.1209e+001 29160 103444,103657,103314
 2.1000e+000 104035  4.1669e+000 -7.9056e+001  2.2580e+001 28770 103836,103914,103862
 2.1000e+000 104012 -1.1290e+001 -9.0115e+001  1.7394e+001 28770 103810,103914,103836
 2.1000e+000 103989  3.3452e+001 -8.0816e+001  2.4436e+001 28770 103810,103940,103914
 2.1000e+000 103966  2.1379e+001 -7.5352e+001  3.0542e+001 28770 103862,103914,103888
 2.1000e+000 104185 -2.7144e+000 -1.1883e+002  3.6802e-001 28366 104208,104110,104084
 2.1000e+000 104162  2.7875e+001 -8.8388e+001  2.1884e+001 28366 104280,104208,104084
 2.1000e+000 104234  6.3113e+000 -1.0039e+002 -2.3096e+000 28366 104610,104208,104136
 2.1000e+000 104257 -2.6158e+001 -1.1123e+002  7.1001e+000 28366 104538,104410,104208
 2.1000e+000 104306 -2.8029e+001 -1.1751e+002  1.0407e+001 28366 104538,104208,104280
 2.1000e+000 104436 -5.0869e+000 -1.0174e+002 -6.7776e+000 28366 104136,104208,104410
 2.1000e+000 104564 -2.8848e+001 -1.0305e+002  5.3111e+000 28366 104058,104410,104538
 2.1000e+000 104587 -2.8512e+001 -1.0790e+002  7.7251e+000 28366 104058,104538,104280
 2.1000e+000 104636 -2.2463e+001 -1.1168e+002  1.6544e+000 28366 104110,104208,104610
 2.1000e+000 105349 -2.5390e+000 -8.8384e+001 -3.4657e+001 27976 105516,105372,105107
 2.1000e+000 105326 -1.7714e+001 -9.8826e+001  2.8807e-001 27976 105588,105372,105055
 2.1000e+000 105303 -5.3494e+001 -8.7170e+001 -2.6731e+001 27976 105444,105159,105133
 2.1000e+000 105280  3.8917e+001 -1.0093e+002 -2.0256e+001 27976 105516,105107,105081
 2.1000e+000 105257 -8.0861e+000 -1.1070e+002  1.4466e+001 27976 105588,105055,105029
 2.1000e+000 105234 -1.3365e+001 -7.3380e+001 -3.4576e-001 27976 105003,105185,105159
 2.1000e+000 105211 -2.1347e+001 -5.3195e+001  1.3544e+001 27976 104977,105185,105003
 2.1000e+000 105398 -2.5066e+001 -9.7348e+001 -2.3298e+001 27976 105133,105107,105372
 2.1000e+000 105421 -2.4545e+001 -9.6312e+001 -2.0464e+001 27976 105444,105133,105372
 2.1000e+000 105470 -2.1319e+001 -6.4329e+001 -1.6579e+001 27976 105003,105159,105444
 2.1000e+000 105493 -5.8931e+000 -8.1587e+001 -1.2518e+001 27976 105003,105444,105372
 2.1000e+000 105542  2.5002e+001 -8.6539e+001  8.8450e-001 27976 105055,105372,105516
 2.1000e+000 105565  8.7579e+001 -9.0587e+001  1.0763e+001 27976 105055,105516,105081
 2.1000e+000 105614 -3.4152e+001 -1.0971e+002  4.9924e+000 27976 105003,105372,105588
 2.1000e+000 105637 -2.8774e+001 -1.2331e+002  1.9772e+001 27976 105003,105588,105029
 2.1000e+000 106143 -4.6140e+001 -1.4026e+002  1.0842e+001 27664 106166,105846,105820
 2.1000e+000 106120 -3.5277e+001 -1.0977e+002  7.1978e+000 27664 106310,106166,105820
 2.1000e+000 106097 -1.6884e+001 -1.2272e+002 -2.4028e+001 27664 106382,106238,105950
 2.1000e+000 106074 -2.6590e+001 -1.0733e+002  6.8884e+000 27664 106310,105820,106002
 2.1000e+000 106051  8.5593e+000 -1.1044e+002 -2.0316e+001 27664 106382,105950,105924
 2.1000e+000 106028 -1.2192e+001 -2.0351e+002 -3.1219e+000 27664 105846,105898,105872
 2.1000e+000 106192 -4.5638e+001 -1.5741e+002 -1.7164e+001 27664 105898,105846,106166
 2.1000e+000 106215 -2.9381e+001 -1.2939e+002 -4.5069e+000 27664 106238,105898,106166
 2.1000e+000 106264 -7.3932e+001 -1.3902e+002 -3.0540e+001 27664 105976,105950,106238
 2.1000e+000 106287 -2.7299e+001 -1.2995e+002 -4.5450e+000 27664 105976,106238,106166
 2.1000e+000 106336 -2.6454e+001 -1.1606e+002  1.5603e+001 27664 105976,106166,106310
 2.1000e+000 106359 -1.6333e+001 -1.1283e+002  1.4934e+001 27664 105976,106310,106002
 2.1000e+000 106408 -2.9768e+001 -1.0490e+002  4.4619e+000 27664 105898,106238,106382
 2.1000e+000 106431 -1.3644e+001 -9.7700e+001  5.8735e+000 27664 105898,106382,105924
 2.1000e+000 106728 -1.4806e+001 -8.1927e+001  5.9758e+000 27153 106751,106506,106454
 2.1000e+000 106705 -1.4803e+001 -8.5424e+001  2.2760e+000 27153 106751,106454,106610
 2.1000e+000 106682 -2.3189e+001 -6.0418e+001 -7.0012e+000 27153 106454,106506,106480
 2.1000e+000 106659 -1.7990e+001 -8.1930e+001  1.3023e+000 27153 106532,106610,106584
 2.1000e+000 106636 -3.6633e+001 -5.6189e+001  7.3086e+000 27153 106532,106584,106558
 2.1000e+000 106777 -1.0587e+001 -7.6555e+001  8.0397e+000 27153 106532,106506,106751
 2.1000e+000 106800 -1.2472e+001 -8.2244e+001  3.8792e+000 27153 106532,106751,106610
 2.1000e+000 107180 -2.5424e+001 -1.0689e+002 -5.5885e+000 26642 107203,106984,106958
 2.1000e+000 107157 -5.1853e+001 -1.1726e+002 -2.7227e+000 26642 107203,106958,106932
 2.1000e+000 107134 -5.5324e+001 -1.1944e+002 -2.0907e+001 26642 107275,107036,107010
 2.1000e+000 107111 -3.8373e+001 -1.1452e+002 -2.3094e+001 26642 106932,107062,107036
 2.1000e+000 107088 -1.3623e+000 -8.8116e+001  1.0605e+001 26642 106906,107062,106932
 2.1000e+000 107229 -9.2808e+000 -9.4300e+001 -3.4061e+001 26642 107010,106984,107203
 2.1000e+000 107252 -5.2456e+001 -1.1952e+002 -2.3689e+001 26642 107275,107010,107203
 2.1000e+000 107301 -5.0826e+001 -1.1796e+002 -2.1817e+001 26642 106932,107036,107275
 2.1000e+000 107324 -4.7992e+001 -1.1923e+002 -2.3275e+001 26642 106932,107275,107203
 2.1000e+000 107675 -1.6787e+001 -5.3080e+001  5.1483e+000 26045 107450,107554,107476
 2.1000e+000 107652 -8.3348e+000 -4.6238e+001  1.8993e+000 26045 107450,107580,107554
 2.1000e+000 107629 -5.3915e+000 -1.1912e+001 -7.4088e+000 26045 107476,107528,107502
 2.1000e+000 107606  3.7864e+000 -4.6037e+001  4.4949e+000 26045 107476,107554,107528
 2.1000e+000 107874 -1.6155e+001 -1.2221e+002  2.9969e+001 25641 107750,107802,107776
 2.1000e+000 107851 -2.6193e+001 -8.7801e+001  1.2249e+001 25641 107724,107802,107750
 2.1000e+000 107828 -2.1226e+001 -8.8579e+001  8.9008e+000 25641 107698,107802,107724
 2.1000e+000 108431  6.6254e+000 -1.1242e+002  2.5483e+001 25023 108526,108267,108241
 2.1000e+000 108408  3.4782e+001 -1.1141e+002  6.8596e+000 25023 108059,108267,108085
 2.1000e+000 108385  6.0511e+000 -1.1792e+002  1.7861e+001 25023 108454,108163,108111
 2.1000e+000 108362 -2.5091e+000 -1.1222e+002  2.7817e+001 25023 108454,108111,108085
 2.1000e+000 108339 -4.1173e+001 -1.5385e+002  3.3501e+001 25023 108111,108163,108137
 2.1000e+000 108316 -2.1441e+001 -7.3999e+001 -3.6476e+000 25023 108163,108241,108215
 2.1000e+000 108293  2.1805e+001 -5.5614e+001 -3.5792e+000 25023 108163,108215,108189
 2.1000e+000 108480  1.7617e+001 -9.8943e+001  8.3281e+000 25023 108241,108163,108454
 2.1000e+000 108503  4.3331e+000 -1.0546e+002  2.3073e+001 25023 108526,108241,108454
 2.1000e+000 108552  5.7104e+000 -1.2200e+002  2.5288e+001 25023 108085,108267,108526
 2.1000e+000 108575  3.0565e+000 -1.1560e+002  2.2721e+001 25023 108085,108526,108454
 2.1000e+000 108823 -4.3649e+000 -8.2681e+001  1.4136e+001 24461 108624,108728,108650
 2.1000e+000 108800 -1.2094e+001 -1.7538e+002 -1.0050e+001 24461 108598,108728,108624
 2.1000e+000 108777 -2.3376e+000 -1.0658e+002  1.2130e+001 24461 108650,108728,108676
 2.1000e+000 108754 -4.8228e+001 -2.9211e+002  2.7416e+001 24461 108676,108728,108702
 2.1000e+000 109022 -4.5218e+001 -1.0056e+002  1.1264e+001 24121 108872,108924,108898
 2.1000e+000 108999 -3.2541e+001 -1.0919e+002  1.0668e+001 24121 108846,108924,108872
 2.1000e+000 108976 -1.9614e+001 -1.0720e+002  1.9082e+001 24121 108846,108950,108924
 2.1000e+000 109483 -3.7034e+001 -1.2109e+002 -1.4018e+001 23717 109209,109339,109235
 2.1000e+000 109460 -1.6949e+001 -1.3791e+002 -2.9036e+001 23717 109209,109365,109339
 2.1000e+000 109437 -1.1097e+001 -1.4430e+002 -9.2199e+000 23717 109287,109339,109313
 2.1000e+000 109414 -7.0140e+001 -1.4938e+002  2.1620e+000 23717 109235,109339,109287
 2.1000e+000 109391 -1.1760e+001 -1.7590e+002  4.9401e+001 23717 109235,109287,109261
 2.1000e+000 109910 -5.3388e+001 -1.4308e+002 -8.5588e+000 23305 109613,109743,109717
 2.1000e+000 109887 -4.8712e+001 -1.4146e+002 -6.5935e+000 23305 109613,109769,109743
 2.1000e+000 109864 -6.3462e+001 -1.3352e+002 -6.9540e+000 23305 109613,109717,109639
 2.1000e+000 109841 -3.9509e+001 -1.3130e+002 -2.2059e+000 23305 109587,109769,109613
 2.1000e+000 109818 -8.4206e+000 -1.1017e+002  8.2232e+000 23305 109639,109717,109691
 2.1000e+000 109795 -2.2390e+001 -9.7869e+001 -1.1638e+001 23305 109639,109691,109665
 2.1000e+000 110180 -1.7439e+001 -6.6989e+001 -3.6755e+000 22851 110007,110059,110033
 2.1000e+000 110157 -4.0584e+001 -1.2646e+002  3.3353e+000 22851 109981,110059,110007
 2.1000e+000 110134 -5.0536e+001 -1.3549e+002 -1.2775e+000 22851 109955,110059,109981
 2.1000e+000 110111 -2.2159e+001 -1.4687e+002 -1.4086e+001 22851 109955,110085,110059
 2.1000e+000 110737 -1.1833e+001 -1.1800e+002 -1.1645e+001 22333 110760,110469,110391
 2.1000e+000 110714 -1.1795e+001 -1.2181e+002 -1.0122e+001 22333 110760,110391,110365
 2.1000e+000 110691 -5.8202e+000 -1.1133e+002 -1.3418e+001 22333 110832,110521,110469
 2.1000e+000 110668  1.1940e+001 -2.0439e+002 -5.3769e+000 22333 110417,110469,110443
 2.1000e+000 110645 -3.5817e+001 -1.7566e+002 -1.2782e+001 22333 110391,110469,110417
 2.1000e+000 110622  1.7108e+001 -9.7005e+001 -2.6059e+001 22333 110469,110521,110495
 2.1000e+000 110599 -1.1816e+001 -9.0628e+001 -1.6996e+001 22333 110365,110573,110547
 2.1000e+000 110786 -1.1794e+001 -1.1017e+002 -1.0877e+001 22333 110832,110469,110760
 2.1000e+000 110809 -2.1306e+001 -1.2019e+002 -1.6972e+001 22333 110547,110760,110365
 2.1000e+000 110858  9.3433e+000 -1.1069e+002 -1.8212e+001 22333 110547,110521,110832
 2.1000e+000 110881 -4.6237e+000 -1.1314e+002 -1.7854e+001 22333 110547,110832,110760
 2.1000e+000 111308 -6.2007e+001 -1.3757e+002  4.9652e+000 21829 111331,111063,111011
 2.1000e+000 111285 -6.4810e+001 -1.2980e+002 -6.9431e+000 21829 111331,111011,111167
 2.1000e+000 111262 -6.6567e+001 -1.3899e+002  2.0777e+000 21829 111403,111089,111063
 2.1000e+000 111239 -7.2509e+001 -1.3026e+002  1.6847e+001 21829 111011,111063,111037
 2.1000e+000 111216 -4.7318e+001 -1.1517e+002  1.2776e+000 21829 110985,111167,111011
 2.1000e+000 111193 -7.7439e+001 -2.3258e+002  3.8855e+001 21829 111089,111141,111115
 2.1000e+000 111357 -6.5559e+001 -1.3972e+002  2.0839e+000 21829 111403,111063,111331
 2.1000e+000 111380 -6.9914e+001 -1.4768e+002 -9.2744e+000 21829 111141,111331,111167
 2.1000e+000 111429 -6.5987e+001 -1.4003e+002  3.7359e+000 21829 111141,111089,111403
 2.1000e+000 111452 -6.5974e+001 -1.4252e+002  2.8251e+000 21829 111141,111403,111331
 2.1000e+000 112056  3.3136e+001 -1.0875e+002  2.8289e+000 21489 111687,111765,111739
 2.1000e+000 112033  4.9061e+000 -1.2538e+002  1.2616e+001 21489 112151,112079,111687
 2.1000e+000 112010 -4.1715e+000 -1.8470e+002  8.3104e+000 21489 111791,111843,111817
 2.1000e+000 111987 -3.8139e+001 -1.5545e+002 -1.0586e+001 21489 112079,111843,111791
 2.1000e+000 111964  2.3301e+001 -1.1676e+002  2.3574e+001 21489 112151,111687,111661
 2.1000e+000 111941 -1.3575e+001 -8.3614e+001  2.1540e+001 21489 111661,111869,111843
 2.1000e+000 111918  3.8167e+001 -1.1511e+002  1.5808e+001 21489 111687,111739,111713
 2.1000e+000 111895  3.7829e+000 -4.3426e+001  7.9514e+000 21489 111635,111869,111661
 2.1000e+000 112105 -2.3878e+001 -1.3417e+002  7.8657e+000 21489 111765,111687,112079
 2.1000e+000 112128 -2.4128e+001 -1.2992e+002  8.5744e+000 21489 111765,112079,111791
 2.1000e+000 112177 -2.5876e+001 -1.2384e+002 -2.6150e+000 21489 111843,112079,112151
 2.1000e+000 112200 -9.0704e+000 -1.2061e+002  6.3185e+000 21489 111843,112151,111661
 2.1000e+000 112578 -2.9592e+001 -1.5849e+002  7.3458e+000 21177 112382,112434,112408
 2.1000e+000 112555 -3.6918e+001 -1.5781e+002  5.3709e-001 21177 112330,112434,112382
 2.1000e+000 112532 -2.9746e+001 -1.3536e+002  2.4369e+001 21177 112304,112434,112330
 2.1000e+000 112509 -3.6258e+001 -1.5084e+002  0.0000e+000 21177 112330,112382,112356
 2.1000e+000 112486 -8.4365e+000 -8.8273e+001  6.2010e+000 21177 112304,112460,112434
 2.1000e+000 112679 -6.5761e-001 -1.0771e+002 -1.9489e+001 20666 112601,112653,112627
 2.1000e+000 112927 -4.2072e+001 -1.4984e+002  3.1640e+000 19762 112702,112754,112728
 2.1000e+000 112904 -1.4898e+001 -1.3702e+002 -4.6728e+000 19762 112702,112832,112754
 2.1000e+000 112881 -3.1408e+001 -1.4199e+002  1.7805e+001 19762 112754,112832,112806
 2.1000e+000 112858 -5.0417e+001 -2.0646e+002  2.6483e+001 19762 112754,112806,112780
 2.1000e+000 113297  1.8183e+001 -1.7610e+002  1.2999e+001 19308 112974,113052,113026
 2.1000e+000 113274 -2.2040e+001 -1.4267e+002  1.8704e+001 19308 112974,113156,113052
 2.1000e+000 113251 -3.5564e+001 -1.7583e+002 -2.0094e+001 19308 113052,113130,113104
 2.1000e+000 113228 -3.4969e+001 -1.3979e+002 -2.9359e+000 19308 113052,113156,113130
 2.1000e+000 113205 -4.3164e+001 -1.5310e+002  0.0000e+000 19308 113052,113104,113078
 2.1000e+000 113182 -2.1754e+001 -1.8636e+002 -1.6719e+001 19308 112974,113026,113000
 2.1000e+000 113547 -2.3309e+001 -1.5659e+002 -9.5243e+000 18711 113570,113374,113348
 2.1000e+000 113524 -2.6908e+001 -1.4854e+002 -6.9139e+000 18711 113570,113348,113452
 2.1000e+000 113501 -2.3130e+001 -1.1619e+002 -2.9469e+001 18711 113322,113452,113348
 2.1000e+000 113478 -3.3216e+001 -1.5081e+002 -3.8098e+001 18711 113374,113426,113400
 2.1000e+000 113596 -2.1770e+001 -1.4779e+002 -1.1742e+001 18711 113426,113374,113570
 2.1000e+000 113619 -2.6384e+001 -1.4128e+002 -7.4897e+000 18711 113426,113570,113452
 2.1000e+000 113771 -7.7814e+001 -1.9003e+002 -9.1656e+000 18307 113670,113722,113696
 2.1000e+000 113748 -6.2057e+001 -1.8031e+002 -4.2407e+000 18307 113644,113722,113670
 2.1000e+000 113972 -3.3420e+001 -1.6007e+002  2.8284e+000 17945 113822,113874,113848
 2.1000e+000 113949 -3.9626e+001 -1.6120e+002  3.0225e+000 17945 113822,113900,113874
 2.1000e+000 113926 -5.3991e+001 -1.3344e+002  6.2552e+001 17945 113796,113900,113822
 2.1000e+000 114075  8.3064e+000 -2.0772e+002  2.7489e+001 17482 113997,114049,114023
 2.1000e+000 114479  3.3278e-001 -1.3399e+002 -2.8358e+001 17042 114257,114361,114335
 2.1000e+000 114456 -3.2475e+001 -1.2653e+002 -2.9693e+000 17042 114205,114361,114257
 2.1000e+000 114433 -3.6995e+001 -1.4526e+002  5.3548e+000 17042 114205,114257,114231
 2.1000e+000 114410  5.0838e+001 -2.1058e+002 -1.0871e+001 17042 114283,114335,114309
 2.1000e+000 114387  1.8920e+001 -1.7471e+002 -8.2772e+000 17042 114257,114335,114283
 2.1000e+000 114879 -6.4234e+001 -1.4807e+002 -1.1697e+000 16638 114631,114683,114657
 2.1000e+000 114856  7.9814e+000 -1.1672e+002 -3.7423e+000 16638 114605,114683,114631
 2.1000e+000 114833  1.4315e+001 -8.3884e+001  1.2757e+000 16638 114605,114761,114683
 2.1000e+000 114810  1.2407e+001 -1.4070e+002 -1.1767e+001 16638 114683,114735,114709
 2.1000e+000 114787 -2.8072e+001 -1.5777e+002 -1.6936e+001 16638 114683,114761,114735
 2.1000e+000 115078 -7.7420e+001 -1.6090e+002  5.7861e+000 16232 114954,115006,114980
 2.1000e+000 115055 -6.4742e+001 -1.6923e+002  5.2954e+000 16232 114928,115006,114954
 2.1000e+000 115032 -2.9304e+001 -2.1664e+002  1.1706e+001 16232 114902,115006,114928
 2.1000e+000 115228 -3.8760e+001 -1.5076e+002  3.4632e+000 15482 115101,115153,115127
 2.1000e+000 115205 -4.5623e+001 -1.4706e+002 -2.2792e+000 15482 115101,115179,115153
 2.1000e+000 115331 -3.8380e+001 -1.5083e+002 -1.5956e+001 15163 115253,115305,115279
 2.1000e+000 115434 -4.0905e+001 -1.5248e+002  1.8991e+001 421 115356,115408,115382
 2.2000e+000 68213 -2.7451e+000 -9.1330e+001 -5.6915e+000 67888 68112,68164,68138
 2.2000e+000 68190 -6.5235e+001 -1.1255e+002 -6.8229e+000 67888 68086,68164,68112
 2.2000e+000 68314 -1.5650e+001 -1.7390e+002  2.1674e+001 67576 68236,68288,68262
 2.2000e+000 68584 -2.9513e+001 -2.1423e+002  8.7332e+000 67378 68385,68489,68463
 2.2000e+000 68561  5.9516e+001 -1.7644e+002  5.5232e+000 67378 68359,68489,68385
 2.2000e+000 68538 -2.3868e+001 -1.8368e+002  1.1074e+001 67378 68385,68463,68411
 2.2000e+000 68515 -1.1319e+001 -1.0597e+002  7.4668e+000 67378 68411,68463,68437
 2.2000e+000 68964 -3.7618e+001 -1.9472e+002  3.2092e+001 67130 68690,68820,68716
 2.2000e+000 68941  6.4474e+001 -2.0085e+002  6.1978e+001 67130 68690,68846,68820
 2.2000e+000 68918 -3.0430e+001 -1.2620e+002  5.3695e+000 67130 68742,68820,68794
 2.2000e+000 68895  6.2555e+000 -1.2313e+002  1.2500e+001 67130 68716,68820,68742
 2.2000e+000 68872 -1.1087e+001 -9.2868e+001 -9.4041e+000 67130 68742,68794,68768
 2.2000e+000 69065 -3.2452e+001 -1.1699e+002  1.6200e+000 66926 68987,69039,69013
 2.2000e+000 69445 -1.9094e+001 -1.1580e+002 -4.5888e+000 66614 69223,69301,69275
 2.2000e+000 69422 -3.3454e+001 -1.2179e+002 -3.9496e+000 66614 69171,69301,69223
 2.2000e+000 69399 -4.0157e+001 -1.2154e+002 -6.4143e-001 66614 69171,69327,69301
 2.2000e+000 69376 -6.5036e+000 -6.1616e+001  2.3871e+000 66614 69223,69275,69249
 2.2000e+000 69353 -2.5688e+001 -1.2620e+002 -2.6811e+000 66614 69171,69223,69197
 2.2000e+000 69546 -2.0102e+001 -1.7570e+002  1.1939e+001 66416 69468,69520,69494
 2.2000e+000 69997 -1.4452e+001 -1.7780e+002 -1.9923e+001 66104 69700,69830,69726
 2.2000e+000 69974 -1.8890e+001 -2.3645e+002 -4.0921e+001 66104 69700,69856,69830
 2.2000e+000 69951 -2.1547e+001 -1.3355e+002 -1.1085e+001 66104 69726,69804,69778
 2.2000e+000 69928 -1.3563e+001 -1.6595e+002 -1.5445e+001 66104 69726,69830,69804
 2.2000e+000 69905 -2.3020e+001 -1.2386e+002 -3.6716e+000 66104 69726,69778,69752
 2.2000e+000 69882 -2.6061e+000 -3.6414e+002 -6.1765e+001 66104 69674,69856,69700
 2.2000e+000 70326 -2.1166e+001 -6.0959e+001 -1.0262e+001 65814 70349,70153,70127
 2.2000e+000 70303  1.3607e+001 -6.2164e+001  3.2418e-001 65814 70349,70127,70101
 2.2000e+000 70280  4.3051e+001 -2.2946e+001  4.5972e+001 65814 70101,70231,70205
 2.2000e+000 70257  5.7222e+001 -6.3867e+001  1.6325e+001 65814 70153,70205,70179
 2.2000e+000 70375 -4.1702e+000 -6.4704e+001  1.4672e+001 65814 70205,70153,70349
 2.2000e+000 70398  4.6059e+001 -5.9770e+001  2.2025e+001 65814 70205,70349,70101
 2.2000e+000 70904 -6.5420e+000 -3.0695e+001 -1.2573e+001 65502 70607,70737,70685
 2.2000e+000 70881 -3.0886e+000 -1.6658e+001 -1.9236e+001 65502 70581,70737,70607
 2.2000e+000 70858 -3.3408e+000  1.4489e+001 -6.5918e-001 65502 70581,70763,70737
 2.2000e+000 70835 -1.6062e+001 -3.5850e+001 -1.6941e+001 65502 70685,70737,70711
 2.2000e+000 70812 -4.5635e+001 -2.5913e+001 -6.3325e+000 65502 70607,70659,70633
 2.2000e+000 70789 -8.4330e+000 -3.3427e+001 -7.1699e+000 65502 70607,70685,70659
 2.2000e+000 71103 -1.6845e+001 -1.5033e+002 -3.5518e+000 65304 71126,70979,70953
 2.2000e+000 71080 -2.6145e+001 -1.5669e+002 -5.1678e-001 65304 71126,70953,70927
 2.2000e+000 71057 -3.9641e+001 -1.5663e+002  1.2206e+001 65304 70927,71031,71005
 2.2000e+000 71152 -2.8123e+001 -1.3345e+002 -5.8408e+000 65304 71005,70979,71126
 2.2000e+000 71175 -4.2661e+001 -1.4646e+002  2.6366e-002 65304 71005,71126,70927
 2.2000e+000 71374  1.0360e+001 -1.4554e+002  8.8375e+000 65106 71198,71276,71224
 2.2000e+000 71351 -4.3421e+001 -1.6114e+002  3.4606e+000 65106 71198,71302,71276
 2.2000e+000 71328  2.4798e+001 -1.0970e+002  1.6912e+001 65106 71224,71276,71250
 2.2000e+000 71756 -9.0842e+000 -8.6201e+001 -9.6315e+000 64652 71508,71638,71534
 2.2000e+000 71733 -1.1063e+000 -8.2569e+001  5.1426e-001 64652 71482,71638,71508
 2.2000e+000 71710 -2.4302e+001 -7.6700e+001 -1.2913e+000 64652 71534,71586,71560
 2.2000e+000 71687 -8.6974e+000 -9.2406e+001 -2.2875e+001 64652 71534,71612,71586
 2.2000e+000 71664 -4.1674e+001 -1.0456e+002 -2.2024e+001 64652 71534,71638,71612
 2.2000e+000 72085 -3.0206e+001 -9.9922e+001 -1.7400e+001 64248 71886,71964,71912
 2.2000e+000 72062 -3.4965e+001 -1.0481e+002 -1.4222e+001 64248 71860,71964,71886
 2.2000e+000 72039 -4.9879e+000 -9.1540e+001 -1.0204e+001 64248 71912,71964,71938
 2.2000e+000 72016 -1.3260e+001 -9.9501e+001 -2.1753e+001 64248 71860,71990,71964
 2.2000e+000 72235  2.3326e+000 -5.3095e+001 -6.8259e+000 63858 72588,72258,72134
 2.2000e+000 72212  6.1415e+000 -1.4958e+001  1.6584e+001 63858 72330,72258,72108
 2.2000e+000 72284  7.8593e+000 -1.8342e+001  1.6206e+000 63858 72160,72134,72258
 2.2000e+000 72307 -2.3556e+001 -4.4863e+001 -3.9289e+000 63858 72460,72258,72186
 2.2000e+000 72356 -1.8802e+001 -3.8986e+001  5.8386e-001 63858 72186,72258,72330
 2.2000e+000 72486 -3.5955e+000 -4.7129e+001  8.1378e-001 63858 72160,72258,72460
 2.2000e+000 72614  1.9049e+001 -5.4113e+001  1.5253e+001 63858 72108,72258,72588
 2.2000e+000 73248  1.1095e+001 -9.1853e+001  3.6646e+001 63404 72902,72954,72928
 2.2000e+000 73225 -3.4294e+001 -1.0194e+002  1.6298e+001 63404 73271,72954,72902
 2.2000e+000 73202 -2.6757e+001 -7.5366e+001  1.4258e+001 63404 73271,72902,73032
 2.2000e+000 73179 -1.3310e+001 -6.2535e+001  5.5865e+000 63404 72902,73058,73032
 2.2000e+000 73156 -1.7280e+001 -7.5060e+001  1.0816e+000 63404 72980,73032,73006
 2.2000e+000 73133 -1.6520e+001 -5.8351e+001  7.2772e+000 63404 72876,73058,72902
 2.2000e+000 73110 -6.3326e+000 -2.4648e+001 -1.2306e+001 63404 72876,73084,73058
 2.2000e+000 73297 -2.4662e+001 -1.0567e+002  1.3948e-001 63404 72980,72954,73271
 2.2000e+000 73320 -2.3789e+001 -9.1294e+001  4.7619e-001 63404 72980,73271,73032
 2.2000e+000 73470 -4.2168e+001 -2.9964e+002  3.0104e+001 63014 73343,73395,73369
 2.2000e+000 73447 -1.3967e+002 -3.7977e+002 -9.8578e+000 63014 73343,73421,73395
 2.2000e+000 73929  4.4332e+001 -1.1888e+002  1.8343e+001 62702 73759,73811,73785
 2.2000e+000 73906  4.8651e+001 -1.1924e+002  1.2580e+001 62702 73655,73811,73759
 2.2000e+000 73883  1.8215e+001 -1.4379e+002 -1.4131e+000 62702 73655,73759,73681
 2.2000e+000 73860  4.0875e+001 -9.8492e+001 -3.1275e+001 62702 73681,73759,73707
 2.2000e+000 73837 -3.8976e+001 -1.1653e+002  7.3008e-001 62702 73707,73759,73733
 2.2000e+000 74209 -6.9039e+001 -1.2724e+002 -4.6198e-001 62404 74059,74137,74085
 2.2000e+000 74186 -8.1237e+001 -1.7417e+002  2.2069e+001 62404 74033,74137,74059
 2.2000e+000 74163 -7.1474e+001 -1.1298e+002  8.2742e-002 62404 74085,74137,74111
 2.2000e+000 74408  7.8233e+000 -1.0479e+002  9.8549e+000 62000 74258,74336,74284
 2.2000e+000 74385 -2.8705e+000 -1.0749e+002  1.4657e+001 62000 74232,74336,74258
 2.2000e+000 74362 -1.7830e+001 -8.8977e+001  2.0944e+000 62000 74284,74336,74310
 2.2000e+000 74509  6.7476e+000 -1.6204e+002  2.5294e+001 61802 74431,74483,74457
 2.2000e+000 74759 -3.5666e+001 -1.1466e+002 -2.1627e+000 61554 74782,74586,74560
 2.2000e+000 74736 -1.4096e+001 -1.0065e+002  4.1497e+000 61554 74782,74560,74664
 2.2000e+000 74713 -3.2157e+001 -7.4551e+001  4.6610e+001 61554 74854,74612,74586
 2.2000e+000 74690 -2.3202e+001 -1.1241e+002 -1.1200e+000 61554 74534,74664,74560
 2.2000e+000 74808 -5.1888e+001 -1.0120e+002  1.0904e+001 61554 74854,74586,74782
 2.2000e+000 74831 -1.8912e+001 -1.3181e+002  7.4210e+000 61554 74638,74782,74664
 2.2000e+000 74880  1.4222e+001 -1.0124e+002  4.8643e+001 61554 74638,74612,74854
 2.2000e+000 74903  1.3825e+001 -9.6816e+001  2.1452e+001 61554 74638,74854,74782
 2.2000e+000 75285  2.5445e+001 -1.2848e+002 -8.4802e-001 61356 75063,75167,75115
 2.2000e+000 75262  1.2550e+001 -1.4619e+002 -1.6569e+001 61356 75037,75167,75063
 2.2000e+000 75239  3.1611e+001 -1.3410e+002 -3.8135e-002 61356 75115,75167,75141
 2.2000e+000 75216  1.3002e+001 -1.3148e+002 -8.5827e-001 61356 75063,75115,75089
 2.2000e+000 75193 -4.9281e+001 -9.0283e+001  1.4266e+001 61356 75011,75167,75037
 2.2000e+000 75631  1.2547e+001 -1.0919e+002  4.7923e+000 60952 75654,75412,75360
 2.2000e+000 75608  1.2900e+001 -1.2486e+002 -8.1920e-001 60952 75654,75360,75334
 2.2000e+000 75585 -3.8802e+000 -1.6187e+002  6.7474e+000 60952 75726,75438,75412
 2.2000e+000 75562  3.2793e+001 -1.1118e+002 -2.6226e+001 60952 75308,75490,75334
 2.2000e+000 75539  1.4354e+001 -1.0598e+002 -1.3257e+000 60952 75360,75412,75386
 2.2000e+000 75516 -2.4559e+001 -1.9666e+002 -3.5988e+000 60952 75438,75490,75464
 2.2000e+000 75680  9.5060e+000 -1.3065e+002  6.3237e+000 60952 75726,75412,75654
 2.2000e+000 75703  1.2348e+001 -1.2393e+002 -9.0200e-001 60952 75490,75654,75334
 2.2000e+000 75752  1.6900e+000 -1.2646e+002 -2.1296e+000 60952 75490,75438,75726
 2.2000e+000 75775  1.6700e+000 -1.2488e+002 -4.2342e+000 60952 75490,75726,75654
 2.2000e+000 76155  5.8116e+000 -1.0359e+002 -9.4849e+000 60754 75933,75985,75959
 2.2000e+000 76132 -1.0912e+001 -1.1533e+002  1.6253e+001 60754 75933,76037,75985
 2.2000e+000 76109  2.7807e+001 -1.1581e+002  7.0433e+000 60754 75985,76037,76011
 2.2000e+000 76086 -3.4254e+001 -9.2858e+001  3.3632e+000 60754 75881,76037,75933
 2.2000e+000 76063 -5.5225e+001 -7.9342e+001  2.9356e+001 60754 75881,75933,75907
 2.2000e+000 76612 -1.2535e+001 -7.0869e+001 -2.7605e-001 60350 76635,76442,76390
 2.2000e+000 76589  8.0696e+000 -8.3257e+001  4.5680e+000 60350 76635,76390,76364
 2.2000e+000 76566 -2.5006e+000 -1.0952e+002 -7.7434e+000 60350 76364,76494,76468
 2.2000e+000 76543 -9.4815e-001 -6.4042e+001  6.3100e+000 60350 76390,76442,76416
 2.2000e+000 76520 -3.1885e+001 -6.9093e+001 -1.5911e+001 60350 76338,76494,76364
 2.2000e+000 76661 -2.4204e+001 -7.9004e+001  3.2675e+000 60350 76468,76442,76635
 2.2000e+000 76684 -9.3691e+000 -9.4025e+001  9.2269e+000 60350 76468,76635,76364
 2.2000e+000 76932 -4.2708e+001 -1.4008e+002 -5.1732e-001 59946 76955,76733,76707
 2.2000e+000 76909 -4.2389e+001 -1.3861e+002  2.5796e+000 59946 77027,76955,76707
 2.2000e+000 76886 -4.0628e+001 -1.3806e+002  1.9212e+000 59946 77027,76707,76837
 2.2000e+000 76863 -1.8305e+001 -1.4929e+002 -1.5321e+001 59946 76733,76785,76759
 2.2000e+000 76981 -4.8460e+001 -1.4060e+002 -3.0941e+000 59946 76785,76733,76955
 2.2000e+000 77004 -4.4451e+001 -1.3895e+002  9.7038e-001 59946 76785,76955,76811
 2.2000e+000 77053 -3.9827e+001 -1.3938e+002  1.5052e+000 59946 76811,76955,77027
 2.2000e+000 77076 -3.8100e+001 -1.3824e+002  5.3464e-001 59946 76811,77027,76837
 2.2000e+000 77226 -2.4829e+001 -8.6778e+001  2.6665e+000 59542 77099,77151,77125
 2.2000e+000 77203 -3.4094e+001 -1.1124e+002  2.6041e+000 59542 77099,77177,77151
 2.2000e+000 77427 -6.2189e+001 -1.1925e+002 -1.1371e+001 59030 77450,77277,77251
 2.2000e+000 77404 -2.9828e+001 -8.6733e+001 -4.8089e+001 59030 77450,77251,77355
 2.2000e+000 77381  2.2748e+001 -1.3527e+002 -1.2121e+001 59030 77277,77329,77303
 2.2000e+000 77476 -2.2833e+001 -1.2616e+002 -3.2072e+001 59030 77329,77277,77450
 2.2000e+000 77499  1.2861e+001 -1.1071e+002 -6.1062e+001 59030 77329,77450,77355
 2.2000e+000 77749 -4.8178e+001 -1.6375e+002  2.0956e+001 58426 77772,77628,77602
 2.2000e+000 77726 -3.0799e+001 -1.6793e+002  4.7787e+001 58426 77524,77654,77628
 2.2000e+000 77703 -3.4439e+001 -1.7522e+002  1.6643e+001 58426 77772,77602,77550
 2.2000e+000 77680 -8.5467e+000 -1.6103e+002 -5.4056e+000 58426 77550,77602,77576
 2.2000e+000 77798 -3.4346e+001 -1.4822e+002  2.7601e+001 58426 77524,77628,77772
 2.2000e+000 77821 -3.1535e+001 -1.6786e+002  1.9734e+001 58426 77524,77772,77550
 2.2000e+000 78071 -7.2297e+001 -1.6387e+002  1.6267e+001 57922 78094,77924,77898
 2.2000e+000 78048 -8.9161e+001 -1.6648e+002 -5.1084e+000 57922 78094,77898,77872
 2.2000e+000 78025 -6.4139e+001 -1.4436e+002  1.5663e+001 57922 78166,77846,77950
 2.2000e+000 78002 -2.6551e+000 -1.4316e+002  2.3562e+001 57922 77846,77976,77950
 2.2000e+000 78120 -5.7687e+001 -1.6301e+002  1.0080e+001 57922 77950,77924,78094
 2.2000e+000 78143 -6.8311e+001 -1.4838e+002  1.1033e+001 57922 78166,77950,78094
 2.2000e+000 78192 -5.6747e+001 -1.5400e+002  7.6535e+000 57922 77872,77846,78166
 2.2000e+000 78215 -6.6434e+001 -1.6386e+002  2.1341e+000 57922 77872,78166,78094
 2.2000e+000 78416  6.0688e+000 -1.4167e+002 -5.0527e+000 57468 78439,78292,78240
 2.2000e+000 78393  1.4385e+001 -1.3196e+002 -8.6027e+000 57468 78439,78240,78344
 2.2000e+000 78370 -4.4215e+000 -2.0338e+002 -1.7627e+000 57468 78240,78292,78266
 2.2000e+000 78465  1.5299e+001 -1.4092e+002 -1.1837e+001 57468 78318,78292,78439
 2.2000e+000 78488  1.8801e+001 -1.3699e+002 -1.3685e+001 57468 78318,78439,78344
 2.2000e+000 78689  2.7076e+001 -1.5498e+002 -1.0771e+001 57014 78712,78539,78513
 2.2000e+000 78666  1.1063e+001 -1.5169e+002 -6.4626e-003 57014 78712,78513,78617
 2.2000e+000 78643  4.6177e+000 -1.4304e+002  1.5312e+001 57014 78565,78617,78591
 2.2000e+000 78738  6.3477e+000 -1.4278e+002 -1.1844e+001 57014 78565,78539,78712
 2.2000e+000 78761 -1.5159e+001 -1.5064e+002  4.8947e+000 57014 78565,78712,78617
 2.2000e+000 79241 -5.0145e+001 -1.2991e+002  3.3401e+000 56652 79264,78895,78869
 2.2000e+000 79218 -2.2461e+001 -1.8085e+002 -2.0094e+001 56652 79264,78869,79051
 2.2000e+000 79195 -3.3768e+001 -1.6123e+002 -4.2682e+001 56652 78869,79077,79051
 2.2000e+000 79172 -3.3219e+001 -8.0569e+001 -1.2323e+001 56652 78895,78973,78947
 2.2000e+000 79149 -6.0732e+001 -2.5983e+002 -2.4517e+001 56652 78973,79051,78999
 2.2000e+000 79126 -3.0767e+001 -8.6215e+001 -1.2443e+001 56652 78895,78947,78921
 2.2000e+000 79103 -4.1671e+001 -1.5854e+002  3.8439e+001 56652 78999,79051,79025
 2.2000e+000 79290 -3.0060e+001 -9.7048e+001  2.2253e+001 56652 78973,78895,79264
 2.2000e+000 79313 -1.2894e+000 -1.5302e+002  7.8507e-001 56652 78973,79264,79051
 2.2000e+000 79512 -1.1978e+001 -1.8947e+002  1.3211e+001 56062 79388,79440,79414
 2.2000e+000 79489 -6.4373e+001 -8.8787e+001  2.6191e+001 56062 79336,79440,79388
 2.2000e+000 79466 -2.6467e+001 -1.1624e+002  3.0538e+001 56062 79336,79388,79362
 2.2000e+000 79941 -2.0144e+001 -1.2192e+002  2.0827e+001 55658 79964,79670,79644
 2.2000e+000 79918 -3.3675e+001 -1.2076e+002  2.2607e+001 55658 79964,79644,79800
 2.2000e+000 79895 -3.3451e+001 -1.3303e+002  9.6147e+000 55658 80036,79696,79670
 2.2000e+000 79872 -3.6944e+001 -1.0583e+002 -1.4818e+000 55658 80108,79722,79696
 2.2000e+000 79849 -5.5819e+001 -1.1438e+002  3.7914e+000 55658 79722,79774,79748
 2.2000e+000 79826 -1.5481e+000 -1.0990e+002  6.3546e+000 55658 79618,79800,79644
 2.2000e+000 79990 -3.4760e+001 -1.3239e+002  1.5835e+001 55658 80036,79670,79964
 2.2000e+000 80013 -3.2293e+001 -1.1616e+002  2.3035e+001 55658 79774,79964,79800
 2.2000e+000 80062 -2.6515e+001 -1.1687e+002  9.2103e+000 55658 80108,79696,80036
 2.2000e+000 80085 -3.4657e+001 -1.1700e+002  2.1882e+001 55658 79774,80036,79964
 2.2000e+000 80134 -5.7957e+001 -1.1884e+002  4.5946e+000 55658 79774,79722,80108
 2.2000e+000 80157 -5.1944e+001 -1.3173e+002  1.5553e+001 55658 79774,80108,80036
 2.2000e+000 80307 -5.6264e+001 -1.1405e+002  1.4940e+001 55254 80402,80330,80206
 2.2000e+000 80284 -5.6969e+001 -1.5598e+002  1.0427e+001 55254 80330,80180,80258
 2.2000e+000 80356 -6.9887e+001 -1.4501e+002  2.8617e+001 55254 80232,80206,80330
 2.2000e+000 80379 -2.1049e+001 -1.2340e+002  3.5513e+001 55254 80232,80330,80258
 2.2000e+000 80428 -8.2618e+001 -1.4572e+002  2.1573e+000 55254 80180,80330,80402
 2.2000e+000 80659  2.5339e+001 -1.4163e+002 -2.5368e+001 54850 80558,80610,80584
 2.2000e+000 80636  3.1244e+001 -1.2972e+002 -1.5051e+001 54850 80532,80610,80558
 2.2000e+000 80760  8.3348e+000 -1.3286e+002 -1.1852e+001 54652 80682,80734,80708
 2.2000e+000 81164  9.7332e+000 -1.3854e+002 -4.5152e+000 54248 81187,80942,80890
 2.2000e+000 81141  2.5597e+000 -1.4399e+002 -1.6469e+000 54248 81187,80890,81046
 2.2000e+000 81118  6.1783e+000 -1.3949e+002  2.9576e+001 54248 80942,81020,80994
 2.2000e+000 81095  8.9384e+000 -1.4649e+002 -1.7576e-001 54248 80890,80942,80916
 2.2000e+000 81072 -4.5520e+000 -6.9047e+001  1.7236e+000 54248 80942,80994,80968
 2.2000e+000 81213  1.1805e+000 -1.3348e+002 -3.7729e+000 54248 81020,80942,81187
 2.2000e+000 81236 -4.0689e+000 -1.3648e+002 -1.9524e+000 54248 81020,81187,81046
 2.2000e+000 81663 -5.8213e+001 -1.1118e+002  1.3666e+001 53594 81340,81444,81366
 2.2000e+000 81640 -4.8550e+001 -1.6547e+002  4.1487e+000 53594 81340,81470,81444
 2.2000e+000 81617 -1.1075e+001 -1.4508e+002 -7.4121e+000 53594 81340,81522,81470
 2.2000e+000 81594 -2.4095e+001 -7.1700e+001 -1.0145e+001 53594 81392,81444,81418
 2.2000e+000 81571 -3.5810e+001 -9.1135e+001 -1.6121e+001 53594 81366,81444,81392
 2.2000e+000 81548  3.9235e+000 -2.0659e+002  3.2795e+001 53594 81470,81522,81496
 2.2000e+000 81943 -2.0836e+001 -7.9187e+001 -1.0908e+001 53104 81966,81845,81819
 2.2000e+000 81920 -3.1612e+001 -7.3108e+001 -1.4808e+001 53104 81966,81819,81767
 2.2000e+000 81897 -2.8618e+001 -6.6032e+001 -1.4705e+001 53104 81767,81819,81793
 2.2000e+000 81992 -1.3613e+001 -7.8807e+001 -1.5754e+001 53104 81871,81845,81966
 2.2000e+000 82015 -2.2145e+001 -6.9789e+001 -2.1722e+001 53104 81871,81966,81767
 2.2000e+000 82491 -3.4138e+000 -7.5490e+001 -1.4562e+001 52650 82145,82249,82171
 2.2000e+000 82468 -6.8119e+001 -1.0929e+002 -2.2398e+000 52650 82145,82301,82249
 2.2000e+000 82445 -5.8813e+001 -1.4773e+002 -2.4235e+001 52650 82249,82301,82275
 2.2000e+000 82422 -1.7928e+001 -1.8225e+002 -1.6658e+001 52650 82119,82301,82145
 2.2000e+000 82399 -1.0036e+001 -4.5123e+001  1.2098e+001 52650 82171,82249,82223
 2.2000e+000 82376  3.8807e+001 -1.5642e+002 -3.0037e+001 52650 82119,82327,82301
 2.2000e+000 82353 -3.6029e+000 -1.7907e+001 -7.9644e+000 52650 82171,82223,82197
 2.2000e+000 82739 -2.5420e+001 -6.5900e+001 -4.4226e+000 52246 82762,82540,82514
 2.2000e+000 82716 -1.1541e+001 -5.9874e+001 -9.0771e+000 52246 82762,82514,82644
 2.2000e+000 82693 -3.6135e+001 -7.8662e+001  5.3558e+000 52246 82540,82618,82592
 2.2000e+000 82670 -3.1579e+001 -6.8416e+001 -7.9582e-001 52246 82540,82592,82566
 2.2000e+000 82788 -1.2852e+001 -7.6582e+001  2.3524e+000 52246 82618,82540,82762
 2.2000e+000 82811  2.1604e+000 -7.0643e+001  9.2204e-001 52246 82618,82762,82644
 2.2000e+000 83059  8.8138e+000 -9.1360e+001  3.2488e+000 51578 82860,82964,82938
 2.2000e+000 83036  7.3336e+000 -9.1931e+001 -1.4045e+001 51578 82834,82964,82860
 2.2000e+000 83013  1.5178e+001 -7.8983e+001  8.9364e+000 51578 82860,82938,82886
 2.2000e+000 82990  1.7684e+001 -7.3528e+001  9.5655e+000 51578 82886,82938,82912
 2.2000e+000 83309 -1.8999e+001 -5.4202e+001  1.8638e+001 51138 83332,83162,83136
 2.2000e+000 83286  2.1882e+000 -7.2728e+001  6.1289e+000 51138 83332,83136,83110
 2.2000e+000 83263 -2.1074e+001 -7.0579e+001 -8.4999e-001 51138 83404,83214,83188
 2.2000e+000 83240 -3.3311e-001 -2.6812e+001  3.4850e+000 51138 83084,83214,83110
 2.2000e+000 83358 -4.0745e+001 -8.2369e+001  3.5937e+001 51138 83188,83162,83332
 2.2000e+000 83381 -1.2116e+001 -8.5468e+001  1.1878e+001 51138 83404,83188,83332
 2.2000e+000 83430 -6.4268e+000 -3.1371e+001 -3.8356e+000 51138 83110,83214,83404
 2.2000e+000 83453 -3.3295e+000 -5.5379e+001  9.3791e+000 51138 83110,83404,83332
 2.2000e+000 83835  5.5950e+000 -8.9442e+001 -1.1542e+001 50734 83613,83717,83691
 2.2000e+000 83812  2.6422e-001 -1.0408e+002 -2.4665e+001 50734 83561,83717,83613
 2.2000e+000 83789  1.0391e+001 -3.7926e+001 -3.6358e+001 50734 83561,83613,83587
 2.2000e+000 83766 -4.8166e+000 -5.8764e+001 -9.0533e+000 50734 83613,83691,83639
 2.2000e+000 83743 -8.2750e+000 -5.9201e+001  1.2446e+001 50734 83639,83691,83665
 2.2000e+000 84034 -6.3105e-001 -5.4882e+001 -1.0246e+001 50230 84057,83884,83858
 2.2000e+000 84011 -1.9744e+000 -5.2688e+001 -1.4218e+000 50230 84129,84057,83858
 2.2000e+000 83988  2.9199e+000 -4.7695e+001 -3.4181e+000 50230 84129,83858,83962
 2.2000e+000 84083 -1.3663e+001 -5.9401e+001 -1.2661e+001 50230 83910,83884,84057
 2.2000e+000 84106 -7.1573e+000 -6.5633e+001 -2.6289e-002 50230 83910,84057,83936
 2.2000e+000 84155  6.0514e+000 -5.8579e+001 -3.0266e+000 50230 83936,84057,84129
 2.2000e+000 84178  8.7048e+000 -5.5321e+001 -4.3400e+000 50230 83936,84129,83962
 2.2000e+000 84558 -2.3138e+001 -7.3676e+001 -1.2810e+001 49768 84581,84388,84362
 2.2000e+000 84535 -5.5805e+001 -7.5410e+001 -4.1177e+000 49768 84581,84362,84310
 2.2000e+000 84512  7.4580e+000 -8.3835e+001 -1.5255e+001 49768 84653,84440,84414
 2.2000e+000 84489 -4.2832e+001 -8.3986e+001  8.7091e+000 49768 84310,84362,84336
 2.2000e+000 84466  1.2088e+000 -5.7172e+001  1.6522e+001 49768 84284,84440,84310
 2.2000e+000 84607  4.9731e+000 -5.7643e+001 -2.5860e+001 49768 84414,84388,84581
 2.2000e+000 84630 -4.5255e+000 -7.7404e+001 -1.0952e+001 49768 84653,84414,84581
 2.2000e+000 84679 -8.7096e+000 -7.9120e+001 -2.0676e+001 49768 84310,84440,84653
 2.2000e+000 84702 -2.6150e+001 -7.8928e+001 -2.1131e+001 49768 84310,84653,84581
 2.2000e+000 85159 -5.3988e+001 -1.2769e+002 -3.9889e+001 49192 84885,84937,84911
 2.2000e+000 85136 -5.4674e+001 -1.0467e+002 -3.0451e+001 49192 84885,85041,84937
 2.2000e+000 85113 -3.9692e+001 -8.1017e+001 -1.7000e+001 49192 84963,85041,84989
 2.2000e+000 85090 -3.8999e+001 -8.2742e+001 -2.3562e+001 49192 84937,85041,84963
 2.2000e+000 85067 -2.9544e+001 -7.7027e+001 -1.7767e+001 49192 84989,85041,85015
 2.2000e+000 85714 -4.0308e+001 -6.8747e+001  9.3833e+000 48638 85368,85498,85394
 2.2000e+000 85691 -3.9643e+001 -8.1833e+001  8.9348e+000 48638 85368,85524,85498
 2.2000e+000 85668 -6.0635e+001 -7.2911e+001  3.3157e+001 48638 85737,85420,85394
 2.2000e+000 85645 -4.4713e+001 -7.7316e+001  1.8558e+001 48638 85737,85394,85498
 2.2000e+000 85622  1.9731e+000 -8.8629e+001  3.9493e+001 48638 85446,85498,85472
 2.2000e+000 85599 -1.5696e+001 -7.1520e+001  7.9024e+000 48638 85342,85524,85368
 2.2000e+000 85576 -5.2935e+001 -7.8359e+001  6.4829e+000 48638 85342,85550,85524
 2.2000e+000 85763 -3.6131e+001 -6.1803e+001  3.6097e+001 48638 85446,85420,85737
 2.2000e+000 85786 -3.5105e+001 -7.1789e+001  2.0804e+001 48638 85446,85737,85498
 2.2000e+000 86371 -1.9403e+001 -3.8418e+001 -1.1825e+001 48084 86100,86230,86178
 2.2000e+000 86348 -3.6579e+001 -6.5925e+001 -2.0255e+001 48084 86048,86230,86100
 2.2000e+000 86325 -9.4784e+000 -3.1110e+001  1.6278e+000 48084 86100,86178,86126
 2.2000e+000 86302 -7.3846e+000  1.8345e+000 -1.4661e+001 48084 86048,86100,86074
 2.2000e+000 86279 -2.3343e+001 -7.3879e+001 -1.4355e+001 48084 86178,86230,86204
 2.2000e+000 86256 -1.1451e+001 -2.1511e+001  2.9270e+000 48084 86126,86178,86152
 2.2000e+000 86619 -3.2150e+001 -7.7524e+001 -3.5598e+000 47630 86642,86446,86420
 2.2000e+000 86596 -3.3621e+001 -8.2815e+001 -1.6735e+001 47630 86642,86420,86394
 2.2000e+000 86573 -4.0713e+001 -7.9366e+001 -2.0122e+001 47630 86394,86524,86498
 2.2000e+000 86550 -1.4491e+001 -9.1195e+001  6.4483e-002 47630 86446,86498,86472
 2.2000e+000 86668 -3.8637e+001 -9.2473e+001 -4.9575e+000 47630 86498,86446,86642
 2.2000e+000 86691 -3.8009e+001 -9.3337e+001 -1.7974e+001 47630 86498,86642,86394
 2.2000e+000 87022  4.4819e+000 -3.2298e+001 -1.1530e+001 47226 87045,86875,86849
 2.2000e+000 86999 -6.2665e+000 -3.7753e+001 -1.6779e+001 47226 87045,86849,86797
 2.2000e+000 86976 -2.8151e+000 -1.8833e+001 -8.3945e+000 47226 86797,86849,86823
 2.2000e+000 86953  1.9613e+001 -2.9901e+001 -1.7471e+001 47226 86875,86927,86901
 2.2000e+000 87071  1.4522e+001 -4.2470e+001 -1.4953e+001 47226 86927,86875,87045
 2.2000e+000 87094  4.9911e+000 -4.5584e+001 -1.8269e+001 47226 86927,87045,86797
 2.2000e+000 87244 -1.4766e+000 -8.1634e+001  3.8372e+001 46814 87267,87169,87143
 2.2000e+000 87221 -4.7449e+001 -7.8713e+001  4.4344e+000 46814 87267,87143,87117
 2.2000e+000 87293 -1.0387e+001 -8.8159e+001 -5.1199e+000 46814 87339,87267,87195
 2.2000e+000 87316  1.3813e+001 -5.2160e+001 -1.8836e+001 46814 87469,87267,87117
 2.2000e+000 87365 -1.5018e+001 -7.1057e+001  3.8962e+001 46814 87169,87267,87339
 2.2000e+000 87495  1.1704e+001  2.3769e+001 -2.0084e+001 46814 87195,87267,87469
 2.2000e+000 88001 -3.2105e+001 -8.2150e+001  1.6512e+001 46310 88024,87834,87808
 2.2000e+000 87978 -3.5308e+001 -8.3107e+001  1.4309e+001 46310 88024,87808,87756
 2.2000e+000 87955 -9.2031e+000 -1.0218e+002  7.3175e+000 46310 88096,87730,87860
 2.2000e+000 87932 -2.2532e+001 -8.3166e+001  1.8087e+001 46310 87756,87808,87782
 2.2000e+000 87909 -1.8341e+001 -1.3771e+002  7.1965e+000 46310 87678,87860,87730
 2.2000e+000 87886 -3.0355e+001 -2.1027e+002 -8.8813e+000 46310 87678,87730,87704
 2.2000e+000 88050 -2.6523e+001 -6.9286e+001  1.5181e+001 46310 87860,87834,88024
 2.2000e+000 88073 -1.2306e+001 -7.7238e+001  1.7623e+001 46310 88096,87860,88024
 2.2000e+000 88122 -1.9959e+001 -1.1375e+002  3.3343e-001 46310 87756,87730,88096
 2.2000e+000 88145 -3.9790e+001 -1.0364e+002  5.9964e+000 46310 87756,88096,88024
 2.2000e+000 88572 -9.2089e+000 -8.0647e+001  2.5157e-002 45856 88249,88405,88275
 2.2000e+000 88549 -4.6774e+000 -1.8686e+001 -2.3621e+001 45856 88249,88431,88405
 2.2000e+000 88526 -1.8052e+001 -1.2649e+002 -2.2468e+001 45856 88327,88405,88353
 2.2000e+000 88503  5.5099e+000 -9.4175e+001 -1.1935e+001 45856 88275,88405,88327
 2.2000e+000 88480  4.1918e+000 -1.0179e+002 -5.4998e+001 45856 88353,88405,88379
 2.2000e+000 88457 -8.6404e+001 -2.5583e+002  2.6418e+001 45856 88275,88327,88301
 2.2000e+000 88950 -1.5884e+001 -6.6917e+001 -1.6746e+001 45658 88973,88754,88728
 2.2000e+000 88927  3.6757e+000 -6.6541e+001 -1.1736e+001 45658 88973,88728,88676
 2.2000e+000 88904 -1.6880e+001 -7.4711e+001  1.9103e+001 45658 88676,88832,88806
 2.2000e+000 88881 -9.9794e+000 -7.5348e+001  2.3883e+001 45658 88676,88728,88702
 2.2000e+000 88858 -3.1617e+001 -5.7143e+001 -1.2266e+001 45658 88754,88806,88780
 2.2000e+000 88999 -3.0539e+001 -6.0123e+001 -8.7141e+000 45658 88806,88754,88973
 2.2000e+000 89022 -1.2782e+001 -6.0620e+001 -7.5707e+000 45658 88806,88973,88676
 2.2000e+000 89351 -5.4853e+000 -8.7069e+001 -3.4029e+000 45254 89152,89230,89204
 2.2000e+000 89328 -1.7961e+001 -9.1631e+001 -1.0553e+000 45254 89152,89256,89230
 2.2000e+000 89305 -1.8346e+001 -9.6393e+001 -4.5909e+000 45254 89126,89256,89152
 2.2000e+000 89282 -3.0055e+001 -1.0331e+002  7.2678e+000 45254 89152,89204,89178
 2.2000e+000 89523 -1.1885e+001 -7.5862e+001 -7.6471e-001 45006 89422,89474,89448
 2.2000e+000 89500 -8.7596e+000 -7.4537e+001  1.7336e+000 45006 89396,89474,89422
 2.2000e+000 89673 -6.9009e+001 -1.2170e+002  1.0506e+001 44495 89572,89624,89598
 2.2000e+000 89650 -7.4277e+001 -1.3889e+002  1.4409e+001 44495 89546,89624,89572
 2.2000e+000 90104 -1.2721e+001 -1.1393e+002 -6.8874e+000 44005 90199,90127,89937
 2.2000e+000 90081 -1.1099e+001 -1.0922e+002 -2.3579e+000 44005 90271,90127,89859
 2.2000e+000 90058 -1.1801e+001 -1.1446e+002 -6.9604e+000 44005 90199,89937,89885
 2.2000e+000 90035 -2.1559e+001 -1.0242e+002  3.5859e+000 44005 90271,89859,89807
 2.2000e+000 90012 -2.5659e+001 -1.3220e+002 -1.3809e+001 44005 89885,89937,89911
 2.2000e+000 89989  6.6111e-001 -1.0972e+002  1.5925e+001 44005 89807,89859,89833
 2.2000e+000 90153 -1.6136e+001 -1.1504e+002 -5.9984e+000 44005 89963,89937,90127
 2.2000e+000 90176 -1.7674e+001 -1.1956e+002 -4.7265e+000 44005 89963,90127,89781
 2.2000e+000 90225 -1.4973e+001 -1.1403e+002 -6.3183e+000 44005 89859,90127,90199
 2.2000e+000 90248 -1.3088e+001 -1.1397e+002 -6.0219e+000 44005 89859,90199,89885
 2.2000e+000 90297 -2.5189e+001 -1.1757e+002 -5.8332e+000 44005 89781,90127,90271
 2.2000e+000 90320 -3.1277e+001 -1.0847e+002  1.0140e+000 44005 89781,90271,89807
 2.2000e+000 90470 -1.5060e+001 -1.1565e+002 -5.0857e+000 43601 90493,90369,90343
 2.2000e+000 90447 -2.8443e+001 -9.4639e+001  5.9262e+000 43601 90493,90343,90421
 2.2000e+000 90519 -3.5408e+001 -1.5303e+002 -1.8389e+001 43601 90395,90369,90493
 2.2000e+000 90542 -2.9441e+001 -1.0957e+002 -4.1048e+000 43601 90395,90493,90421
 2.2000e+000 90922 -4.1854e+001 -1.3152e+002  1.2887e+001 43154 90945,90700,90674
 2.2000e+000 90899 -4.2108e+001 -1.3578e+002 -7.7950e+000 43154 90945,90674,90648
 2.2000e+000 90876 -5.9463e+001 -9.8304e+001 -1.9050e+000 43154 90648,90778,90752
 2.2000e+000 90853 -2.8949e+001 -2.0150e+002  8.5557e+000 43154 90700,90752,90726
 2.2000e+000 90830 -3.3535e+001 -1.0232e+002  9.5786e+000 43154 90648,90804,90778
 2.2000e+000 90971 -4.8927e+001 -1.4965e+002  1.3732e+001 43154 90752,90700,90945
 2.2000e+000 90994 -4.6532e+001 -1.4632e+002 -6.2839e+000 43154 90752,90945,90648
 2.2000e+000 91451  3.7274e+001 -9.6914e+001 -3.0095e+001 42650 91203,91255,91229
 2.2000e+000 91428 -1.1958e+000 -1.1343e+002 -1.7924e+000 42650 91203,91333,91255
 2.2000e+000 91405 -1.3584e+001 -1.4880e+002 -1.2959e+001 42650 91177,91333,91203
 2.2000e+000 91382 -2.1392e+001 -1.5752e+002  4.4204e+000 42650 91255,91333,91281
 2.2000e+000 91359  2.4136e+001 -1.3563e+002 -2.3677e+000 42650 91281,91333,91307
 2.2000e+000 91721 -5.9119e+001 -1.3073e+002  1.4136e+001 42288 91496,91600,91522
 2.2000e+000 91698 -3.1636e+001 -7.7989e+001 -3.5735e+000 42288 91496,91626,91600
 2.2000e+000 91675 -4.0414e+001 -1.3112e+002  2.3092e+001 42288 91522,91574,91548
 2.2000e+000 91652 -1.8539e+001 -1.1441e+002  1.5471e+001 42288 91522,91600,91574
 2.2000e+000 92199 -1.0212e+002 -1.5021e+002 -2.0978e+000 41898 92222,91983,91879
 2.2000e+000 92176 -1.0934e+002 -1.8259e+002 -1.5067e+001 41898 92294,92222,91879
 2.2000e+000 92153 -1.2263e+002 -1.8224e+002 -2.4023e+001 41898 92294,91879,91853
 2.2000e+000 92130 -9.0994e+001 -8.3109e+001  1.7448e+001 41898 91879,91957,91931
 2.2000e+000 92107 -8.8896e+001 -1.4504e+002  1.8113e+000 41898 91879,91983,91957
 2.2000e+000 92084 -1.1407e+002 -8.3737e+001  3.8841e+001 41898 91879,91931,91905
 2.2000e+000 92061 -9.8243e+001 -1.4779e+002 -1.3422e+001 41898 91827,92035,91853
 2.2000e+000 92248 -9.8215e+001 -1.8994e+002  6.0341e+000 41898 92009,91983,92222
 2.2000e+000 92271 -9.2868e+001 -1.9541e+002 -1.7339e+001 41898 92009,92222,92035
 2.2000e+000 92320 -8.8058e+001 -1.7880e+002 -1.2025e+001 41898 92035,92222,92294
 2.2000e+000 92343 -9.7050e+001 -1.7445e+002 -1.9944e+001 41898 92035,92294,91853
 2.2000e+000 92770 -2.3271e+001 -1.3396e+002 -7.3562e+000 41437 92865,92793,92525
 2.2000e+000 92747 -3.0084e+001 -1.5191e+002 -4.7507e+000 41437 92793,92473,92629
 2.2000e+000 92724  2.4379e+000 -1.4685e+002 -2.1579e+001 41437 92865,92525,92499
 2.2000e+000 92701 -3.2827e+001 -1.1568e+002 -1.6380e+001 41437 92525,92603,92577
 2.2000e+000 92678  5.2285e+001 -1.3762e+002  3.8443e-001 41437 92447,92629,92473
 2.2000e+000 92655 -5.6309e+001 -1.0036e+002 -6.1932e+000 41437 92525,92577,92551
 2.2000e+000 92819 -2.4562e+001 -1.3679e+002 -1.7125e+001 41437 92603,92525,92793
 2.2000e+000 92842 -5.3504e+001 -1.4697e+002 -3.2024e+001 41437 92603,92793,92629
 2.2000e+000 92891  2.3335e+001 -1.3674e+002 -5.9840e+000 41437 92473,92793,92865
 2.2000e+000 92914  5.6493e+001 -1.4071e+002 -2.4964e+001 41437 92473,92865,92499
 2.2000e+000 93243 -1.0315e+001 -1.8654e+002  8.4467e+001 41097 93044,93096,93070
 2.2000e+000 93220 -5.0064e+001 -1.8101e+002  2.9305e+001 41097 93044,93122,93096
 2.2000e+000 93197  4.8652e+000 -1.2397e+002  5.9452e+000 41097 93044,93148,93122
 2.2000e+000 93174 -2.6597e+001 -8.6567e+001  3.1554e+001 41097 93018,93148,93044
 2.2000e+000 93393  6.6985e+001 -1.3631e+002  9.4027e+000 40643 93416,93292,93344
 2.2000e+000 93370  3.9529e+001 -1.3129e+002  4.2684e+000 40643 93266,93344,93292
 2.2000e+000 93442  4.9832e+001 -1.3617e+002  1.9570e+001 40643 93318,93292,93416
 2.2000e+000 93901 -4.8898e+001 -1.4289e+002 -1.1350e+001 40132 93924,93731,93705
 2.2000e+000 93878 -4.8883e+001 -1.4606e+002 -1.1640e+001 40132 93996,93924,93705
 2.2000e+000 93855 -5.6649e+001 -1.6509e+002 -5.0917e+000 40132 93996,93705,93653
 2.2000e+000 93832 -3.5559e+001 -1.6240e+002 -8.1851e+000 40132 93653,93705,93679
 2.2000e+000 93809 -4.5786e+001 -1.3513e+002 -2.3840e+000 40132 93627,93783,93757
 2.2000e+000 93950 -4.9726e+001 -1.4945e+002 -1.1485e+001 40132 93757,93731,93924
 2.2000e+000 93973 -5.1402e+001 -1.3387e+002 -3.5444e+000 40132 93757,93924,93627
 2.2000e+000 94022 -6.3747e+001 -1.5819e+002  1.6940e+000 40132 93627,93924,93996
 2.2000e+000 94045 -5.9262e+001 -1.6480e+002  6.5346e+000 40132 93627,93996,93653
 2.2000e+000 94423 -1.6296e+001 -1.8258e+002 -1.5799e+001 39514 94149,94227,94175
 2.2000e+000 94400  1.1870e+000 -1.1845e+002  1.6949e+001 39514 94149,94305,94227
 2.2000e+000 94377 -1.0201e+001 -1.7920e+002 -1.7835e+001 39514 94175,94227,94201
 2.2000e+000 94354 -6.3274e+000 -1.3688e+002  1.3106e+001 39514 94227,94305,94279
 2.2000e+000 94331 -1.3240e+001 -1.3939e+002  1.5584e+001 39514 94227,94279,94253
 2.2000e+000 94573 -1.8944e+001 -9.2361e+001 -2.8240e+001 38822 94596,94498,94472
 2.2000e+000 94550  3.5402e+000 -1.0624e+002  5.3023e+000 38822 94596,94472,94446
 2.2000e+000 94622 -4.5105e+001 -1.0424e+002 -1.8410e+001 38822 94524,94498,94596
 2.2000e+000 94645 -4.5566e+001 -1.3289e+002  1.8584e+001 38822 94524,94596,94446
 2.2000e+000 95025 -2.8145e+001 -1.1669e+002 -1.0781e+001 38418 95048,94829,94777
 2.2000e+000 95002 -1.2543e+001 -1.0960e+002 -9.0343e+000 38418 95120,95048,94777
 2.2000e+000 94979 -7.1299e+000 -1.1936e+002 -8.7650e+000 38418 95120,94777,94751
 2.2000e+000 94956  7.7136e+000 -1.2091e+002 -6.5198e+000 38418 95192,94881,94855
 2.2000e+000 94933 -3.9022e+001 -1.0439e+002 -1.0946e+001 38418 94777,94829,94803
 2.2000e+000 95074 -2.2950e+001 -1.2366e+002  5.1458e+000 38418 94855,94829,95048
 2.2000e+000 95097  2.9054e+000 -1.1455e+002  1.1934e+000 38418 95192,94855,95048
 2.2000e+000 95146 -1.9040e+001 -1.2035e+002 -6.0226e+000 38418 94907,95048,95120
 2.2000e+000 95169 -1.3068e+001 -1.3078e+002 -6.5289e+000 38418 94907,95120,94751
 2.2000e+000 95218 -2.8874e+000 -1.1786e+002 -9.2207e+000 38418 94907,94881,95192
 2.2000e+000 95241 -1.4839e+001 -1.1734e+002 -9.2449e-001 38418 94907,95192,95048
 2.2000e+000 95511 -4.5786e+001 -1.4142e+002  6.3683e+000 38049 95312,95390,95364
 2.2000e+000 95488 -3.3942e+001 -1.3628e+002  5.7720e+000 38049 95312,95416,95390
 2.2000e+000 95465 -1.5058e+001 -1.2956e+002 -9.1872e+000 38049 95312,95364,95338
 2.2000e+000 95442 -1.2778e+001 -1.2588e+002  1.2106e+001 38049 95286,95416,95312
 2.2000e+000 95808 -4.2992e+001 -1.5263e+002 -1.0470e+001 37437 95831,95586,95560
 2.2000e+000 95785 -2.7905e+001 -1.4012e+002 -5.0279e+000 37437 95831,95560,95534
 2.2000e+000 95762 -4.8853e+001 -1.4216e+002  1.6216e+001 37437 95586,95664,95638
 2.2000e+000 95739 -4.2124e+001 -9.7419e+001 -1.6756e+001 37437 95534,95690,95664
 2.2000e+000 95716 -5.0386e+001 -1.0027e+002  1.1859e+001 37437 95586,95638,95612
 2.2000e+000 95857 -5.4525e+001 -1.3840e+002 -1.9396e+000 37437 95664,95586,95831
 2.2000e+000 95880 -3.8058e+001 -1.2490e+002  3.9264e+000 37437 95664,95831,95534
 2.2000e+000 96390 -5.3189e+001 -1.0628e+002 -5.7444e+000 36883 96413,96145,96093
 2.2000e+000 96367 -5.0988e+001 -1.0388e+002 -2.3263e-002 36883 96413,96093,96067
 2.2000e+000 96344 -2.9733e+001 -1.2653e+002 -6.7861e+000 36883 96067,96249,96171
 2.2000e+000 96321 -4.1769e+001 -1.1826e+002 -3.6612e+000 36883 96093,96145,96119
 2.2000e+000 96298 -5.9151e+001 -2.0447e+002  2.0651e+001 36883 96171,96249,96197
 2.2000e+000 96275 -1.1589e+001 -1.7010e+002  4.4856e+000 36883 96197,96249,96223
 2.2000e+000 96439 -4.9283e+001 -9.7317e+001 -5.1704e+000 36883 96171,96145,96413
 2.2000e+000 96462 -4.9533e+001 -1.0056e+002  3.3806e-001 36883 96171,96413,96067
 2.2000e+000 96781 -1.7592e+000 -1.0819e+002 -2.2853e+001 36215 96559,96663,96637
 2.2000e+000 96758 -3.0508e+001 -9.4243e+001 -1.8813e+001 36215 96507,96663,96559
 2.2000e+000 96735 -2.0783e+001 -7.8454e+001  6.3629e+000 36215 96585,96637,96611
 2.2000e+000 96712 -7.6899e+001 -1.3244e+002 -1.9199e+001 36215 96559,96637,96585
 2.2000e+000 96689 -1.7587e+001 -1.4322e+002 -8.4096e+000 36215 96507,96559,96533
 2.2000e+000 97161  1.2586e+001 -6.7823e+001 -7.3755e-001 35818 97184,96965,96939
 2.2000e+000 97138 -2.2836e+000 -6.1301e+001 -1.3360e+001 35818 97184,96939,96887
 2.2000e+000 97115  5.8525e+000 -9.4944e+001  1.4309e+001 35818 96965,97043,97017
 2.2000e+000 97092  2.5127e+001 -6.0320e+001 -3.0917e+001 35818 96887,96939,96913
 2.2000e+000 97069 -3.3424e+001 -7.7635e+001  1.3893e+001 35818 96965,97017,96991
 2.2000e+000 97210  3.1170e+001 -6.4428e+001 -9.7705e-001 35818 97043,96965,97184
 2.2000e+000 97233  1.5626e+001 -5.7575e+001 -1.2448e+001 35818 97043,97184,96887
 2.2000e+000 97739 -4.3946e+001 -1.2321e+002 -2.1660e+001 35214 97416,97468,97442
 2.2000e+000 97716 -4.8808e+001 -8.7576e+001 -3.9809e+000 35214 97416,97598,97468
 2.2000e+000 97693 -4.1552e+001 -8.4574e+001  3.1254e+000 35214 97762,97520,97468
 2.2000e+000 97670 -4.7989e+001 -9.0280e+001 -3.4487e+000 35214 97762,97468,97598
 2.2000e+000 97647 -4.3687e+001 -8.5049e+001 -1.4399e+001 35214 97546,97598,97572
 2.2000e+000 97624 -2.6184e+001 -8.0353e+001 -5.3879e-002 35214 97468,97520,97494
 2.2000e+000 97788 -4.3834e+001 -9.3153e+001 -2.7024e+000 35214 97546,97520,97762
 2.2000e+000 97811 -4.6860e+001 -9.7253e+001 -8.7017e+000 35214 97546,97762,97598
 2.2000e+000 98189 -9.3646e+000 -7.6778e+001 -8.7748e+000 34760 98356,98212,97967
 2.2000e+000 98166 -1.8736e+001 -9.0250e+001 -1.4740e+001 34760 98284,98212,97941
 2.2000e+000 98143 -3.8188e+001 -8.0147e+001 -6.5024e+000 34760 98284,97941,97915
 2.2000e+000 98120 -8.3211e+000 -9.6064e+001 -2.8367e+000 34760 98484,97993,97967
 2.2000e+000 98097 -4.5415e+000 -8.5598e+001 -2.0577e+000 34760 98556,98045,98019
 2.2000e+000 98238 -1.3429e+001 -9.2273e+001 -3.5220e+000 34760 98484,97967,98212
 2.2000e+000 98261  4.0293e+000 -8.8581e+001 -6.4286e+000 34760 98556,98019,98212
 2.2000e+000 98310 -5.2797e-001 -7.3015e+001 -2.3759e+001 34760 98071,98212,98284
 2.2000e+000 98333 -1.4974e+001 -4.8471e+001 -1.9801e+001 34760 98071,98284,97915
 2.2000e+000 98382 -4.8151e+001 -1.0015e+002 -1.9683e+001 34760 97941,98212,98356
 2.2000e+000 98510  1.5003e+000 -9.4264e+001 -5.4954e+000 34760 98019,97993,98484
 2.2000e+000 98533 -7.3583e+000 -9.3428e+001 -6.1165e+000 34760 98019,98484,98212
 2.2000e+000 98582  6.3949e+000 -8.1252e+001 -4.3932e-001 34760 98071,98045,98556
 2.2000e+000 98605  1.0037e+001 -8.7377e+001 -5.6192e+000 34760 98071,98556,98212
 2.2000e+000 99032 -4.1531e+001 -1.1468e+002  2.2416e+001 34156 98735,98891,98839
 2.2000e+000 99009 -3.4803e+001 -1.1782e+002  1.4658e+001 34156 98709,98891,98735
 2.2000e+000 98986 -9.1186e+000 -1.0035e+002  2.0923e+001 34156 98735,98813,98787
 2.2000e+000 98963 -1.0274e+001 -1.0665e+002  1.7271e+001 34156 98735,98839,98813
 2.2000e+000 98940  3.8336e+000 -1.5125e+002  2.0358e+001 34156 98735,98787,98761
 2.2000e+000 98917 -3.4372e+001 -9.6047e+001  1.2518e+001 34156 98839,98891,98865
 2.2000e+000 99231 -3.1703e+000 -4.9775e+001  7.4098e+000 33766 99055,99133,99107
 2.2000e+000 99208 -2.8012e+001 -4.7456e+001  1.4252e+001 33766 99055,99159,99133
 2.2000e+000 99185 -1.8829e+001 -8.5754e+001  3.1857e+000 33766 99055,99107,99081
 2.2000e+000 99818 -2.5042e+001 -9.1460e+001  1.1885e+000 33248 99521,99651,99573
 2.2000e+000 99795 -2.9112e+001 -8.9033e+001  8.1771e+000 33248 99521,99677,99651
 2.2000e+000 99772 -4.8733e+001 -1.1622e+002 -1.1405e+001 33248 99573,99651,99599
 2.2000e+000 99749 -3.0172e+001 -1.1316e+002  9.3867e+000 33248 99495,99677,99521
 2.2000e+000 99726 -2.7414e+001 -1.0481e+002 -2.5800e+001 33248 99599,99651,99625
 2.2000e+000 99703 -3.5976e+001 -1.1063e+002  6.6028e+000 33248 99521,99573,99547
 2.2000e+000 100196 -3.8856e+001 -8.7910e+001 -1.3327e+001 32794 100219,99948,99922
 2.2000e+000 100173 -4.2541e+001 -9.5721e+001 -8.2644e+000 32794 100219,99922,100052
 2.2000e+000 100150 -4.3458e+001 -8.8998e+001  2.2424e+000 32794 99974,100052,100026
 2.2000e+000 100127 -4.8529e+001 -9.1563e+001 -9.0429e+000 32794 99922,100078,100052
 2.2000e+000 100104 -4.8327e+001 -1.1120e+002  1.9349e+001 32794 99974,100026,100000
 2.2000e+000 100245 -4.4629e+001 -8.5741e+001 -5.6117e+000 32794 99974,99948,100219
 2.2000e+000 100268 -4.7624e+001 -9.6450e+001 -5.8174e-001 32794 99974,100219,100052
 2.2000e+000 100418 -5.5217e+000 -8.5524e+001 -1.3605e+001 32504 100571,100343,100317
 2.2000e+000 100395 -3.5841e+001 -9.9251e+001  5.4539e+000 32504 100571,100317,100441
 2.2000e+000 100467  2.9195e+001 -4.2430e+001 -3.3559e+001 32504 100291,100369,100441
 2.2000e+000 100597  7.9976e+000 -7.0976e+001 -3.7693e+001 32504 100369,100343,100571
 2.2000e+000 100620 -5.7589e+000 -6.6070e+001 -2.1206e+001 32504 100369,100571,100441
 2.2000e+000 101020 -1.8185e+001 -8.3180e+001  3.0075e+000 32142 100772,100902,100876
 2.2000e+000 100997 -1.1203e+001 -7.6455e+001  6.2771e+000 32142 100746,100902,100772
 2.2000e+000 100974 -5.0363e+000 -9.3442e+001  9.1381e+000 32142 101043,100824,100798
 2.2000e+000 100951 -1.7010e+001 -9.8781e+001  6.9365e+000 32142 101043,100798,100772
 2.2000e+000 100928 -5.2481e+001 -1.1425e+002 -2.7499e+001 32142 101115,100876,100850
 2.2000e+000 101069  1.0870e+001 -1.0062e+002 -9.9255e+000 32142 100850,100824,101043
 2.2000e+000 101092 -2.8179e+001 -1.1772e+002 -1.3360e+001 32142 101115,100850,101043
 2.2000e+000 101141 -2.2286e+001 -9.6609e+001 -1.0751e+001 32142 100772,100876,101115
 2.2000e+000 101164 -3.2906e+000 -9.8882e+001  4.6535e+000 32142 100772,101115,101043
 2.2000e+000 101719 -4.8211e+001 -1.1778e+002  9.2290e+000 31538 101742,101477,101399
 2.2000e+000 101696 -6.3063e+001 -1.3622e+002  6.9162e-001 31538 101814,101742,101399
 2.2000e+000 101673 -7.3487e+001 -1.1858e+002 -1.3408e+001 31538 101814,101399,101373
 2.2000e+000 101650 -4.2481e+001 -6.2832e+001  3.2293e+000 31538 101425,101477,101451
 2.2000e+000 101627 -3.9712e+001 -8.8829e+001 -1.0532e+001 31538 101399,101477,101425
 2.2000e+000 101604 -2.4297e+001 -1.3289e+002  2.0126e+001 31538 101477,101529,101503
 2.2000e+000 101581 -1.8148e+001 -7.4529e+001 -5.8185e+000 31538 101347,101555,101373
 2.2000e+000 101768 -5.0109e+001 -1.3566e+002  6.8060e+000 31538 101529,101477,101742
 2.2000e+000 101791 -4.6817e+001 -1.3848e+002 -5.8200e+000 31538 101529,101742,101555
 2.2000e+000 101840 -3.8367e+001 -1.1895e+002 -6.8630e+000 31538 101555,101742,101814
 2.2000e+000 101863 -5.2482e+001 -1.0431e+002 -1.9719e+001 31538 101555,101814,101373
 2.2000e+000 102111 -6.2246e+001 -1.8186e+002  2.3466e+001 31112 101886,101990,101912
 2.2000e+000 102088 -1.9066e+001 -1.2054e+002 -1.8144e+000 31112 101886,102016,101990
 2.2000e+000 102065 -3.0943e+001 -1.7364e+002  2.8478e+001 31112 101912,101990,101964
 2.2000e+000 102042 -4.4511e+001 -1.9702e+002  3.4017e+001 31112 101912,101964,101938
 2.2000e+000 102408 -8.2570e+000 -1.0188e+002  1.1103e+001 30658 102431,102186,102160
 2.2000e+000 102385 -2.4628e+001 -9.9661e+001  2.3493e+000 30658 102431,102160,102264
 2.2000e+000 102362 -2.9989e+001 -1.1437e+002  4.2986e+000 30658 102186,102238,102212
 2.2000e+000 102339 -2.0810e+001 -1.0993e+002 -1.2337e+001 30658 102134,102264,102160
 2.2000e+000 102316  2.1942e+001 -7.3576e+001 -4.7969e+001 30658 102134,102290,102264
 2.2000e+000 102457 -2.1286e+001 -1.0867e+002  7.2964e+000 30658 102238,102186,102431
 2.2000e+000 102480 -3.8894e+001 -1.0823e+002 -2.1670e+000 30658 102238,102431,102264
 2.2000e+000 102681 -2.8402e+001 -1.2735e+002  1.1595e+001 30004 102704,102557,102505
 2.2000e+000 102658 -2.6149e+001 -1.2623e+002  1.1110e+001 30004 102704,102505,102609
 2.2000e+000 102635 -1.4707e+001 -1.1020e+002  6.7583e-001 30004 102505,102557,102531
 2.2000e+000 102730 -2.6388e+001 -1.3019e+002  1.3049e+001 30004 102583,102557,102704
 2.2000e+000 102753 -2.1301e+001 -1.2751e+002  1.2064e+001 30004 102583,102704,102609
 2.2000e+000 103003 -1.5813e+001 -1.0298e+002 -1.2155e+000 29564 103026,102804,102778
 2.2000e+000 102980 -1.8782e+001 -1.1089e+002 -1.1969e+000 29564 103026,102778,102908
 2.2000e+000 102957 -3.8194e+000 -9.9980e+001  1.0148e+001 29564 102856,102908,102882
 2.2000e+000 102934 -2.4297e+001 -1.0616e+002  6.7054e+000 29564 102804,102856,102830
 2.2000e+000 103052 -1.7798e+001 -1.0005e+002  4.1804e+000 29564 102856,102804,103026
 2.2000e+000 103075 -2.0130e+001 -1.0583e+002  3.5104e+000 29564 102856,103026,102908
 2.2000e+000 103634 -5.3316e+001 -1.3064e+002 -2.1300e+001 29160 103657,103418,103392
 2.2000e+000 103611 -5.0616e+001 -1.2576e+002 -1.1690e+001 29160 103657,103392,103314
 2.2000e+000 103588 -2.4232e+001 -1.1855e+002 -2.0024e+001 29160 103314,103392,103366
 2.2000e+000 103565 -4.1551e+001 -1.3567e+002 -1.2451e+001 29160 103314,103366,103340
 2.2000e+000 103542 -6.8889e+001 -1.2259e+002 -1.7425e+001 29160 103262,103444,103314
 2.2000e+000 103519 -7.8931e+001 -1.3698e+002 -2.9730e+001 29160 103262,103314,103288
 2.2000e+000 103496 -4.5866e+001 -1.2903e+002 -1.0947e+001 29160 103262,103470,103444
 2.2000e+000 103683 -6.7519e+001 -1.4126e+002 -3.0715e+001 29160 103444,103418,103657
 2.2000e+000 103706 -5.6502e+001 -1.2549e+002 -1.9721e+001 29160 103444,103657,103314
 2.2000e+000 104035 -3.9476e+001 -1.0532e+002  1.7369e+001 28770 103836,103914,103862
 2.2000e+000 104012 -2.7640e+001 -1.0211e+002  1.7479e+001 28770 103810,103914,103836
 2.2000e+000 103989  2.7028e+001 -9.1475e+001  2.6849e+001 28770 103810,103940,103914
 2.2000e+000 103966  3.3459e+001 -8.4799e+001  5.0811e+001 28770 103862,103914,103888
 2.2000e+000 104185  2.9768e+000 -1.3078e+002  1.8291e+000 28366 104208,104110,104084
 2.2000e+000 104162  3.8293e+001 -9.7824e+001  2.7484e+001 28366 104280,104208,104084
 2.2000e+000 104234  6.9664e+000 -1.0990e+002  1.2318e-001 28366 104610,104208,104136
 2.2000e+000 104257 -2.2104e+001 -1.2164e+002  1.0550e+001 28366 104538,104410,104208
 2.2000e+000 104306 -2.2909e+001 -1.2971e+002  1.4917e+001 28366 104538,104208,104280
 2.2000e+000 104436 -1.6678e+000 -1.1488e+002 -3.4038e+000 28366 104136,104208,104410
 2.2000e+000 104564 -2.3862e+001 -1.1110e+002  9.1196e+000 28366 104058,104410,104538
 2.2000e+000 104587 -2.2449e+001 -1.1770e+002  1.2440e+001 28366 104058,104538,104280
 2.2000e+000 104636 -2.0560e+001 -1.2091e+002  3.0219e+000 28366 104110,104208,104610
 2.2000e+000 105349 -2.8732e+001 -9.8703e+001 -9.0173e+000 27976 105516,105372,105107
 2.2000e+000 105326 -4.2664e+001 -9.8507e+001  5.2802e+000 27976 105588,105372,105055
 2.2000e+000 105303 -5.1166e+001 -9.6175e+001 -1.3988e+001 27976 105444,105159,105133
 2.2000e+000 105280 -1.7598e+001 -1.0197e+002 -5.3075e+000 27976 105516,105107,105081
 2.2000e+000 105257 -3.7082e+001 -1.0425e+002  1.3110e+001 27976 105588,105055,105029
 2.2000e+000 105234 -2.6107e+001 -8.1313e+001  1.1409e+000 27976 105003,105185,105159
 2.2000e+000 105211 -3.2999e+001 -6.6271e+001  1.1637e+001 27976 104977,105185,105003
 2.2000e+000 105398 -2.3419e+001 -9.9621e+001 -1.1915e+001 27976 105133,105107,105372
 2.2000e+000 105421 -4.0622e+001 -1.0587e+002 -8.4532e+000 27976 105444,105133,105372
 2.2000e+000 105470 -4.1803e+001 -8.0447e+001 -7.9708e+000 27976 105003,105159,105444
 2.2000e+000 105493 -3.3815e+001 -9.0933e+001 -5.3756e+000 27976 105003,105444,105372
 2.2000e+000 105542 -2.1292e+001 -9.8692e+001  7.5492e-001 27976 105055,105372,105516
 2.2000e+000 105565 -4.1639e+000 -9.9452e+001  3.2113e+000 27976 105055,105516,105081
 2.2000e+000 105614 -5.1993e+001 -1.0364e+002  7.4074e+000 27976 105003,105372,105588
 2.2000e+000 105637 -4.8825e+001 -1.1050e+002  1.5510e+001 27976 105003,105588,105029
 2.2000e+000 106143 -5.2425e+001 -1.5725e+002  9.2446e+000 27664 106166,105846,105820
 2.2000e+000 106120 -4.0190e+001 -1.2481e+002  4.9971e+000 27664 106310,106166,105820
 2.2000e+000 106097 -1.9488e+001 -1.3934e+002 -2.8951e+001 27664 106382,106238,105950
 2.2000e+000 106074 -2.9392e+001 -1.2307e+002  5.4933e+000 27664 106310,105820,106002
 2.2000e+000 106051  9.3545e+000 -1.2490e+002 -2.4154e+001 27664 106382,105950,105924
 2.2000e+000 106028 -1.7881e+001 -2.2558e+002 -5.2515e+000 27664 105846,105898,105872
 2.2000e+000 106192 -5.1038e+001 -1.7530e+002 -2.0782e+001 27664 105898,105846,106166
 2.2000e+000 106215 -3.3832e+001 -1.4603e+002 -6.9680e+000 27664 106238,105898,106166
 2.2000e+000 106264 -8.4501e+001 -1.5748e+002 -3.6967e+001 27664 105976,105950,106238
 2.2000e+000 106287 -3.1064e+001 -1.4586e+002 -7.2999e+000 27664 105976,106238,106166
 2.2000e+000 106336 -2.9321e+001 -1.3030e+002  1.4848e+001 27664 105976,106166,106310
 2.2000e+000 106359 -1.6919e+001 -1.2773e+002  1.4944e+001 27664 105976,106310,106002
 2.2000e+000 106408 -3.3648e+001 -1.1780e+002  3.4098e+000 27664 105898,106238,106382
 2.2000e+000 106431 -1.5613e+001 -1.0955e+002  5.6013e+000 27664 105898,106382,105924
 2.2000e+000 106728 -1.3464e+001 -8.6984e+001  1.2383e+001 27153 106751,106506,106454
 2.2000e+000 106705 -1.3077e+001 -8.8695e+001  9.5707e+000 27153 106751,106454,106610
 2.2000e+000 106682 -2.4200e+001 -6.5688e+001 -2.5517e+000 27153 106454,106506,106480
 2.2000e+000 106659 -1.9000e+001 -8.7156e+001  6.2937e+000 27153 106532,106610,106584
 2.2000e+000 106636 -3.5824e+001 -5.2927e+001  1.5109e+001 27153 106532,106584,106558
 2.2000e+000 106777 -9.9812e+000 -8.4723e+001  1.3437e+001 27153 106532,106506,106751
 2.2000e+000 106800 -1.0634e+001 -8.7232e+001  1.0184e+001 27153 106532,106751,106610
 2.2000e+000 107180 -2.6964e+001 -1.1533e+002 -2.5736e+000 26642 107203,106984,106958
 2.2000e+000 107157 -5.5090e+001 -1.2676e+002 -1.0010e+000 26642 107203,106958,106932
 2.2000e+000 107134 -6.2561e+001 -1.3191e+002 -1.8901e+001 26642 107275,107036,107010
 2.2000e+000 107111 -4.1697e+001 -1.2450e+002 -2.3569e+001 26642 106932,107062,107036
 2.2000e+000 107088 -1.5229e+000 -9.6221e+001  1.1837e+001 26642 106906,107062,106932
 2.2000e+000 107229 -9.1229e+000 -1.0152e+002 -3.4105e+001 26642 107010,106984,107203
 2.2000e+000 107252 -5.7606e+001 -1.2925e+002 -2.2827e+001 26642 107275,107010,107203
 2.2000e+000 107301 -5.5555e+001 -1.3004e+002 -2.1331e+001 26642 106932,107036,107275
 2.2000e+000 107324 -5.1981e+001 -1.3138e+002 -2.3159e+001 26642 106932,107275,107203
 2.2000e+000 107675 -2.7487e+001 -7.1306e+001  8.6825e+000 26045 107450,107554,107476
 2.2000e+000 107652 -2.2299e+001 -6.3444e+001  4.3353e+000 26045 107450,107580,107554
 2.2000e+000 107629 -1.2455e+001 -4.2912e+001 -1.2426e+000 26045 107476,107528,107502
 2.2000e+000 107606 -5.6515e+000 -6.5057e+001  6.4436e+000 26045 107476,107554,107528
 2.2000e+000 107874 -1.9939e+001 -1.1488e+002  2.9597e+001 25641 107750,107802,107776
 2.2000e+000 107851 -2.5602e+001 -8.5451e+001  1.6954e+001 25641 107724,107802,107750
 2.2000e+000 107828 -2.1318e+001 -8.7113e+001  1.2793e+001 25641 107698,107802,107724
 2.2000e+000 108431  4.4514e+001 -1.1567e+002  2.4757e+001 25023 108526,108267,108241
 2.2000e+000 108408  6.4957e+001 -9.0362e+001  9.1623e+000 25023 108059,108267,108085
 2.2000e+000 108385 -2.8815e+000 -1.1799e+002  1.6295e+001 25023 108454,108163,108111
 2.2000e+000 108362 -5.9818e+001 -1.2170e+002  3.4888e+001 25023 108454,108111,108085
 2.2000e+000 108339 -4.3107e+001 -1.5495e+002  3.2241e+001 25023 108111,108163,108137
 2.2000e+000 108316 -7.8997e+000 -8.1000e+001 -8.0258e-001 25023 108163,108241,108215
 2.2000e+000 108293  1.1954e+001 -7.2311e+001  5.3294e-001 25023 108163,108215,108189
 2.2000e+000 108480  5.3929e+000 -1.1172e+002  1.8223e+000 25023 108241,108163,108454
 2.2000e+000 108503  1.6504e+001 -1.0806e+002  2.3412e+001 25023 108526,108241,108454
 2.2000e+000 108552  1.0433e+001 -1.1373e+002  8.4061e+000 25023 108085,108267,108526
 2.2000e+000 108575 -1.9219e+001 -1.0788e+002  6.3980e+000 25023 108085,108526,108454
 2.2000e+000 108823 -6.0312e+000 -8.7784e+001  1.4251e+001 24461 108624,108728,108650
 2.2000e+000 108800 -1.5822e+001 -1.8671e+002 -1.1769e+001 24461 108598,108728,108624
 2.2000e+000 108777 -2.8432e+000 -1.1441e+002  1.2301e+001 24461 108650,108728,108676
 2.2000e+000 108754 -5.2818e+001 -3.1596e+002  2.8781e+001 24461 108676,108728,108702
 2.2000e+000 109022 -3.6098e+001 -9.1382e+001  1.4092e+001 24121 108872,108924,108898
 2.2000e+000 108999 -2.3840e+001 -1.0206e+002  1.2909e+001 24121 108846,108924,108872
 2.2000e+000 108976 -1.4272e+001 -1.0043e+002  1.8783e+001 24121 108846,108950,108924
 2.2000e+000 109483 -4.0092e+001 -1.2977e+002 -1.4196e+001 23717 109209,109339,109235
 2.2000e+000 109460 -1.7835e+001 -1.4712e+002 -3.0640e+001 23717 109209,109365,109339
 2.2000e+000 109437 -9.9216e+000 -1.5635e+002 -1.0590e+001 23717 109287,109339,109313
 2.2000e+000 109414 -7.5256e+001 -1.6031e+002  3.4393e+000 23717 109235,109339,109287
 2.2000e+000 109391 -1.1802e+001 -1.9295e+002  5.5492e+001 23717 109235,109287,109261
 2.2000e+000 109910 -5.2792e+001 -1.4994e+002 -1.2892e+001 23305 109613,109743,109717
 2.2000e+000 109887 -5.2205e+001 -1.5043e+002 -8.8534e+000 23305 109613,109769,109743
 2.2000e+000 109864 -6.3902e+001 -1.4072e+002 -1.0962e+001 23305 109613,109717,109639
 2.2000e+000 109841 -4.0099e+001 -1.3833e+002 -2.9474e+000 23305 109587,109769,109613
 2.2000e+000 109818 -1.0488e+000 -1.1408e+002  1.0915e+001 23305 109639,109717,109691
 2.2000e+000 109795 -1.8295e+001 -9.6150e+001 -1.6833e+001 23305 109639,109691,109665
 2.2000e+000 110180 -1.2049e+001 -5.6428e+001 -3.6583e+000 22851 110007,110059,110033
 2.2000e+000 110157 -3.4199e+001 -1.1427e+002  4.4865e+000 22851 109981,110059,110007
 2.2000e+000 110134 -4.4435e+001 -1.2416e+002 -6.7231e-001 22851 109955,110059,109981
 2.2000e+000 110111 -1.9249e+001 -1.3921e+002 -1.2092e+001 22851 109955,110085,110059
 2.2000e+000 110737 -8.8489e+000 -1.3016e+002 -1.3560e+001 22333 110760,110469,110391
 2.2000e+000 110714 -9.0317e+000 -1.3619e+002 -1.1140e+001 22333 110760,110391,110365
 2.2000e+000 110691 -2.7578e+000 -1.2252e+002 -1.5671e+001 22333 110832,110521,110469
 2.2000e+000 110668  1.3779e+001 -2.3152e+002 -6.6339e+000 22333 110417,110469,110443
 2.2000e+000 110645 -3.5958e+001 -1.9626e+002 -1.6297e+001 22333 110391,110469,110417
 2.2000e+000 110622  2.3330e+001 -1.0574e+002 -3.1295e+001 22333 110469,110521,110495
 2.2000e+000 110599 -9.3228e+000 -9.7651e+001 -1.7009e+001 22333 110365,110573,110547
 2.2000e+000 110786 -9.3287e+000 -1.2121e+002 -1.2846e+001 22333 110832,110469,110760
 2.2000e+000 110809 -1.8762e+001 -1.3224e+002 -1.8532e+001 22333 110547,110760,110365
 2.2000e+000 110858  1.3799e+001 -1.2170e+002 -2.0915e+001 22333 110547,110521,110832
 2.2000e+000 110881 -1.4478e+000 -1.2427e+002 -2.0461e+001 22333 110547,110832,110760
 2.2000e+000 111308 -6.7856e+001 -1.5196e+002  6.1726e+000 21829 111331,111063,111011
 2.2000e+000 111285 -7.1118e+001 -1.4354e+002 -6.8536e+000 21829 111331,111011,111167
 2.2000e+000 111262 -7.3251e+001 -1.5325e+002  2.9654e+000 21829 111403,111089,111063
 2.2000e+000 111239 -8.0393e+001 -1.4420e+002  2.0071e+001 21829 111011,111063,111037
 2.2000e+000 111216 -5.1748e+001 -1.2647e+002  2.2013e+000 21829 110985,111167,111011
 2.2000e+000 111193 -8.5910e+001 -2.5650e+002  4.4072e+001 21829 111089,111141,111115
 2.2000e+000 111357 -7.1816e+001 -1.5436e+002  2.9606e+000 21829 111403,111063,111331
 2.2000e+000 111380 -7.6689e+001 -1.6286e+002 -9.2993e+000 21829 111141,111331,111167
 2.2000e+000 111429 -7.3854e+001 -1.5484e+002  4.7595e+000 21829 111141,111089,111403
 2.2000e+000 111452 -7.2841e+001 -1.5743e+002  3.8651e+000 21829 111141,111403,111331
 2.2000e+000 112056  3.4864e+001 -1.1674e+002  1.2251e+000 21489 111687,111765,111739
 2.2000e+000 112033  3.4449e+000 -1.3700e+002  1.3277e+001 21489 112151,112079,111687
 2.2000e+000 112010 -3.7883e+000 -2.0118e+002  9.0295e+000 21489 111791,111843,111817
 2.2000e+000 111987 -4.2336e+001 -1.6961e+002 -1.1536e+001 21489 112079,111843,111791
 2.2000e+000 111964  2.2929e+001 -1.2827e+002  2.4939e+001 21489 112151,111687,111661
 2.2000e+000 111941 -1.7328e+001 -9.3921e+001  2.2932e+001 21489 111661,111869,111843
 2.2000e+000 111918  3.8863e+001 -1.2521e+002  1.6827e+001 21489 111687,111739,111713
 2.2000e+000 111895  1.4029e+000 -5.0528e+001  9.1388e+000 21489 111635,111869,111661
 2.2000e+000 112105 -2.7038e+001 -1.4516e+002  8.6654e+000 21489 111765,111687,112079
 2.2000e+000 112128 -2.7189e+001 -1.4202e+002  9.1679e+000 21489 111765,112079,111791
 2.2000e+000 112177 -2.9261e+001 -1.3571e+002 -2.4758e+000 21489 111843,112079,112151
 2.2000e+000 112200 -1.1364e+001 -1.3255e+002  7.0528e+000 21489 111843,112151,111661
 2.2000e+000 112578 -3.3741e+001 -1.7153e+002  7.4405e+000 21177 112382,112434,112408
 2.2000e+000 112555 -4.1078e+001 -1.6992e+002  3.5824e-001 21177 112330,112434,112382
 2.2000e+000 112532 -3.3480e+001 -1.4646e+002  2.5207e+001 21177 112304,112434,112330
 2.2000e+000 112509 -4.0749e+001 -1.6423e+002  0.0000e+000 21177 112330,112382,112356
 2.2000e+000 112486 -9.5838e+000 -9.8385e+001  6.5278e+000 21177 112304,112460,112434
 2.2000e+000 112679 -1.3193e+000 -1.2145e+002 -2.1225e+001 20666 112601,112653,112627
 2.2000e+000 112927 -4.8848e+001 -1.6431e+002  4.3107e+000 19762 112702,112754,112728
 2.2000e+000 112904 -1.8425e+001 -1.5422e+002 -3.5608e+000 19762 112702,112832,112754
 2.2000e+000 112881 -3.9937e+001 -1.6240e+002  2.4697e+001 19762 112754,112832,112806
 2.2000e+000 112858 -5.7382e+001 -2.0968e+002  2.5833e+001 19762 112754,112806,112780
 2.2000e+000 113297 -3.5021e+001 -1.8798e+002  1.4418e+001 19308 112974,113052,113026
 2.2000e+000 113274 -2.9041e+001 -1.5215e+002  7.7187e+000 19308 112974,113156,113052
 2.2000e+000 113251 -2.6669e+001 -1.9959e+002 -2.1853e+001 19308 113052,113130,113104
 2.2000e+000 113228 -3.3477e+001 -1.5224e+002  8.7670e-001 19308 113052,113156,113130
 2.2000e+000 113205 -3.4183e+001 -1.7466e+002  0.0000e+000 19308 113052,113104,113078
 2.2000e+000 113182 -5.9920e+001 -2.0318e+002 -2.0607e+000 19308 112974,113026,113000
 2.2000e+000 113547 -2.1019e+001 -1.7288e+002 -1.1718e+001 18711 113570,113374,113348
 2.2000e+000 113524 -2.5973e+001 -1.6270e+002 -8.4380e+000 18711 113570,113348,113452
 2.2000e+000 113501 -2.0991e+001 -1.2460e+002 -3.3772e+001 18711 113322,113452,113348
 2.2000e+000 113478 -3.1637e+001 -1.6239e+002 -4.8346e+001 18711 113374,113426,113400
 2.2000e+000 113596 -1.8358e+001 -1.6178e+002 -1.4645e+001 18711 113426,113374,113570
 2.2000e+000 113619 -2.4886e+001 -1.5375e+002 -9.3097e+000 18711 113426,113570,113452
 2.2000e+000 113771 -8.5474e+001 -2.1006e+002 -1.0857e+001 18307 113670,113722,113696
 2.2000e+000 113748 -6.8027e+001 -1.9882e+002 -5.2935e+000 18307 113644,113722,113670
 2.2000e+000 113972 -3.6701e+001 -1.7620e+002  2.4747e+000 17945 113822,113874,113848
 2.2000e+000 113949 -4.2488e+001 -1.7642e+002  3.2123e+000 17945 113822,113900,113874
 2.2000e+000 113926 -5.8984e+001 -1.4220e+002  7.4130e+001 17945 113796,113900,113822
 2.2000e+000 114075  2.9228e+001 -2.2117e+002  3.4546e+001 17482 113997,114049,114023
 2.2000e+000 114479 -5.7293e+000 -1.4730e+002 -2.6835e+001 17042 114257,114361,114335
 2.2000e+000 114456 -3.5259e+001 -1.4120e+002 -4.0844e+000 17042 114205,114361,114257
 2.2000e+000 114433 -4.3601e+001 -1.6239e+002  5.3128e+000 17042 114205,114257,114231
 2.2000e+000 114410  3.6671e+001 -2.2562e+002 -1.1245e+001 17042 114283,114335,114309
 2.2000e+000 114387  8.4401e+000 -1.9102e+002 -9.3675e+000 17042 114257,114335,114283
 2.2000e+000 114879 -6.8423e+001 -1.6180e+002 -2.4759e+000 16638 114631,114683,114657
 2.2000e+000 114856  1.1361e+001 -1.2739e+002 -4.3328e+000 16638 114605,114683,114631
 2.2000e+000 114833  1.9048e+001 -9.1125e+001  4.9301e-001 16638 114605,114761,114683
 2.2000e+000 114810  1.9625e+001 -1.5603e+002 -1.4076e+001 16638 114683,114735,114709
 2.2000e+000 114787 -2.8862e+001 -1.7567e+002 -1.9700e+001 16638 114683,114761,114735
 2.2000e+000 115078 -8.7252e+001 -1.8185e+002  6.4589e+000 16232 114954,115006,114980
 2.2000e+000 115055 -7.2646e+001 -1.9043e+002  5.6719e+000 16232 114928,115006,114954
 2.2000e+000 115032 -3.2933e+001 -2.4559e+002  1.2629e+001 16232 114902,115006,114928
 2.2000e+000 115228 -3.9906e+001 -1.6699e+002  3.8951e+000 15482 115101,115153,115127
 2.2000e+000 115205 -4.9096e+001 -1.6325e+002 -2.6171e+000 15482 115101,115179,115153
 2.2000e+000 115331 -4.3368e+001 -1.6321e+002 -1.7581e+001 15163 115253,115305,115279
 2.2000e+000 115434 -4.2839e+001 -1.6348e+002  1.7492e+001 421 115356,115408,115382
 2.3000e+000 68213 -5.2642e+000 -9.9191e+001 -6.4136e+000 67888 68112,68164,68138
 2.3000e+000 68190 -7.5295e+001 -1.2213e+002 -8.5680e+000 67888 68086,68164,68112
 2.3000e+000 68314 -1.7543e+001 -1.8877e+002  2.3320e+001 67576 68236,68288,68262
 2.3000e+000 68584 -3.1838e+001 -2.3147e+002  9.2101e+000 67378 68385,68489,68463
 2.3000e+000 68561  6.1835e+001 -1.9169e+002  5.7750e+000 67378 68359,68489,68385
 2.3000e+000 68538 -2.6483e+001 -2.0070e+002  1.1420e+001 67378 68385,68463,68411
 2.3000e+000 68515 -1.5151e+001 -1.2051e+002  8.4799e+000 67378 68411,68463,68437
 2.3000e+000 68964 -4.1535e+001 -2.1150e+002  3.4155e+001 67130 68690,68820,68716
 2.3000e+000 68941  6.6886e+001 -2.1781e+002  6.5918e+001 67130 68690,68846,68820
 2.3000e+000 68918 -3.5347e+001 -1.3802e+002  5.5783e+000 67130 68742,68820,68794
 2.3000e+000 68895  5.1712e+000 -1.3441e+002  1.3264e+001 67130 68716,68820,68742
 2.3000e+000 68872 -1.5128e+001 -1.0467e+002 -1.1500e+001 67130 68742,68794,68768
 2.3000e+000 69065 -3.5953e+001 -1.2727e+002  2.2039e+000 66926 68987,69039,69013
 2.3000e+000 69445 -2.0052e+001 -1.2400e+002 -5.8085e+000 66614 69223,69301,69275
 2.3000e+000 69422 -3.6710e+001 -1.3113e+002 -4.7780e+000 66614 69171,69301,69223
 2.3000e+000 69399 -4.5385e+001 -1.3075e+002 -4.9267e-001 66614 69171,69327,69301
 2.3000e+000 69376 -5.5483e+000 -6.3513e+001  1.4881e+000 66614 69223,69275,69249
 2.3000e+000 69353 -2.8489e+001 -1.3866e+002 -3.8714e+000 66614 69171,69223,69197
 2.3000e+000 69546 -2.4451e+001 -1.9093e+002  1.2800e+001 66416 69468,69520,69494
 2.3000e+000 69997 -2.0056e+001 -1.9346e+002 -2.0778e+001 66104 69700,69830,69726
 2.3000e+000 69974 -2.5227e+001 -2.5489e+002 -4.2816e+001 66104 69700,69856,69830
 2.3000e+000 69951 -2.7483e+001 -1.4669e+002 -1.1898e+001 66104 69726,69804,69778
 2.3000e+000 69928 -1.8650e+001 -1.8018e+002 -1.6283e+001 66104 69726,69830,69804
 2.3000e+000 69905 -2.9668e+001 -1.3681e+002 -4.2112e+000 66104 69726,69778,69752
 2.3000e+000 69882 -5.7664e+000 -3.8799e+002 -6.5946e+001 66104 69674,69856,69700
 2.3000e+000 70326 -2.5998e+001 -6.9699e+001 -1.1622e+001 65814 70349,70153,70127
 2.3000e+000 70303  1.0837e+001 -7.0700e+001 -6.3869e-001 65814 70349,70127,70101
 2.3000e+000 70280  4.1395e+001 -2.9798e+001  4.8480e+001 65814 70101,70231,70205
 2.3000e+000 70257  5.4812e+001 -7.4487e+001  1.6031e+001 65814 70153,70205,70179
 2.3000e+000 70375 -8.0802e+000 -7.4043e+001  1.4874e+001 65814 70205,70153,70349
 2.3000e+000 70398  4.5206e+001 -6.8466e+001  2.2404e+001 65814 70205,70349,70101
 2.3000e+000 70904 -8.9900e+000 -3.6165e+001 -1.3765e+001 65502 70607,70737,70685
 2.3000e+000 70881 -5.3246e+000 -2.1526e+001 -2.0715e+001 65502 70581,70737,70607
 2.3000e+000 70858 -5.2317e+000  1.2196e+001 -1.1709e+000 65502 70581,70763,70737
 2.3000e+000 70835 -1.8714e+001 -4.1403e+001 -1.8109e+001 65502 70685,70737,70711
 2.3000e+000 70812 -5.4025e+001 -3.3807e+001 -5.9726e+000 65502 70607,70659,70633
 2.3000e+000 70789 -1.2236e+001 -4.1522e+001 -6.6370e+000 65502 70607,70685,70659
 2.3000e+000 71103 -1.8127e+001 -1.6517e+002 -4.3886e+000 65304 71126,70979,70953
 2.3000e+000 71080 -3.0092e+001 -1.7082e+002 -1.0869e+000 65304 71126,70953,70927
 2.3000e+000 71057 -4.6235e+001 -1.7297e+002  1.2416e+001 65304 70927,71031,71005
 2.3000e+000 71152 -3.1750e+001 -1.4817e+002 -7.4437e+000 65304 71005,70979,71126
 2.3000e+000 71175 -4.8881e+001 -1.6036e+002 -7.8911e-001 65304 71005,71126,70927
 2.3000e+000 71374  7.3576e+000 -1.6009e+002  8.7481e+000 65106 71198,71276,71224
 2.3000e+000 71351 -4.6675e+001 -1.7554e+002  3.4585e+000 65106 71198,71302,71276
 2.3000e+000 71328  2.0960e+001 -1.2542e+002  2.0541e+001 65106 71224,71276,71250
 2.3000e+000 71756 -1.1176e+001 -9.8538e+001 -1.0311e+001 64652 71508,71638,71534
 2.3000e+000 71733  1.0385e-001 -9.3428e+001  1.7108e+000 64652 71482,71638,71508
 2.3000e+000 71710 -2.8774e+001 -8.6952e+001 -2.5377e+000 64652 71534,71586,71560
 2.3000e+000 71687 -1.2829e+001 -1.0387e+002 -2.4869e+001 64652 71534,71612,71586
 2.3000e+000 71664 -4.7470e+001 -1.1668e+002 -2.3940e+001 64652 71534,71638,71612
 2.3000e+000 72085 -3.4970e+001 -1.1175e+002 -1.8545e+001 64248 71886,71964,71912
 2.3000e+000 72062 -3.9678e+001 -1.1580e+002 -1.6149e+001 64248 71860,71964,71886
 2.3000e+000 72039 -8.0020e+000 -1.0329e+002 -1.0933e+001 64248 71912,71964,71938
 2.3000e+000 72016 -1.6386e+001 -1.1186e+002 -2.4079e+001 64248 71860,71990,71964
 2.3000e+000 72235 -2.8475e-001 -6.2481e+001 -8.0011e+000 63858 72588,72258,72134
 2.3000e+000 72212  3.1695e+000 -2.2083e+001  1.6918e+001 63858 72330,72258,72108
 2.3000e+000 72284  5.3589e+000 -2.6462e+001  7.3894e-001 63858 72160,72134,72258
 2.3000e+000 72307 -2.9580e+001 -5.4242e+001 -5.0881e+000 63858 72460,72258,72186
 2.3000e+000 72356 -2.3566e+001 -4.7655e+001 -2.8124e-001 63858 72186,72258,72330
 2.3000e+000 72486 -5.7932e+000 -5.5143e+001 -6.6574e-001 63858 72160,72258,72460
 2.3000e+000 72614  1.7336e+001 -6.3579e+001  1.5342e+001 63858 72108,72258,72588
 2.3000e+000 73248  4.3571e+000 -1.0571e+002  3.8003e+001 63404 72902,72954,72928
 2.3000e+000 73225 -4.2030e+001 -1.1609e+002  1.7210e+001 63404 73271,72954,72902
 2.3000e+000 73202 -3.3837e+001 -8.7281e+001  1.4988e+001 63404 73271,72902,73032
 2.3000e+000 73179 -1.8955e+001 -7.3369e+001  5.6990e+000 63404 72902,73058,73032
 2.3000e+000 73156 -2.3970e+001 -8.9011e+001  1.1607e+000 63404 72980,73032,73006
 2.3000e+000 73133 -2.1270e+001 -6.9171e+001  7.4110e+000 63404 72876,73058,72902
 2.3000e+000 73110 -8.4185e+000 -3.0093e+001 -1.5143e+001 63404 72876,73084,73058
 2.3000e+000 73297 -3.1589e+001 -1.2014e+002 -3.3144e-001 63404 72980,72954,73271
 2.3000e+000 73320 -3.0623e+001 -1.0456e+002  2.6547e-002 63404 72980,73271,73032
 2.3000e+000 73470 -4.5709e+001 -3.2384e+002  3.2636e+001 63014 73343,73395,73369
 2.3000e+000 73447 -1.5053e+002 -4.0859e+002 -1.0245e+001 63014 73343,73421,73395
 2.3000e+000 73929  4.2814e+001 -1.3290e+002  1.8988e+001 62702 73759,73811,73785
 2.3000e+000 73906  4.9273e+001 -1.3225e+002  1.3525e+001 62702 73655,73811,73759
 2.3000e+000 73883  1.6981e+001 -1.5799e+002 -1.3319e+000 62702 73655,73759,73681
 2.3000e+000 73860  4.0486e+001 -1.1117e+002 -3.2905e+001 62702 73681,73759,73707
 2.3000e+000 73837 -4.4424e+001 -1.2931e+002  1.0916e+000 62702 73707,73759,73733
 2.3000e+000 74209 -7.6156e+001 -1.3840e+002 -5.2764e-001 62404 74059,74137,74085
 2.3000e+000 74186 -9.1679e+001 -1.9076e+002  2.4548e+001 62404 74033,74137,74059
 2.3000e+000 74163 -8.0505e+001 -1.2188e+002 -4.0052e-001 62404 74085,74137,74111
 2.3000e+000 74408  8.7514e+000 -1.1522e+002  1.1012e+001 62000 74258,74336,74284
 2.3000e+000 74385 -2.2659e+000 -1.1826e+002  1.5286e+001 62000 74232,74336,74258
 2.3000e+000 74362 -2.0009e+001 -9.9459e+001  2.1747e+000 62000 74284,74336,74310
 2.3000e+000 74509  6.1443e+000 -1.7543e+002  2.7398e+001 61802 74431,74483,74457
 2.3000e+000 74759 -3.9965e+001 -1.2595e+002 -1.6181e+000 61554 74782,74586,74560
 2.3000e+000 74736 -1.7410e+001 -1.1110e+002  5.1410e+000 61554 74782,74560,74664
 2.3000e+000 74713 -3.4583e+001 -8.0926e+001  4.9876e+001 61554 74854,74612,74586
 2.3000e+000 74690 -2.9089e+001 -1.2703e+002 -1.3232e+000 61554 74534,74664,74560
 2.3000e+000 74808 -5.6425e+001 -1.1116e+002  1.1826e+001 61554 74854,74586,74782
 2.3000e+000 74831 -2.1947e+001 -1.4627e+002  8.4977e+000 61554 74638,74782,74664
 2.3000e+000 74880  1.4560e+001 -1.1163e+002  5.2698e+001 61554 74638,74612,74854
 2.3000e+000 74903  1.3912e+001 -1.0747e+002  2.3880e+001 61554 74638,74854,74782
 2.3000e+000 75285  2.4745e+001 -1.4141e+002 -1.0699e+000 61356 75063,75167,75115
 2.3000e+000 75262  1.2139e+001 -1.5806e+002 -1.7218e+001 61356 75037,75167,75063
 2.3000e+000 75239  3.2539e+001 -1.4451e+002 -1.1691e+000 61356 75115,75167,75141
 2.3000e+000 75216  1.2973e+001 -1.4437e+002 -1.1612e+000 61356 75063,75115,75089
 2.3000e+000 75193 -5.4114e+001 -1.0028e+002  1.4727e+001 61356 75011,75167,75037
 2.3000e+000 75631  1.3286e+001 -1.1808e+002  5.8949e+000 60952 75654,75412,75360
 2.3000e+000 75608  1.3618e+001 -1.3567e+002 -4.0762e-001 60952 75654,75360,75334
 2.3000e+000 75585 -2.6569e+000 -1.7338e+002  6.7042e+000 60952 75726,75438,75412
 2.3000e+000 75562  3.3530e+001 -1.2292e+002 -2.8894e+001 60952 75308,75490,75334
 2.3000e+000 75539  1.3586e+001 -1.1470e+002 -2.1685e+000 60952 75360,75412,75386
 2.3000e+000 75516 -2.6885e+001 -2.1551e+002 -4.9051e+000 60952 75438,75490,75464
 2.3000e+000 75680  1.0878e+001 -1.4149e+002  7.1861e+000 60952 75726,75412,75654
 2.3000e+000 75703  1.3192e+001 -1.3617e+002 -2.2065e-001 60952 75490,75654,75334
 2.3000e+000 75752  1.5851e+000 -1.3730e+002 -2.0963e+000 60952 75490,75438,75726
 2.3000e+000 75775  1.6191e+000 -1.3597e+002 -3.7048e+000 60952 75490,75726,75654
 2.3000e+000 76155  3.3467e+000 -1.1455e+002 -9.7128e+000 60754 75933,75985,75959
 2.3000e+000 76132 -1.3023e+001 -1.2645e+002  1.7615e+001 60754 75933,76037,75985
 2.3000e+000 76109  2.8012e+001 -1.2784e+002  7.9902e+000 60754 75985,76037,76011
 2.3000e+000 76086 -3.7504e+001 -1.0287e+002  4.1054e+000 60754 75881,76037,75933
 2.3000e+000 76063 -5.8654e+001 -8.9781e+001  3.0143e+001 60754 75881,75933,75907
 2.3000e+000 76612 -1.5360e+001 -8.2701e+001  7.2068e-001 60350 76635,76442,76390
 2.3000e+000 76589  6.7413e+000 -9.6154e+001  5.8896e+000 60350 76635,76390,76364
 2.3000e+000 76566 -2.9851e+000 -1.2533e+002 -8.6063e+000 60350 76364,76494,76468
 2.3000e+000 76543 -1.2381e+000 -7.4831e+001  7.2463e+000 60350 76390,76442,76416
 2.3000e+000 76520 -3.8416e+001 -7.8681e+001 -1.8551e+001 60350 76338,76494,76364
 2.3000e+000 76661 -2.7821e+001 -9.1570e+001  4.5890e+000 60350 76468,76442,76635
 2.3000e+000 76684 -1.1883e+001 -1.0780e+002  1.0982e+001 60350 76468,76635,76364
 2.3000e+000 76932 -4.4689e+001 -1.5000e+002 -2.0866e+000 59946 76955,76733,76707
 2.3000e+000 76909 -4.5312e+001 -1.5043e+002  2.2902e+000 59946 77027,76955,76707
 2.3000e+000 76886 -4.3315e+001 -1.5018e+002  1.5663e+000 59946 77027,76707,76837
 2.3000e+000 76863 -2.0863e+001 -1.6390e+002 -1.5576e+001 59946 76733,76785,76759
 2.3000e+000 76981 -5.1541e+001 -1.5191e+002 -3.2091e+000 59946 76785,76733,76955
 2.3000e+000 77004 -4.7429e+001 -1.5219e+002  1.8114e+000 59946 76785,76955,76811
 2.3000e+000 77053 -4.2481e+001 -1.5085e+002  1.4256e+000 59946 76811,76955,77027
 2.3000e+000 77076 -4.0704e+001 -1.5019e+002  3.5342e-001 59946 76811,77027,76837
 2.3000e+000 77226 -3.0136e+001 -1.0047e+002  3.1514e+000 59542 77099,77151,77125
 2.3000e+000 77203 -4.0940e+001 -1.2750e+002  3.8937e+000 59542 77099,77177,77151
 2.3000e+000 77427 -6.8500e+001 -1.3313e+002 -1.3281e+001 59030 77450,77277,77251
 2.3000e+000 77404 -3.4311e+001 -9.7768e+001 -5.1227e+001 59030 77450,77251,77355
 2.3000e+000 77381  2.5332e+001 -1.5097e+002 -1.2433e+001 59030 77277,77329,77303
 2.3000e+000 77476 -2.7241e+001 -1.4070e+002 -3.5286e+001 59030 77329,77277,77450
 2.3000e+000 77499  9.9243e+000 -1.2376e+002 -6.5197e+001 59030 77329,77450,77355
 2.3000e+000 77749 -5.5329e+001 -1.7764e+002  2.0714e+001 58426 77772,77628,77602
 2.3000e+000 77726 -3.4033e+001 -1.8483e+002  5.0472e+001 58426 77524,77654,77628
 2.3000e+000 77703 -3.8381e+001 -1.8862e+002  1.5213e+001 58426 77772,77602,77550
 2.3000e+000 77680 -1.4169e+001 -1.7502e+002 -7.7438e+000 58426 77550,77602,77576
 2.3000e+000 77798 -3.7799e+001 -1.6219e+002  2.7395e+001 58426 77524,77628,77772
 2.3000e+000 77821 -3.3337e+001 -1.8217e+002  1.7963e+001 58426 77524,77772,77550
 2.3000e+000 78071 -8.0510e+001 -1.8047e+002  1.8084e+001 57922 78094,77924,77898
 2.3000e+000 78048 -9.7477e+001 -1.8060e+002 -4.6844e+000 57922 78094,77898,77872
 2.3000e+000 78025 -7.0379e+001 -1.5744e+002  1.6519e+001 57922 78166,77846,77950
 2.3000e+000 78002 -3.3928e+000 -1.5688e+002  2.5610e+001 57922 77846,77976,77950
 2.3000e+000 78120 -6.5144e+001 -1.7727e+002  1.1552e+001 57922 77950,77924,78094
 2.3000e+000 78143 -7.6215e+001 -1.6177e+002  1.2599e+001 57922 78166,77950,78094
 2.3000e+000 78192 -6.1389e+001 -1.6719e+002  7.2160e+000 57922 77872,77846,78166
 2.3000e+000 78215 -7.2926e+001 -1.7696e+002  2.1383e+000 57922 77872,78166,78094
 2.3000e+000 78416  6.4030e+000 -1.5532e+002 -4.7246e+000 57468 78439,78292,78240
 2.3000e+000 78393  1.6009e+001 -1.4506e+002 -8.7637e+000 57468 78439,78240,78344
 2.3000e+000 78370 -5.1221e+000 -2.1897e+002 -1.8192e+000 57468 78240,78292,78266
 2.3000e+000 78465  1.7230e+001 -1.5410e+002 -1.1908e+001 57468 78318,78292,78439
 2.3000e+000 78488  2.1241e+001 -1.5024e+002 -1.4153e+001 57468 78318,78439,78344
 2.3000e+000 78689  2.7182e+001 -1.6923e+002 -1.1302e+001 57014 78712,78539,78513
 2.3000e+000 78666  9.7629e+000 -1.6621e+002  3.3437e-001 57014 78712,78513,78617
 2.3000e+000 78643 -3.8976e-001 -1.5684e+002  1.5936e+001 57014 78565,78617,78591
 2.3000e+000 78738  4.5647e+000 -1.5483e+002 -1.2236e+001 57014 78565,78539,78712
 2.3000e+000 78761 -1.9290e+001 -1.6468e+002  6.0232e+000 57014 78565,78712,78617
 2.3000e+000 79241 -5.4996e+001 -1.4345e+002  3.5921e+000 56652 79264,78895,78869
 2.3000e+000 79218 -2.5137e+001 -1.9949e+002 -2.1744e+001 56652 79264,78869,79051
 2.3000e+000 79195 -3.6125e+001 -1.7711e+002 -4.6979e+001 56652 78869,79077,79051
 2.3000e+000 79172 -3.6715e+001 -8.9450e+001 -1.2727e+001 56652 78895,78973,78947
 2.3000e+000 79149 -6.8405e+001 -2.8885e+002 -2.6573e+001 56652 78973,79051,78999
 2.3000e+000 79126 -3.3215e+001 -9.5917e+001 -1.3066e+001 56652 78895,78947,78921
 2.3000e+000 79103 -4.7773e+001 -1.7622e+002  4.4782e+001 56652 78999,79051,79025
 2.3000e+000 79290 -3.3504e+001 -1.0723e+002  2.4515e+001 56652 78973,78895,79264
 2.3000e+000 79313 -2.5511e+000 -1.6889e+002  1.3888e+000 56652 78973,79264,79051
 2.3000e+000 79512 -1.3662e+001 -2.0782e+002  1.4536e+001 56062 79388,79440,79414
 2.3000e+000 79489 -7.1389e+001 -9.8793e+001  2.8377e+001 56062 79336,79440,79388
 2.3000e+000 79466 -2.8836e+001 -1.2846e+002  3.3476e+001 56062 79336,79388,79362
 2.3000e+000 79941 -2.2812e+001 -1.3468e+002  2.2846e+001 55658 79964,79670,79644
 2.3000e+000 79918 -3.7360e+001 -1.3563e+002  2.5312e+001 55658 79964,79644,79800
 2.3000e+000 79895 -3.6264e+001 -1.4444e+002  1.1401e+001 55658 80036,79696,79670
 2.3000e+000 79872 -4.0318e+001 -1.1455e+002 -2.2116e+000 55658 80108,79722,79696
 2.3000e+000 79849 -6.0861e+001 -1.2358e+002  2.8862e+000 55658 79722,79774,79748
 2.3000e+000 79826 -1.0274e+000 -1.2336e+002  6.7234e+000 55658 79618,79800,79644
 2.3000e+000 79990 -3.8631e+001 -1.4422e+002  1.7813e+001 55658 80036,79670,79964
 2.3000e+000 80013 -3.6026e+001 -1.2822e+002  2.5524e+001 55658 79774,79964,79800
 2.3000e+000 80062 -2.8564e+001 -1.2708e+002  9.8572e+000 55658 80108,79696,80036
 2.3000e+000 80085 -3.8426e+001 -1.2897e+002  2.3696e+001 55658 79774,80036,79964
 2.3000e+000 80134 -6.3929e+001 -1.2938e+002  4.6844e+000 55658 79774,79722,80108
 2.3000e+000 80157 -5.7130e+001 -1.4395e+002  1.7072e+001 55658 79774,80108,80036
 2.3000e+000 80307 -6.1980e+001 -1.2393e+002  1.6774e+001 55254 80402,80330,80206
 2.3000e+000 80284 -6.3747e+001 -1.7225e+002  1.2296e+001 55254 80330,80180,80258
 2.3000e+000 80356 -7.6792e+001 -1.5766e+002  3.0466e+001 55254 80232,80206,80330
 2.3000e+000 80379 -2.5089e+001 -1.3472e+002  3.8475e+001 55254 80232,80330,80258
 2.3000e+000 80428 -9.0687e+001 -1.5949e+002  2.4782e+000 55254 80180,80330,80402
 2.3000e+000 80659  1.8993e+001 -1.5423e+002 -2.4511e+001 54850 80558,80610,80584
 2.3000e+000 80636  2.7136e+001 -1.4257e+002 -1.5247e+001 54850 80532,80610,80558
 2.3000e+000 80760  6.7624e+000 -1.4453e+002 -1.1736e+001 54652 80682,80734,80708
 2.3000e+000 81164  1.0028e+001 -1.4875e+002 -4.4239e+000 54248 81187,80942,80890
 2.3000e+000 81141  2.8881e+000 -1.5289e+002 -1.6526e+000 54248 81187,80890,81046
 2.3000e+000 81118  6.8215e+000 -1.5112e+002  3.2127e+001 54248 80942,81020,80994
 2.3000e+000 81095  9.6815e+000 -1.5733e+002  1.1869e+000 54248 80890,80942,80916
 2.3000e+000 81072 -3.8697e+000 -7.6018e+001  2.4013e+000 54248 80942,80994,80968
 2.3000e+000 81213  1.7087e+000 -1.4452e+002 -3.9181e+000 54248 81020,80942,81187
 2.3000e+000 81236 -3.7686e+000 -1.4657e+002 -2.1607e+000 54248 81020,81187,81046
 2.3000e+000 81663 -6.4860e+001 -1.2109e+002  1.4949e+001 53594 81340,81444,81366
 2.3000e+000 81640 -5.6180e+001 -1.8144e+002  5.5228e+000 53594 81340,81470,81444
 2.3000e+000 81617 -1.6801e+001 -1.5882e+002 -9.3820e+000 53594 81340,81522,81470
 2.3000e+000 81594 -3.0365e+001 -8.2845e+001 -9.8705e+000 53594 81392,81444,81418
 2.3000e+000 81571 -4.2091e+001 -1.0063e+002 -1.5577e+001 53594 81366,81444,81392
 2.3000e+000 81548  3.9740e+000 -2.2651e+002  3.5469e+001 53594 81470,81522,81496
 2.3000e+000 81943 -2.3073e+001 -8.6216e+001 -1.1568e+001 53104 81966,81845,81819
 2.3000e+000 81920 -3.4137e+001 -8.0605e+001 -1.5599e+001 53104 81966,81819,81767
 2.3000e+000 81897 -3.1000e+001 -7.3081e+001 -1.5635e+001 53104 81767,81819,81793
 2.3000e+000 81992 -1.5549e+001 -8.6615e+001 -1.6739e+001 53104 81871,81845,81966
 2.3000e+000 82015 -2.4488e+001 -7.8253e+001 -2.2883e+001 53104 81871,81966,81767
 2.3000e+000 82491 -3.4011e+000 -8.4719e+001 -1.7764e+001 52650 82145,82249,82171
 2.3000e+000 82468 -7.3190e+001 -1.1985e+002 -5.9366e+000 52650 82145,82301,82249
 2.3000e+000 82445 -6.5603e+001 -1.6180e+002 -2.7390e+001 52650 82249,82301,82275
 2.3000e+000 82422 -2.2691e+001 -1.9855e+002 -2.1971e+001 52650 82119,82301,82145
 2.3000e+000 82399 -1.1560e+001 -4.9529e+001  1.3206e+001 52650 82171,82249,82223
 2.3000e+000 82376  3.7799e+001 -1.7116e+002 -3.4910e+001 52650 82119,82327,82301
 2.3000e+000 82353 -3.5663e+000 -2.1110e+001 -7.5027e+000 52650 82171,82223,82197
 2.3000e+000 82739 -2.9571e+001 -7.3823e+001 -5.1422e+000 52246 82762,82540,82514
 2.3000e+000 82716 -1.5055e+001 -6.5083e+001 -1.0310e+001 52246 82762,82514,82644
 2.3000e+000 82693 -4.1652e+001 -8.7756e+001  5.5251e+000 52246 82540,82618,82592
 2.3000e+000 82670 -3.1588e+001 -7.4638e+001 -1.7237e+000 52246 82540,82592,82566
 2.3000e+000 82788 -1.6428e+001 -8.5890e+001  1.9851e+000 52246 82618,82540,82762
 2.3000e+000 82811 -1.8714e+000 -7.9049e+001 -2.3108e-001 52246 82618,82762,82644
 2.3000e+000 83059  9.7972e+000 -1.0176e+002  3.7472e+000 51578 82860,82964,82938
 2.3000e+000 83036  9.6910e+000 -9.8912e+001 -1.4827e+001 51578 82834,82964,82860
 2.3000e+000 83013  1.4352e+001 -8.7639e+001  1.0306e+001 51578 82860,82938,82886
 2.3000e+000 82990  1.6804e+001 -8.0942e+001  9.9369e+000 51578 82886,82938,82912
 2.3000e+000 83309 -1.9237e+001 -6.0085e+001  1.9521e+001 51138 83332,83162,83136
 2.3000e+000 83286  3.3096e+000 -8.0283e+001  5.9331e+000 51138 83332,83136,83110
 2.3000e+000 83263 -2.3779e+001 -7.8497e+001 -2.9320e+000 51138 83404,83214,83188
 2.3000e+000 83240 -1.9366e-001 -3.1353e+001  3.4778e+000 51138 83084,83214,83110
 2.3000e+000 83358 -4.1814e+001 -9.0275e+001  3.6877e+001 51138 83188,83162,83332
 2.3000e+000 83381 -1.3298e+001 -9.4545e+001  1.0936e+001 51138 83404,83188,83332
 2.3000e+000 83430 -7.5191e+000 -3.6662e+001 -4.7155e+000 51138 83110,83214,83404
 2.3000e+000 83453 -2.8583e+000 -6.2373e+001  9.5202e+000 51138 83110,83404,83332
 2.3000e+000 83835 -3.5016e+000 -1.0204e+002 -1.1122e+001 50734 83613,83717,83691
 2.3000e+000 83812 -8.3560e+000 -1.1607e+002 -2.7253e+001 50734 83561,83717,83613
 2.3000e+000 83789  5.6490e+000 -4.3967e+001 -4.0801e+001 50734 83561,83613,83587
 2.3000e+000 83766 -1.5070e+001 -6.9428e+001 -8.5940e+000 50734 83613,83691,83639
 2.3000e+000 83743 -1.9323e+001 -7.0496e+001  1.6428e+001 50734 83639,83691,83665
 2.3000e+000 84034  2.3110e-001 -6.1988e+001 -1.1351e+001 50230 84057,83884,83858
 2.3000e+000 84011 -1.6759e+000 -6.1070e+001 -2.4170e+000 50230 84129,84057,83858
 2.3000e+000 83988  3.3862e+000 -5.6704e+001 -4.3864e+000 50230 84129,83858,83962
 2.3000e+000 84083 -1.3137e+001 -6.6835e+001 -1.3253e+001 50230 83910,83884,84057
 2.3000e+000 84106 -6.5959e+000 -7.2858e+001 -6.8650e-001 50230 83910,84057,83936
 2.3000e+000 84155  6.3781e+000 -6.5903e+001 -3.6452e+000 50230 83936,84057,84129
 2.3000e+000 84178  9.0442e+000 -6.3351e+001 -5.0922e+000 50230 83936,84129,83962
 2.3000e+000 84558 -2.5425e+001 -8.2420e+001 -1.4268e+001 49768 84581,84388,84362
 2.3000e+000 84535 -6.0865e+001 -8.4046e+001 -4.5876e+000 49768 84581,84362,84310
 2.3000e+000 84512  7.8323e+000 -9.2762e+001 -1.6643e+001 49768 84653,84440,84414
 2.3000e+000 84489 -4.7783e+001 -9.3360e+001  8.5092e+000 49768 84310,84362,84336
 2.3000e+000 84466  1.2214e+000 -6.3850e+001  1.6762e+001 49768 84284,84440,84310
 2.3000e+000 84607  4.5806e+000 -6.4749e+001 -2.8182e+001 49768 84414,84388,84581
 2.3000e+000 84630 -5.2650e+000 -8.6140e+001 -1.1925e+001 49768 84653,84414,84581
 2.3000e+000 84679 -9.8263e+000 -8.7322e+001 -2.2551e+001 49768 84310,84440,84653
 2.3000e+000 84702 -2.8706e+001 -8.7264e+001 -2.2978e+001 49768 84310,84653,84581
 2.3000e+000 85159 -5.7099e+001 -1.3729e+002 -4.3690e+001 49192 84885,84937,84911
 2.3000e+000 85136 -5.8824e+001 -1.1336e+002 -3.2777e+001 49192 84885,85041,84937
 2.3000e+000 85113 -4.2006e+001 -8.7281e+001 -1.8848e+001 49192 84963,85041,84989
 2.3000e+000 85090 -4.1597e+001 -8.9558e+001 -2.5186e+001 49192 84937,85041,84963
 2.3000e+000 85067 -3.2018e+001 -8.4794e+001 -1.8293e+001 49192 84989,85041,85015
 2.3000e+000 85714 -4.2347e+001 -7.4244e+001  8.1169e+000 48638 85368,85498,85394
 2.3000e+000 85691 -4.2753e+001 -8.8808e+001  8.1353e+000 48638 85368,85524,85498
 2.3000e+000 85668 -6.0054e+001 -8.1818e+001  3.1630e+001 48638 85737,85420,85394
 2.3000e+000 85645 -4.5896e+001 -8.3880e+001  1.9133e+001 48638 85737,85394,85498
 2.3000e+000 85622 -2.5141e-001 -9.6646e+001  3.8977e+001 48638 85446,85498,85472
 2.3000e+000 85599 -1.4421e+001 -7.6988e+001  7.9461e+000 48638 85342,85524,85368
 2.3000e+000 85576 -5.5216e+001 -8.4068e+001  6.1065e+000 48638 85342,85550,85524
 2.3000e+000 85763 -3.8618e+001 -7.2397e+001  3.3079e+001 48638 85446,85420,85737
 2.3000e+000 85786 -3.7465e+001 -8.0114e+001  2.0226e+001 48638 85446,85737,85498
 2.3000e+000 86371 -2.9982e+001 -4.2012e+001 -1.0358e+001 48084 86100,86230,86178
 2.3000e+000 86348 -4.7364e+001 -7.1959e+001 -1.9193e+001 48084 86048,86230,86100
 2.3000e+000 86325 -3.6148e+001 -3.9433e+001  1.1793e+001 48084 86100,86178,86126
 2.3000e+000 86302 -1.4660e+001  4.4814e+000 -2.1295e+001 48084 86048,86100,86074
 2.3000e+000 86279 -4.1234e+001 -8.3683e+001 -8.9695e+000 48084 86178,86230,86204
 2.3000e+000 86256 -2.7099e+001 -5.1162e+001  1.1698e+001 48084 86126,86178,86152
 2.3000e+000 86619 -3.3664e+001 -8.4005e+001 -4.3388e+000 47630 86642,86446,86420
 2.3000e+000 86596 -3.5278e+001 -8.9797e+001 -1.8765e+001 47630 86642,86420,86394
 2.3000e+000 86573 -4.2981e+001 -8.6102e+001 -2.2478e+001 47630 86394,86524,86498
 2.3000e+000 86550 -1.6393e+001 -9.7849e+001 -5.7571e-001 47630 86446,86498,86472
 2.3000e+000 86668 -4.0755e+001 -1.0034e+002 -5.8884e+000 47630 86498,86446,86642
 2.3000e+000 86691 -4.0069e+001 -1.0129e+002 -2.0141e+001 47630 86498,86642,86394
 2.3000e+000 87022  7.8000e+000 -2.8445e+001 -8.9986e+000 47226 87045,86875,86849
 2.3000e+000 86999 -1.0187e+001 -4.4676e+001 -1.7394e+001 47226 87045,86849,86797
 2.3000e+000 86976 -6.0121e+000 -2.1200e+001 -6.8192e+000 47226 86797,86849,86823
 2.3000e+000 86953  2.6027e+001 -4.2791e+001 -2.2905e+001 47226 86875,86927,86901
 2.3000e+000 87071  2.3137e+001 -5.1757e+001 -1.3862e+001 47226 86927,86875,87045
 2.3000e+000 87094  8.9699e+000 -6.1736e+001 -1.9296e+001 47226 86927,87045,86797
 2.3000e+000 87244 -1.0473e+000 -8.5277e+001  3.9939e+001 46814 87267,87169,87143
 2.3000e+000 87221 -5.0060e+001 -8.5157e+001  4.3614e+000 46814 87267,87143,87117
 2.3000e+000 87293 -1.1247e+001 -9.4504e+001 -6.5770e+000 46814 87339,87267,87195
 2.3000e+000 87316  1.4236e+001 -5.7263e+001 -1.9873e+001 46814 87469,87267,87117
 2.3000e+000 87365 -1.6631e+001 -7.6203e+001  4.1251e+001 46814 87169,87267,87339
 2.3000e+000 87495  1.3256e+001  2.5554e+001 -2.1712e+001 46814 87195,87267,87469
 2.3000e+000 88001 -3.4362e+001 -8.8745e+001  1.8019e+001 46310 88024,87834,87808
 2.3000e+000 87978 -3.9321e+001 -9.0619e+001  1.6757e+001 46310 88024,87808,87756
 2.3000e+000 87955 -1.0170e+001 -1.0999e+002  7.5899e+000 46310 88096,87730,87860
 2.3000e+000 87932 -2.6595e+001 -8.9973e+001  2.0593e+001 46310 87756,87808,87782
 2.3000e+000 87909 -1.9922e+001 -1.4902e+002  7.6590e+000 46310 87678,87860,87730
 2.3000e+000 87886 -3.3717e+001 -2.2805e+002 -9.0419e+000 46310 87678,87730,87704
 2.3000e+000 88050 -2.7364e+001 -7.2779e+001  1.5051e+001 46310 87860,87834,88024
 2.3000e+000 88073 -1.3620e+001 -8.3684e+001  1.8630e+001 46310 88096,87860,88024
 2.3000e+000 88122 -2.1793e+001 -1.2221e+002  2.6977e-001 46310 87756,87730,88096
 2.3000e+000 88145 -4.3010e+001 -1.1158e+002  6.3481e+000 46310 87756,88096,88024
 2.3000e+000 88572 -4.6250e+000 -9.5157e+001 -1.0696e+001 45856 88249,88405,88275
 2.3000e+000 88549 -5.7911e+000 -2.6121e+001 -3.6987e+001 45856 88249,88431,88405
 2.3000e+000 88526 -4.1897e+001 -1.2775e+002 -3.8501e+001 45856 88327,88405,88353
 2.3000e+000 88503  2.0916e+001 -9.6891e+001 -1.6128e+001 45856 88275,88405,88327
 2.3000e+000 88480 -4.2451e+001 -1.2170e+002 -3.0442e+001 45856 88353,88405,88379
 2.3000e+000 88457 -7.8256e+001 -2.4240e+002  2.6973e+001 45856 88275,88327,88301
 2.3000e+000 88950 -1.6848e+001 -7.3702e+001 -1.8617e+001 45658 88973,88754,88728
 2.3000e+000 88927  4.3165e+000 -7.2275e+001 -1.3045e+001 45658 88973,88728,88676
 2.3000e+000 88904 -1.8041e+001 -8.0716e+001  2.0229e+001 45658 88676,88832,88806
 2.3000e+000 88881 -1.0303e+001 -8.1786e+001  2.5050e+001 45658 88676,88728,88702
 2.3000e+000 88858 -3.2908e+001 -6.0976e+001 -1.3358e+001 45658 88754,88806,88780
 2.3000e+000 88999 -3.2564e+001 -6.5610e+001 -9.9520e+000 45658 88806,88754,88973
 2.3000e+000 89022 -1.3643e+001 -6.5524e+001 -8.5282e+000 45658 88806,88973,88676
 2.3000e+000 89351 -6.9479e+000 -9.4491e+001 -3.8915e+000 45254 89152,89230,89204
 2.3000e+000 89328 -1.9386e+001 -9.8951e+001 -1.2467e+000 45254 89152,89256,89230
 2.3000e+000 89305 -1.9613e+001 -1.0429e+002 -5.2509e+000 45254 89126,89256,89152
 2.3000e+000 89282 -3.0630e+001 -1.1235e+002  6.3998e+000 45254 89152,89204,89178
 2.3000e+000 89523 -1.7300e+001 -9.0216e+001 -1.0494e+000 45006 89422,89474,89448
 2.3000e+000 89500 -1.3718e+001 -8.8697e+001  1.8145e+000 45006 89396,89474,89422
 2.3000e+000 89673 -7.4373e+001 -1.3217e+002  1.1131e+001 44495 89572,89624,89598
 2.3000e+000 89650 -7.9983e+001 -1.5008e+002  1.4922e+001 44495 89546,89624,89572
 2.3000e+000 90104 -1.2633e+001 -1.2107e+002 -8.2640e+000 44005 90199,90127,89937
 2.3000e+000 90081 -1.0982e+001 -1.1693e+002 -2.8557e+000 44005 90271,90127,89859
 2.3000e+000 90058 -1.0431e+001 -1.2301e+002 -8.6536e+000 44005 90199,89937,89885
 2.3000e+000 90035 -2.2417e+001 -1.0984e+002  3.6205e+000 44005 90271,89859,89807
 2.3000e+000 90012 -2.4689e+001 -1.4361e+002 -1.5236e+001 44005 89885,89937,89911
 2.3000e+000 89989 -1.1833e-001 -1.1829e+002  1.6993e+001 44005 89807,89859,89833
 2.3000e+000 90153 -1.6669e+001 -1.2217e+002 -6.6122e+000 44005 89963,89937,90127
 2.3000e+000 90176 -1.8708e+001 -1.2798e+002 -5.1923e+000 44005 89963,90127,89781
 2.3000e+000 90225 -1.5528e+001 -1.2285e+002 -7.2754e+000 44005 89859,90127,90199
 2.3000e+000 90248 -1.2754e+001 -1.2493e+002 -7.3872e+000 44005 89859,90199,89885
 2.3000e+000 90297 -2.6403e+001 -1.2575e+002 -6.4119e+000 44005 89781,90127,90271
 2.3000e+000 90320 -3.3085e+001 -1.1614e+002  1.0216e+000 44005 89781,90271,89807
 2.3000e+000 90470 -1.8011e+001 -1.2553e+002 -4.9941e+000 43601 90493,90369,90343
 2.3000e+000 90447 -3.1567e+001 -1.0292e+002  6.3291e+000 43601 90493,90343,90421
 2.3000e+000 90519 -3.8818e+001 -1.6642e+002 -1.9383e+001 43601 90395,90369,90493
 2.3000e+000 90542 -3.1649e+001 -1.1927e+002 -4.8217e+000 43601 90395,90493,90421
 2.3000e+000 90922 -4.6564e+001 -1.4283e+002  1.3464e+001 43154 90945,90700,90674
 2.3000e+000 90899 -4.6315e+001 -1.4720e+002 -8.8638e+000 43154 90945,90674,90648
 2.3000e+000 90876 -6.3473e+001 -1.0539e+002 -2.9055e+000 43154 90648,90778,90752
 2.3000e+000 90853 -3.1055e+001 -2.2057e+002  8.9130e+000 43154 90700,90752,90726
 2.3000e+000 90830 -3.4653e+001 -1.0946e+002  9.4621e+000 43154 90648,90804,90778
 2.3000e+000 90971 -5.4065e+001 -1.6234e+002  1.4630e+001 43154 90752,90700,90945
 2.3000e+000 90994 -5.1067e+001 -1.5855e+002 -6.9950e+000 43154 90752,90945,90648
 2.3000e+000 91451  4.3189e+001 -1.0199e+002 -3.7330e+001 42650 91203,91255,91229
 2.3000e+000 91428 -3.5769e+000 -1.2209e+002 -4.3928e+000 42650 91203,91333,91255
 2.3000e+000 91405 -1.5090e+001 -1.5674e+002 -1.5249e+001 42650 91177,91333,91203
 2.3000e+000 91382 -1.8992e+001 -1.5229e+002  1.1061e+000 42650 91255,91333,91281
 2.3000e+000 91359  3.4387e+001 -1.4332e+002  9.1594e+000 42650 91281,91333,91307
 2.3000e+000 91721 -6.3880e+001 -1.3985e+002  1.4218e+001 42288 91496,91600,91522
 2.3000e+000 91698 -3.5055e+001 -8.4146e+001 -3.8215e+000 42288 91496,91626,91600
 2.3000e+000 91675 -4.3515e+001 -1.3946e+002  2.3125e+001 42288 91522,91574,91548
 2.3000e+000 91652 -2.1784e+001 -1.2295e+002  1.5572e+001 42288 91522,91600,91574
 2.3000e+000 92199 -1.0036e+002 -1.5986e+002 -2.2477e+000 41898 92222,91983,91879
 2.3000e+000 92176 -1.0297e+002 -1.8929e+002 -1.3887e+001 41898 92294,92222,91879
 2.3000e+000 92153 -1.1168e+002 -1.8825e+002 -1.9893e+001 41898 92294,91879,91853
 2.3000e+000 92130 -8.4815e+001 -8.6804e+001  1.2369e+001 41898 91879,91957,91931
 2.3000e+000 92107 -8.6200e+001 -1.5389e+002 -1.6159e+000 41898 91879,91983,91957
 2.3000e+000 92084 -9.9683e+001 -8.3799e+001  2.7148e+001 41898 91879,91931,91905
 2.3000e+000 92061 -9.5973e+001 -1.5233e+002 -1.0583e+001 41898 91827,92035,91853
 2.3000e+000 92248 -9.9318e+001 -1.9718e+002  5.8809e+000 41898 92009,91983,92222
 2.3000e+000 92271 -9.3687e+001 -2.0283e+002 -1.8295e+001 41898 92009,92222,92035
 2.3000e+000 92320 -8.8911e+001 -1.8598e+002 -1.2653e+001 41898 92035,92222,92294
 2.3000e+000 92343 -9.4950e+001 -1.8267e+002 -1.8055e+001 41898 92035,92294,91853
 2.3000e+000 92770 -2.4798e+001 -1.4571e+002 -7.3124e+000 41437 92865,92793,92525
 2.3000e+000 92747 -3.2375e+001 -1.6695e+002 -4.9655e+000 41437 92793,92473,92629
 2.3000e+000 92724  2.7696e+000 -1.5892e+002 -2.2536e+001 41437 92865,92525,92499
 2.3000e+000 92701 -3.5239e+001 -1.2550e+002 -1.6442e+001 41437 92525,92603,92577
 2.3000e+000 92678  5.8040e+001 -1.5052e+002  9.6017e-001 41437 92447,92629,92473
 2.3000e+000 92655 -6.4617e+001 -1.0819e+002 -4.7312e+000 41437 92525,92577,92551
 2.3000e+000 92819 -2.6937e+001 -1.5049e+002 -1.7716e+001 41437 92603,92525,92793
 2.3000e+000 92842 -5.7669e+001 -1.6115e+002 -3.4538e+001 41437 92603,92793,92629
 2.3000e+000 92891  2.5841e+001 -1.5030e+002 -6.4188e+000 41437 92473,92793,92865
 2.3000e+000 92914  6.1805e+001 -1.5327e+002 -2.6920e+001 41437 92473,92865,92499
 2.3000e+000 93243 -8.6569e+000 -2.0209e+002  8.7598e+001 41097 93044,93096,93070
 2.3000e+000 93220 -5.4960e+001 -2.1372e+002  3.2469e+001 41097 93044,93122,93096
 2.3000e+000 93197  1.1917e+001 -1.3390e+002  6.2447e-001 41097 93044,93148,93122
 2.3000e+000 93174 -2.3777e+001 -7.7833e+001  3.7941e+001 41097 93018,93148,93044
 2.3000e+000 93393  3.2824e+000 -1.5593e+002  1.5287e+001 40643 93416,93292,93344
 2.3000e+000 93370  4.8424e+001 -1.5014e+002  2.6144e+001 40643 93266,93344,93292
 2.3000e+000 93442  6.6648e+000 -1.4886e+002  2.4019e+001 40643 93318,93292,93416
 2.3000e+000 93901 -5.1293e+001 -1.5326e+002 -1.2891e+001 40132 93924,93731,93705
 2.3000e+000 93878 -5.1600e+001 -1.5579e+002 -1.3224e+001 40132 93996,93924,93705
 2.3000e+000 93855 -5.9962e+001 -1.7629e+002 -6.1581e+000 40132 93996,93705,93653
 2.3000e+000 93832 -3.7272e+001 -1.7485e+002 -9.0518e+000 40132 93653,93705,93679
 2.3000e+000 93809 -4.6731e+001 -1.4299e+002 -3.9511e+000 40132 93627,93783,93757
 2.3000e+000 93950 -5.1383e+001 -1.5963e+002 -1.3432e+001 40132 93757,93731,93924
 2.3000e+000 93973 -5.4231e+001 -1.4268e+002 -4.7436e+000 40132 93757,93924,93627
 2.3000e+000 94022 -6.7652e+001 -1.6888e+002  1.1526e+000 40132 93627,93924,93996
 2.3000e+000 94045 -6.2801e+001 -1.7599e+002  6.3794e+000 40132 93627,93996,93653
 2.3000e+000 94423 -1.8297e+001 -1.9101e+002 -1.7260e+001 39514 94149,94227,94175
 2.3000e+000 94400 -9.1771e-001 -1.2612e+002  1.6901e+001 39514 94149,94305,94227
 2.3000e+000 94377 -8.8432e+000 -1.8925e+002 -1.9886e+001 39514 94175,94227,94201
 2.3000e+000 94354 -7.7472e+000 -1.4479e+002  1.3283e+001 39514 94227,94305,94279
 2.3000e+000 94331 -1.6289e+001 -1.4806e+002  1.5380e+001 39514 94227,94279,94253
 2.3000e+000 94573 -1.8006e+001 -9.8457e+001 -3.1914e+001 38822 94596,94498,94472
 2.3000e+000 94550  6.8615e+000 -1.1354e+002  5.0226e+000 38822 94596,94472,94446
 2.3000e+000 94622 -4.6981e+001 -1.1159e+002 -2.1276e+001 38822 94524,94498,94596
 2.3000e+000 94645 -4.7340e+001 -1.4287e+002  1.9475e+001 38822 94524,94596,94446
 2.3000e+000 95025 -2.9597e+001 -1.2693e+002 -1.1856e+001 38418 95048,94829,94777
 2.3000e+000 95002 -1.3122e+001 -1.1971e+002 -1.0335e+001 38418 95120,95048,94777
 2.3000e+000 94979 -7.0560e+000 -1.3054e+002 -1.0021e+001 38418 95120,94777,94751
 2.3000e+000 94956  9.4370e+000 -1.3151e+002 -7.4107e+000 38418 95192,94881,94855
 2.3000e+000 94933 -4.3873e+001 -1.1454e+002 -1.1337e+001 38418 94777,94829,94803
 2.3000e+000 95074 -2.4622e+001 -1.3634e+002  5.5797e+000 38418 94855,94829,95048
 2.3000e+000 95097  4.2104e+000 -1.2521e+002  7.4411e-001 38418 95192,94855,95048
 2.3000e+000 95146 -2.0171e+001 -1.3169e+002 -7.0431e+000 38418 94907,95048,95120
 2.3000e+000 95169 -1.3553e+001 -1.4331e+002 -7.6175e+000 38418 94907,95120,94751
 2.3000e+000 95218 -2.0434e+000 -1.2718e+002 -1.0213e+001 38418 94907,94881,95192
 2.3000e+000 95241 -1.5104e+001 -1.2748e+002 -1.2858e+000 38418 94907,95192,95048
 2.3000e+000 95511 -4.9623e+001 -1.5248e+002  6.6455e+000 38049 95312,95390,95364
 2.3000e+000 95488 -3.7859e+001 -1.4742e+002  6.2108e+000 38049 95312,95416,95390
 2.3000e+000 95465 -1.7009e+001 -1.3949e+002 -9.8369e+000 38049 95312,95364,95338
 2.3000e+000 95442 -1.3689e+001 -1.3638e+002  1.3278e+001 38049 95286,95416,95312
 2.3000e+000 95808 -4.3380e+001 -1.6598e+002 -1.2567e+001 37437 95831,95586,95560
 2.3000e+000 95785 -2.7069e+001 -1.5180e+002 -6.4071e+000 37437 95831,95560,95534
 2.3000e+000 95762 -5.0792e+001 -1.6012e+002  2.0043e+001 37437 95586,95664,95638
 2.3000e+000 95739 -4.4621e+001 -1.0487e+002 -1.9424e+001 37437 95534,95690,95664
 2.3000e+000 95716 -5.6097e+001 -1.1053e+002  1.2973e+001 37437 95586,95638,95612
 2.3000e+000 95857 -5.5923e+001 -1.5001e+002 -3.2237e+000 37437 95664,95586,95831
 2.3000e+000 95880 -3.8090e+001 -1.3473e+002  3.4021e+000 37437 95664,95831,95534
 2.3000e+000 96390 -5.5671e+001 -1.1342e+002 -7.7904e+000 36883 96413,96145,96093
 2.3000e+000 96367 -5.2140e+001 -1.1029e+002 -1.4735e+000 36883 96413,96093,96067
 2.3000e+000 96344 -2.9948e+001 -1.3284e+002 -7.3771e+000 36883 96067,96249,96171
 2.3000e+000 96321 -4.3415e+001 -1.2490e+002 -5.9348e+000 36883 96093,96145,96119
 2.3000e+000 96298 -6.1474e+001 -2.1641e+002  2.2441e+001 36883 96171,96249,96197
 2.3000e+000 96275 -1.2216e+001 -1.7824e+002  3.8213e+000 36883 96197,96249,96223
 2.3000e+000 96439 -5.1233e+001 -1.0362e+002 -5.9922e+000 36883 96171,96145,96413
 2.3000e+000 96462 -5.0476e+001 -1.0673e+002  5.9555e-003 36883 96171,96413,96067
 2.3000e+000 96781 -4.8471e+000 -1.1390e+002 -2.4275e+001 36215 96559,96663,96637
 2.3000e+000 96758 -3.2465e+001 -9.9616e+001 -2.0065e+001 36215 96507,96663,96559
 2.3000e+000 96735 -2.3602e+001 -8.0244e+001  7.0446e+000 36215 96585,96637,96611
 2.3000e+000 96712 -8.4442e+001 -1.3926e+002 -2.0649e+001 36215 96559,96637,96585
 2.3000e+000 96689 -1.9780e+001 -1.5145e+002 -9.5806e+000 36215 96507,96559,96533
 2.3000e+000 97161  1.1410e+001 -7.1666e+001 -1.2044e+000 35818 97184,96965,96939
 2.3000e+000 97138 -1.4747e+000 -6.6987e+001 -1.1931e+001 35818 97184,96939,96887
 2.3000e+000 97115  2.7802e+000 -9.5757e+001  1.5087e+001 35818 96965,97043,97017
 2.3000e+000 97092  2.8647e+001 -6.7764e+001 -3.1498e+001 35818 96887,96939,96913
 2.3000e+000 97069 -4.9136e+001 -8.6446e+001  1.0850e+001 35818 96965,97017,96991
 2.3000e+000 97210  2.7394e+001 -6.9535e+001 -9.6259e-001 35818 97043,96965,97184
 2.3000e+000 97233  1.4062e+001 -6.4357e+001 -1.0683e+001 35818 97043,97184,96887
 2.3000e+000 97739 -4.5965e+001 -1.3253e+002 -2.2316e+001 35214 97416,97468,97442
 2.3000e+000 97716 -4.9091e+001 -9.2315e+001 -4.8221e+000 35214 97416,97598,97468
 2.3000e+000 97693 -4.3614e+001 -9.0982e+001  2.1944e+000 35214 97762,97520,97468
 2.3000e+000 97670 -4.9322e+001 -9.6563e+001 -4.7459e+000 35214 97762,97468,97598
 2.3000e+000 97647 -4.4528e+001 -8.9951e+001 -1.6041e+001 35214 97546,97598,97572
 2.3000e+000 97624 -2.5796e+001 -8.7484e+001 -1.1097e+000 35214 97468,97520,97494
 2.3000e+000 97788 -4.6120e+001 -9.9836e+001 -3.1690e+000 35214 97546,97520,97762
 2.3000e+000 97811 -4.8671e+001 -1.0392e+002 -9.5359e+000 35214 97546,97762,97598
 2.3000e+000 98189 -9.9122e+000 -8.3795e+001 -9.2999e+000 34760 98356,98212,97967
 2.3000e+000 98166 -1.9719e+001 -9.7671e+001 -1.6411e+001 34760 98284,98212,97941
 2.3000e+000 98143 -4.0946e+001 -8.6425e+001 -7.2942e+000 34760 98284,97941,97915
 2.3000e+000 98120 -9.1486e+000 -1.0392e+002 -2.2871e+000 34760 98484,97993,97967
 2.3000e+000 98097 -3.6335e+000 -9.2858e+001 -2.9352e+000 34760 98556,98045,98019
 2.3000e+000 98238 -1.4148e+001 -1.0078e+002 -3.0440e+000 34760 98484,97967,98212
 2.3000e+000 98261  4.8922e+000 -9.6798e+001 -7.3290e+000 34760 98556,98019,98212
 2.3000e+000 98310 -3.7858e-001 -7.8132e+001 -2.5858e+001 34760 98071,98212,98284
 2.3000e+000 98333 -1.5657e+001 -5.0657e+001 -2.1296e+001 34760 98071,98284,97915
 2.3000e+000 98382 -5.2635e+001 -1.0909e+002 -2.1165e+001 34760 97941,98212,98356
 2.3000e+000 98510  7.5112e-001 -1.0295e+002 -4.8336e+000 34760 98019,97993,98484
 2.3000e+000 98533 -8.0374e+000 -1.0278e+002 -5.6527e+000 34760 98019,98484,98212
 2.3000e+000 98582  7.2166e+000 -8.7621e+001 -8.4786e-001 34760 98071,98045,98556
 2.3000e+000 98605  1.0748e+001 -9.4640e+001 -6.1944e+000 34760 98071,98556,98212
 2.3000e+000 99032 -4.8417e+001 -1.2399e+002  2.3549e+001 34156 98735,98891,98839
 2.3000e+000 99009 -4.4621e+001 -1.2976e+002  1.3681e+001 34156 98709,98891,98735
 2.3000e+000 98986 -1.2275e+001 -1.0901e+002  2.2453e+001 34156 98735,98813,98787
 2.3000e+000 98963 -1.3909e+001 -1.1682e+002  1.8437e+001 34156 98735,98839,98813
 2.3000e+000 98940  2.7393e+000 -1.6273e+002  2.2281e+001 34156 98735,98787,98761
 2.3000e+000 98917 -4.1156e+001 -1.0406e+002  7.9819e+000 34156 98839,98891,98865
 2.3000e+000 99231 -1.3170e+000 -5.3790e+001  8.1865e+000 33766 99055,99133,99107
 2.3000e+000 99208 -2.8765e+001 -5.1331e+001  1.5765e+001 33766 99055,99159,99133
 2.3000e+000 99185 -1.8594e+001 -9.1366e+001  3.0038e+000 33766 99055,99107,99081
 2.3000e+000 99818 -2.5483e+001 -9.6492e+001  1.2383e+000 33248 99521,99651,99573
 2.3000e+000 99795 -3.1879e+001 -9.5572e+001  7.2164e+000 33248 99521,99677,99651
 2.3000e+000 99772 -5.0527e+001 -1.2293e+002 -1.2026e+001 33248 99573,99651,99599
 2.3000e+000 99749 -3.0982e+001 -1.2418e+002  9.8104e+000 33248 99495,99677,99521
 2.3000e+000 99726 -2.7411e+001 -1.1002e+002 -2.7512e+001 33248 99599,99651,99625
 2.3000e+000 99703 -3.8051e+001 -1.1750e+002  7.3389e+000 33248 99521,99573,99547
 2.3000e+000 100196 -4.0934e+001 -9.4742e+001 -1.4480e+001 32794 100219,99948,99922
 2.3000e+000 100173 -4.4871e+001 -1.0310e+002 -9.1350e+000 32794 100219,99922,100052
 2.3000e+000 100150 -4.6546e+001 -9.5679e+001  2.1021e+000 32794 99974,100052,100026
 2.3000e+000 100127 -5.4089e+001 -9.9343e+001 -9.4874e+000 32794 99922,100078,100052
 2.3000e+000 100104 -5.0950e+001 -1.1963e+002  2.0771e+001 32794 99974,100026,100000
 2.3000e+000 100245 -4.6922e+001 -9.2339e+001 -6.2107e+000 32794 99974,99948,100219
 2.3000e+000 100268 -5.0157e+001 -1.0381e+002 -9.0825e-001 32794 99974,100219,100052
 2.3000e+000 100418 -3.4852e+000 -9.1350e+001 -1.6747e+001 32504 100571,100343,100317
 2.3000e+000 100395 -3.6788e+001 -1.0645e+002  5.1309e+000 32504 100571,100317,100441
 2.3000e+000 100467  3.1059e+001 -4.3637e+001 -3.7459e+001 32504 100291,100369,100441
 2.3000e+000 100597  1.1721e+001 -7.4235e+001 -4.2788e+001 32504 100369,100343,100571
 2.3000e+000 100620 -3.2300e+000 -6.8233e+001 -2.3834e+001 32504 100369,100571,100441
 2.3000e+000 101020 -1.9348e+001 -8.8743e+001  3.2442e+000 32142 100772,100902,100876
 2.3000e+000 100997 -1.1740e+001 -8.0851e+001  6.7702e+000 32142 100746,100902,100772
 2.3000e+000 100974 -5.5893e+000 -1.0051e+002  9.9572e+000 32142 101043,100824,100798
 2.3000e+000 100951 -1.8572e+001 -1.0634e+002  7.5533e+000 32142 101043,100798,100772
 2.3000e+000 100928 -5.6450e+001 -1.2285e+002 -2.9634e+001 32142 101115,100876,100850
 2.3000e+000 101069  1.1250e+001 -1.0842e+002 -1.0332e+001 32142 100850,100824,101043
 2.3000e+000 101092 -3.0419e+001 -1.2681e+002 -1.4200e+001 32142 101115,100850,101043
 2.3000e+000 101141 -2.4142e+001 -1.0351e+002 -1.1779e+001 32142 100772,100876,101115
 2.3000e+000 101164 -3.6875e+000 -1.0608e+002  4.9908e+000 32142 100772,101115,101043
 2.3000e+000 101719 -5.1233e+001 -1.2647e+002  9.3901e+000 31538 101742,101477,101399
 2.3000e+000 101696 -6.8642e+001 -1.4788e+002 -5.1340e-001 31538 101814,101742,101399
 2.3000e+000 101673 -8.0639e+001 -1.2851e+002 -1.6496e+001 31538 101814,101399,101373
 2.3000e+000 101650 -4.4515e+001 -6.6790e+001  2.4704e+000 31538 101425,101477,101451
 2.3000e+000 101627 -4.2513e+001 -9.4831e+001 -1.2317e+001 31538 101399,101477,101425
 2.3000e+000 101604 -2.4004e+001 -1.4172e+002  2.1291e+001 31538 101477,101529,101503
 2.3000e+000 101581 -2.0248e+001 -8.3459e+001 -9.6627e+000 31538 101347,101555,101373
 2.3000e+000 101768 -5.3195e+001 -1.4735e+002  6.3664e+000 31538 101529,101477,101742
 2.3000e+000 101791 -4.9587e+001 -1.5052e+002 -7.6973e+000 31538 101529,101742,101555
 2.3000e+000 101840 -4.0385e+001 -1.2906e+002 -8.6581e+000 31538 101555,101742,101814
 2.3000e+000 101863 -5.6465e+001 -1.1294e+002 -2.3215e+001 31538 101555,101814,101373
 2.3000e+000 102111 -6.9159e+001 -1.9816e+002  2.4416e+001 31112 101886,101990,101912
 2.3000e+000 102088 -2.1892e+001 -1.2903e+002 -2.3796e+000 31112 101886,102016,101990
 2.3000e+000 102065 -3.3282e+001 -1.8903e+002  3.0568e+001 31112 101912,101990,101964
 2.3000e+000 102042 -4.9025e+001 -2.1466e+002  3.7177e+001 31112 101912,101964,101938
 2.3000e+000 102408 -6.8919e+000 -1.0871e+002  1.2668e+001 30658 102431,102186,102160
 2.3000e+000 102385 -2.5445e+001 -1.0636e+002  2.9415e+000 30658 102431,102160,102264
 2.3000e+000 102362 -3.1728e+001 -1.2249e+002  5.1797e+000 30658 102186,102238,102212
 2.3000e+000 102339 -2.0118e+001 -1.1712e+002 -1.3070e+001 30658 102134,102264,102160
 2.3000e+000 102316  2.3570e+001 -7.8961e+001 -5.1244e+001 30658 102134,102290,102264
 2.3000e+000 102457 -2.1746e+001 -1.1615e+002  8.3959e+000 30658 102238,102186,102431
 2.3000e+000 102480 -4.1682e+001 -1.1580e+002 -2.1296e+000 30658 102238,102431,102264
 2.3000e+000 102681 -2.8079e+001 -1.3661e+002  1.3026e+001 30004 102704,102557,102505
 2.3000e+000 102658 -2.6113e+001 -1.3566e+002  1.2612e+001 30004 102704,102505,102609
 2.3000e+000 102635 -1.3207e+001 -1.1778e+002  1.2907e+000 30004 102505,102557,102531
 2.3000e+000 102730 -2.6327e+001 -1.3918e+002  1.4300e+001 30004 102583,102557,102704
 2.3000e+000 102753 -2.1851e+001 -1.3683e+002  1.3442e+001 30004 102583,102704,102609
 2.3000e+000 103003 -1.6924e+001 -1.0960e+002 -1.0059e+000 29564 103026,102804,102778
 2.3000e+000 102980 -2.0466e+001 -1.1762e+002 -2.8070e-001 29564 103026,102778,102908
 2.3000e+000 102957 -5.5312e+000 -1.0791e+002  1.1321e+001 29564 102856,102908,102882
 2.3000e+000 102934 -2.5696e+001 -1.1450e+002  7.3345e+000 29564 102804,102856,102830
 2.3000e+000 103052 -1.9934e+001 -1.0700e+002  4.4766e+000 29564 102856,102804,103026
 2.3000e+000 103075 -2.2323e+001 -1.1260e+002  4.5272e+000 29564 102856,103026,102908
 2.3000e+000 103634 -5.6260e+001 -1.3882e+002 -2.2096e+001 29160 103657,103418,103392
 2.3000e+000 103611 -5.3497e+001 -1.3388e+002 -1.1818e+001 29160 103657,103392,103314
 2.3000e+000 103588 -2.5245e+001 -1.2665e+002 -2.0679e+001 29160 103314,103392,103366
 2.3000e+000 103565 -4.4878e+001 -1.4570e+002 -1.2095e+001 29160 103314,103366,103340
 2.3000e+000 103542 -7.3320e+001 -1.3180e+002 -1.8413e+001 29160 103262,103444,103314
 2.3000e+000 103519 -8.4461e+001 -1.4911e+002 -3.0348e+001 29160 103262,103314,103288
 2.3000e+000 103496 -4.7884e+001 -1.3974e+002 -1.0754e+001 29160 103262,103470,103444
 2.3000e+000 103683 -7.1384e+001 -1.5005e+002 -3.1968e+001 29160 103444,103418,103657
 2.3000e+000 103706 -5.9809e+001 -1.3366e+002 -2.0229e+001 29160 103444,103657,103314
 2.3000e+000 104035 -4.3230e+001 -1.1362e+002  1.8729e+001 28770 103836,103914,103862
 2.3000e+000 104012 -2.9619e+001 -1.0959e+002  1.9101e+001 28770 103810,103914,103836
 2.3000e+000 103989  3.0176e+001 -9.7327e+001  2.8650e+001 28770 103810,103940,103914
 2.3000e+000 103966  3.8317e+001 -9.0883e+001  5.6094e+001 28770 103862,103914,103888
 2.3000e+000 104185  4.7046e+000 -1.4081e+002  2.6957e+000 28366 104208,104110,104084
 2.3000e+000 104162  4.2477e+001 -1.0615e+002  3.0361e+001 28366 104280,104208,104084
 2.3000e+000 104234  9.1450e+000 -1.2005e+002  2.4913e-001 28366 104610,104208,104136
 2.3000e+000 104257 -2.1963e+001 -1.3158e+002  1.1465e+001 28366 104538,104410,104208
 2.3000e+000 104306 -2.3222e+001 -1.4070e+002  1.6373e+001 28366 104538,104208,104280
 2.3000e+000 104436 -3.2887e-001 -1.2610e+002 -3.6423e+000 28366 104136,104208,104410
 2.3000e+000 104564 -2.4349e+001 -1.1973e+002  9.6504e+000 28366 104058,104410,104538
 2.3000e+000 104587 -2.2966e+001 -1.2711e+002  1.3355e+001 28366 104058,104538,104280
 2.3000e+000 104636 -2.0391e+001 -1.3164e+002  4.3007e+000 28366 104110,104208,104610
 2.3000e+000 105349 -2.9728e+001 -1.0544e+002 -9.9475e+000 27976 105516,105372,105107
 2.3000e+000 105326 -4.5188e+001 -1.0486e+002  5.3842e+000 27976 105588,105372,105055
 2.3000e+000 105303 -5.1501e+001 -1.0239e+002 -1.4736e+001 27976 105444,105159,105133
 2.3000e+000 105280 -1.8160e+001 -1.0880e+002 -6.1162e+000 27976 105516,105107,105081
 2.3000e+000 105257 -3.9142e+001 -1.1105e+002  1.3856e+001 27976 105588,105055,105029
 2.3000e+000 105234 -2.5964e+001 -8.7187e+001  8.5444e-001 27976 105003,105185,105159
 2.3000e+000 105211 -3.4656e+001 -7.0138e+001  1.2851e+001 27976 104977,105185,105003
 2.3000e+000 105398 -2.3568e+001 -1.0596e+002 -1.3271e+001 27976 105133,105107,105372
 2.3000e+000 105421 -4.1854e+001 -1.1245e+002 -9.0559e+000 27976 105444,105133,105372
 2.3000e+000 105470 -4.3420e+001 -8.6592e+001 -8.7950e+000 27976 105003,105159,105444
 2.3000e+000 105493 -3.5646e+001 -9.6959e+001 -6.2147e+000 27976 105003,105444,105372
 2.3000e+000 105542 -2.2018e+001 -1.0545e+002  1.8518e-001 27976 105055,105372,105516
 2.3000e+000 105565 -4.2341e+000 -1.0620e+002  2.7153e+000 27976 105055,105516,105081
 2.3000e+000 105614 -5.5269e+001 -1.1037e+002  7.6651e+000 27976 105003,105372,105588
 2.3000e+000 105637 -5.1838e+001 -1.1778e+002  1.6430e+001 27976 105003,105588,105029
 2.3000e+000 106143 -5.6145e+001 -1.6912e+002  1.0050e+001 27664 106166,105846,105820
 2.3000e+000 106120 -4.3251e+001 -1.3479e+002  5.5837e+000 27664 106310,106166,105820
 2.3000e+000 106097 -2.0845e+001 -1.5001e+002 -3.0971e+001 27664 106382,106238,105950
 2.3000e+000 106074 -3.1828e+001 -1.3303e+002  6.1541e+000 27664 106310,105820,106002
 2.3000e+000 106051  1.0353e+001 -1.3429e+002 -2.5666e+001 27664 106382,105950,105924
 2.3000e+000 106028 -1.8231e+001 -2.4109e+002 -5.8029e+000 27664 105846,105898,105872
 2.3000e+000 106192 -5.4784e+001 -1.8839e+002 -2.1957e+001 27664 105898,105846,106166
 2.3000e+000 106215 -3.6426e+001 -1.5712e+002 -7.2976e+000 27664 106238,105898,106166
 2.3000e+000 106264 -9.1060e+001 -1.6955e+002 -3.9701e+001 27664 105976,105950,106238
 2.3000e+000 106287 -3.3342e+001 -1.5689e+002 -7.6795e+000 27664 105976,106238,106166
 2.3000e+000 106336 -3.1718e+001 -1.4037e+002  1.5977e+001 27664 105976,106166,106310
 2.3000e+000 106359 -1.8611e+001 -1.3773e+002  1.6128e+001 27664 105976,106310,106002
 2.3000e+000 106408 -3.6042e+001 -1.2649e+002  3.9757e+000 27664 105898,106238,106382
 2.3000e+000 106431 -1.6554e+001 -1.1755e+002  6.4632e+000 27664 105898,106382,105924
 2.3000e+000 106728 -1.3721e+001 -9.3118e+001  1.3667e+001 27153 106751,106506,106454
 2.3000e+000 106705 -1.3466e+001 -9.5297e+001  1.0698e+001 27153 106751,106454,106610
 2.3000e+000 106682 -2.5106e+001 -6.9422e+001 -2.4736e+000 27153 106454,106506,106480
 2.3000e+000 106659 -2.0193e+001 -9.2859e+001  7.3723e+000 27153 106532,106610,106584
 2.3000e+000 106636 -3.7760e+001 -5.6896e+001  1.6633e+001 27153 106532,106584,106558
 2.3000e+000 106777 -1.0184e+001 -9.0042e+001  1.4970e+001 27153 106532,106506,106751
 2.3000e+000 106800 -1.1180e+001 -9.3399e+001  1.1575e+001 27153 106532,106751,106610
 2.3000e+000 107180 -2.7616e+001 -1.2233e+002 -1.8056e+000 26642 107203,106984,106958
 2.3000e+000 107157 -5.8550e+001 -1.3497e+002 -3.1906e-001 26642 107203,106958,106932
 2.3000e+000 107134 -6.5850e+001 -1.4063e+002 -2.0212e+001 26642 107275,107036,107010
 2.3000e+000 107111 -4.4012e+001 -1.3300e+002 -2.5143e+001 26642 106932,107062,107036
 2.3000e+000 107088 -1.6573e+000 -1.0327e+002  1.1748e+001 26642 106906,107062,106932
 2.3000e+000 107229 -8.4546e+000 -1.0800e+002 -3.6126e+001 26642 107010,106984,107203
 2.3000e+000 107252 -6.0729e+001 -1.3758e+002 -2.4167e+001 26642 107275,107010,107203
 2.3000e+000 107301 -5.8671e+001 -1.3877e+002 -2.2818e+001 26642 106932,107036,107275
 2.3000e+000 107324 -5.5135e+001 -1.4006e+002 -2.4623e+001 26642 106932,107275,107203
 2.3000e+000 107675 -2.8908e+001 -7.6249e+001  8.6370e+000 26045 107450,107554,107476
 2.3000e+000 107652 -2.0611e+001 -6.5996e+001  3.1743e+000 26045 107450,107580,107554
 2.3000e+000 107629 -1.2100e+001 -4.7864e+001 -1.4617e+000 26045 107476,107528,107502
 2.3000e+000 107606 -4.0488e+000 -6.9289e+001  5.8960e+000 26045 107476,107554,107528
 2.3000e+000 107874 -2.1376e+001 -1.2237e+002  3.1514e+001 25641 107750,107802,107776
 2.3000e+000 107851 -2.6814e+001 -8.9917e+001  1.8260e+001 25641 107724,107802,107750
 2.3000e+000 107828 -2.1900e+001 -9.1429e+001  1.3996e+001 25641 107698,107802,107724
 2.3000e+000 108431  5.5115e+001 -1.2392e+002  2.7033e+001 25023 108526,108267,108241
 2.3000e+000 108408  7.7891e+001 -9.5560e+001  9.5689e+000 25023 108059,108267,108085
 2.3000e+000 108385  1.2754e+000 -1.2553e+002  1.7865e+001 25023 108454,108163,108111
 2.3000e+000 108362 -6.3173e+001 -1.3031e+002  3.8281e+001 25023 108454,108111,108085
 2.3000e+000 108339 -4.5803e+001 -1.6746e+002  3.5978e+001 25023 108111,108163,108137
 2.3000e+000 108316 -3.7337e+000 -8.5675e+001 -1.0490e+000 25023 108163,108241,108215
 2.3000e+000 108293  1.9104e+001 -7.6014e+001 -1.2475e+000 25023 108163,108215,108189
 2.3000e+000 108480  1.0172e+001 -1.1943e+002  1.5847e+000 25023 108241,108163,108454
 2.3000e+000 108503  2.3263e+001 -1.1505e+002  2.5414e+001 25023 108526,108241,108454
 2.3000e+000 108552  1.6412e+001 -1.2194e+002  8.4418e+000 25023 108085,108267,108526
 2.3000e+000 108575 -1.7358e+001 -1.1511e+002  6.0623e+000 25023 108085,108526,108454
 2.3000e+000 108823 -6.8070e+000 -9.5900e+001  1.5279e+001 24461 108624,108728,108650
 2.3000e+000 108800 -1.7871e+001 -2.0266e+002 -1.2845e+001 24461 108598,108728,108624
 2.3000e+000 108777 -3.0797e+000 -1.2455e+002  1.3283e+001 24461 108650,108728,108676
 2.3000e+000 108754 -5.7488e+001 -3.4398e+002  3.1237e+001 24461 108676,108728,108702
 2.3000e+000 109022 -3.9024e+001 -9.8266e+001  1.5786e+001 24121 108872,108924,108898
 2.3000e+000 108999 -2.5026e+001 -1.0870e+002  1.4906e+001 24121 108846,108924,108872
 2.3000e+000 108976 -1.4785e+001 -1.0660e+002  2.0285e+001 24121 108846,108950,108924
 2.3000e+000 109483 -4.2554e+001 -1.3888e+002 -1.4821e+001 23717 109209,109339,109235
 2.3000e+000 109460 -1.8275e+001 -1.5705e+002 -3.2629e+001 23717 109209,109365,109339
 2.3000e+000 109437 -1.0060e+001 -1.6708e+002 -1.0454e+001 23717 109287,109339,109313
 2.3000e+000 109414 -8.0229e+001 -1.7174e+002  4.2207e+000 23717 109235,109339,109287
 2.3000e+000 109391 -1.0992e+001 -2.0492e+002  6.0600e+001 23717 109235,109287,109261
 2.3000e+000 109910 -5.5911e+001 -1.5905e+002 -1.4201e+001 23305 109613,109743,109717
 2.3000e+000 109887 -5.4407e+001 -1.5929e+002 -9.4270e+000 23305 109613,109769,109743
 2.3000e+000 109864 -6.6838e+001 -1.5096e+002 -1.2188e+001 23305 109613,109717,109639
 2.3000e+000 109841 -4.2624e+001 -1.4749e+002 -3.6767e+000 23305 109587,109769,109613
 2.3000e+000 109818  4.1343e-001 -1.2243e+002  1.2434e+001 23305 109639,109717,109691
 2.3000e+000 109795 -1.6650e+001 -1.0132e+002 -1.8972e+001 23305 109639,109691,109665
 2.3000e+000 110180 -9.9286e+000 -5.7228e+001 -4.3125e+000 22851 110007,110059,110033
 2.3000e+000 110157 -3.4245e+001 -1.2129e+002  5.5004e+000 22851 109981,110059,110007
 2.3000e+000 110134 -4.6132e+001 -1.3228e+002 -1.4546e-001 22851 109955,110059,109981
 2.3000e+000 110111 -1.9346e+001 -1.4875e+002 -1.2298e+001 22851 109955,110085,110059
 2.3000e+000 110737 -9.4303e+000 -1.4009e+002 -1.4309e+001 22333 110760,110469,110391
 2.3000e+000 110714 -9.5123e+000 -1.4729e+002 -1.1422e+001 22333 110760,110391,110365
 2.3000e+000 110691 -2.7140e+000 -1.3163e+002 -1.6585e+001 22333 110832,110521,110469
 2.3000e+000 110668  1.5290e+001 -2.5054e+002 -6.3933e+000 22333 110417,110469,110443
 2.3000e+000 110645 -3.8721e+001 -2.1147e+002 -1.7196e+001 22333 110391,110469,110417
 2.3000e+000 110622  2.5184e+001 -1.1326e+002 -3.4409e+001 22333 110469,110521,110495
 2.3000e+000 110599 -9.6095e+000 -1.0471e+002 -1.7589e+001 22333 110365,110573,110547
 2.3000e+000 110786 -9.9001e+000 -1.3020e+002 -1.3502e+001 22333 110832,110469,110760
 2.3000e+000 110809 -1.9773e+001 -1.4235e+002 -1.9347e+001 22333 110547,110760,110365
 2.3000e+000 110858  1.5303e+001 -1.3082e+002 -2.2284e+001 22333 110547,110521,110832
 2.3000e+000 110881 -1.3404e+000 -1.3363e+002 -2.1793e+001 22333 110547,110832,110760
 2.3000e+000 111308 -7.2613e+001 -1.6234e+002  7.1206e+000 21829 111331,111063,111011
 2.3000e+000 111285 -7.5932e+001 -1.5331e+002 -6.7654e+000 21829 111331,111011,111167
 2.3000e+000 111262 -7.8095e+001 -1.6371e+002  3.7807e+000 21829 111403,111089,111063
 2.3000e+000 111239 -8.6376e+001 -1.5381e+002  2.2378e+001 21829 111011,111063,111037
 2.3000e+000 111216 -5.5659e+001 -1.3491e+002  2.6827e+000 21829 110985,111167,111011
 2.3000e+000 111193 -9.0251e+001 -2.7119e+002  4.7219e+001 21829 111089,111141,111115
 2.3000e+000 111357 -7.6743e+001 -1.6482e+002  3.7614e+000 21829 111403,111063,111331
 2.3000e+000 111380 -8.1878e+001 -1.7400e+002 -9.4109e+000 21829 111141,111331,111167
 2.3000e+000 111429 -7.8008e+001 -1.6513e+002  5.7089e+000 21829 111141,111089,111403
 2.3000e+000 111452 -7.7483e+001 -1.6807e+002  4.6646e+000 21829 111141,111403,111331
 2.3000e+000 112056  3.7634e+001 -1.2617e+002  3.3353e+000 21489 111687,111765,111739
 2.3000e+000 112033  4.1719e+000 -1.4689e+002  1.4411e+001 21489 112151,112079,111687
 2.3000e+000 112010 -3.1092e+000 -2.1731e+002  1.0428e+001 21489 111791,111843,111817
 2.3000e+000 111987 -4.5311e+001 -1.8204e+002 -1.2488e+001 21489 112079,111843,111791
 2.3000e+000 111964  2.5210e+001 -1.3749e+002  2.7003e+001 21489 112151,111687,111661
 2.3000e+000 111941 -1.8119e+001 -1.0038e+002  2.4762e+001 21489 111661,111869,111843
 2.3000e+000 111918  4.2247e+001 -1.3380e+002  1.8028e+001 21489 111687,111739,111713
 2.3000e+000 111895  1.5881e+000 -5.4735e+001  9.5496e+000 21489 111635,111869,111661
 2.3000e+000 112105 -2.8788e+001 -1.5587e+002  9.3716e+000 21489 111765,111687,112079
 2.3000e+000 112128 -2.8825e+001 -1.5221e+002  9.8695e+000 21489 111765,112079,111791
 2.3000e+000 112177 -3.1200e+001 -1.4545e+002 -2.6758e+000 21489 111843,112079,112151
 2.3000e+000 112200 -1.1874e+001 -1.4207e+002  7.6068e+000 21489 111843,112151,111661
 2.3000e+000 112578 -3.5873e+001 -1.8445e+002  8.1723e+000 21177 112382,112434,112408
 2.3000e+000 112555 -4.3915e+001 -1.8303e+002  5.1105e-001 21177 112330,112434,112382
 2.3000e+000 112532 -3.5964e+001 -1.5763e+002  2.7527e+001 21177 112304,112434,112330
 2.3000e+000 112509 -4.3295e+001 -1.7633e+002  0.0000e+000 21177 112330,112382,112356
 2.3000e+000 112486 -1.0247e+001 -1.0460e+002  6.9533e+000 21177 112304,112460,112434
 2.3000e+000 112679 -1.3303e+000 -1.3018e+002 -2.2924e+001 20666 112601,112653,112627
 2.3000e+000 112927 -5.1280e+001 -1.7685e+002  4.9680e+000 19762 112702,112754,112728
 2.3000e+000 112904 -1.9440e+001 -1.6523e+002 -3.4910e+000 19762 112702,112832,112754
 2.3000e+000 112881 -4.2434e+001 -1.7479e+002  2.6226e+001 19762 112754,112832,112806
 2.3000e+000 112858 -6.1400e+001 -2.2637e+002  2.7557e+001 19762 112754,112806,112780
 2.3000e+000 113297 -3.7713e+001 -2.0680e+002  1.5965e+001 19308 112974,113052,113026
 2.3000e+000 113274 -2.9952e+001 -1.6652e+002  8.1603e+000 19308 112974,113156,113052
 2.3000e+000 113251 -2.6327e+001 -2.2108e+002 -2.5019e+001 19308 113052,113130,113104
 2.3000e+000 113228 -3.5380e+001 -1.6791e+002  5.5743e-001 19308 113052,113156,113130
 2.3000e+000 113205 -3.5045e+001 -1.9259e+002  0.0000e+000 19308 113052,113104,113078
 2.3000e+000 113182 -6.5046e+001 -2.2254e+002 -2.3526e+000 19308 112974,113026,113000
 2.3000e+000 113547 -2.0719e+001 -1.8549e+002 -1.2398e+001 18711 113570,113374,113348
 2.3000e+000 113524 -2.7436e+001 -1.7350e+002 -8.5915e+000 18711 113570,113348,113452
 2.3000e+000 113501 -2.1628e+001 -1.3160e+002 -3.5722e+001 18711 113322,113452,113348
 2.3000e+000 113478 -3.0508e+001 -1.7219e+002 -5.4265e+001 18711 113374,113426,113400
 2.3000e+000 113596 -1.5981e+001 -1.7271e+002 -1.6069e+001 18711 113426,113374,113570
 2.3000e+000 113619 -2.5230e+001 -1.6373e+002 -9.9166e+000 18711 113426,113570,113452
 2.3000e+000 113771 -9.1746e+001 -2.2749e+002 -1.1384e+001 18307 113670,113722,113696
 2.3000e+000 113748 -7.3255e+001 -2.1441e+002 -5.2210e+000 18307 113644,113722,113670
 2.3000e+000 113972 -3.7929e+001 -1.9091e+002  2.3490e+000 17945 113822,113874,113848
 2.3000e+000 113949 -4.4596e+001 -1.9039e+002  3.7235e+000 17945 113822,113900,113874
 2.3000e+000 113926 -6.2341e+001 -1.5239e+002  8.1308e+001 17945 113796,113900,113822
 2.3000e+000 114075  3.7434e+001 -2.4641e+002  3.9437e+001 17482 113997,114049,114023
 2.3000e+000 114479 -2.9486e+000 -1.5900e+002 -3.0950e+001 17042 114257,114361,114335
 2.3000e+000 114456 -3.7916e+001 -1.5284e+002 -4.2340e+000 17042 114205,114361,114257
 2.3000e+000 114433 -4.7439e+001 -1.7540e+002  5.7690e+000 17042 114205,114257,114231
 2.3000e+000 114410  4.8339e+001 -2.4497e+002 -1.3266e+001 17042 114283,114335,114309
 2.3000e+000 114387  1.4383e+001 -2.0873e+002 -1.0206e+001 17042 114257,114335,114283
 2.3000e+000 114879 -7.3641e+001 -1.7415e+002 -1.1418e+000 16638 114631,114683,114657
 2.3000e+000 114856  1.2710e+001 -1.3657e+002 -4.6848e+000 16638 114605,114683,114631
 2.3000e+000 114833  2.1335e+001 -9.6875e+001  3.8310e-001 16638 114605,114761,114683
 2.3000e+000 114810  2.2267e+001 -1.6623e+002 -1.4803e+001 16638 114683,114735,114709
 2.3000e+000 114787 -3.0280e+001 -1.8811e+002 -2.1309e+001 16638 114683,114761,114735
 2.3000e+000 115078 -9.4150e+001 -1.9475e+002  7.0930e+000 16232 114954,115006,114980
 2.3000e+000 115055 -7.8924e+001 -2.0455e+002  6.4597e+000 16232 114928,115006,114954
 2.3000e+000 115032 -3.6237e+001 -2.6391e+002  1.3919e+001 16232 114902,115006,114928
 2.3000e+000 115228 -4.2350e+001 -1.7772e+002  4.4023e+000 15482 115101,115153,115127
 2.3000e+000 115205 -5.2075e+001 -1.7443e+002 -1.8472e+000 15482 115101,115179,115153
 2.3000e+000 115331 -4.6371e+001 -1.7539e+002 -1.8555e+001 15163 115253,115305,115279
 2.3000e+000 115434 -4.6489e+001 -1.7714e+002  2.0949e+001 421 115356,115408,115382
 2.4000e+000 68213 -4.9973e+000 -1.0813e+002 -6.6665e+000 67888 68112,68164,68138
 2.4000e+000 68190 -7.8516e+001 -1.3366e+002 -7.3270e+000 67888 68086,68164,68112
 2.4000e+000 68314 -1.9226e+001 -2.0012e+002  2.4684e+001 67576 68236,68288,68262
 2.4000e+000 68584 -3.5979e+001 -2.4991e+002  9.5206e+000 67378 68385,68489,68463
 2.4000e+000 68561  6.3437e+001 -2.0779e+002  6.0998e+000 67378 68359,68489,68385
 2.4000e+000 68538 -3.0207e+001 -2.1703e+002  1.1904e+001 67378 68385,68463,68411
 2.4000e+000 68515 -1.8123e+001 -1.3023e+002  8.8154e+000 67378 68411,68463,68437
 2.4000e+000 68964 -4.5201e+001 -2.2595e+002  3.5921e+001 67130 68690,68820,68716
 2.4000e+000 68941  6.8799e+001 -2.3205e+002  6.9379e+001 67130 68690,68846,68820
 2.4000e+000 68918 -3.9358e+001 -1.4832e+002  5.7205e+000 67130 68742,68820,68794
 2.4000e+000 68895  3.1707e+000 -1.4506e+002  1.4245e+001 67130 68716,68820,68742
 2.4000e+000 68872 -1.8572e+001 -1.1450e+002 -1.2346e+001 67130 68742,68794,68768
 2.4000e+000 69065 -3.7892e+001 -1.3640e+002  1.9686e+000 66926 68987,69039,69013
 2.4000e+000 69445 -2.3831e+001 -1.3416e+002 -5.2726e+000 66614 69223,69301,69275
 2.4000e+000 69422 -4.0121e+001 -1.4074e+002 -4.8652e+000 66614 69171,69301,69223
 2.4000e+000 69399 -5.1089e+001 -1.4296e+002  4.4644e-001 66614 69171,69327,69301
 2.4000e+000 69376 -6.7465e+000 -6.8434e+001  1.1873e+000 66614 69223,69275,69249
 2.4000e+000 69353 -3.1969e+001 -1.5018e+002 -4.2667e+000 66614 69171,69223,69197
 2.4000e+000 69546 -2.8021e+001 -2.0440e+002  1.3110e+001 66416 69468,69520,69494
 2.4000e+000 69997 -2.0497e+001 -2.0638e+002 -2.2407e+001 66104 69700,69830,69726
 2.4000e+000 69974 -2.5818e+001 -2.7211e+002 -4.5987e+001 66104 69700,69856,69830
 2.4000e+000 69951 -2.8960e+001 -1.5680e+002 -1.2882e+001 66104 69726,69804,69778
 2.4000e+000 69928 -1.9218e+001 -1.9259e+002 -1.7506e+001 66104 69726,69830,69804
 2.4000e+000 69905 -3.1132e+001 -1.4686e+002 -5.1533e+000 66104 69726,69778,69752
 2.4000e+000 69882 -4.2535e+000 -4.1436e+002 -7.1144e+001 66104 69674,69856,69700
 2.4000e+000 70326 -2.8297e+001 -7.6952e+001 -1.2787e+001 65814 70349,70153,70127
 2.4000e+000 70303  1.0711e+001 -7.7780e+001 -1.3519e+000 65814 70349,70127,70101
 2.4000e+000 70280  4.3272e+001 -3.3150e+001  5.1188e+001 65814 70101,70231,70205
 2.4000e+000 70257  5.6082e+001 -8.1510e+001  1.6827e+001 65814 70153,70205,70179
 2.4000e+000 70375 -9.4048e+000 -8.1843e+001  1.5308e+001 65814 70205,70153,70349
 2.4000e+000 70398  4.7060e+001 -7.5659e+001  2.3064e+001 65814 70205,70349,70101
 2.4000e+000 70904 -8.2673e+000 -3.9599e+001 -1.5492e+001 65502 70607,70737,70685
 2.4000e+000 70881 -7.4827e+000 -2.6410e+001 -2.1840e+001 65502 70581,70737,70607
 2.4000e+000 70858 -7.2553e+000  8.7710e+000 -1.6588e+000 65502 70581,70763,70737
 2.4000e+000 70835 -2.0505e+001 -4.6144e+001 -2.0776e+001 65502 70685,70737,70711
 2.4000e+000 70812 -6.0429e+001 -4.0575e+001 -5.9998e+000 65502 70607,70659,70633
 2.4000e+000 70789 -1.2996e+001 -4.7732e+001 -6.1614e+000 65502 70607,70685,70659
 2.4000e+000 71103 -2.0381e+001 -1.8076e+002 -4.5040e+000 65304 71126,70979,70953
 2.4000e+000 71080 -3.2438e+001 -1.8744e+002 -9.4015e-001 65304 71126,70953,70927
 2.4000e+000 71057 -4.8807e+001 -1.8764e+002  1.3666e+001 65304 70927,71031,71005
 2.4000e+000 71152 -3.4465e+001 -1.6183e+002 -7.5503e+000 65304 71005,70979,71126
 2.4000e+000 71175 -5.2342e+001 -1.7589e+002 -4.9698e-001 65304 71005,71126,70927
 2.4000e+000 71374  7.6164e+000 -1.7532e+002  9.4980e+000 65106 71198,71276,71224
 2.4000e+000 71351 -5.2441e+001 -1.9222e+002  3.7581e+000 65106 71198,71302,71276
 2.4000e+000 71328  2.3164e+001 -1.3620e+002  2.0769e+001 65106 71224,71276,71250
 2.4000e+000 71756 -1.1777e+001 -1.0781e+002 -1.1268e+001 64652 71508,71638,71534
 2.4000e+000 71733 -6.5465e-001 -1.0274e+002  1.4457e+000 64652 71482,71638,71508
 2.4000e+000 71710 -3.0660e+001 -9.4888e+001 -2.9045e+000 64652 71534,71586,71560
 2.4000e+000 71687 -1.4616e+001 -1.1379e+002 -2.6008e+001 64652 71534,71612,71586
 2.4000e+000 71664 -5.0379e+001 -1.2640e+002 -2.5714e+001 64652 71534,71638,71612
 2.4000e+000 72085 -3.8722e+001 -1.2349e+002 -2.0176e+001 64248 71886,71964,71912
 2.4000e+000 72062 -4.3168e+001 -1.2770e+002 -1.7537e+001 64248 71860,71964,71886
 2.4000e+000 72039 -8.6531e+000 -1.1318e+002 -1.1536e+001 64248 71912,71964,71938
 2.4000e+000 72016 -1.7780e+001 -1.2150e+002 -2.6338e+001 64248 71860,71990,71964
 2.4000e+000 72235  7.6160e-001 -6.8497e+001 -8.6441e+000 63858 72588,72258,72134
 2.4000e+000 72212  2.1535e+000 -2.6920e+001  1.7196e+001 63858 72330,72258,72108
 2.4000e+000 72284  4.4424e+000 -3.0794e+001  8.6171e-002 63858 72160,72134,72258
 2.4000e+000 72307 -3.3166e+001 -6.0012e+001 -5.3456e+000 63858 72460,72258,72186
 2.4000e+000 72356 -2.5818e+001 -5.3307e+001 -9.0133e-001 63858 72186,72258,72330
 2.4000e+000 72486 -7.7090e+000 -6.1088e+001 -5.3482e-001 63858 72160,72258,72460
 2.4000e+000 72614  1.8065e+001 -6.9887e+001  1.5142e+001 63858 72108,72258,72588
 2.4000e+000 73248  2.9833e+000 -1.1306e+002  4.0492e+001 63404 72902,72954,72928
 2.4000e+000 73225 -4.6053e+001 -1.2549e+002  1.8527e+001 63404 73271,72954,72902
 2.4000e+000 73202 -3.7184e+001 -9.5127e+001  1.6055e+001 63404 73271,72902,73032
 2.4000e+000 73179 -2.0884e+001 -7.9707e+001  5.6905e+000 63404 72902,73058,73032
 2.4000e+000 73156 -2.6854e+001 -9.7415e+001  1.2607e+000 63404 72980,73032,73006
 2.4000e+000 73133 -2.2258e+001 -7.5517e+001  7.4141e+000 63404 72876,73058,72902
 2.4000e+000 73110 -8.3794e+000 -3.3381e+001 -1.6884e+001 63404 72876,73084,73058
 2.4000e+000 73297 -3.4741e+001 -1.2966e+002 -2.0660e-002 63404 72980,72954,73271
 2.4000e+000 73320 -3.3531e+001 -1.1330e+002  2.5640e-001 63404 72980,73271,73032
 2.4000e+000 73470 -4.9113e+001 -3.4466e+002  3.5013e+001 63014 73343,73395,73369
 2.4000e+000 73447 -1.6071e+002 -4.3351e+002 -1.0558e+001 63014 73343,73421,73395
 2.4000e+000 73929  4.6780e+001 -1.4482e+002  2.1228e+001 62702 73759,73811,73785
 2.4000e+000 73906  5.4069e+001 -1.4428e+002  1.4572e+001 62702 73655,73811,73759
 2.4000e+000 73883  1.8740e+001 -1.7292e+002 -1.6625e+000 62702 73655,73759,73681
 2.4000e+000 73860  4.5551e+001 -1.1918e+002 -3.6262e+001 62702 73681,73759,73707
 2.4000e+000 73837 -4.9082e+001 -1.4102e+002  1.6736e+000 62702 73707,73759,73733
 2.4000e+000 74209 -8.3532e+001 -1.5222e+002 -6.1979e-001 62404 74059,74137,74085
 2.4000e+000 74186 -9.8328e+001 -2.0767e+002  2.6001e+001 62404 74033,74137,74059
 2.4000e+000 74163 -8.9037e+001 -1.3462e+002 -7.6610e-001 62404 74085,74137,74111
 2.4000e+000 74408  9.2534e+000 -1.2753e+002  1.2071e+001 62000 74258,74336,74284
 2.4000e+000 74385 -2.2330e+000 -1.3028e+002  1.7663e+001 62000 74232,74336,74258
 2.4000e+000 74362 -2.1562e+001 -1.0936e+002  2.6987e+000 62000 74284,74336,74310
 2.4000e+000 74509  5.3694e+000 -1.8412e+002  2.8458e+001 61802 74431,74483,74457
 2.4000e+000 74759 -4.2303e+001 -1.3643e+002 -2.0247e+000 61554 74782,74586,74560
 2.4000e+000 74736 -1.9037e+001 -1.1996e+002  5.8740e+000 61554 74782,74560,74664
 2.4000e+000 74713 -3.6325e+001 -8.7030e+001  5.3371e+001 61554 74854,74612,74586
 2.4000e+000 74690 -3.0436e+001 -1.3338e+002 -1.1787e+000 61554 74534,74664,74560
 2.4000e+000 74808 -5.9978e+001 -1.1985e+002  1.2536e+001 61554 74854,74586,74782
 2.4000e+000 74831 -2.3030e+001 -1.5609e+002  9.0741e+000 61554 74638,74782,74664
 2.4000e+000 74880  1.6414e+001 -1.2045e+002  5.6496e+001 61554 74638,74612,74854
 2.4000e+000 74903  1.5677e+001 -1.1607e+002  2.5628e+001 61554 74638,74854,74782
 2.4000e+000 75285  2.3673e+001 -1.5318e+002 -7.7004e-001 61356 75063,75167,75115
 2.4000e+000 75262  1.0802e+001 -1.6942e+002 -1.8157e+001 61356 75037,75167,75063
 2.4000e+000 75239  3.2772e+001 -1.5474e+002 -1.4639e+000 61356 75115,75167,75141
 2.4000e+000 75216  1.3241e+001 -1.5484e+002 -1.8455e-001 61356 75063,75115,75089
 2.4000e+000 75193 -5.8040e+001 -1.0701e+002  1.6161e+001 61356 75011,75167,75037
 2.4000e+000 75631  1.4014e+001 -1.2703e+002  6.2239e+000 60952 75654,75412,75360
 2.4000e+000 75608  1.4505e+001 -1.4502e+002 -2.1376e-001 60952 75654,75360,75334
 2.4000e+000 75585 -4.7788e+000 -1.8740e+002  8.5703e+000 60952 75726,75438,75412
 2.4000e+000 75562  3.4399e+001 -1.3066e+002 -2.9812e+001 60952 75308,75490,75334
 2.4000e+000 75539  1.6172e+001 -1.2257e+002 -2.5942e+000 60952 75360,75412,75386
 2.4000e+000 75516 -2.6946e+001 -2.2775e+002 -5.7170e+000 60952 75438,75490,75464
 2.4000e+000 75680  1.0548e+001 -1.5168e+002  7.9748e+000 60952 75726,75412,75654
 2.4000e+000 75703  1.3886e+001 -1.4414e+002 -2.7304e-001 60952 75490,75654,75334
 2.4000e+000 75752  1.6764e+000 -1.4694e+002 -1.5930e+000 60952 75490,75438,75726
 2.4000e+000 75775  1.6431e+000 -1.4509e+002 -4.0787e+000 60952 75490,75726,75654
 2.4000e+000 76155  3.8333e+000 -1.2604e+002 -9.4542e+000 60754 75933,75985,75959
 2.4000e+000 76132 -1.6739e+001 -1.4007e+002  1.9572e+001 60754 75933,76037,75985
 2.4000e+000 76109  2.9914e+001 -1.4025e+002  8.3876e+000 60754 75985,76037,76011
 2.4000e+000 76086 -4.2820e+001 -1.1273e+002  5.0913e+000 60754 75881,76037,75933
 2.4000e+000 76063 -6.5810e+001 -9.7383e+001  3.3815e+001 60754 75881,75933,75907
 2.4000e+000 76612 -1.6467e+001 -9.1020e+001  8.1496e-001 60350 76635,76442,76390
 2.4000e+000 76589  6.5114e+000 -1.0485e+002  6.2058e+000 60350 76635,76390,76364
 2.4000e+000 76566 -3.0430e+000 -1.3595e+002 -9.9573e+000 60350 76364,76494,76468
 2.4000e+000 76543 -1.3322e+000 -8.2484e+001  8.1425e+000 60350 76390,76442,76416
 2.4000e+000 76520 -4.2644e+001 -8.6634e+001 -2.1232e+001 60350 76338,76494,76364
 2.4000e+000 76661 -2.9499e+001 -1.0013e+002  4.7824e+000 60350 76468,76442,76635
 2.4000e+000 76684 -1.2951e+001 -1.1689e+002  1.1421e+001 60350 76468,76635,76364
 2.4000e+000 76932 -4.8495e+001 -1.6284e+002 -1.6109e+000 59946 76955,76733,76707
 2.4000e+000 76909 -4.8783e+001 -1.6247e+002  2.8609e+000 59946 77027,76955,76707
 2.4000e+000 76886 -4.7178e+001 -1.6197e+002  2.2609e+000 59946 77027,76707,76837
 2.4000e+000 76863 -2.1879e+001 -1.7581e+002 -1.7435e+001 59946 76733,76785,76759
 2.4000e+000 76981 -5.6053e+001 -1.6443e+002 -3.6199e+000 59946 76785,76733,76955
 2.4000e+000 77004 -5.1289e+001 -1.6334e+002  1.5833e+000 59946 76785,76955,76811
 2.4000e+000 77053 -4.6426e+001 -1.6322e+002  1.8395e+000 59946 76811,76955,77027
 2.4000e+000 77076 -4.4840e+001 -1.6216e+002  9.4942e-001 59946 76811,77027,76837
 2.4000e+000 77226 -3.6934e+001 -1.1107e+002  3.3019e+000 59542 77099,77151,77125
 2.4000e+000 77203 -4.8083e+001 -1.3904e+002  4.0191e+000 59542 77099,77177,77151
 2.4000e+000 77427 -7.4404e+001 -1.4299e+002 -1.3657e+001 59030 77450,77277,77251
 2.4000e+000 77404 -3.7363e+001 -1.0484e+002 -5.4745e+001 59030 77450,77251,77355
 2.4000e+000 77381  2.2473e+001 -1.6282e+002 -1.3392e+001 59030 77277,77329,77303
 2.4000e+000 77476 -2.9814e+001 -1.5118e+002 -3.7400e+001 59030 77329,77277,77450
 2.4000e+000 77499  1.0430e+001 -1.3293e+002 -6.9778e+001 59030 77329,77450,77355
 2.4000e+000 77749 -6.0733e+001 -1.9093e+002  2.1942e+001 58426 77772,77628,77602
 2.4000e+000 77726 -3.7097e+001 -2.0065e+002  5.5137e+001 58426 77524,77654,77628
 2.4000e+000 77703 -4.2270e+001 -2.0217e+002  1.5910e+001 58426 77772,77602,77550
 2.4000e+000 77680 -1.3768e+001 -1.8650e+002 -8.7030e+000 58426 77550,77602,77576
 2.4000e+000 77798 -4.1540e+001 -1.7495e+002  2.8869e+001 58426 77524,77628,77772
 2.4000e+000 77821 -3.6454e+001 -1.9576e+002  1.8658e+001 58426 77524,77772,77550
 2.4000e+000 78071 -8.6615e+001 -1.9597e+002  1.9810e+001 57922 78094,77924,77898
 2.4000e+000 78048 -1.0438e+002 -1.9449e+002 -4.8089e+000 57922 78094,77898,77872
 2.4000e+000 78025 -7.5747e+001 -1.6947e+002  1.7993e+001 57922 78166,77846,77950
 2.4000e+000 78002 -2.8854e+000 -1.6978e+002  2.8480e+001 57922 77846,77976,77950
 2.4000e+000 78120 -6.9286e+001 -1.9118e+002  1.2424e+001 57922 77950,77924,78094
 2.4000e+000 78143 -8.1751e+001 -1.7414e+002  1.3531e+001 57922 78166,77950,78094
 2.4000e+000 78192 -6.6233e+001 -1.7997e+002  8.1026e+000 57922 77872,77846,78166
 2.4000e+000 78215 -7.8431e+001 -1.9068e+002  2.4411e+000 57922 77872,78166,78094
 2.4000e+000 78416  6.3317e+000 -1.6812e+002 -4.8363e+000 57468 78439,78292,78240
 2.4000e+000 78393  1.7450e+001 -1.5749e+002 -9.4318e+000 57468 78439,78240,78344
 2.4000e+000 78370 -5.4218e+000 -2.3684e+002 -1.2299e+000 57468 78240,78292,78266
 2.4000e+000 78465  1.8704e+001 -1.6642e+002 -1.2358e+001 57468 78318,78292,78439
 2.4000e+000 78488  2.3321e+001 -1.6286e+002 -1.5120e+001 57468 78318,78439,78344
 2.4000e+000 78689  3.0851e+001 -1.8300e+002 -1.2481e+001 57014 78712,78539,78513
 2.4000e+000 78666  1.1676e+001 -1.7971e+002  3.4069e-001 57014 78712,78513,78617
 2.4000e+000 78643  1.4522e+000 -1.7019e+002  1.8396e+001 57014 78565,78617,78591
 2.4000e+000 78738  5.8069e+000 -1.6683e+002 -1.3456e+001 57014 78565,78539,78712
 2.4000e+000 78761 -2.0615e+001 -1.7794e+002  6.7228e+000 57014 78565,78712,78617
 2.4000e+000 79241 -5.9473e+001 -1.5511e+002  4.0761e+000 56652 79264,78895,78869
 2.4000e+000 79218 -2.6894e+001 -2.1567e+002 -2.3450e+001 56652 79264,78869,79051
 2.4000e+000 79195 -3.9834e+001 -1.9240e+002 -5.0216e+001 56652 78869,79077,79051
 2.4000e+000 79172 -3.9280e+001 -9.6724e+001 -1.3562e+001 56652 78895,78973,78947
 2.4000e+000 79149 -7.4604e+001 -3.1238e+002 -2.9326e+001 56652 78973,79051,78999
 2.4000e+000 79126 -3.5344e+001 -1.0285e+002 -1.4069e+001 56652 78895,78947,78921
 2.4000e+000 79103 -5.1222e+001 -1.8877e+002  4.6682e+001 56652 78999,79051,79025
 2.4000e+000 79290 -3.5969e+001 -1.1596e+002  2.6636e+001 56652 78973,78895,79264
 2.4000e+000 79313 -2.1173e+000 -1.8248e+002  1.4935e+000 56652 78973,79264,79051
 2.4000e+000 79512 -1.5849e+001 -2.2605e+002  1.6353e+001 56062 79388,79440,79414
 2.4000e+000 79489 -7.9260e+001 -1.0840e+002  3.1054e+001 56062 79336,79440,79388
 2.4000e+000 79466 -3.2459e+001 -1.3653e+002  3.7442e+001 56062 79336,79388,79362
 2.4000e+000 79941 -2.3900e+001 -1.4504e+002  2.5077e+001 55658 79964,79670,79644
 2.4000e+000 79918 -4.0093e+001 -1.4543e+002  2.7658e+001 55658 79964,79644,79800
 2.4000e+000 79895 -3.9367e+001 -1.5599e+002  1.2292e+001 55658 80036,79696,79670
 2.4000e+000 79872 -4.3427e+001 -1.2301e+002 -2.0303e+000 55658 80108,79722,79696
 2.4000e+000 79849 -6.4879e+001 -1.3317e+002  2.0989e+000 55658 79722,79774,79748
 2.4000e+000 79826 -9.3296e-001 -1.3213e+002  7.9581e+000 55658 79618,79800,79644
 2.4000e+000 79990 -4.1441e+001 -1.5549e+002  1.9524e+001 55658 80036,79670,79964
 2.4000e+000 80013 -3.9289e+001 -1.3813e+002  2.7597e+001 55658 79774,79964,79800
 2.4000e+000 80062 -3.0913e+001 -1.3676e+002  1.0903e+001 55658 80108,79696,80036
 2.4000e+000 80085 -4.1225e+001 -1.3872e+002  2.6009e+001 55658 79774,80036,79964
 2.4000e+000 80134 -6.8686e+001 -1.3931e+002  5.4827e+000 55658 79774,79722,80108
 2.4000e+000 80157 -6.1443e+001 -1.5517e+002  1.8790e+001 55658 79774,80108,80036
 2.4000e+000 80307 -6.6265e+001 -1.3316e+002  1.8647e+001 55254 80402,80330,80206
 2.4000e+000 80284 -6.7632e+001 -1.8457e+002  1.3631e+001 55254 80330,80180,80258
 2.4000e+000 80356 -8.2263e+001 -1.6958e+002  3.3844e+001 55254 80232,80206,80330
 2.4000e+000 80379 -2.6157e+001 -1.4476e+002  4.1858e+001 55254 80232,80330,80258
 2.4000e+000 80428 -9.6219e+001 -1.7130e+002  3.3697e+000 55254 80180,80330,80402
 2.4000e+000 80659  1.9203e+001 -1.6596e+002 -2.5265e+001 54850 80558,80610,80584
 2.4000e+000 80636  2.9183e+001 -1.5379e+002 -1.6129e+001 54850 80532,80610,80558
 2.4000e+000 80760  8.3277e+000 -1.5548e+002 -1.2298e+001 54652 80682,80734,80708
 2.4000e+000 81164  1.0676e+001 -1.6044e+002 -4.8894e+000 54248 81187,80942,80890
 2.4000e+000 81141  2.1301e+000 -1.6514e+002 -1.5897e+000 54248 81187,80890,81046
 2.4000e+000 81118  6.1051e+000 -1.6292e+002  3.4966e+001 54248 80942,81020,80994
 2.4000e+000 81095  1.0099e+001 -1.6979e+002  8.5065e-001 54248 80890,80942,80916
 2.4000e+000 81072 -3.7225e+000 -7.9850e+001  2.0021e+000 54248 80942,80994,80968
 2.4000e+000 81213  8.4628e-001 -1.5562e+002 -4.3468e+000 54248 81020,80942,81187
 2.4000e+000 81236 -5.7903e+000 -1.5792e+002 -2.2437e+000 54248 81020,81187,81046
 2.4000e+000 81663 -7.0550e+001 -1.3153e+002  1.6638e+001 53594 81340,81444,81366
 2.4000e+000 81640 -6.0365e+001 -1.9604e+002  6.1097e+000 53594 81340,81470,81444
 2.4000e+000 81617 -1.8363e+001 -1.7179e+002 -1.0147e+001 53594 81340,81522,81470
 2.4000e+000 81594 -3.2786e+001 -9.1987e+001 -1.0687e+001 53594 81392,81444,81418
 2.4000e+000 81571 -4.5592e+001 -1.0923e+002 -1.6557e+001 53594 81366,81444,81392
 2.4000e+000 81548  5.2315e+000 -2.4711e+002  3.9989e+001 53594 81470,81522,81496
 2.4000e+000 81943 -2.3705e+001 -9.1651e+001 -1.1625e+001 53104 81966,81845,81819
 2.4000e+000 81920 -3.6927e+001 -8.6470e+001 -1.6501e+001 53104 81966,81819,81767
 2.4000e+000 81897 -3.3665e+001 -7.9319e+001 -1.5658e+001 53104 81767,81819,81793
 2.4000e+000 81992 -1.4840e+001 -9.3434e+001 -1.7923e+001 53104 81871,81845,81966
 2.4000e+000 82015 -2.5860e+001 -8.5512e+001 -2.5256e+001 53104 81871,81966,81767
 2.4000e+000 82491 -3.8552e+000 -9.1011e+001 -2.0045e+001 52650 82145,82249,82171
 2.4000e+000 82468 -7.9062e+001 -1.2944e+002 -6.6632e+000 52650 82145,82301,82249
 2.4000e+000 82445 -7.1764e+001 -1.7507e+002 -2.9090e+001 52650 82249,82301,82275
 2.4000e+000 82422 -2.4623e+001 -2.1378e+002 -2.3917e+001 52650 82119,82301,82145
 2.4000e+000 82399 -1.1630e+001 -5.3727e+001  1.2613e+001 52650 82171,82249,82223
 2.4000e+000 82376  4.1099e+001 -1.8404e+002 -3.7454e+001 52650 82119,82327,82301
 2.4000e+000 82353 -4.3379e+000 -2.3680e+001 -9.5042e+000 52650 82171,82223,82197
 2.4000e+000 82739 -3.0520e+001 -8.1114e+001 -4.5996e+000 52246 82762,82540,82514
 2.4000e+000 82716 -1.3836e+001 -6.9776e+001 -1.0699e+001 52246 82762,82514,82644
 2.4000e+000 82693 -4.3976e+001 -9.6872e+001  8.1809e+000 52246 82540,82618,82592
 2.4000e+000 82670 -3.9538e+001 -8.5872e+001  1.5094e+000 52246 82540,82592,82566
 2.4000e+000 82788 -1.5347e+001 -9.5448e+001  3.6405e+000 52246 82618,82540,82762
 2.4000e+000 82811  7.6533e-001 -8.7256e+001  7.1142e-001 52246 82618,82762,82644
 2.4000e+000 83059  1.1506e+001 -1.1049e+002  3.6903e+000 51578 82860,82964,82938
 2.4000e+000 83036  1.1040e+001 -1.0840e+002 -1.5146e+001 51578 82834,82964,82860
 2.4000e+000 83013  1.5432e+001 -9.5015e+001  1.0909e+001 51578 82860,82938,82886
 2.4000e+000 82990  1.8289e+001 -8.7964e+001  1.1021e+001 51578 82886,82938,82912
 2.4000e+000 83309 -1.9982e+001 -6.5041e+001  2.1475e+001 51138 83332,83162,83136
 2.4000e+000 83286  2.9875e+000 -8.6935e+001  6.8665e+000 51138 83332,83136,83110
 2.4000e+000 83263 -2.6140e+001 -8.5313e+001 -3.5322e+000 51138 83404,83214,83188
 2.4000e+000 83240 -7.4176e-001 -3.4801e+001  3.7266e+000 51138 83084,83214,83110
 2.4000e+000 83358 -4.3614e+001 -9.7559e+001  3.9074e+001 51138 83188,83162,83332
 2.4000e+000 83381 -1.4515e+001 -1.0259e+002  1.1439e+001 51138 83404,83188,83332
 2.4000e+000 83430 -8.4559e+000 -4.0390e+001 -4.9367e+000 51138 83110,83214,83404
 2.4000e+000 83453 -2.9223e+000 -6.8009e+001  1.0372e+001 51138 83110,83404,83332
 2.4000e+000 83835 -3.6621e+000 -1.0907e+002 -1.2069e+001 50734 83613,83717,83691
 2.4000e+000 83812 -8.9368e+000 -1.2431e+002 -2.9584e+001 50734 83561,83717,83613
 2.4000e+000 83789  6.3126e+000 -4.7400e+001 -4.4118e+001 50734 83561,83613,83587
 2.4000e+000 83766 -1.5295e+001 -7.4154e+001 -9.1813e+000 50734 83613,83691,83639
 2.4000e+000 83743 -2.0098e+001 -7.6192e+001  1.6737e+001 50734 83639,83691,83665
 2.4000e+000 84034  1.1623e+000 -6.5803e+001 -1.2310e+001 50230 84057,83884,83858
 2.4000e+000 84011 -1.3709e+000 -6.5423e+001 -1.8119e+000 50230 84129,84057,83858
 2.4000e+000 83988  3.2764e+000 -6.0637e+001 -3.7130e+000 50230 84129,83858,83962
 2.4000e+000 84083 -1.3712e+001 -7.1639e+001 -1.3229e+001 50230 83910,83884,84057
 2.4000e+000 84106 -7.2273e+000 -7.9893e+001  4.6820e-001 50230 83910,84057,83936
 2.4000e+000 84155  6.0391e+000 -7.1058e+001 -3.3672e+000 50230 83936,84057,84129
 2.4000e+000 84178  8.5889e+000 -6.7889e+001 -4.6229e+000 50230 83936,84129,83962
 2.4000e+000 84558 -2.6891e+001 -8.9799e+001 -1.6184e+001 49768 84581,84388,84362
 2.4000e+000 84535 -6.5387e+001 -9.1311e+001 -5.4228e+000 49768 84581,84362,84310
 2.4000e+000 84512  9.5447e+000 -1.0004e+002 -1.8382e+001 49768 84653,84440,84414
 2.4000e+000 84489 -5.1881e+001 -1.0228e+002  8.4299e+000 49768 84310,84362,84336
 2.4000e+000 84466  1.9837e+000 -6.7403e+001  1.9164e+001 49768 84284,84440,84310
 2.4000e+000 84607  4.2331e+000 -7.0858e+001 -3.0598e+001 49768 84414,84388,84581
 2.4000e+000 84630 -4.9364e+000 -9.3393e+001 -1.3142e+001 49768 84653,84414,84581
 2.4000e+000 84679 -9.9727e+000 -9.3617e+001 -2.4894e+001 49768 84310,84440,84653
 2.4000e+000 84702 -3.0549e+001 -9.3812e+001 -2.5248e+001 49768 84310,84653,84581
 2.4000e+000 85159 -5.9633e+001 -1.4802e+002 -4.6657e+001 49192 84885,84937,84911
 2.4000e+000 85136 -6.2397e+001 -1.2340e+002 -3.4356e+001 49192 84885,85041,84937
 2.4000e+000 85113 -4.6139e+001 -9.6482e+001 -1.9473e+001 49192 84963,85041,84989
 2.4000e+000 85090 -4.4686e+001 -9.6742e+001 -2.6693e+001 49192 84937,85041,84963
 2.4000e+000 85067 -3.5906e+001 -9.4454e+001 -1.8431e+001 49192 84989,85041,85015
 2.4000e+000 85714 -4.5183e+001 -8.1034e+001  8.9825e+000 48638 85368,85498,85394
 2.4000e+000 85691 -4.4197e+001 -9.5708e+001  8.3691e+000 48638 85368,85524,85498
 2.4000e+000 85668 -6.3346e+001 -8.9495e+001  3.3850e+001 48638 85737,85420,85394
 2.4000e+000 85645 -4.8170e+001 -9.0947e+001  2.0640e+001 48638 85737,85394,85498
 2.4000e+000 85622  6.7409e-001 -1.0412e+002  4.1488e+001 48638 85446,85498,85472
 2.4000e+000 85599 -1.6149e+001 -8.4196e+001  8.6895e+000 48638 85342,85524,85368
 2.4000e+000 85576 -6.0381e+001 -9.1940e+001  6.7450e+000 48638 85342,85550,85524
 2.4000e+000 85763 -4.0558e+001 -7.9602e+001  3.4922e+001 48638 85446,85420,85737
 2.4000e+000 85786 -3.9230e+001 -8.7403e+001  2.1435e+001 48638 85446,85737,85498
 2.4000e+000 86371 -3.1750e+001 -4.5284e+001 -1.1746e+001 48084 86100,86230,86178
 2.4000e+000 86348 -5.0757e+001 -7.7835e+001 -2.1378e+001 48084 86048,86230,86100
 2.4000e+000 86325 -3.9075e+001 -4.2880e+001  1.1729e+001 48084 86100,86178,86126
 2.4000e+000 86302 -1.4728e+001  6.3529e+000 -2.3271e+001 48084 86048,86100,86074
 2.4000e+000 86279 -4.4775e+001 -8.9527e+001 -9.5640e+000 48084 86178,86230,86204
 2.4000e+000 86256 -3.1200e+001 -5.5836e+001  1.1159e+001 48084 86126,86178,86152
 2.4000e+000 86619 -3.7123e+001 -9.1009e+001 -3.7483e+000 47630 86642,86446,86420
 2.4000e+000 86596 -3.9507e+001 -9.7145e+001 -1.8245e+001 47630 86642,86420,86394
 2.4000e+000 86573 -4.7643e+001 -9.5414e+001 -2.2139e+001 47630 86394,86524,86498
 2.4000e+000 86550 -1.6051e+001 -1.0676e+002 -2.5190e-001 47630 86446,86498,86472
 2.4000e+000 86668 -4.4304e+001 -1.0746e+002 -5.9647e+000 47630 86498,86446,86642
 2.4000e+000 86691 -4.4261e+001 -1.0869e+002 -2.0266e+001 47630 86498,86642,86394
 2.4000e+000 87022  8.6997e+000 -3.2492e+001 -9.9354e+000 47226 87045,86875,86849
 2.4000e+000 86999 -1.1119e+001 -4.9076e+001 -1.9265e+001 47226 87045,86849,86797
 2.4000e+000 86976 -7.0841e+000 -2.3308e+001 -6.5951e+000 47226 86797,86849,86823
 2.4000e+000 86953  2.9322e+001 -4.6866e+001 -2.4683e+001 47226 86875,86927,86901
 2.4000e+000 87071  2.5925e+001 -5.7032e+001 -1.5447e+001 47226 86927,86875,87045
 2.4000e+000 87094  1.0003e+001 -6.7146e+001 -2.1459e+001 47226 86927,87045,86797
 2.4000e+000 87244 -9.5699e-001 -9.1886e+001  4.2452e+001 46814 87267,87169,87143
 2.4000e+000 87221 -5.3716e+001 -9.1977e+001  4.2865e+000 46814 87267,87143,87117
 2.4000e+000 87293 -1.1775e+001 -1.0171e+002 -7.2195e+000 46814 87339,87267,87195
 2.4000e+000 87316  1.4622e+001 -6.2286e+001 -2.1197e+001 46814 87469,87267,87117
 2.4000e+000 87365 -1.7106e+001 -8.2201e+001  4.3779e+001 46814 87169,87267,87339
 2.4000e+000 87495  1.4360e+001  2.7048e+001 -2.3424e+001 46814 87195,87267,87469
 2.4000e+000 88001 -3.7577e+001 -9.5517e+001  1.9561e+001 46310 88024,87834,87808
 2.4000e+000 87978 -4.3029e+001 -9.7615e+001  1.8383e+001 46310 88024,87808,87756
 2.4000e+000 87955 -9.1894e+000 -1.1854e+002  8.1292e+000 46310 88096,87730,87860
 2.4000e+000 87932 -2.8646e+001 -9.5819e+001  2.2830e+001 46310 87756,87808,87782
 2.4000e+000 87909 -1.9014e+001 -1.5813e+002  8.2433e+000 46310 87678,87860,87730
 2.4000e+000 87886 -3.3609e+001 -2.4188e+002 -9.4873e+000 46310 87678,87730,87704
 2.4000e+000 88050 -3.0469e+001 -7.9190e+001  1.7352e+001 46310 87860,87834,88024
 2.4000e+000 88073 -1.3483e+001 -8.9840e+001  2.0685e+001 46310 88096,87860,88024
 2.4000e+000 88122 -2.3176e+001 -1.3193e+002  4.2061e-001 46310 87756,87730,88096
 2.4000e+000 88145 -4.7107e+001 -1.2025e+002  7.3114e+000 46310 87756,88096,88024
 2.4000e+000 88572 -4.7158e+000 -1.0308e+002 -1.2367e+001 45856 88249,88405,88275
 2.4000e+000 88549 -5.3228e+000 -2.7911e+001 -4.1052e+001 45856 88249,88431,88405
 2.4000e+000 88526 -4.5224e+001 -1.3803e+002 -4.3364e+001 45856 88327,88405,88353
 2.4000e+000 88503  2.5605e+001 -1.0431e+002 -1.8223e+001 45856 88275,88405,88327
 2.4000e+000 88480 -4.5970e+001 -1.3020e+002 -3.2900e+001 45856 88353,88405,88379
 2.4000e+000 88457 -8.3033e+001 -2.5710e+002  2.9368e+001 45856 88275,88327,88301
 2.4000e+000 88950 -1.8065e+001 -7.6913e+001 -1.8444e+001 45658 88973,88754,88728
 2.4000e+000 88927  4.2537e+000 -7.7006e+001 -1.2811e+001 45658 88973,88728,88676
 2.4000e+000 88904 -1.9044e+001 -8.6494e+001  2.2053e+001 45658 88676,88832,88806
 2.4000e+000 88881 -1.0919e+001 -8.6598e+001  2.7302e+001 45658 88676,88728,88702
 2.4000e+000 88858 -3.5835e+001 -6.6044e+001 -1.3165e+001 45658 88754,88806,88780
 2.4000e+000 88999 -3.4807e+001 -6.9686e+001 -9.2909e+000 45658 88806,88754,88973
 2.4000e+000 89022 -1.4339e+001 -7.0523e+001 -8.0712e+000 45658 88806,88973,88676
 2.4000e+000 89351 -6.3208e+000 -1.0182e+002 -4.9709e+000 45254 89152,89230,89204
 2.4000e+000 89328 -1.8381e+001 -1.0598e+002 -1.8537e+000 45254 89152,89256,89230
 2.4000e+000 89305 -1.9977e+001 -1.1206e+002 -6.1385e+000 45254 89126,89256,89152
 2.4000e+000 89282 -3.1641e+001 -1.2165e+002  6.0341e+000 45254 89152,89204,89178
 2.4000e+000 89523 -1.8062e+001 -9.6241e+001 -8.7835e-002 45006 89422,89474,89448
 2.4000e+000 89500 -1.3109e+001 -9.4137e+001  3.8734e+000 45006 89396,89474,89422
 2.4000e+000 89673 -8.0159e+001 -1.4458e+002  1.2942e+001 44495 89572,89624,89598
 2.4000e+000 89650 -8.5899e+001 -1.6244e+002  1.6395e+001 44495 89546,89624,89572
 2.4000e+000 90104 -1.3103e+001 -1.2902e+002 -8.9587e+000 44005 90199,90127,89937
 2.4000e+000 90081 -1.1706e+001 -1.2515e+002 -3.1012e+000 44005 90271,90127,89859
 2.4000e+000 90058 -1.0905e+001 -1.3084e+002 -9.3131e+000 44005 90199,89937,89885
 2.4000e+000 90035 -2.3614e+001 -1.1810e+002  3.6259e+000 44005 90271,89859,89807
 2.4000e+000 90012 -2.5587e+001 -1.5265e+002 -1.5973e+001 44005 89885,89937,89911
 2.4000e+000 89989  8.9644e-001 -1.2660e+002  1.7620e+001 44005 89807,89859,89833
 2.4000e+000 90153 -1.7657e+001 -1.3021e+002 -6.9871e+000 44005 89963,89937,90127
 2.4000e+000 90176 -1.9717e+001 -1.3630e+002 -5.2347e+000 44005 89963,90127,89781
 2.4000e+000 90225 -1.6299e+001 -1.3071e+002 -7.9080e+000 44005 89859,90127,90199
 2.4000e+000 90248 -1.3352e+001 -1.3253e+002 -7.9289e+000 44005 89859,90199,89885
 2.4000e+000 90297 -2.7874e+001 -1.3399e+002 -6.5057e+000 44005 89781,90127,90271
 2.4000e+000 90320 -3.4851e+001 -1.2429e+002  1.1834e+000 44005 89781,90271,89807
 2.4000e+000 90470 -1.9254e+001 -1.3409e+002 -5.0826e+000 43601 90493,90369,90343
 2.4000e+000 90447 -3.3711e+001 -1.0953e+002  7.0550e+000 43601 90493,90343,90421
 2.4000e+000 90519 -4.1240e+001 -1.7891e+002 -2.0768e+001 43601 90395,90369,90493
 2.4000e+000 90542 -3.3100e+001 -1.2740e+002 -5.2523e+000 43601 90395,90493,90421
 2.4000e+000 90922 -4.9170e+001 -1.5176e+002  1.5395e+001 43154 90945,90700,90674
 2.4000e+000 90899 -4.9795e+001 -1.5685e+002 -8.8027e+000 43154 90945,90674,90648
 2.4000e+000 90876 -6.9207e+001 -1.1486e+002 -2.3210e+000 43154 90648,90778,90752
 2.4000e+000 90853 -3.4636e+001 -2.3522e+002  9.6977e+000 43154 90700,90752,90726
 2.4000e+000 90830 -3.9254e+001 -1.1960e+002  1.0981e+001 43154 90648,90804,90778
 2.4000e+000 90971 -5.7481e+001 -1.7289e+002  1.6225e+001 43154 90752,90700,90945
 2.4000e+000 90994 -5.4932e+001 -1.6907e+002 -7.1898e+000 43154 90752,90945,90648
 2.4000e+000 91451  4.9039e+001 -1.0779e+002 -4.1943e+001 42650 91203,91255,91229
 2.4000e+000 91428 -3.8329e+000 -1.3052e+002 -5.6324e+000 42650 91203,91333,91255
 2.4000e+000 91405 -1.6109e+001 -1.6670e+002 -1.7001e+001 42650 91177,91333,91203
 2.4000e+000 91382 -1.7942e+001 -1.5989e+002 -9.7775e-001 42650 91255,91333,91281
 2.4000e+000 91359  3.8885e+001 -1.5105e+002  8.2953e+000 42650 91281,91333,91307
 2.4000e+000 91721 -6.7625e+001 -1.5052e+002  1.5238e+001 42288 91496,91600,91522
 2.4000e+000 91698 -3.5957e+001 -8.8761e+001 -3.7978e+000 42288 91496,91626,91600
 2.4000e+000 91675 -4.6930e+001 -1.5000e+002  2.4652e+001 42288 91522,91574,91548
 2.4000e+000 91652 -2.3199e+001 -1.3275e+002  1.6575e+001 42288 91522,91600,91574
 2.4000e+000 92199 -1.0733e+002 -1.7241e+002 -3.3630e+000 41898 92222,91983,91879
 2.4000e+000 92176 -1.1118e+002 -2.0460e+002 -1.6125e+001 41898 92294,92222,91879
 2.4000e+000 92153 -1.2154e+002 -2.0361e+002 -2.3226e+001 41898 92294,91879,91853
 2.4000e+000 92130 -9.0561e+001 -9.3439e+001  1.2284e+001 41898 91879,91957,91931
 2.4000e+000 92107 -9.1830e+001 -1.6584e+002 -3.0044e+000 41898 91879,91983,91957
 2.4000e+000 92084 -1.0618e+002 -8.8811e+001  2.8266e+001 41898 91879,91931,91905
 2.4000e+000 92061 -1.0194e+002 -1.6344e+002 -1.2405e+001 41898 91827,92035,91853
 2.4000e+000 92248 -1.0571e+002 -2.1291e+002  5.3770e+000 41898 92009,91983,92222
 2.4000e+000 92271 -9.9544e+001 -2.1885e+002 -2.0332e+001 41898 92009,92222,92035
 2.4000e+000 92320 -9.4403e+001 -2.0087e+002 -1.4433e+001 41898 92035,92222,92294
 2.4000e+000 92343 -1.0153e+002 -1.9707e+002 -2.0788e+001 41898 92035,92294,91853
 2.4000e+000 92770 -2.5521e+001 -1.5547e+002 -8.0646e+000 41437 92865,92793,92525
 2.4000e+000 92747 -3.3930e+001 -1.7731e+002 -5.3624e+000 41437 92793,92473,92629
 2.4000e+000 92724  4.2757e+000 -1.6997e+002 -2.4540e+001 41437 92865,92525,92499
 2.4000e+000 92701 -3.5109e+001 -1.3547e+002 -1.8370e+001 41437 92525,92603,92577
 2.4000e+000 92678  6.2728e+001 -1.5850e+002  1.5050e+000 41437 92447,92629,92473
 2.4000e+000 92655 -6.7196e+001 -1.1531e+002 -4.8916e+000 41437 92525,92577,92551
 2.4000e+000 92819 -2.7317e+001 -1.5941e+002 -1.9639e+001 41437 92603,92525,92793
 2.4000e+000 92842 -6.1530e+001 -1.7140e+002 -3.7421e+001 41437 92603,92793,92629
 2.4000e+000 92891  2.8721e+001 -1.5957e+002 -6.8228e+000 41437 92473,92793,92865
 2.4000e+000 92914  6.7294e+001 -1.6341e+002 -2.8887e+001 41437 92473,92865,92499
 2.4000e+000 93243 -8.2760e+000 -2.1781e+002  9.4235e+001 41097 93044,93096,93070
 2.4000e+000 93220 -5.9154e+001 -2.3238e+002  3.4641e+001 41097 93044,93122,93096
 2.4000e+000 93197  1.3166e+001 -1.4576e+002  1.1205e-001 41097 93044,93148,93122
 2.4000e+000 93174 -2.4696e+001 -8.4438e+001  4.0803e+001 41097 93018,93148,93044
 2.4000e+000 93393  3.9625e+000 -1.6802e+002  1.6437e+001 40643 93416,93292,93344
 2.4000e+000 93370  5.5848e+001 -1.6130e+002  2.8906e+001 40643 93266,93344,93292
 2.4000e+000 93442  7.5982e+000 -1.6076e+002  2.5306e+001 40643 93318,93292,93416
 2.4000e+000 93901 -5.5434e+001 -1.6589e+002 -1.4024e+001 40132 93924,93731,93705
 2.4000e+000 93878 -5.5230e+001 -1.6975e+002 -1.4318e+001 40132 93996,93924,93705
 2.4000e+000 93855 -6.4276e+001 -1.9197e+002 -6.4616e+000 40132 93996,93705,93653
 2.4000e+000 93832 -3.8632e+001 -1.8796e+002 -1.0448e+001 40132 93653,93705,93679
 2.4000e+000 93809 -5.1857e+001 -1.5613e+002 -4.0821e+000 40132 93627,93783,93757
 2.4000e+000 93950 -5.6507e+001 -1.7368e+002 -1.4133e+001 40132 93757,93731,93924
 2.4000e+000 93973 -5.8501e+001 -1.5561e+002 -4.9184e+000 40132 93757,93924,93627
 2.4000e+000 94022 -7.3008e+001 -1.8411e+002  1.2959e+000 40132 93627,93924,93996
 2.4000e+000 94045 -6.7479e+001 -1.9170e+002  7.1423e+000 40132 93627,93996,93653
 2.4000e+000 94423 -1.9141e+001 -2.0631e+002 -1.9548e+001 39514 94149,94227,94175
 2.4000e+000 94400 -2.4907e-001 -1.3578e+002  1.7437e+001 39514 94149,94305,94227
 2.4000e+000 94377 -9.6210e+000 -2.0330e+002 -2.2378e+001 39514 94175,94227,94201
 2.4000e+000 94354 -7.5320e+000 -1.5595e+002  1.3563e+001 39514 94227,94305,94279
 2.4000e+000 94331 -1.8443e+001 -1.6029e+002  1.5320e+001 39514 94227,94279,94253
 2.4000e+000 94573 -1.9710e+001 -1.0669e+002 -3.3286e+001 38822 94596,94498,94472
 2.4000e+000 94550  7.2217e+000 -1.2294e+002  6.6438e+000 38822 94596,94472,94446
 2.4000e+000 94622 -5.1145e+001 -1.2093e+002 -2.1950e+001 38822 94524,94498,94596
 2.4000e+000 94645 -5.1458e+001 -1.5461e+002  2.2121e+001 38822 94524,94596,94446
 2.4000e+000 95025 -3.1400e+001 -1.3709e+002 -1.2826e+001 38418 95048,94829,94777
 2.4000e+000 95002 -1.3702e+001 -1.2912e+002 -1.0932e+001 38418 95120,95048,94777
 2.4000e+000 94979 -7.6138e+000 -1.3989e+002 -1.0607e+001 38418 95120,94777,94751
 2.4000e+000 94956  9.9817e+000 -1.4125e+002 -8.0324e+000 38418 95192,94881,94855
 2.4000e+000 94933 -4.7654e+001 -1.2410e+002 -1.2012e+001 38418 94777,94829,94803
 2.4000e+000 95074 -2.5795e+001 -1.4649e+002  5.8298e+000 38418 94855,94829,95048
 2.4000e+000 95097  4.3791e+000 -1.3462e+002  6.6916e-001 38418 95192,94855,95048
 2.4000e+000 95146 -2.1236e+001 -1.4076e+002 -7.5037e+000 38418 94907,95048,95120
 2.4000e+000 95169 -1.4332e+001 -1.5210e+002 -7.9674e+000 38418 94907,95120,94751
 2.4000e+000 95218 -2.2013e+000 -1.3654e+002 -1.0991e+001 38418 94907,94881,95192
 2.4000e+000 95241 -1.6160e+001 -1.3697e+002 -1.4608e+000 38418 94907,95192,95048
 2.4000e+000 95511 -5.3558e+001 -1.6335e+002  7.1220e+000 38049 95312,95390,95364
 2.4000e+000 95488 -4.0172e+001 -1.5780e+002  7.2431e+000 38049 95312,95416,95390
 2.4000e+000 95465 -1.8580e+001 -1.5086e+002 -1.0650e+001 38049 95312,95364,95338
 2.4000e+000 95442 -1.5678e+001 -1.4752e+002  1.4223e+001 38049 95286,95416,95312
 2.4000e+000 95808 -4.6063e+001 -1.7887e+002 -1.3499e+001 37437 95831,95586,95560
 2.4000e+000 95785 -2.8946e+001 -1.6361e+002 -6.8717e+000 37437 95831,95560,95534
 2.4000e+000 95762 -5.3788e+001 -1.7354e+002  2.2115e+001 37437 95586,95664,95638
 2.4000e+000 95739 -4.6902e+001 -1.1343e+002 -2.0802e+001 37437 95534,95690,95664
 2.4000e+000 95716 -5.9560e+001 -1.1855e+002  1.4371e+001 37437 95586,95638,95612
 2.4000e+000 95857 -5.9294e+001 -1.6186e+002 -3.6129e+000 37437 95664,95586,95831
 2.4000e+000 95880 -4.0563e+001 -1.4543e+002  3.5068e+000 37437 95664,95831,95534
 2.4000e+000 96390 -5.9072e+001 -1.2141e+002 -8.4305e+000 36883 96413,96145,96093
 2.4000e+000 96367 -5.5934e+001 -1.1838e+002 -1.8374e+000 36883 96413,96093,96067
 2.4000e+000 96344 -3.2040e+001 -1.4395e+002 -8.7548e+000 36883 96067,96249,96171
 2.4000e+000 96321 -4.6482e+001 -1.3303e+002 -6.5723e+000 36883 96093,96145,96119
 2.4000e+000 96298 -6.5144e+001 -2.3193e+002  2.3449e+001 36883 96171,96249,96197
 2.4000e+000 96275 -1.1643e+001 -1.9053e+002  3.2715e+000 36883 96197,96249,96223
 2.4000e+000 96439 -5.4494e+001 -1.1111e+002 -7.1316e+000 36883 96171,96145,96413
 2.4000e+000 96462 -5.4218e+001 -1.1459e+002 -8.2875e-001 36883 96171,96413,96067
 2.4000e+000 96781 -5.1319e+000 -1.2203e+002 -2.6449e+001 36215 96559,96663,96637
 2.4000e+000 96758 -3.5298e+001 -1.0731e+002 -2.2197e+001 36215 96507,96663,96559
 2.4000e+000 96735 -2.5762e+001 -8.6062e+001  7.3143e+000 36215 96585,96637,96611
 2.4000e+000 96712 -9.1237e+001 -1.4952e+002 -2.2492e+001 36215 96559,96637,96585
 2.4000e+000 96689 -2.0849e+001 -1.6303e+002 -1.0471e+001 36215 96507,96559,96533
 2.4000e+000 97161  1.3003e+001 -7.7455e+001 -1.1080e+000 35818 97184,96965,96939
 2.4000e+000 97138 -9.9770e-001 -7.1137e+001 -1.3004e+001 35818 97184,96939,96887
 2.4000e+000 97115  3.3863e+000 -1.0262e+002  1.6353e+001 35818 96965,97043,97017
 2.4000e+000 97092  3.1149e+001 -7.2400e+001 -3.3948e+001 35818 96887,96939,96913
 2.4000e+000 97069 -5.3074e+001 -9.2968e+001  1.1640e+001 35818 96965,97017,96991
 2.4000e+000 97210  3.0462e+001 -7.4103e+001 -1.4328e+000 35818 97043,96965,97184
 2.4000e+000 97233  1.5793e+001 -6.7525e+001 -1.2252e+001 35818 97043,97184,96887
 2.4000e+000 97739 -4.7651e+001 -1.4124e+002 -2.3308e+001 35214 97416,97468,97442
 2.4000e+000 97716 -5.1242e+001 -9.8336e+001 -4.3652e+000 35214 97416,97598,97468
 2.4000e+000 97693 -4.6441e+001 -9.7879e+001  2.3864e+000 35214 97762,97520,97468
 2.4000e+000 97670 -5.2918e+001 -1.0396e+002 -4.9513e+000 35214 97762,97468,97598
 2.4000e+000 97647 -4.7820e+001 -9.5290e+001 -1.7988e+001 35214 97546,97598,97572
 2.4000e+000 97624 -2.6952e+001 -9.3852e+001 -1.2838e+000 35214 97468,97520,97494
 2.4000e+000 97788 -4.9049e+001 -1.0731e+002 -3.6021e+000 35214 97546,97520,97762
 2.4000e+000 97811 -5.2010e+001 -1.1172e+002 -1.0321e+001 35214 97546,97762,97598
 2.4000e+000 98189 -9.4071e+000 -8.6513e+001 -1.0271e+001 34760 98356,98212,97967
 2.4000e+000 98166 -2.0732e+001 -1.0354e+002 -1.8091e+001 34760 98284,98212,97941
 2.4000e+000 98143 -4.3280e+001 -9.1780e+001 -8.5210e+000 34760 98284,97941,97915
 2.4000e+000 98120 -9.1600e+000 -1.0920e+002 -2.9474e+000 34760 98484,97993,97967
 2.4000e+000 98097 -2.8163e+000 -9.8175e+001 -3.2670e+000 34760 98556,98045,98019
 2.4000e+000 98238 -1.4624e+001 -1.0611e+002 -3.8250e+000 34760 98484,97967,98212
 2.4000e+000 98261  6.5986e+000 -1.0227e+002 -8.1107e+000 34760 98556,98019,98212
 2.4000e+000 98310  2.3978e-001 -8.3461e+001 -2.8452e+001 34760 98071,98212,98284
 2.4000e+000 98333 -1.6393e+001 -5.4870e+001 -2.3826e+001 34760 98071,98284,97915
 2.4000e+000 98382 -5.7491e+001 -1.1604e+002 -2.3972e+001 34760 97941,98212,98356
 2.4000e+000 98510  1.7781e+000 -1.0861e+002 -5.6844e+000 34760 98019,97993,98484
 2.4000e+000 98533 -7.8848e+000 -1.0880e+002 -6.7013e+000 34760 98019,98484,98212
 2.4000e+000 98582  9.0544e+000 -9.2514e+001 -1.0193e+000 34760 98071,98045,98556
 2.4000e+000 98605  1.3007e+001 -9.9971e+001 -6.8898e+000 34760 98071,98556,98212
 2.4000e+000 99032 -5.2808e+001 -1.3376e+002  2.5324e+001 34156 98735,98891,98839
 2.4000e+000 99009 -5.0883e+001 -1.4099e+002  1.4396e+001 34156 98709,98891,98735
 2.4000e+000 98986 -1.2534e+001 -1.1782e+002  2.4120e+001 34156 98735,98813,98787
 2.4000e+000 98963 -1.4334e+001 -1.2632e+002  1.9805e+001 34156 98735,98839,98813
 2.4000e+000 98940  3.7709e+000 -1.7524e+002  2.4001e+001 34156 98735,98787,98761
 2.4000e+000 98917 -4.5406e+001 -1.1286e+002  6.4089e+000 34156 98839,98891,98865
 2.4000e+000 99231 -1.3081e+000 -5.9465e+001  9.0353e+000 33766 99055,99133,99107
 2.4000e+000 99208 -3.1351e+001 -5.6790e+001  1.7340e+001 33766 99055,99159,99133
 2.4000e+000 99185 -1.9449e+001 -9.8350e+001  3.4521e+000 33766 99055,99107,99081
 2.4000e+000 99818 -2.6084e+001 -1.0344e+002  1.2277e+000 33248 99521,99651,99573
 2.4000e+000 99795 -3.4123e+001 -1.0311e+002  7.3221e+000 33248 99521,99677,99651
 2.4000e+000 99772 -5.2489e+001 -1.3126e+002 -1.2764e+001 33248 99573,99651,99599
 2.4000e+000 99749 -3.3614e+001 -1.3471e+002  9.9192e+000 33248 99495,99677,99521
 2.4000e+000 99726 -2.7146e+001 -1.1752e+002 -2.9834e+001 33248 99599,99651,99625
 2.4000e+000 99703 -4.0165e+001 -1.2452e+002  7.7690e+000 33248 99521,99573,99547
 2.4000e+000 100196 -4.3525e+001 -1.0196e+002 -1.5552e+001 32794 100219,99948,99922
 2.4000e+000 100173 -4.7895e+001 -1.1125e+002 -9.7172e+000 32794 100219,99922,100052
 2.4000e+000 100150 -5.0202e+001 -1.0386e+002  2.4479e+000 32794 99974,100052,100026
 2.4000e+000 100127 -5.6786e+001 -1.0609e+002 -1.0545e+001 32794 99922,100078,100052
 2.4000e+000 100104 -5.5321e+001 -1.2977e+002  2.2558e+001 32794 99974,100026,100000
 2.4000e+000 100245 -5.0101e+001 -9.9251e+001 -6.3542e+000 32794 99974,99948,100219
 2.4000e+000 100268 -5.3743e+001 -1.1204e+002 -5.7085e-001 32794 99974,100219,100052
 2.4000e+000 100418 -3.2130e+000 -9.7932e+001 -1.8419e+001 32504 100571,100343,100317
 2.4000e+000 100395 -3.9342e+001 -1.1431e+002  5.1610e+000 32504 100571,100317,100441
 2.4000e+000 100467  3.3310e+001 -4.7012e+001 -4.0810e+001 32504 100291,100369,100441
 2.4000e+000 100597  1.3219e+001 -7.9564e+001 -4.6717e+001 32504 100369,100343,100571
 2.4000e+000 100620 -3.0001e+000 -7.3125e+001 -2.6300e+001 32504 100369,100571,100441
 2.4000e+000 101020 -1.9761e+001 -9.3632e+001  3.5687e+000 32142 100772,100902,100876
 2.4000e+000 100997 -1.2070e+001 -8.3174e+001  6.9724e+000 32142 100746,100902,100772
 2.4000e+000 100974 -5.6810e+000 -1.0694e+002  1.0986e+001 32142 101043,100824,100798
 2.4000e+000 100951 -1.9158e+001 -1.1320e+002  8.3926e+000 32142 101043,100798,100772
 2.4000e+000 100928 -6.2083e+001 -1.3158e+002 -3.2704e+001 32142 101115,100876,100850
 2.4000e+000 101069  1.2762e+001 -1.1552e+002 -1.1206e+001 32142 100850,100824,101043
 2.4000e+000 101092 -3.3117e+001 -1.3591e+002 -1.5624e+001 32142 101115,100850,101043
 2.4000e+000 101141 -2.6177e+001 -1.1018e+002 -1.2856e+001 32142 100772,100876,101115
 2.4000e+000 101164 -3.4557e+000 -1.1301e+002  5.7075e+000 32142 100772,101115,101043
 2.4000e+000 101719 -5.5350e+001 -1.3570e+002  9.9221e+000 31538 101742,101477,101399
 2.4000e+000 101696 -7.4623e+001 -1.6014e+002 -1.4099e+000 31538 101814,101742,101399
 2.4000e+000 101673 -8.7842e+001 -1.3917e+002 -1.8927e+001 31538 101814,101399,101373
 2.4000e+000 101650 -4.8405e+001 -7.2262e+001  2.0433e+000 31538 101425,101477,101451
 2.4000e+000 101627 -4.6523e+001 -1.0173e+002 -1.3486e+001 31538 101399,101477,101425
 2.4000e+000 101604 -2.6462e+001 -1.5227e+002  2.2507e+001 31538 101477,101529,101503
 2.4000e+000 101581 -2.2642e+001 -9.2464e+001 -1.2586e+001 31538 101347,101555,101373
 2.4000e+000 101768 -5.7782e+001 -1.5977e+002  6.5728e+000 31538 101529,101477,101742
 2.4000e+000 101791 -5.3529e+001 -1.6329e+002 -9.3123e+000 31538 101529,101742,101555
 2.4000e+000 101840 -4.3532e+001 -1.3979e+002 -1.0185e+001 31538 101555,101742,101814
 2.4000e+000 101863 -6.1185e+001 -1.2232e+002 -2.6132e+001 31538 101555,101814,101373
 2.4000e+000 102111 -7.4711e+001 -2.1359e+002  2.5629e+001 31112 101886,101990,101912
 2.4000e+000 102088 -2.4111e+001 -1.3931e+002 -2.9331e+000 31112 101886,102016,101990
 2.4000e+000 102065 -3.6209e+001 -2.0465e+002  3.3420e+001 31112 101912,101990,101964
 2.4000e+000 102042 -5.3552e+001 -2.3326e+002  4.0658e+001 31112 101912,101964,101938
 2.4000e+000 102408 -7.7078e+000 -1.1806e+002  1.3870e+001 30658 102431,102186,102160
 2.4000e+000 102385 -2.7402e+001 -1.1539e+002  3.3656e+000 30658 102431,102160,102264
 2.4000e+000 102362 -3.4134e+001 -1.3273e+002  6.1248e+000 30658 102186,102238,102212
 2.4000e+000 102339 -2.1417e+001 -1.2661e+002 -1.3564e+001 30658 102134,102264,102160
 2.4000e+000 102316  2.5410e+001 -8.5385e+001 -5.4944e+001 30658 102134,102290,102264
 2.4000e+000 102457 -2.3385e+001 -1.2614e+002  9.3095e+000 30658 102238,102186,102431
 2.4000e+000 102480 -4.4574e+001 -1.2563e+002 -2.0500e+000 30658 102238,102431,102264
 2.4000e+000 102681 -3.0419e+001 -1.4829e+002  1.4440e+001 30004 102704,102557,102505
 2.4000e+000 102658 -2.8574e+001 -1.4654e+002  1.3673e+001 30004 102704,102505,102609
 2.4000e+000 102635 -1.4053e+001 -1.2785e+002  1.3531e+000 30004 102505,102557,102531
 2.4000e+000 102730 -2.8615e+001 -1.5154e+002  1.5811e+001 30004 102583,102557,102704
 2.4000e+000 102753 -2.4240e+001 -1.4859e+002  1.4379e+001 30004 102583,102704,102609
 2.4000e+000 103003 -1.7957e+001 -1.1840e+002 -6.0065e-001 29564 103026,102804,102778
 2.4000e+000 102980 -2.1792e+001 -1.2688e+002  2.8627e-001 29564 103026,102778,102908
 2.4000e+000 102957 -6.7443e+000 -1.1623e+002  1.2355e+001 29564 102856,102908,102882
 2.4000e+000 102934 -2.7738e+001 -1.2334e+002  8.1646e+000 29564 102804,102856,102830
 2.4000e+000 103052 -2.1403e+001 -1.1575e+002  5.2155e+000 29564 102856,102804,103026
 2.4000e+000 103075 -2.3926e+001 -1.2160e+002  5.3892e+000 29564 102856,103026,102908
 2.4000e+000 103634 -6.0087e+001 -1.4930e+002 -2.3963e+001 29160 103657,103418,103392
 2.4000e+000 103611 -5.7238e+001 -1.4427e+002 -1.2970e+001 29160 103657,103392,103314
 2.4000e+000 103588 -2.7559e+001 -1.3753e+002 -2.2172e+001 29160 103314,103392,103366
 2.4000e+000 103565 -4.8236e+001 -1.5830e+002 -1.3134e+001 29160 103314,103366,103340
 2.4000e+000 103542 -7.8677e+001 -1.4173e+002 -1.9275e+001 29160 103262,103444,103314
 2.4000e+000 103519 -9.1290e+001 -1.6139e+002 -3.2718e+001 29160 103262,103314,103288
 2.4000e+000 103496 -5.2771e+001 -1.4996e+002 -1.1380e+001 29160 103262,103470,103444
 2.4000e+000 103683 -7.6141e+001 -1.6101e+002 -3.4023e+001 29160 103444,103418,103657
 2.4000e+000 103706 -6.4084e+001 -1.4423e+002 -2.1495e+001 29160 103444,103657,103314
 2.4000e+000 104035 -4.5218e+001 -1.2103e+002  2.0193e+001 28770 103836,103914,103862
 2.4000e+000 104012 -3.0960e+001 -1.1702e+002  2.0427e+001 28770 103810,103914,103836
 2.4000e+000 103989  3.2732e+001 -1.0381e+002  3.0436e+001 28770 103810,103940,103914
 2.4000e+000 103966  4.1352e+001 -9.6808e+001  5.9831e+001 28770 103862,103914,103888
 2.4000e+000 104185  5.9978e+000 -1.5071e+002  2.8783e+000 28366 104208,104110,104084
 2.4000e+000 104162  4.7040e+001 -1.1308e+002  3.2945e+001 28366 104280,104208,104084
 2.4000e+000 104234  1.0588e+001 -1.2804e+002  6.0676e-001 28366 104610,104208,104136
 2.4000e+000 104257 -2.2922e+001 -1.4045e+002  1.2675e+001 28366 104538,104410,104208
 2.4000e+000 104306 -2.4050e+001 -1.5033e+002  1.8008e+001 28366 104538,104208,104280
 2.4000e+000 104436  2.2218e-001 -1.3555e+002 -3.6832e+000 28366 104136,104208,104410
 2.4000e+000 104564 -2.5281e+001 -1.2745e+002  1.0820e+001 28366 104058,104410,104538
 2.4000e+000 104587 -2.3600e+001 -1.3547e+002  1.4849e+001 28366 104058,104538,104280
 2.4000e+000 104636 -2.0658e+001 -1.4041e+002  4.4405e+000 28366 104110,104208,104610
 2.4000e+000 105349 -3.1982e+001 -1.1345e+002 -1.1138e+001 27976 105516,105372,105107
 2.4000e+000 105326 -4.8870e+001 -1.1282e+002  5.3385e+000 27976 105588,105372,105055
 2.4000e+000 105303 -5.4710e+001 -1.1043e+002 -1.6185e+001 27976 105444,105159,105133
 2.4000e+000 105280 -1.9531e+001 -1.1711e+002 -6.9833e+000 27976 105516,105107,105081
 2.4000e+000 105257 -4.2194e+001 -1.1970e+002  1.4706e+001 27976 105588,105055,105029
 2.4000e+000 105234 -2.7220e+001 -9.4452e+001  4.4729e-001 27976 105003,105185,105159
 2.4000e+000 105211 -3.6785e+001 -7.6174e+001  1.3326e+001 27976 104977,105185,105003
 2.4000e+000 105398 -2.4902e+001 -1.1393e+002 -1.4951e+001 27976 105133,105107,105372
 2.4000e+000 105421 -4.4912e+001 -1.2100e+002 -1.0235e+001 27976 105444,105133,105372
 2.4000e+000 105470 -4.6662e+001 -9.3994e+001 -1.0032e+001 27976 105003,105159,105444
 2.4000e+000 105493 -3.8628e+001 -1.0475e+002 -7.3489e+000 27976 105003,105444,105372
 2.4000e+000 105542 -2.3691e+001 -1.1340e+002 -2.7376e-001 27976 105055,105372,105516
 2.4000e+000 105565 -4.5872e+000 -1.1429e+002  2.4873e+000 27976 105055,105516,105081
 2.4000e+000 105614 -6.0011e+001 -1.1896e+002  7.8882e+000 27976 105003,105372,105588
 2.4000e+000 105637 -5.6223e+001 -1.2719e+002  1.7584e+001 27976 105003,105588,105029
 2.4000e+000 106143 -6.0729e+001 -1.8193e+002  1.0831e+001 27664 106166,105846,105820
 2.4000e+000 106120 -4.6488e+001 -1.4489e+002  5.8328e+000 27664 106310,106166,105820
 2.4000e+000 106097 -2.2272e+001 -1.6140e+002 -3.3686e+001 27664 106382,106238,105950
 2.4000e+000 106074 -3.4047e+001 -1.4311e+002  6.5530e+000 27664 106310,105820,106002
 2.4000e+000 106051  1.1353e+001 -1.4462e+002 -2.8155e+001 27664 106382,105950,105924
 2.4000e+000 106028 -1.9497e+001 -2.5753e+002 -6.7137e+000 27664 105846,105898,105872
 2.4000e+000 106192 -5.8567e+001 -2.0237e+002 -2.3569e+001 27664 105898,105846,106166
 2.4000e+000 106215 -3.9123e+001 -1.6923e+002 -8.0827e+000 27664 106238,105898,106166
 2.4000e+000 106264 -9.8210e+001 -1.8256e+002 -4.3101e+001 27664 105976,105950,106238
 2.4000e+000 106287 -3.5904e+001 -1.6873e+002 -8.5635e+000 27664 105976,106238,106166
 2.4000e+000 106336 -3.3994e+001 -1.5079e+002  1.7062e+001 27664 105976,106166,106310
 2.4000e+000 106359 -1.9743e+001 -1.4808e+002  1.7329e+001 27664 105976,106310,106002
 2.4000e+000 106408 -3.8818e+001 -1.3650e+002  3.9693e+000 27664 105898,106238,106382
 2.4000e+000 106431 -1.7734e+001 -1.2689e+002  6.4562e+000 27664 105898,106382,105924
 2.4000e+000 106728 -1.4356e+001 -1.0077e+002  1.4997e+001 27153 106751,106506,106454
 2.4000e+000 106705 -1.4052e+001 -1.0269e+002  1.2174e+001 27153 106751,106454,106610
 2.4000e+000 106682 -2.7151e+001 -7.4621e+001 -3.0106e+000 27153 106454,106506,106480
 2.4000e+000 106659 -2.1350e+001 -1.0036e+002  8.4583e+000 27153 106532,106610,106584
 2.4000e+000 106636 -4.1200e+001 -6.1374e+001  1.8418e+001 27153 106532,106584,106558
 2.4000e+000 106777 -1.0985e+001 -9.8153e+001  1.6146e+001 27153 106532,106506,106751
 2.4000e+000 106800 -1.1809e+001 -1.0105e+002  1.2906e+001 27153 106532,106751,106610
 2.4000e+000 107180 -2.8909e+001 -1.3104e+002 -1.7118e+000 26642 107203,106984,106958
 2.4000e+000 107157 -6.2670e+001 -1.4485e+002 -1.1619e-001 26642 107203,106958,106932
 2.4000e+000 107134 -7.0317e+001 -1.5044e+002 -2.1864e+001 26642 107275,107036,107010
 2.4000e+000 107111 -4.6452e+001 -1.4321e+002 -2.6429e+001 26642 106932,107062,107036
 2.4000e+000 107088 -1.5244e+000 -1.1162e+002  1.2716e+001 26642 106906,107062,106932
 2.4000e+000 107229 -8.3719e+000 -1.1607e+002 -3.8864e+001 26642 107010,106984,107203
 2.4000e+000 107252 -6.4951e+001 -1.4771e+002 -2.6154e+001 26642 107275,107010,107203
 2.4000e+000 107301 -6.2681e+001 -1.4838e+002 -2.4444e+001 26642 106932,107036,107275
 2.4000e+000 107324 -5.8748e+001 -1.4987e+002 -2.6452e+001 26642 106932,107275,107203
 2.4000e+000 107675 -3.0615e+001 -8.2324e+001  8.9277e+000 26045 107450,107554,107476
 2.4000e+000 107652 -2.1047e+001 -7.0541e+001  2.6530e+000 26045 107450,107580,107554
 2.4000e+000 107629 -1.1672e+001 -5.3169e+001 -1.9499e+000 26045 107476,107528,107502
 2.4000e+000 107606 -4.0084e+000 -7.5161e+001  5.6362e+000 26045 107476,107554,107528
 2.4000e+000 107874 -2.3362e+001 -1.3276e+002  3.4294e+001 25641 107750,107802,107776
 2.4000e+000 107851 -2.9120e+001 -9.7115e+001  1.9939e+001 25641 107724,107802,107750
 2.4000e+000 107828 -2.3050e+001 -9.8616e+001  1.5138e+001 25641 107698,107802,107724
 2.4000e+000 108431  5.8343e+001 -1.3369e+002  2.8679e+001 25023 108526,108267,108241
 2.4000e+000 108408  8.3420e+001 -1.0342e+002  1.0556e+001 25023 108059,108267,108085
 2.4000e+000 108385  1.1061e+000 -1.3495e+002  1.9074e+001 25023 108454,108163,108111
 2.4000e+000 108362 -6.7786e+001 -1.4026e+002  4.0711e+001 25023 108454,108111,108085
 2.4000e+000 108339 -4.9238e+001 -1.8047e+002  3.8718e+001 25023 108111,108163,108137
 2.4000e+000 108316 -4.6185e+000 -9.2643e+001 -1.4900e+000 25023 108163,108241,108215
 2.4000e+000 108293  2.1346e+001 -8.1647e+001 -1.6580e+000 25023 108163,108215,108189
 2.4000e+000 108480  1.0631e+001 -1.2855e+002  1.4621e+000 25023 108241,108163,108454
 2.4000e+000 108503  2.4353e+001 -1.2400e+002  2.6870e+001 25023 108526,108241,108454
 2.4000e+000 108552  1.7144e+001 -1.3191e+002  8.8911e+000 25023 108085,108267,108526
 2.4000e+000 108575 -1.8925e+001 -1.2443e+002  6.2633e+000 25023 108085,108526,108454
 2.4000e+000 108823 -6.0149e+000 -1.0295e+002  1.6142e+001 24461 108624,108728,108650
 2.4000e+000 108800 -1.8134e+001 -2.1667e+002 -1.3835e+001 24461 108598,108728,108624
 2.4000e+000 108777 -2.3930e+000 -1.3442e+002  1.3822e+001 24461 108650,108728,108676
 2.4000e+000 108754 -6.1056e+001 -3.7055e+002  3.3038e+001 24461 108676,108728,108702
 2.4000e+000 109022 -4.1716e+001 -1.0559e+002  1.6721e+001 24121 108872,108924,108898
 2.4000e+000 108999 -2.6982e+001 -1.1682e+002  1.5726e+001 24121 108846,108924,108872
 2.4000e+000 108976 -1.7060e+001 -1.1514e+002  2.1831e+001 24121 108846,108950,108924
 2.4000e+000 109483 -4.5470e+001 -1.4874e+002 -1.5772e+001 23717 109209,109339,109235
 2.4000e+000 109460 -1.9627e+001 -1.6890e+002 -3.4816e+001 23717 109209,109365,109339
 2.4000e+000 109437 -1.0386e+001 -1.8066e+002 -1.1541e+001 23717 109287,109339,109313
 2.4000e+000 109414 -8.6008e+001 -1.8462e+002  5.1981e+000 23717 109235,109339,109287
 2.4000e+000 109391 -1.1147e+001 -2.1970e+002  6.6001e+001 23717 109235,109287,109261
 2.4000e+000 109910 -6.0466e+001 -1.7207e+002 -1.5121e+001 23305 109613,109743,109717
 2.4000e+000 109887 -5.8963e+001 -1.7240e+002 -9.8507e+000 23305 109613,109769,109743
 2.4000e+000 109864 -7.3237e+001 -1.6300e+002 -1.2721e+001 23305 109613,109717,109639
 2.4000e+000 109841 -4.6583e+001 -1.6028e+002 -3.7786e+000 23305 109587,109769,109613
 2.4000e+000 109818  8.7673e-001 -1.3155e+002  1.4203e+001 23305 109639,109717,109691
 2.4000e+000 109795 -1.9502e+001 -1.0978e+002 -1.9342e+001 23305 109639,109691,109665
 2.4000e+000 110180 -1.0419e+001 -6.1438e+001 -4.7654e+000 22851 110007,110059,110033
 2.4000e+000 110157 -3.6674e+001 -1.3070e+002  5.9590e+000 22851 109981,110059,110007
 2.4000e+000 110134 -4.9543e+001 -1.4260e+002 -1.5938e-001 22851 109955,110059,109981
 2.4000e+000 110111 -2.0840e+001 -1.6059e+002 -1.3185e+001 22851 109955,110085,110059
 2.4000e+000 110737 -9.2583e+000 -1.4982e+002 -1.5638e+001 22333 110760,110469,110391
 2.4000e+000 110714 -9.3593e+000 -1.5779e+002 -1.2442e+001 22333 110760,110391,110365
 2.4000e+000 110691 -2.0946e+000 -1.4109e+002 -1.8225e+001 22333 110832,110521,110469
 2.4000e+000 110668  1.6681e+001 -2.6996e+002 -6.8041e+000 22333 110417,110469,110443
 2.4000e+000 110645 -4.0675e+001 -2.2655e+002 -1.8993e+001 22333 110391,110469,110417
 2.4000e+000 110622  2.7946e+001 -1.2131e+002 -3.7404e+001 22333 110469,110521,110495
 2.4000e+000 110599 -9.5497e+000 -1.1307e+002 -1.8842e+001 22333 110365,110573,110547
 2.4000e+000 110786 -9.8675e+000 -1.3948e+002 -1.4831e+001 22333 110832,110469,110760
 2.4000e+000 110809 -1.9990e+001 -1.5209e+002 -2.0751e+001 22333 110547,110760,110365
 2.4000e+000 110858  1.6998e+001 -1.4001e+002 -2.4286e+001 22333 110547,110521,110832
 2.4000e+000 110881 -6.9387e-001 -1.4277e+002 -2.3615e+001 22333 110547,110832,110760
 2.4000e+000 111308 -7.8422e+001 -1.7541e+002  7.7919e+000 21829 111331,111063,111011
 2.4000e+000 111285 -8.1825e+001 -1.6591e+002 -6.7701e+000 21829 111331,111011,111167
 2.4000e+000 111262 -8.4379e+001 -1.7621e+002  4.1926e+000 21829 111403,111089,111063
 2.4000e+000 111239 -9.2863e+001 -1.6477e+002  2.4301e+001 21829 111011,111063,111037
 2.4000e+000 111216 -5.9718e+001 -1.4660e+002  3.5728e+000 21829 110985,111167,111011
 2.4000e+000 111193 -9.6472e+001 -2.9138e+002  5.2041e+001 21829 111089,111141,111115
 2.4000e+000 111357 -8.2629e+001 -1.7747e+002  4.2087e+000 21829 111403,111063,111331
 2.4000e+000 111380 -8.8156e+001 -1.8816e+002 -9.7045e+000 21829 111141,111331,111167
 2.4000e+000 111429 -8.4019e+001 -1.7802e+002  6.7691e+000 21829 111141,111089,111403
 2.4000e+000 111452 -8.3523e+001 -1.8183e+002  5.4055e+000 21829 111141,111403,111331
 2.4000e+000 112056  4.1630e+001 -1.3354e+002  3.7131e+000 21489 111687,111765,111739
 2.4000e+000 112033  4.9331e+000 -1.5730e+002  1.6222e+001 21489 112151,112079,111687
 2.4000e+000 112010 -3.6305e+000 -2.3426e+002  1.1633e+001 21489 111791,111843,111817
 2.4000e+000 111987 -4.8376e+001 -1.9601e+002 -1.3153e+001 21489 112079,111843,111791
 2.4000e+000 111964  2.7341e+001 -1.4684e+002  2.9566e+001 21489 112151,111687,111661
 2.4000e+000 111941 -1.7988e+001 -1.0673e+002  2.6866e+001 21489 111661,111869,111843
 2.4000e+000 111918  4.4446e+001 -1.4303e+002  2.0234e+001 21489 111687,111739,111713
 2.4000e+000 111895  3.4565e+000 -5.7075e+001  1.0048e+001 21489 111635,111869,111661
 2.4000e+000 112105 -3.0500e+001 -1.6613e+002  1.1102e+001 21489 111765,111687,112079
 2.4000e+000 112128 -3.0702e+001 -1.6314e+002  1.1617e+001 21489 111765,112079,111791
 2.4000e+000 112177 -3.2661e+001 -1.5535e+002 -2.4354e+000 21489 111843,112079,112151
 2.4000e+000 112200 -1.2171e+001 -1.5146e+002  8.4366e+000 21489 111843,112151,111661
 2.4000e+000 112578 -3.7558e+001 -1.9518e+002  9.3167e+000 21177 112382,112434,112408
 2.4000e+000 112555 -4.7393e+001 -1.9596e+002  6.5410e-001 21177 112330,112434,112382
 2.4000e+000 112532 -3.8628e+001 -1.6883e+002  2.9376e+001 21177 112304,112434,112330
 2.4000e+000 112509 -4.6639e+001 -1.8702e+002  0.0000e+000 21177 112330,112382,112356
 2.4000e+000 112486 -1.0602e+001 -1.1224e+002  7.3818e+000 21177 112304,112460,112434
 2.4000e+000 112679 -1.7354e+000 -1.3869e+002 -2.4499e+001 20666 112601,112653,112627
 2.4000e+000 112927 -5.5504e+001 -1.9060e+002  5.4175e+000 19762 112702,112754,112728
 2.4000e+000 112904 -2.0986e+001 -1.7813e+002 -3.7254e+000 19762 112702,112832,112754
 2.4000e+000 112881 -4.5482e+001 -1.8804e+002  2.8096e+001 19762 112754,112832,112806
 2.4000e+000 112858 -6.5775e+001 -2.4301e+002  2.9388e+001 19762 112754,112806,112780
 2.4000e+000 113297 -4.1189e+001 -2.2302e+002  1.7075e+001 19308 112974,113052,113026
 2.4000e+000 113274 -3.2320e+001 -1.7993e+002  8.5779e+000 19308 112974,113156,113052
 2.4000e+000 113251 -2.8063e+001 -2.3890e+002 -2.7078e+001 19308 113052,113130,113104
 2.4000e+000 113228 -3.8045e+001 -1.8143e+002  5.7927e-001 19308 113052,113156,113130
 2.4000e+000 113205 -3.7492e+001 -2.0808e+002  0.0000e+000 19308 113052,113104,113078
 2.4000e+000 113182 -7.0108e+001 -2.3945e+002 -2.3674e+000 19308 112974,113026,113000
 2.4000e+000 113547 -2.2114e+001 -2.0050e+002 -1.3347e+001 18711 113570,113374,113348
 2.4000e+000 113524 -2.8825e+001 -1.8745e+002 -9.1667e+000 18711 113570,113348,113452
 2.4000e+000 113501 -2.3041e+001 -1.4361e+002 -3.8277e+001 18711 113322,113452,113348
 2.4000e+000 113478 -3.3766e+001 -1.8630e+002 -5.8272e+001 18711 113374,113426,113400
 2.4000e+000 113596 -1.8006e+001 -1.8657e+002 -1.7155e+001 18711 113426,113374,113570
 2.4000e+000 113619 -2.7056e+001 -1.7653e+002 -1.0393e+001 18711 113426,113570,113452
 2.4000e+000 113771 -9.9894e+001 -2.4672e+002 -1.2627e+001 18307 113670,113722,113696
 2.4000e+000 113748 -7.9103e+001 -2.3278e+002 -5.8729e+000 18307 113644,113722,113670
 2.4000e+000 113972 -4.0721e+001 -2.0568e+002  2.6691e+000 17945 113822,113874,113848
 2.4000e+000 113949 -4.7753e+001 -2.0546e+002  3.8940e+000 17945 113822,113900,113874
 2.4000e+000 113926 -6.7066e+001 -1.6428e+002  8.8399e+001 17945 113796,113900,113822
 2.4000e+000 114075  4.0948e+001 -2.6647e+002  4.2605e+001 17482 113997,114049,114023
 2.4000e+000 114479 -3.0531e+000 -1.7121e+002 -3.3214e+001 17042 114257,114361,114335
 2.4000e+000 114456 -4.0706e+001 -1.6474e+002 -4.4857e+000 17042 114205,114361,114257
 2.4000e+000 114433 -5.0884e+001 -1.8912e+002  6.3215e+000 17042 114205,114257,114231
 2.4000e+000 114410  5.2565e+001 -2.6338e+002 -1.4507e+001 17042 114283,114335,114309
 2.4000e+000 114387  1.5407e+001 -2.2492e+002 -1.0983e+001 17042 114257,114335,114283
 2.4000e+000 114879 -7.9241e+001 -1.8792e+002 -1.6204e+000 16638 114631,114683,114657
 2.4000e+000 114856  1.4238e+001 -1.4755e+002 -4.0829e+000 16638 114605,114683,114631
 2.4000e+000 114833  2.4088e+001 -1.0402e+002  1.0656e+000 16638 114605,114761,114683
 2.4000e+000 114810  2.5062e+001 -1.8098e+002 -1.6144e+001 16638 114683,114735,114709
 2.4000e+000 114787 -3.1850e+001 -2.0334e+002 -2.2273e+001 16638 114683,114761,114735
 2.4000e+000 115078 -1.0196e+002 -2.1073e+002  7.7767e+000 16232 114954,115006,114980
 2.4000e+000 115055 -8.4923e+001 -2.2107e+002  6.9326e+000 16232 114928,115006,114954
 2.4000e+000 115032 -3.8715e+001 -2.8536e+002  1.4983e+001 16232 114902,115006,114928
 2.4000e+000 115228 -4.5106e+001 -1.9056e+002  4.6021e+000 15482 115101,115153,115127
 2.4000e+000 115205 -5.5741e+001 -1.8710e+002 -2.1004e+000 15482 115101,115179,115153
 2.4000e+000 115331 -4.8738e+001 -1.8573e+002 -1.9062e+001 15163 115253,115305,115279
 2.4000e+000 115434 -4.9623e+001 -1.9053e+002  2.1957e+001 421 115356,115408,115382
 2.5000e+000 68213 -4.3800e+000 -1.1288e+002 -7.8528e+000 67888 68112,68164,68138
 2.5000e+000 68190 -8.9626e+001 -1.3965e+002 -1.1666e+001 67888 68086,68164,68112
 2.5000e+000 68314 -1.7050e+001 -2.1162e+002  2.5380e+001 67576 68236,68288,68262
 2.5000e+000 68584 -4.0442e+001 -2.6887e+002  1.0289e+001 67378 68385,68489,68463
 2.5000e+000 68561  6.6440e+001 -2.2374e+002  6.9630e+000 67378 68359,68489,68385
 2.5000e+000 68538 -3.4349e+001 -2.3375e+002  1.2802e+001 67378 68385,68463,68411
 2.5000e+000 68515 -1.9086e+001 -1.4058e+002  8.3812e+000 67378 68411,68463,68437
 2.5000e+000 68964 -4.8762e+001 -2.4304e+002  3.8283e+001 67130 68690,68820,68716
 2.5000e+000 68941  7.1904e+001 -2.4963e+002  7.3689e+001 67130 68690,68846,68820
 2.5000e+000 68918 -4.2978e+001 -1.6045e+002  5.4663e+000 67130 68742,68820,68794
 2.5000e+000 68895  2.8876e+000 -1.5749e+002  1.5163e+001 67130 68716,68820,68742
 2.5000e+000 68872 -2.0713e+001 -1.2453e+002 -1.4222e+001 67130 68742,68794,68768
 2.5000e+000 69065 -4.3637e+001 -1.4723e+002  1.7199e+000 66926 68987,69039,69013
 2.5000e+000 69445 -2.6851e+001 -1.4522e+002 -5.9959e+000 66614 69223,69301,69275
 2.5000e+000 69422 -4.4148e+001 -1.5232e+002 -5.3873e+000 66614 69171,69301,69223
 2.5000e+000 69399 -5.2332e+001 -1.5099e+002 -1.3066e+000 66614 69171,69327,69301
 2.5000e+000 69376 -9.7854e+000 -7.7346e+001  1.3228e+000 66614 69223,69275,69249
 2.5000e+000 69353 -3.5338e+001 -1.5979e+002 -4.3254e+000 66614 69171,69223,69197
 2.5000e+000 69546 -3.0781e+001 -2.2095e+002  1.4449e+001 66416 69468,69520,69494
 2.5000e+000 69997 -2.4981e+001 -2.2419e+002 -2.3457e+001 66104 69700,69830,69726
 2.5000e+000 69974 -3.1322e+001 -2.9382e+002 -4.8493e+001 66104 69700,69856,69830
 2.5000e+000 69951 -3.3094e+001 -1.7013e+002 -1.3555e+001 66104 69726,69804,69778
 2.5000e+000 69928 -2.2935e+001 -2.0830e+002 -1.8537e+001 66104 69726,69830,69804
 2.5000e+000 69905 -3.5485e+001 -1.6035e+002 -5.9089e+000 66104 69726,69778,69752
 2.5000e+000 69882 -5.2489e+000 -4.4349e+002 -7.6864e+001 66104 69674,69856,69700
 2.5000e+000 70326 -3.2090e+001 -8.5760e+001 -1.3326e+001 65814 70349,70153,70127
 2.5000e+000 70303  9.2465e+000 -8.7487e+001 -4.4461e-001 65814 70349,70127,70101
 2.5000e+000 70280  4.2690e+001 -3.8861e+001  5.5990e+001 65814 70101,70231,70205
 2.5000e+000 70257  5.6688e+001 -9.0232e+001  1.7097e+001 65814 70153,70205,70179
 2.5000e+000 70375 -1.1925e+001 -8.9561e+001  1.5935e+001 65814 70205,70153,70349
 2.5000e+000 70398  4.7388e+001 -8.4254e+001  2.5032e+001 65814 70205,70349,70101
 2.5000e+000 70904 -1.0036e+001 -4.4561e+001 -1.6723e+001 65502 70607,70737,70685
 2.5000e+000 70881 -8.9446e+000 -3.0603e+001 -2.3437e+001 65502 70581,70737,70607
 2.5000e+000 70858 -8.3108e+000  7.5458e+000 -2.1541e+000 65502 70581,70763,70737
 2.5000e+000 70835 -2.2208e+001 -5.1130e+001 -2.2190e+001 65502 70685,70737,70711
 2.5000e+000 70812 -6.8130e+001 -4.6556e+001 -5.9299e+000 65502 70607,70659,70633
 2.5000e+000 70789 -1.5915e+001 -5.5034e+001 -6.3086e+000 65502 70607,70685,70659
 2.5000e+000 71103 -2.1808e+001 -1.9524e+002 -5.2485e+000 65304 71126,70979,70953
 2.5000e+000 71080 -3.6097e+001 -2.0162e+002 -1.3920e+000 65304 71126,70953,70927
 2.5000e+000 71057 -5.5173e+001 -2.0325e+002  1.3645e+001 65304 70927,71031,71005
 2.5000e+000 71152 -3.8030e+001 -1.7565e+002 -8.9478e+000 65304 71005,70979,71126
 2.5000e+000 71175 -5.8289e+001 -1.8956e+002 -1.1224e+000 65304 71005,71126,70927
 2.5000e+000 71374  5.9097e+000 -1.8899e+002  9.8436e+000 65106 71198,71276,71224
 2.5000e+000 71351 -5.5940e+001 -2.0605e+002  4.1102e+000 65106 71198,71302,71276
 2.5000e+000 71328  2.2217e+001 -1.4782e+002  2.2457e+001 65106 71224,71276,71250
 2.5000e+000 71756 -1.5897e+001 -1.2091e+002 -1.1879e+001 64652 71508,71638,71534
 2.5000e+000 71733 -2.2492e+000 -1.1477e+002  1.1093e+000 64652 71482,71638,71508
 2.5000e+000 71710 -3.6278e+001 -1.0672e+002 -3.7589e+000 64652 71534,71586,71560
 2.5000e+000 71687 -1.8353e+001 -1.2432e+002 -2.8346e+001 64652 71534,71612,71586
 2.5000e+000 71664 -5.6589e+001 -1.3878e+002 -2.6978e+001 64652 71534,71638,71612
 2.5000e+000 72085 -4.2792e+001 -1.3460e+002 -2.1875e+001 64248 71886,71964,71912
 2.5000e+000 72062 -4.7485e+001 -1.3953e+002 -1.8633e+001 64248 71860,71964,71886
 2.5000e+000 72039 -1.0852e+001 -1.2558e+002 -1.3033e+001 64248 71912,71964,71938
 2.5000e+000 72016 -2.1924e+001 -1.3285e+002 -2.7528e+001 64248 71860,71990,71964
 2.5000e+000 72235  3.7648e-001 -7.5837e+001 -9.6627e+000 63858 72588,72258,72134
 2.5000e+000 72212  2.0450e+000 -3.0740e+001  1.8755e+001 63858 72330,72258,72108
 2.5000e+000 72284  4.2925e+000 -3.5566e+001 -3.3741e-001 63858 72160,72134,72258
 2.5000e+000 72307 -3.6828e+001 -6.7044e+001 -5.5681e+000 63858 72460,72258,72186
 2.5000e+000 72356 -2.8057e+001 -5.9397e+001 -6.4146e-001 63858 72186,72258,72330
 2.5000e+000 72486 -8.1537e+000 -6.6786e+001 -1.1544e+000 63858 72160,72258,72460
 2.5000e+000 72614  1.8896e+001 -7.7648e+001  1.6688e+001 63858 72108,72258,72588
 2.5000e+000 73248 -1.8754e-001 -1.2566e+002  4.4111e+001 63404 72902,72954,72928
 2.5000e+000 73225 -5.1906e+001 -1.3834e+002  2.0956e+001 63404 73271,72954,72902
 2.5000e+000 73202 -4.1363e+001 -1.0547e+002  1.7761e+001 63404 73271,72902,73032
 2.5000e+000 73179 -2.2733e+001 -8.8322e+001  6.4264e+000 63404 72902,73058,73032
 2.5000e+000 73156 -2.9022e+001 -1.0692e+002  1.6311e+000 63404 72980,73032,73006
 2.5000e+000 73133 -2.3945e+001 -8.4431e+001  8.0299e+000 63404 72876,73058,72902
 2.5000e+000 73110 -1.0265e+001 -3.7723e+001 -1.9069e+001 63404 72876,73084,73058
 2.5000e+000 73297 -3.8739e+001 -1.4257e+002  6.4283e-001 63404 72980,72954,73271
 2.5000e+000 73320 -3.6618e+001 -1.2506e+002  5.1938e-001 63404 72980,73271,73032
 2.5000e+000 73470 -5.3590e+001 -3.7137e+002  3.7929e+001 63014 73343,73395,73369
 2.5000e+000 73447 -1.7353e+002 -4.6529e+002 -1.0951e+001 63014 73343,73421,73395
 2.5000e+000 73929  4.9207e+001 -1.5728e+002  2.3037e+001 62702 73759,73811,73785
 2.5000e+000 73906  5.6930e+001 -1.5658e+002  1.6324e+001 62702 73655,73811,73759
 2.5000e+000 73883  1.7604e+001 -1.8828e+002 -1.7510e+000 62702 73655,73759,73681
 2.5000e+000 73860  4.5795e+001 -1.3158e+002 -3.7331e+001 62702 73681,73759,73707
 2.5000e+000 73837 -5.3500e+001 -1.5248e+002  2.4179e+000 62702 73707,73759,73733
 2.5000e+000 74209 -9.0550e+001 -1.6233e+002 -6.7368e-001 62404 74059,74137,74085
 2.5000e+000 74186 -1.0744e+002 -2.2242e+002  2.8150e+001 62404 74033,74137,74059
 2.5000e+000 74163 -9.5723e+001 -1.4512e+002 -7.4282e-001 62404 74085,74137,74111
 2.5000e+000 74408  9.3532e+000 -1.3805e+002  1.2859e+001 62000 74258,74336,74284
 2.5000e+000 74385 -2.4993e+000 -1.4090e+002  1.8589e+001 62000 74232,74336,74258
 2.5000e+000 74362 -2.4765e+001 -1.1992e+002  2.3536e+000 62000 74284,74336,74310
 2.5000e+000 74509  3.9501e+000 -1.9761e+002  3.0037e+001 61802 74431,74483,74457
 2.5000e+000 74759 -4.5398e+001 -1.4463e+002 -2.3410e+000 61554 74782,74586,74560
 2.5000e+000 74736 -1.9986e+001 -1.2759e+002  5.5331e+000 61554 74782,74560,74664
 2.5000e+000 74713 -3.8315e+001 -9.1865e+001  5.5316e+001 61554 74854,74612,74586
 2.5000e+000 74690 -3.2014e+001 -1.4413e+002 -1.0745e+000 61554 74534,74664,74560
 2.5000e+000 74808 -6.3509e+001 -1.2722e+002  1.2651e+001 61554 74854,74586,74782
 2.5000e+000 74831 -2.4988e+001 -1.6807e+002  9.3139e+000 61554 74638,74782,74664
 2.5000e+000 74880  1.6708e+001 -1.2818e+002  5.8968e+001 61554 74638,74612,74854
 2.5000e+000 74903  1.5843e+001 -1.2384e+002  2.6831e+001 61554 74638,74854,74782
 2.5000e+000 75285  2.3154e+001 -1.6242e+002 -8.8755e-001 61356 75063,75167,75115
 2.5000e+000 75262  9.8852e+000 -1.7941e+002 -1.8513e+001 61356 75037,75167,75063
 2.5000e+000 75239  3.2934e+001 -1.6509e+002 -1.3545e+000 61356 75115,75167,75141
 2.5000e+000 75216  1.0842e+001 -1.6542e+002 -9.1800e-001 61356 75063,75115,75089
 2.5000e+000 75193 -6.1439e+001 -1.1653e+002  1.6150e+001 61356 75011,75167,75037
 2.5000e+000 75631  1.1495e+001 -1.3728e+002  6.4489e+000 60952 75654,75412,75360
 2.5000e+000 75608  1.1830e+001 -1.5620e+002 -3.3575e-001 60952 75654,75360,75334
 2.5000e+000 75585 -7.7733e+000 -2.0039e+002  8.4105e+000 60952 75726,75438,75412
 2.5000e+000 75562  3.5142e+001 -1.4013e+002 -3.1589e+001 60952 75308,75490,75334
 2.5000e+000 75539  1.0715e+001 -1.3437e+002 -1.5435e+000 60952 75360,75412,75386
 2.5000e+000 75516 -3.2709e+001 -2.4583e+002 -6.5980e+000 60952 75438,75490,75464
 2.5000e+000 75680  8.1628e+000 -1.6313e+002  8.1601e+000 60952 75726,75412,75654
 2.5000e+000 75703  1.1232e+001 -1.5533e+002 -3.9892e-001 60952 75490,75654,75334
 2.5000e+000 75752 -1.7441e+000 -1.5825e+002 -2.0560e+000 60952 75490,75438,75726
 2.5000e+000 75775 -1.7680e+000 -1.5645e+002 -4.4526e+000 60952 75490,75726,75654
 2.5000e+000 76155  3.9892e+000 -1.3577e+002 -1.0813e+001 60754 75933,75985,75959
 2.5000e+000 76132 -1.9264e+001 -1.5155e+002  2.1191e+001 60754 75933,76037,75985
 2.5000e+000 76109  3.1376e+001 -1.5196e+002  9.0671e+000 60754 75985,76037,76011
 2.5000e+000 76086 -4.6743e+001 -1.2136e+002  5.8955e+000 60754 75881,76037,75933
 2.5000e+000 76063 -7.0064e+001 -1.0514e+002  3.5292e+001 60754 75881,75933,75907
 2.5000e+000 76612 -1.8455e+001 -1.0094e+002  1.1842e+000 60350 76635,76442,76390
 2.5000e+000 76589  6.2271e+000 -1.1593e+002  6.9524e+000 60350 76635,76390,76364
 2.5000e+000 76566 -3.7238e+000 -1.5022e+002 -1.1233e+001 60350 76364,76494,76468
 2.5000e+000 76543 -1.3966e+000 -9.1452e+001  9.0000e+000 60350 76390,76442,76416
 2.5000e+000 76520 -4.8117e+001 -9.5698e+001 -2.3886e+001 60350 76338,76494,76364
 2.5000e+000 76661 -3.2412e+001 -1.1083e+002  5.4974e+000 60350 76468,76442,76635
 2.5000e+000 76684 -1.4618e+001 -1.2894e+002  1.2627e+001 60350 76468,76635,76364
 2.5000e+000 76932 -5.3544e+001 -1.7458e+002 -1.5308e+000 59946 76955,76733,76707
 2.5000e+000 76909 -5.3715e+001 -1.7394e+002  2.9150e+000 59946 77027,76955,76707
 2.5000e+000 76886 -5.2147e+001 -1.7337e+002  2.3234e+000 59946 77027,76707,76837
 2.5000e+000 76863 -2.4029e+001 -1.8926e+002 -1.9069e+001 59946 76733,76785,76759
 2.5000e+000 76981 -6.1621e+001 -1.7614e+002 -3.8927e+000 59946 76785,76733,76955
 2.5000e+000 77004 -5.6526e+001 -1.7413e+002  1.3105e+000 59946 76785,76955,76811
 2.5000e+000 77053 -5.1748e+001 -1.7473e+002  1.9433e+000 59946 76811,76955,77027
 2.5000e+000 77076 -5.0223e+001 -1.7364e+002  1.0971e+000 59946 76811,77027,76837
 2.5000e+000 77226 -4.1290e+001 -1.2262e+002  3.4892e+000 59542 77099,77151,77125
 2.5000e+000 77203 -5.3662e+001 -1.5309e+002  4.5959e+000 59542 77099,77177,77151
 2.5000e+000 77427 -7.9228e+001 -1.5470e+002 -1.5794e+001 59030 77450,77277,77251
 2.5000e+000 77404 -4.0693e+001 -1.1503e+002 -5.8523e+001 59030 77450,77251,77355
 2.5000e+000 77381  2.0795e+001 -1.7713e+002 -1.4138e+001 59030 77277,77329,77303
 2.5000e+000 77476 -3.2749e+001 -1.6318e+002 -4.0493e+001 59030 77329,77277,77450
 2.5000e+000 77499  9.0705e+000 -1.4424e+002 -7.4149e+001 59030 77329,77450,77355
 2.5000e+000 77749 -6.7526e+001 -2.0590e+002  2.3828e+001 58426 77772,77628,77602
 2.5000e+000 77726 -4.1857e+001 -2.2068e+002  6.0680e+001 58426 77524,77654,77628
 2.5000e+000 77703 -4.7254e+001 -2.1624e+002  1.7082e+001 58426 77772,77602,77550
 2.5000e+000 77680 -1.8149e+001 -2.0008e+002 -9.0346e+000 58426 77550,77602,77576
 2.5000e+000 77798 -4.6118e+001 -1.9078e+002  3.0437e+001 58426 77524,77628,77772
 2.5000e+000 77821 -3.9921e+001 -2.1098e+002  1.9385e+001 58426 77524,77772,77550
 2.5000e+000 78071 -9.3184e+001 -2.1037e+002  2.0803e+001 57922 78094,77924,77898
 2.5000e+000 78048 -1.1210e+002 -2.1008e+002 -4.7005e+000 57922 78094,77898,77872
 2.5000e+000 78025 -8.2271e+001 -1.8256e+002  2.0246e+001 57922 78166,77846,77950
 2.5000e+000 78002 -5.8594e+000 -1.8260e+002  3.1037e+001 57922 77846,77976,77950
 2.5000e+000 78120 -7.5561e+001 -2.0602e+002  1.3287e+001 57922 77950,77924,78094
 2.5000e+000 78143 -8.7909e+001 -1.8762e+002  1.4708e+001 57922 78166,77950,78094
 2.5000e+000 78192 -7.2723e+001 -1.9440e+002  1.0021e+001 57922 77872,77846,78166
 2.5000e+000 78215 -8.5216e+001 -2.0656e+002  3.3140e+000 57922 77872,78166,78094
 2.5000e+000 78416  8.2037e+000 -1.8164e+002 -5.4866e+000 57468 78439,78292,78240
 2.5000e+000 78393  1.9408e+001 -1.6982e+002 -1.0188e+001 57468 78439,78240,78344
 2.5000e+000 78370 -4.4044e+000 -2.5725e+002 -1.2972e+000 57468 78240,78292,78266
 2.5000e+000 78465  2.0879e+001 -1.8017e+002 -1.3822e+001 57468 78318,78292,78439
 2.5000e+000 78488  2.5527e+001 -1.7583e+002 -1.6450e+001 57468 78318,78439,78344
 2.5000e+000 78689  3.1534e+001 -1.9631e+002 -1.2038e+001 57014 78712,78539,78513
 2.5000e+000 78666  1.1894e+001 -1.9399e+002  9.7072e-001 57014 78712,78513,78617
 2.5000e+000 78643 -3.7281e-001 -1.8440e+002  1.9369e+001 57014 78565,78617,78591
 2.5000e+000 78738  6.0687e+000 -1.7793e+002 -1.2586e+001 57014 78565,78539,78712
 2.5000e+000 78761 -2.1640e+001 -1.9146e+002  8.0926e+000 57014 78565,78712,78617
 2.5000e+000 79241 -6.5588e+001 -1.6995e+002  4.8063e+000 56652 79264,78895,78869
 2.5000e+000 79218 -3.0793e+001 -2.3532e+002 -2.4639e+001 56652 79264,78869,79051
 2.5000e+000 79195 -4.3056e+001 -2.0958e+002 -5.3625e+001 56652 78869,79077,79051
 2.5000e+000 79172 -4.5841e+001 -1.0739e+002 -1.4587e+001 56652 78895,78973,78947
 2.5000e+000 79149 -8.4624e+001 -3.4356e+002 -3.1680e+001 56652 78973,79051,78999
 2.5000e+000 79126 -3.9274e+001 -1.1615e+002 -1.5590e+001 56652 78895,78947,78921
 2.5000e+000 79103 -5.7143e+001 -2.0487e+002  5.0120e+001 56652 78999,79051,79025
 2.5000e+000 79290 -4.0598e+001 -1.2769e+002  2.9211e+001 56652 78973,78895,79264
 2.5000e+000 79313 -4.4707e+000 -1.9950e+002  2.3697e+000 56652 78973,79264,79051
 2.5000e+000 79512 -1.7421e+001 -2.4372e+002  1.7973e+001 56062 79388,79440,79414
 2.5000e+000 79489 -8.6346e+001 -1.1749e+002  3.3547e+001 56062 79336,79440,79388
 2.5000e+000 79466 -3.6049e+001 -1.4387e+002  4.1090e+001 56062 79336,79388,79362
 2.5000e+000 79941 -2.5857e+001 -1.5340e+002  2.6079e+001 55658 79964,79670,79644
 2.5000e+000 79918 -4.3124e+001 -1.5531e+002  2.9209e+001 55658 79964,79644,79800
 2.5000e+000 79895 -4.1819e+001 -1.6484e+002  1.2990e+001 55658 80036,79696,79670
 2.5000e+000 79872 -4.6771e+001 -1.3222e+002 -2.0527e+000 55658 80108,79722,79696
 2.5000e+000 79849 -7.0609e+001 -1.4073e+002  5.6909e+000 55658 79722,79774,79748
 2.5000e+000 79826 -5.7796e-001 -1.4088e+002  7.5268e+000 55658 79618,79800,79644
 2.5000e+000 79990 -4.4678e+001 -1.6470e+002  2.0105e+001 55658 80036,79670,79964
 2.5000e+000 80013 -4.1038e+001 -1.4537e+002  2.9656e+001 55658 79774,79964,79800
 2.5000e+000 80062 -3.3416e+001 -1.4579e+002  1.1488e+001 55658 80108,79696,80036
 2.5000e+000 80085 -4.4246e+001 -1.4634e+002  2.7001e+001 55658 79774,80036,79964
 2.5000e+000 80134 -7.3496e+001 -1.4798e+002  5.4282e+000 55658 79774,79722,80108
 2.5000e+000 80157 -6.5810e+001 -1.6407e+002  1.9259e+001 55658 79774,80108,80036
 2.5000e+000 80307 -7.4433e+001 -1.4738e+002  1.8956e+001 55254 80402,80330,80206
 2.5000e+000 80284 -7.5046e+001 -2.0022e+002  1.4331e+001 55254 80330,80180,80258
 2.5000e+000 80356 -9.1029e+001 -1.8514e+002  3.6219e+001 55254 80232,80206,80330
 2.5000e+000 80379 -2.8704e+001 -1.5745e+002  4.6424e+001 55254 80232,80330,80258
 2.5000e+000 80428 -1.0773e+002 -1.8613e+002  3.2362e+000 55254 80180,80330,80402
 2.5000e+000 80659  1.6193e+001 -1.7817e+002 -2.4062e+001 54850 80558,80610,80584
 2.5000e+000 80636  2.8930e+001 -1.6586e+002 -1.5754e+001 54850 80532,80610,80558
 2.5000e+000 80760  4.9096e+000 -1.6361e+002 -1.2413e+001 54652 80682,80734,80708
 2.5000e+000 81164  6.9488e+000 -1.7043e+002 -5.1237e+000 54248 81187,80942,80890
 2.5000e+000 81141 -7.8750e-001 -1.7302e+002 -2.2459e+000 54248 81187,80890,81046
 2.5000e+000 81118  7.8052e-001 -1.7632e+002  3.7442e+001 54248 80942,81020,80994
 2.5000e+000 81095  7.5285e+000 -1.7740e+002  1.0029e+000 54248 80890,80942,80916
 2.5000e+000 81072 -5.2778e+000 -8.7741e+001  2.1639e+000 54248 80942,80994,80968
 2.5000e+000 81213 -1.5843e+000 -1.6706e+002 -4.9077e+000 54248 81020,80942,81187
 2.5000e+000 81236 -7.9333e+000 -1.6793e+002 -3.0718e+000 54248 81020,81187,81046
 2.5000e+000 81663 -7.6906e+001 -1.4148e+002  1.8034e+001 53594 81340,81444,81366
 2.5000e+000 81640 -6.5460e+001 -2.1056e+002  6.4916e+000 53594 81340,81470,81444
 2.5000e+000 81617 -1.9680e+001 -1.8430e+002 -1.0872e+001 53594 81340,81522,81470
 2.5000e+000 81594 -3.5578e+001 -9.7901e+001 -1.0289e+001 53594 81392,81444,81418
 2.5000e+000 81571 -4.8872e+001 -1.1737e+002 -1.6642e+001 53594 81366,81444,81392
 2.5000e+000 81548  6.4375e+000 -2.6906e+002  4.5659e+001 53594 81470,81522,81496
 2.5000e+000 81943 -2.4951e+001 -1.0037e+002 -9.7126e+000 53104 81966,81845,81819
 2.5000e+000 81920 -4.0739e+001 -9.6340e+001 -1.5606e+001 53104 81966,81819,81767
 2.5000e+000 81897 -3.7590e+001 -9.0433e+001 -1.3501e+001 53104 81767,81819,81793
 2.5000e+000 81992 -1.4353e+001 -1.0461e+002 -1.7586e+001 53104 81871,81845,81966
 2.5000e+000 82015 -2.8040e+001 -9.8124e+001 -2.6337e+001 53104 81871,81966,81767
 2.5000e+000 82491 -8.1512e+000 -1.0118e+002 -2.2000e+001 52650 82145,82249,82171
 2.5000e+000 82468 -8.5842e+001 -1.3970e+002 -9.4670e+000 52650 82145,82301,82249
 2.5000e+000 82445 -8.0627e+001 -1.8858e+002 -3.0968e+001 52650 82249,82301,82275
 2.5000e+000 82422 -3.2086e+001 -2.3121e+002 -2.8955e+001 52650 82119,82301,82145
 2.5000e+000 82399 -1.6207e+001 -6.2912e+001  1.1583e+001 52650 82171,82249,82223
 2.5000e+000 82376  3.9970e+001 -1.9885e+002 -4.1530e+001 52650 82119,82327,82301
 2.5000e+000 82353 -5.5672e+000 -2.9605e+001 -1.2340e+001 52650 82171,82223,82197
 2.5000e+000 82739 -3.6562e+001 -9.3108e+001 -4.2309e+000 52246 82762,82540,82514
 2.5000e+000 82716 -2.0441e+001 -8.1175e+001 -1.0247e+001 52246 82762,82514,82644
 2.5000e+000 82693 -4.7776e+001 -1.0694e+002  9.0976e+000 52246 82540,82618,82592
 2.5000e+000 82670 -3.8373e+001 -8.9356e+001 -1.1784e+000 52246 82540,82592,82566
 2.5000e+000 82788 -2.1926e+001 -1.0735e+002  3.7232e+000 52246 82618,82540,82762
 2.5000e+000 82811 -6.8063e+000 -9.9182e+001  6.0287e-001 52246 82618,82762,82644
 2.5000e+000 83059  1.4096e+001 -1.2055e+002  4.2343e+000 51578 82860,82964,82938
 2.5000e+000 83036  1.5482e+001 -1.1431e+002 -1.3458e+001 51578 82834,82964,82860
 2.5000e+000 83013  1.7397e+001 -1.0506e+002  1.1479e+001 51578 82860,82938,82886
 2.5000e+000 82990  2.0061e+001 -9.8715e+001  1.1754e+001 51578 82886,82938,82912
 2.5000e+000 83309 -1.9707e+001 -6.8712e+001  2.1999e+001 51138 83332,83162,83136
 2.5000e+000 83286  4.3109e+000 -9.3453e+001  5.6617e+000 51138 83332,83136,83110
 2.5000e+000 83263 -2.8369e+001 -9.3062e+001 -6.2060e+000 51138 83404,83214,83188
 2.5000e+000 83240 -7.6505e-001 -4.1587e+001  4.6181e+000 51138 83084,83214,83110
 2.5000e+000 83358 -4.3882e+001 -1.0388e+002  3.8800e+001 51138 83188,83162,83332
 2.5000e+000 83381 -1.5538e+001 -1.1045e+002  9.0767e+000 51138 83404,83188,83332
 2.5000e+000 83430 -9.9088e+000 -4.8249e+001 -5.8090e+000 51138 83110,83214,83404
 2.5000e+000 83453 -2.6057e+000 -7.5880e+001  9.6156e+000 51138 83110,83404,83332
 2.5000e+000 83835 -9.6218e+000 -1.1929e+002 -1.2367e+001 50734 83613,83717,83691
 2.5000e+000 83812 -1.5252e+001 -1.3551e+002 -3.1022e+001 50734 83561,83717,83613
 2.5000e+000 83789  3.7197e+000 -5.1182e+001 -4.7536e+001 50734 83561,83613,83587
 2.5000e+000 83766 -2.2039e+001 -8.0269e+001 -8.9861e+000 50734 83613,83691,83639
 2.5000e+000 83743 -2.7261e+001 -8.2421e+001  1.9542e+001 50734 83639,83691,83665
 2.5000e+000 84034  5.6859e+000 -6.9185e+001 -1.6136e+001 50230 84057,83884,83858
 2.5000e+000 84011  1.2819e+000 -7.2516e+001 -4.3910e+000 50230 84129,84057,83858
 2.5000e+000 83988  6.3748e+000 -7.0027e+001 -6.1468e+000 50230 84129,83858,83962
 2.5000e+000 84083 -1.2554e+001 -7.6710e+001 -1.6259e+001 50230 83910,83884,84057
 2.5000e+000 84106 -4.3681e+000 -8.2403e+001 -1.5556e+000 50230 83910,84057,83936
 2.5000e+000 84155  8.9095e+000 -7.4884e+001 -4.7738e+000 50230 83936,84057,84129
 2.5000e+000 84178  1.1335e+001 -7.4384e+001 -6.4142e+000 50230 83936,84129,83962
 2.5000e+000 84558 -2.7543e+001 -1.0256e+002 -1.4663e+001 49768 84581,84388,84362
 2.5000e+000 84535 -7.3302e+001 -1.0402e+002 -1.5176e+000 49768 84581,84362,84310
 2.5000e+000 84512  1.4257e+001 -1.1203e+002 -1.7373e+001 49768 84653,84440,84414
 2.5000e+000 84489 -5.5950e+001 -1.1502e+002  1.5504e+001 49768 84310,84362,84336
 2.5000e+000 84466  2.6415e+000 -7.5739e+001  2.0472e+001 49768 84284,84440,84310
 2.5000e+000 84607  6.8011e+000 -8.2130e+001 -3.0600e+001 49768 84414,84388,84581
 2.5000e+000 84630 -2.8700e+000 -1.0721e+002 -1.1046e+001 49768 84653,84414,84581
 2.5000e+000 84679 -8.8684e+000 -1.0249e+002 -2.4972e+001 49768 84310,84440,84653
 2.5000e+000 84702 -3.1839e+001 -1.0385e+002 -2.4839e+001 49768 84310,84653,84581
 2.5000e+000 85159 -7.0678e+001 -1.6809e+002 -4.4144e+001 49192 84885,84937,84911
 2.5000e+000 85136 -6.6807e+001 -1.3260e+002 -3.4888e+001 49192 84885,85041,84937
 2.5000e+000 85113 -4.5219e+001 -1.0452e+002 -2.1380e+001 49192 84963,85041,84989
 2.5000e+000 85090 -4.5160e+001 -1.0626e+002 -2.5130e+001 49192 84937,85041,84963
 2.5000e+000 85067 -3.8220e+001 -1.1095e+002 -1.3578e+001 49192 84989,85041,85015
 2.5000e+000 85714 -6.0057e+001 -9.3332e+001  7.6845e+000 48638 85368,85498,85394
 2.5000e+000 85691 -8.2372e+001 -1.0830e+002  1.7616e+001 48638 85368,85524,85498
 2.5000e+000 85668 -7.5306e+001 -1.0146e+002  3.1058e+001 48638 85737,85420,85394
 2.5000e+000 85645 -6.1107e+001 -1.0216e+002  1.8875e+001 48638 85737,85394,85498
 2.5000e+000 85622 -4.7121e+001 -1.2157e+002  2.2934e+001 48638 85446,85498,85472
 2.5000e+000 85599 -2.1629e+001 -8.1602e+001  1.3572e+001 48638 85342,85524,85368
 2.5000e+000 85576 -7.7922e+001 -1.0183e+002  1.8306e+001 48638 85342,85550,85524
 2.5000e+000 85763 -5.4194e+001 -9.2406e+001  3.1649e+001 48638 85446,85420,85737
 2.5000e+000 85786 -5.2859e+001 -9.9284e+001  1.9293e+001 48638 85446,85737,85498
 2.5000e+000 86371 -4.0746e+001 -5.7404e+001 -1.3253e+001 48084 86100,86230,86178
 2.5000e+000 86348 -5.9919e+001 -9.0835e+001 -2.3060e+001 48084 86048,86230,86100
 2.5000e+000 86325 -4.6534e+001 -5.3869e+001  1.2295e+001 48084 86100,86178,86126
 2.5000e+000 86302 -2.1269e+001 -4.6771e-001 -2.5910e+001 48084 86048,86100,86074
 2.5000e+000 86279 -5.4671e+001 -1.0365e+002 -1.0774e+001 48084 86178,86230,86204
 2.5000e+000 86256 -3.9551e+001 -6.9175e+001  1.1106e+001 48084 86126,86178,86152
 2.5000e+000 86619 -3.4792e+001 -9.0167e+001 -5.0710e+000 47630 86642,86446,86420
 2.5000e+000 86596 -3.8117e+001 -9.7874e+001 -2.2941e+001 47630 86642,86420,86394
 2.5000e+000 86573 -4.8860e+001 -1.0004e+002 -2.7087e+001 47630 86394,86524,86498
 2.5000e+000 86550 -1.6517e+001 -1.0724e+002 -2.1716e+000 47630 86446,86498,86472
 2.5000e+000 86668 -4.3650e+001 -1.1041e+002 -8.1661e+000 47630 86498,86446,86642
 2.5000e+000 86691 -4.3926e+001 -1.1205e+002 -2.5787e+001 47630 86498,86642,86394
 2.5000e+000 87022  3.8634e+000 -2.9259e+001 -7.7063e+000 47226 87045,86875,86849
 2.5000e+000 86999 -1.8094e+001 -5.1599e+001 -1.7818e+001 47226 87045,86849,86797
 2.5000e+000 86976 -1.0501e+001 -2.5153e+001 -1.1709e+001 47226 86797,86849,86823
 2.5000e+000 86953  2.3813e+001 -5.3140e+001 -2.4321e+001 47226 86875,86927,86901
 2.5000e+000 87071  2.2035e+001 -5.9898e+001 -1.3299e+001 47226 86927,86875,87045
 2.5000e+000 87094  5.3536e+000 -7.3799e+001 -1.9898e+001 47226 86927,87045,86797
 2.5000e+000 87244 -2.0880e+000 -1.0163e+002  4.1849e+001 46814 87267,87169,87143
 2.5000e+000 87221 -5.6966e+001 -1.0149e+002  2.1338e+000 46814 87267,87143,87117
 2.5000e+000 87293 -1.3982e+001 -1.0886e+002 -1.0838e+001 46814 87339,87267,87195
 2.5000e+000 87316  1.6148e+001 -6.9701e+001 -2.5329e+001 46814 87469,87267,87117
 2.5000e+000 87365 -2.4789e+001 -9.0079e+001  4.4144e+001 46814 87169,87267,87339
 2.5000e+000 87495  1.5239e+001  3.1259e+001 -2.7537e+001 46814 87195,87267,87469
 2.5000e+000 88001 -4.1357e+001 -1.0178e+002  2.2304e+001 46310 88024,87834,87808
 2.5000e+000 87978 -4.8362e+001 -1.0350e+002  1.5652e+001 46310 88024,87808,87756
 2.5000e+000 87955 -1.4306e+001 -1.3304e+002  6.1044e+000 46310 88096,87730,87860
 2.5000e+000 87932 -3.5176e+001 -1.2323e+002  1.7280e+001 46310 87756,87808,87782
 2.5000e+000 87909 -2.2078e+001 -1.7222e+002  7.6156e+000 46310 87678,87860,87730
 2.5000e+000 87886 -4.2191e+001 -2.7376e+002 -1.1080e+001 46310 87678,87730,87704
 2.5000e+000 88050 -3.5269e+001 -8.8077e+001  1.7987e+001 46310 87860,87834,88024
 2.5000e+000 88073 -1.7641e+001 -9.6041e+001  2.0261e+001 46310 88096,87860,88024
 2.5000e+000 88122 -2.7980e+001 -1.5032e+002 -4.9251e+000 46310 87756,87730,88096
 2.5000e+000 88145 -5.5461e+001 -1.3536e+002  2.8919e+000 46310 87756,88096,88024
 2.5000e+000 88572 -1.0731e+001 -1.1551e+002 -9.2486e+000 45856 88249,88405,88275
 2.5000e+000 88549 -1.0314e+001 -3.2196e+001 -4.1098e+001 45856 88249,88431,88405
 2.5000e+000 88526 -5.2574e+001 -1.5697e+002 -4.2713e+001 45856 88327,88405,88353
 2.5000e+000 88503  2.6417e+001 -1.1365e+002 -1.4082e+001 45856 88275,88405,88327
 2.5000e+000 88480 -5.0292e+001 -1.4199e+002 -3.2453e+001 45856 88353,88405,88379
 2.5000e+000 88457 -1.0144e+002 -3.2362e+002  4.0233e+001 45856 88275,88327,88301
 2.5000e+000 88950 -2.3056e+001 -7.1907e+001 -2.4214e+000 45658 88973,88754,88728
 2.5000e+000 88927 -2.0894e+001 -7.5444e+001 -2.4240e+000 45658 88973,88728,88676
 2.5000e+000 88904 -2.5640e+001 -9.3296e+001  3.0727e+001 45658 88676,88832,88806
 2.5000e+000 88881 -3.6289e+001 -1.0288e+002  1.1652e+001 45658 88676,88728,88702
 2.5000e+000 88858 -3.0117e+001 -6.4379e+001 -1.5132e+001 45658 88754,88806,88780
 2.5000e+000 88999 -2.5239e+001 -7.4330e+001 -1.4216e+000 45658 88806,88754,88973
 2.5000e+000 89022 -2.2162e+001 -7.6460e+001 -1.9343e+000 45658 88806,88973,88676
 2.5000e+000 89351  4.9744e+000 -9.9784e+001 -4.9237e+000 45254 89152,89230,89204
 2.5000e+000 89328 -1.8359e+001 -1.0872e+002 -1.9089e+000 45254 89152,89256,89230
 2.5000e+000 89305 -2.5250e+000 -1.1117e+002 -7.0095e+000 45254 89126,89256,89152
 2.5000e+000 89282 -1.2712e+001 -1.1848e+002  2.7773e+000 45254 89152,89204,89178
 2.5000e+000 89523 -1.9687e+001 -1.0612e+002 -4.4624e-001 45006 89422,89474,89448
 2.5000e+000 89500 -1.5056e+001 -1.0415e+002  3.2568e+000 45006 89396,89474,89422
 2.5000e+000 89673 -6.9664e+001 -1.3331e+002  1.0270e+001 44495 89572,89624,89598
 2.5000e+000 89650 -7.8253e+001 -1.5936e+002  1.4839e+001 44495 89546,89624,89572
 2.5000e+000 90104 -7.6196e+000 -1.3856e+002 -8.6953e+000 44005 90199,90127,89937
 2.5000e+000 90081 -1.1562e+001 -1.3178e+002 -1.4875e+000 44005 90271,90127,89859
 2.5000e+000 90058 -3.6339e+000 -1.4055e+002 -8.9235e+000 44005 90199,89937,89885
 2.5000e+000 90035 -2.5733e+001 -1.2214e+002  6.5975e+000 44005 90271,89859,89807
 2.5000e+000 90012 -2.1952e+001 -1.5885e+002 -1.9006e+001 44005 89885,89937,89911
 2.5000e+000 89989 -1.7187e+000 -1.3454e+002  2.3881e+001 44005 89807,89859,89833
 2.5000e+000 90153 -1.8157e+001 -1.4301e+002 -8.8755e+000 44005 89963,89937,90127
 2.5000e+000 90176 -1.8214e+001 -1.4557e+002 -5.2842e+000 44005 89963,90127,89781
 2.5000e+000 90225 -1.6684e+001 -1.3842e+002 -6.4874e+000 44005 89859,90127,90199
 2.5000e+000 90248 -8.6496e+000 -1.3785e+002 -5.1447e+000 44005 89859,90199,89885
 2.5000e+000 90297 -3.0639e+001 -1.4352e+002 -6.5340e+000 44005 89781,90127,90271
 2.5000e+000 90320 -3.8852e+001 -1.3078e+002  2.8181e+000 44005 89781,90271,89807
 2.5000e+000 90470 -1.9903e+001 -1.4693e+002 -5.5801e+000 43601 90493,90369,90343
 2.5000e+000 90447 -3.5641e+001 -1.2193e+002  7.4194e+000 43601 90493,90343,90421
 2.5000e+000 90519 -4.4014e+001 -1.9154e+002 -2.1437e+001 43601 90395,90369,90493
 2.5000e+000 90542 -3.6745e+001 -1.3975e+002 -4.5809e+000 43601 90395,90493,90421
 2.5000e+000 90922 -4.8821e+001 -1.5620e+002  1.1019e+001 43154 90945,90700,90674
 2.5000e+000 90899 -4.7711e+001 -1.6049e+002 -1.2748e+001 43154 90945,90674,90648
 2.5000e+000 90876 -5.3793e+001 -1.2467e+002 -1.0747e+001 43154 90648,90778,90752
 2.5000e+000 90853 -2.7568e+001 -2.4211e+002  7.0881e+000 43154 90700,90752,90726
 2.5000e+000 90830 -3.4944e+001 -1.2791e+002 -2.0948e+000 43154 90648,90804,90778
 2.5000e+000 90971 -5.6573e+001 -1.7698e+002  1.2805e+001 43154 90752,90700,90945
 2.5000e+000 90994 -5.2782e+001 -1.7268e+002 -1.0235e+001 43154 90752,90945,90648
 2.5000e+000 91451 -1.8112e+001 -1.2685e+002 -2.2716e+001 42650 91203,91255,91229
 2.5000e+000 91428 -1.2994e+001 -1.2450e+002 -6.4346e+000 42650 91203,91333,91255
 2.5000e+000 91405 -1.0058e+001 -1.8105e+002 -2.1095e+001 42650 91177,91333,91203
 2.5000e+000 91382 -6.2504e+001 -1.9246e+002  1.7556e+001 42650 91255,91333,91281
 2.5000e+000 91359  2.2465e+001 -1.6097e+002  1.3928e+001 42650 91281,91333,91307
 2.5000e+000 91721 -7.4705e+001 -1.6840e+002  2.0636e+001 42288 91496,91600,91522
 2.5000e+000 91698 -3.7673e+001 -9.7859e+001 -4.0065e+000 42288 91496,91626,91600
 2.5000e+000 91675 -4.3336e+001 -1.5315e+002  3.0311e+001 42288 91522,91574,91548
 2.5000e+000 91652 -1.3760e+001 -1.4372e+002  2.2862e+001 42288 91522,91600,91574
 2.5000e+000 92199 -1.1450e+002 -1.8193e+002 -5.4170e+000 41898 92222,91983,91879
 2.5000e+000 92176 -1.2333e+002 -2.1272e+002 -1.7801e+001 41898 92294,92222,91879
 2.5000e+000 92153 -1.3734e+002 -2.1388e+002 -2.7029e+001 41898 92294,91879,91853
 2.5000e+000 92130 -1.0308e+002 -1.0250e+002  1.6615e+001 41898 91879,91957,91931
 2.5000e+000 92107 -1.0102e+002 -1.7662e+002 -1.7500e+000 41898 91879,91983,91957
 2.5000e+000 92084 -1.2119e+002 -9.7498e+001  3.5077e+001 41898 91879,91931,91905
 2.5000e+000 92061 -1.0804e+002 -1.7432e+002 -1.2781e+001 41898 91827,92035,91853
 2.5000e+000 92248 -1.0828e+002 -2.1905e+002  1.7382e+000 41898 92009,91983,92222
 2.5000e+000 92271 -1.0503e+002 -2.2436e+002 -1.8379e+001 41898 92009,92222,92035
 2.5000e+000 92320 -1.0121e+002 -2.1024e+002 -1.3216e+001 41898 92035,92222,92294
 2.5000e+000 92343 -1.1047e+002 -2.0655e+002 -2.1226e+001 41898 92035,92294,91853
 2.5000e+000 92770 -3.3818e+001 -1.6985e+002 -1.3142e+001 41437 92865,92793,92525
 2.5000e+000 92747 -4.8194e+001 -1.8872e+002 -1.8576e+001 41437 92793,92473,92629
 2.5000e+000 92724 -1.6228e+001 -1.7514e+002 -2.2659e+001 41437 92865,92525,92499
 2.5000e+000 92701 -4.8993e+001 -1.4976e+002 -2.7009e+001 41437 92525,92603,92577
 2.5000e+000 92678 -1.3193e+000 -1.7759e+002 -1.4232e+001 41437 92447,92629,92473
 2.5000e+000 92655 -8.1984e+001 -1.3064e+002 -1.4156e+001 41437 92525,92577,92551
 2.5000e+000 92819 -3.7377e+001 -1.7796e+002 -2.7795e+001 41437 92603,92525,92793
 2.5000e+000 92842 -7.6914e+001 -1.9186e+002 -4.8603e+001 41437 92603,92793,92629
 2.5000e+000 92891  2.1126e-001 -1.8089e+002 -1.5422e+001 41437 92473,92793,92865
 2.5000e+000 92914  2.5215e+001 -1.7637e+002 -2.9087e+001 41437 92473,92865,92499
 2.5000e+000 93243 -2.7510e+001 -2.2483e+002  7.3399e+001 41097 93044,93096,93070
 2.5000e+000 93220 -5.7700e+001 -2.3302e+002  3.7519e+001 41097 93044,93122,93096
 2.5000e+000 93197  2.1104e+001 -1.4210e+002  1.0223e+000 41097 93044,93148,93122
 2.5000e+000 93174 -1.9945e+001 -7.7076e+001  4.4127e+001 41097 93018,93148,93044
 2.5000e+000 93393  6.1359e+000 -1.7294e+002  1.9644e+001 40643 93416,93292,93344
 2.5000e+000 93370  5.0123e+001 -1.6062e+002  3.1429e+001 40643 93266,93344,93292
 2.5000e+000 93442  1.3222e+001 -1.6359e+002  2.9686e+001 40643 93318,93292,93416
 2.5000e+000 93901 -5.5294e+001 -1.7633e+002 -1.5594e+001 40132 93924,93731,93705
 2.5000e+000 93878 -5.5386e+001 -1.7809e+002 -1.5788e+001 40132 93996,93924,93705
 2.5000e+000 93855 -6.6119e+001 -2.0425e+002 -7.8377e+000 40132 93996,93705,93653
 2.5000e+000 93832 -2.6200e+001 -1.9947e+002 -1.3591e+001 40132 93653,93705,93679
 2.5000e+000 93809 -5.2371e+001 -1.5757e+002  8.2873e-001 40132 93627,93783,93757
 2.5000e+000 93950 -5.9213e+001 -1.8216e+002 -1.3888e+001 40132 93757,93731,93924
 2.5000e+000 93973 -5.6372e+001 -1.5558e+002 -6.0754e-001 40132 93757,93924,93627
 2.5000e+000 94022 -7.3680e+001 -1.9405e+002  2.9230e+000 40132 93627,93924,93996
 2.5000e+000 94045 -6.8742e+001 -2.0337e+002  8.6892e+000 40132 93627,93996,93653
 2.5000e+000 94423 -3.2488e+001 -2.1045e+002 -2.0410e+001 39514 94149,94227,94175
 2.5000e+000 94400 -2.3629e+001 -1.7228e+002  4.6705e+000 39514 94149,94305,94227
 2.5000e+000 94377 -1.2314e+001 -2.2198e+002 -2.3714e+001 39514 94175,94227,94201
 2.5000e+000 94354 -2.0582e+001 -1.7605e+002  5.4860e+000 39514 94227,94305,94279
 2.5000e+000 94331 -2.0969e+001 -1.7487e+002  1.3204e+001 39514 94227,94279,94253
 2.5000e+000 94573 -9.0328e+000 -1.0263e+002 -3.0464e+001 38822 94596,94498,94472
 2.5000e+000 94550  2.6387e+001 -1.1371e+002  1.7558e+001 38822 94596,94472,94446
 2.5000e+000 94622 -4.9871e+001 -1.2031e+002 -2.7647e+001 38822 94524,94498,94596
 2.5000e+000 94645 -4.3960e+001 -1.4598e+002  2.5248e+001 38822 94524,94596,94446
 2.5000e+000 95025 -2.8958e+001 -1.4287e+002 -1.4712e+001 38418 95048,94829,94777
 2.5000e+000 95002 -1.2471e+001 -1.3492e+002 -1.2325e+001 38418 95120,95048,94777
 2.5000e+000 94979 -6.9598e+000 -1.4210e+002 -1.1707e+001 38418 95120,94777,94751
 2.5000e+000 94956  1.8208e+001 -1.4156e+002 -1.1817e+001 38418 95192,94881,94855
 2.5000e+000 94933 -4.9578e+001 -1.3415e+002 -1.2159e+001 38418 94777,94829,94803
 2.5000e+000 95074 -2.5714e+001 -1.6257e+002  7.4117e+000 38418 94855,94829,95048
 2.5000e+000 95097  1.0710e+001 -1.3940e+002 -2.6950e+000 38418 95192,94855,95048
 2.5000e+000 95146 -2.1578e+001 -1.4098e+002 -8.7933e+000 38418 94907,95048,95120
 2.5000e+000 95169 -1.3491e+001 -1.4689e+002 -8.0394e+000 38418 94907,95120,94751
 2.5000e+000 95218  2.9773e+000 -1.2621e+002 -1.4371e+001 38418 94907,94881,95192
 2.5000e+000 95241 -1.5829e+001 -1.3529e+002 -2.8962e+000 38418 94907,95192,95048
 2.5000e+000 95511 -5.1146e+001 -1.6300e+002  7.2332e+000 38049 95312,95390,95364
 2.5000e+000 95488 -3.8008e+001 -1.5748e+002  7.1496e+000 38049 95312,95416,95390
 2.5000e+000 95465 -1.6770e+001 -1.5216e+002 -1.0329e+001 38049 95312,95364,95338
 2.5000e+000 95442 -1.4496e+001 -1.4622e+002  1.4127e+001 38049 95286,95416,95312
 2.5000e+000 95808 -5.5351e+001 -1.8636e+002 -7.8821e+000 37437 95831,95586,95560
 2.5000e+000 95785 -1.0404e+001 -1.8017e+002 -4.9022e+000 37437 95831,95560,95534
 2.5000e+000 95762 -8.4664e+001 -1.6618e+002  1.0205e+001 37437 95586,95664,95638
 2.5000e+000 95739 -2.5578e+001 -9.9412e+001 -2.7278e+001 37437 95534,95690,95664
 2.5000e+000 95716 -8.7536e+001 -1.2295e+002  4.9913e+000 37437 95586,95638,95612
 2.5000e+000 95857 -8.5933e+001 -1.7135e+002  1.2336e+001 37437 95664,95586,95831
 2.5000e+000 95880 -3.8112e+001 -1.6351e+002  1.6158e+001 37437 95664,95831,95534
 2.5000e+000 96390 -6.4134e+001 -1.3064e+002 -7.9447e+000 36883 96413,96145,96093
 2.5000e+000 96367 -5.9430e+001 -1.2703e+002 -1.6560e+000 36883 96413,96093,96067
 2.5000e+000 96344 -4.0282e+001 -1.5404e+002 -5.1704e+000 36883 96067,96249,96171
 2.5000e+000 96321 -5.1939e+001 -1.4727e+002 -4.5972e+000 36883 96093,96145,96119
 2.5000e+000 96298 -7.4913e+001 -2.4400e+002  2.1868e+001 36883 96171,96249,96197
 2.5000e+000 96275 -1.5748e+001 -2.0125e+002  1.7615e+000 36883 96197,96249,96223
 2.5000e+000 96439 -5.9605e+001 -1.2101e+002 -5.0049e+000 36883 96171,96145,96413
 2.5000e+000 96462 -5.7728e+001 -1.2362e+002  8.7383e-001 36883 96171,96413,96067
 2.5000e+000 96781 -1.8052e+000 -1.3593e+002 -3.1353e+001 36215 96559,96663,96637
 2.5000e+000 96758 -5.0089e+001 -1.3461e+002 -3.2987e+001 36215 96507,96663,96559
 2.5000e+000 96735 -2.7534e+001 -9.9219e+001  6.5911e+000 36215 96585,96637,96611
 2.5000e+000 96712 -9.9816e+001 -1.6790e+002 -2.6378e+001 36215 96559,96637,96585
 2.5000e+000 96689 -2.6371e+001 -1.7535e+002 -1.7270e+001 36215 96507,96559,96533
 2.5000e+000 97161  1.2159e+001 -9.2056e+001  4.4739e-001 35818 97184,96965,96939
 2.5000e+000 97138 -2.6548e+000 -8.6936e+001 -1.1816e+001 35818 97184,96939,96887
 2.5000e+000 97115  2.8278e+000 -1.1703e+002  1.9696e+001 35818 96965,97043,97017
 2.5000e+000 97092 -3.6308e+000 -9.0587e+001 -1.1700e+001 35818 96887,96939,96913
 2.5000e+000 97069 -5.7847e+001 -1.0657e+002  1.4657e+001 35818 96965,97017,96991
 2.5000e+000 97210  3.0556e+001 -8.9766e+001  8.1207e-001 35818 97043,96965,97184
 2.5000e+000 97233  1.5276e+001 -8.4016e+001 -1.0290e+001 35818 97043,97184,96887
 2.5000e+000 97739 -4.8615e+001 -1.5808e+002 -3.5561e+001 35214 97416,97468,97442
 2.5000e+000 97716 -5.6770e+001 -1.1281e+002 -1.1104e+001 35214 97416,97598,97468
 2.5000e+000 97693 -5.1098e+001 -1.0892e+002 -2.6221e+000 35214 97762,97520,97468
 2.5000e+000 97670 -5.4157e+001 -1.1351e+002 -9.7638e+000 35214 97762,97468,97598
 2.5000e+000 97647 -5.0189e+001 -1.0268e+002 -2.1227e+001 35214 97546,97598,97572
 2.5000e+000 97624 -3.2431e+001 -1.0502e+002 -6.1453e+000 35214 97468,97520,97494
 2.5000e+000 97788 -5.3839e+001 -1.1729e+002 -6.1032e+000 35214 97546,97520,97762
 2.5000e+000 97811 -5.4796e+001 -1.2086e+002 -1.2750e+001 35214 97546,97762,97598
 2.5000e+000 98189 -1.2391e+001 -9.3681e+001 -6.0046e+000 34760 98356,98212,97967
 2.5000e+000 98166 -2.4377e+001 -1.1102e+002 -1.3123e+001 34760 98284,98212,97941
 2.5000e+000 98143 -4.4333e+001 -1.0018e+002 -4.3855e+000 34760 98284,97941,97915
 2.5000e+000 98120 -1.2016e+001 -1.1718e+002 -8.0893e-001 34760 98484,97993,97967
 2.5000e+000 98097 -8.1311e+000 -1.0410e+002 -2.0075e+000 34760 98556,98045,98019
 2.5000e+000 98238 -1.8124e+001 -1.1239e+002 -1.5839e+000 34760 98484,97967,98212
 2.5000e+000 98261 -1.1519e+000 -1.0876e+002 -5.6664e+000 34760 98556,98019,98212
 2.5000e+000 98310 -6.7447e+000 -9.1645e+001 -2.1570e+001 34760 98071,98212,98284
 2.5000e+000 98333 -2.0549e+001 -6.4974e+001 -1.6969e+001 34760 98071,98284,97915
 2.5000e+000 98382 -5.9458e+001 -1.2264e+002 -1.9430e+001 34760 97941,98212,98356
 2.5000e+000 98510 -5.8443e-001 -1.1460e+002 -3.9843e+000 34760 98019,97993,98484
 2.5000e+000 98533 -1.1067e+001 -1.1327e+002 -4.6068e+000 34760 98019,98484,98212
 2.5000e+000 98582  5.4766e-001 -9.8423e+001  4.3962e-001 34760 98071,98045,98556
 2.5000e+000 98605  3.3312e+000 -1.0550e+002 -4.2298e+000 34760 98071,98556,98212
 2.5000e+000 99032 -6.3606e+001 -1.3881e+002  2.3716e+001 34156 98735,98891,98839
 2.5000e+000 99009 -5.7034e+001 -1.4531e+002  1.1361e+001 34156 98709,98891,98735
 2.5000e+000 98986 -1.5390e+001 -1.2547e+002  2.3049e+001 34156 98735,98813,98787
 2.5000e+000 98963 -1.4870e+001 -1.3006e+002  1.6966e+001 34156 98735,98839,98813
 2.5000e+000 98940  9.9208e+000 -1.7806e+002  2.6255e+001 34156 98735,98787,98761
 2.5000e+000 98917 -5.7210e+001 -1.2137e+002  1.0798e+001 34156 98839,98891,98865
 2.5000e+000 99231  1.0406e+000 -6.4061e+001  1.2330e+001 33766 99055,99133,99107
 2.5000e+000 99208 -3.1528e+001 -7.0319e+001  2.2422e+001 33766 99055,99159,99133
 2.5000e+000 99185 -1.6920e+001 -1.0685e+002  7.8494e+000 33766 99055,99107,99081
 2.5000e+000 99818 -2.6490e+001 -1.0901e+002  3.4538e-001 33248 99521,99651,99573
 2.5000e+000 99795 -3.5716e+001 -1.0891e+002  6.8548e+000 33248 99521,99677,99651
 2.5000e+000 99772 -5.4260e+001 -1.3902e+002 -1.4234e+001 33248 99573,99651,99599
 2.5000e+000 99749 -3.3755e+001 -1.3723e+002  1.0004e+001 33248 99495,99677,99521
 2.5000e+000 99726 -2.7392e+001 -1.2402e+002 -3.2230e+001 33248 99599,99651,99625
 2.5000e+000 99703 -4.2323e+001 -1.3085e+002  7.4792e+000 33248 99521,99573,99547
 2.5000e+000 100196 -4.7782e+001 -1.1375e+002 -1.8925e+001 32794 100219,99948,99922
 2.5000e+000 100173 -5.3026e+001 -1.2482e+002 -1.1287e+001 32794 100219,99922,100052
 2.5000e+000 100150 -5.6616e+001 -1.1469e+002  3.6901e+000 32794 99974,100052,100026
 2.5000e+000 100127 -6.2565e+001 -1.1774e+002 -1.2658e+001 32794 99922,100078,100052
 2.5000e+000 100104 -6.2248e+001 -1.4260e+002  2.5327e+001 32794 99974,100026,100000
 2.5000e+000 100245 -5.6394e+001 -1.1086e+002 -8.0077e+000 32794 99974,99948,100219
 2.5000e+000 100268 -6.0459e+001 -1.2596e+002 -3.9181e-001 32794 99974,100219,100052
 2.5000e+000 100418 -8.2487e+000 -1.0711e+002 -1.5114e+001 32504 100571,100343,100317
 2.5000e+000 100395 -4.6271e+001 -1.2428e+002  7.8440e+000 32504 100571,100317,100441
 2.5000e+000 100467  2.7479e+001 -5.6957e+001 -4.1647e+001 32504 100291,100369,100441
 2.5000e+000 100597  8.2828e+000 -9.0073e+001 -4.5555e+001 32504 100369,100343,100571
 2.5000e+000 100620 -9.0836e+000 -8.4459e+001 -2.5749e+001 32504 100369,100571,100441
 2.5000e+000 101020 -2.3224e+001 -1.0462e+002  4.3532e+000 32142 100772,100902,100876
 2.5000e+000 100997 -1.4513e+001 -9.6229e+001  8.4311e+000 32142 100746,100902,100772
 2.5000e+000 100974 -9.0755e+000 -1.1956e+002  1.0541e+001 32142 101043,100824,100798
 2.5000e+000 100951 -2.1328e+001 -1.2500e+002  8.3030e+000 32142 101043,100798,100772
 2.5000e+000 100928 -6.8761e+001 -1.4426e+002 -3.4534e+001 32142 101115,100876,100850
 2.5000e+000 101069  1.0726e+001 -1.2700e+002 -1.2654e+001 32142 100850,100824,101043
 2.5000e+000 101092 -3.7884e+001 -1.4831e+002 -1.6969e+001 32142 101115,100850,101043
 2.5000e+000 101141 -3.0572e+001 -1.2256e+002 -1.3289e+001 32142 100772,100876,101115
 2.5000e+000 101164 -6.5956e+000 -1.2529e+002  5.8932e+000 32142 100772,101115,101043
 2.5000e+000 101719 -6.0025e+001 -1.4104e+002  1.7661e+001 31538 101742,101477,101399
 2.5000e+000 101696 -7.2909e+001 -1.6830e+002  4.6639e+000 31538 101814,101742,101399
 2.5000e+000 101673 -8.2608e+001 -1.4467e+002 -1.0460e+001 31538 101814,101399,101373
 2.5000e+000 101650 -5.8448e+001 -1.0046e+002  1.1706e+001 31538 101425,101477,101451
 2.5000e+000 101627 -5.5566e+001 -1.1875e+002  1.9874e+000 31538 101399,101477,101425
 2.5000e+000 101604 -3.2717e+001 -1.7308e+002  3.3552e+001 31538 101477,101529,101503
 2.5000e+000 101581 -2.4098e+001 -9.8040e+001 -8.5882e+000 31538 101347,101555,101373
 2.5000e+000 101768 -6.5820e+001 -1.6953e+002  1.6005e+001 31538 101529,101477,101742
 2.5000e+000 101791 -6.0593e+001 -1.7509e+002 -7.1755e+000 31538 101529,101742,101555
 2.5000e+000 101840 -4.8229e+001 -1.4414e+002 -6.5366e+000 31538 101555,101742,101814
 2.5000e+000 101863 -6.2616e+001 -1.2489e+002 -2.0419e+001 31538 101555,101814,101373
 2.5000e+000 102111 -8.0434e+001 -2.2890e+002  2.7167e+001 31112 101886,101990,101912
 2.5000e+000 102088 -2.7323e+001 -1.5204e+002 -3.3016e+000 31112 101886,102016,101990
 2.5000e+000 102065 -3.9205e+001 -2.2168e+002  3.8788e+001 31112 101912,101990,101964
 2.5000e+000 102042 -6.0119e+001 -2.6022e+002  4.7037e+001 31112 101912,101964,101938
 2.5000e+000 102408 -2.7685e+001 -1.3305e+002  1.6007e+001 30658 102431,102186,102160
 2.5000e+000 102385 -4.7824e+001 -1.2712e+002  1.6920e+000 30658 102431,102160,102264
 2.5000e+000 102362 -4.9233e+001 -1.5265e+002  5.8718e+000 30658 102186,102238,102212
 2.5000e+000 102339 -5.6399e+001 -1.3710e+002 -6.8714e+000 30658 102134,102264,102160
 2.5000e+000 102316 -3.5031e+001 -1.1141e+002 -3.8761e+001 30658 102134,102290,102264
 2.5000e+000 102457 -4.1815e+001 -1.4586e+002  1.0646e+001 30658 102238,102186,102431
 2.5000e+000 102480 -6.3927e+001 -1.4279e+002 -4.6583e+000 30658 102238,102431,102264
 2.5000e+000 102681 -3.0511e+001 -1.6601e+002  2.0090e+001 30004 102704,102557,102505
 2.5000e+000 102658 -2.6864e+001 -1.7094e+002  2.2307e+001 30004 102704,102505,102609
 2.5000e+000 102635 -1.1324e+001 -1.4387e+002  3.6365e+000 30004 102505,102557,102531
 2.5000e+000 102730 -2.8894e+001 -1.6371e+002  2.0808e+001 30004 102583,102557,102704
 2.5000e+000 102753 -2.2387e+001 -1.6546e+002  2.4266e+001 30004 102583,102704,102609
 2.5000e+000 103003 -1.4588e+001 -1.3059e+002 -7.6757e+000 29564 103026,102804,102778
 2.5000e+000 102980 -2.2046e+001 -1.4885e+002 -6.8265e+000 29564 103026,102778,102908
 2.5000e+000 102957  3.0895e+000 -1.2752e+002  1.5816e+001 29564 102856,102908,102882
 2.5000e+000 102934 -3.4235e+001 -1.3136e+002  8.4352e+000 29564 102804,102856,102830
 2.5000e+000 103052 -2.0321e+001 -1.2423e+002  4.7989e+000 29564 102856,102804,103026
 2.5000e+000 103075 -2.5721e+001 -1.3725e+002  4.0899e+000 29564 102856,103026,102908
 2.5000e+000 103634 -6.6090e+001 -1.6241e+002 -2.4899e+001 29160 103657,103418,103392
 2.5000e+000 103611 -6.2996e+001 -1.5694e+002 -1.2952e+001 29160 103657,103392,103314
 2.5000e+000 103588 -3.0837e+001 -1.4783e+002 -2.3145e+001 29160 103314,103392,103366
 2.5000e+000 103565 -5.2996e+001 -1.7030e+002 -1.3460e+001 29160 103314,103366,103340
 2.5000e+000 103542 -8.4934e+001 -1.5279e+002 -1.9022e+001 29160 103262,103444,103314
 2.5000e+000 103519 -9.7992e+001 -1.7260e+002 -3.3657e+001 29160 103262,103314,103288
 2.5000e+000 103496 -5.7116e+001 -1.6198e+002 -1.0326e+001 29160 103262,103470,103444
 2.5000e+000 103683 -8.3565e+001 -1.7509e+002 -3.5726e+001 29160 103444,103418,103657
 2.5000e+000 103706 -7.0503e+001 -1.5697e+002 -2.2110e+001 29160 103444,103657,103314
 2.5000e+000 104035 -4.8208e+001 -1.3727e+002  1.4471e+001 28770 103836,103914,103862
 2.5000e+000 104012 -4.0523e+001 -1.3434e+002  1.5168e+001 28770 103810,103914,103836
 2.5000e+000 103989  7.1226e-001 -1.2644e+002  2.2438e+001 28770 103810,103940,103914
 2.5000e+000 103966 -1.1880e+001 -1.1936e+002  3.1065e+001 28770 103862,103914,103888
 2.5000e+000 104185  7.8650e+000 -1.6247e+002  3.2708e+000 28366 104208,104110,104084
 2.5000e+000 104162  5.1918e+001 -1.2145e+002  3.5316e+001 28366 104280,104208,104084
 2.5000e+000 104234  1.4462e+001 -1.3709e+002  1.5689e+000 28366 104610,104208,104136
 2.5000e+000 104257 -2.3306e+001 -1.5124e+002  1.4143e+001 28366 104538,104410,104208
 2.5000e+000 104306 -2.5327e+001 -1.6156e+002  1.9646e+001 28366 104538,104208,104280
 2.5000e+000 104436  1.8139e+000 -1.4621e+002 -3.6648e+000 28366 104136,104208,104410
 2.5000e+000 104564 -2.6648e+001 -1.3786e+002  1.1767e+001 28366 104058,104410,104538
 2.5000e+000 104587 -2.5446e+001 -1.4606e+002  1.5870e+001 28366 104058,104538,104280
 2.5000e+000 104636 -1.9475e+001 -1.5077e+002  4.5927e+000 28366 104110,104208,104610
 2.5000e+000 105349 -3.1991e+001 -1.1804e+002 -1.1801e+001 27976 105516,105372,105107
 2.5000e+000 105326 -5.1791e+001 -1.1938e+002  3.5874e+000 27976 105588,105372,105055
 2.5000e+000 105303 -5.5562e+001 -1.1585e+002 -1.4529e+001 27976 105444,105159,105133
 2.5000e+000 105280 -1.8415e+001 -1.2264e+002 -6.8756e+000 27976 105516,105107,105081
 2.5000e+000 105257 -4.8708e+001 -1.3079e+002  1.0819e+001 27976 105588,105055,105029
 2.5000e+000 105234 -2.7046e+001 -9.9651e+001  2.2856e+000 27976 105003,105185,105159
 2.5000e+000 105211 -3.6272e+001 -8.0135e+001  1.5903e+001 27976 104977,105185,105003
 2.5000e+000 105398 -2.5389e+001 -1.2046e+002 -1.5489e+001 27976 105133,105107,105372
 2.5000e+000 105421 -4.3755e+001 -1.2621e+002 -8.5734e+000 27976 105444,105133,105372
 2.5000e+000 105470 -4.4989e+001 -9.8794e+001 -7.9759e+000 27976 105003,105159,105444
 2.5000e+000 105493 -3.6182e+001 -1.1018e+002 -5.1630e+000 27976 105003,105444,105372
 2.5000e+000 105542 -2.2851e+001 -1.1681e+002 -4.0089e-001 27976 105055,105372,105516
 2.5000e+000 105565 -2.4351e+000 -1.1869e+002  3.1176e+000 27976 105055,105516,105081
 2.5000e+000 105614 -5.8348e+001 -1.3057e+002  9.0320e+000 27976 105003,105372,105588
 2.5000e+000 105637 -5.6972e+001 -1.4175e+002  1.6934e+001 27976 105003,105588,105029
 2.5000e+000 106143 -6.6319e+001 -1.9571e+002  1.0301e+001 27664 106166,105846,105820
 2.5000e+000 106120 -5.1114e+001 -1.5732e+002  4.8748e+000 27664 106310,106166,105820
 2.5000e+000 106097 -2.4710e+001 -1.7485e+002 -3.6813e+001 27664 106382,106238,105950
 2.5000e+000 106074 -3.7107e+001 -1.5624e+002  6.3060e+000 27664 106310,105820,106002
 2.5000e+000 106051  1.1340e+001 -1.5677e+002 -3.0775e+001 27664 106382,105950,105924
 2.5000e+000 106028 -2.4467e+001 -2.7625e+002 -7.2534e+000 27664 105846,105898,105872
 2.5000e+000 106192 -6.3425e+001 -2.1681e+002 -2.5628e+001 27664 105898,105846,106166
 2.5000e+000 106215 -4.3386e+001 -1.8291e+002 -9.3879e+000 27664 106238,105898,106166
 2.5000e+000 106264 -1.0623e+002 -1.9737e+002 -4.7198e+001 27664 105976,105950,106238
 2.5000e+000 106287 -3.9369e+001 -1.8148e+002 -1.0236e+001 27664 105976,106238,106166
 2.5000e+000 106336 -3.7156e+001 -1.6231e+002  1.7063e+001 27664 105976,106166,106310
 2.5000e+000 106359 -2.1245e+001 -1.6028e+002  1.8018e+001 27664 105976,106310,106002
 2.5000e+000 106408 -4.2364e+001 -1.4793e+002  3.5328e+000 27664 105898,106238,106382
 2.5000e+000 106431 -1.9787e+001 -1.3760e+002  6.3030e+000 27664 105898,106382,105924
 2.5000e+000 106728 -1.8768e+001 -1.0558e+002  1.9884e+001 27153 106751,106506,106454
 2.5000e+000 106705 -1.7347e+001 -1.0493e+002  1.6933e+001 27153 106751,106454,106610
 2.5000e+000 106682 -3.1912e+001 -8.5341e+001  3.1087e+000 27153 106454,106506,106480
 2.5000e+000 106659 -2.6474e+001 -1.0503e+002  9.6937e+000 27153 106532,106610,106584
 2.5000e+000 106636 -4.4778e+001 -6.4104e+001  2.0374e+001 27153 106532,106584,106558
 2.5000e+000 106777 -1.4394e+001 -1.0803e+002  1.9620e+001 27153 106532,106506,106751
 2.5000e+000 106800 -1.3021e+001 -1.0592e+002  1.5971e+001 27153 106532,106751,106610
 2.5000e+000 107180 -3.3818e+001 -1.4203e+002 -1.7662e-001 26642 107203,106984,106958
 2.5000e+000 107157 -6.9728e+001 -1.5681e+002  1.1330e+000 26642 107203,106958,106932
 2.5000e+000 107134 -7.9366e+001 -1.6406e+002 -2.1481e+001 26642 107275,107036,107010
 2.5000e+000 107111 -5.1790e+001 -1.5822e+002 -2.6003e+001 26642 106932,107062,107036
 2.5000e+000 107088 -1.6165e+000 -1.2392e+002  1.4532e+001 26642 106906,107062,106932
 2.5000e+000 107229 -1.1399e+001 -1.2538e+002 -4.0307e+001 26642 107010,106984,107203
 2.5000e+000 107252 -7.2863e+001 -1.5990e+002 -2.6407e+001 26642 107275,107010,107203
 2.5000e+000 107301 -7.0337e+001 -1.6178e+002 -2.4870e+001 26642 106932,107036,107275
 2.5000e+000 107324 -6.5984e+001 -1.6333e+002 -2.7085e+001 26642 106932,107275,107203
 2.5000e+000 107675 -3.3789e+001 -8.7608e+001  8.9037e+000 26045 107450,107554,107476
 2.5000e+000 107652 -2.2489e+001 -7.4776e+001  2.1896e+000 26045 107450,107580,107554
 2.5000e+000 107629 -1.3617e+001 -6.2547e+001 -4.5727e-001 26045 107476,107528,107502
 2.5000e+000 107606 -5.8854e+000 -8.0059e+001  5.4990e+000 26045 107476,107554,107528
 2.5000e+000 107874 -2.2926e+001 -1.3521e+002  3.4385e+001 25641 107750,107802,107776
 2.5000e+000 107851 -3.0100e+001 -1.0054e+002  1.9042e+001 25641 107724,107802,107750
 2.5000e+000 107828 -2.8630e+001 -1.0201e+002  1.6469e+001 25641 107698,107802,107724
 2.5000e+000 108431 -8.8904e+000 -1.3899e+002  2.7653e+001 25023 108526,108267,108241
 2.5000e+000 108408 -4.7439e-001 -1.2550e+002  5.0002e+000 25023 108059,108267,108085
 2.5000e+000 108385 -1.8686e+001 -1.5212e+002  2.4681e+001 25023 108454,108163,108111
 2.5000e+000 108362 -6.6012e+001 -1.4935e+002  4.6956e+001 25023 108454,108111,108085
 2.5000e+000 108339 -5.3504e+001 -1.9402e+002  4.2535e+001 25023 108111,108163,108137
 2.5000e+000 108316 -3.2520e+001 -1.0736e+002 -5.7671e+000 25023 108163,108241,108215
 2.5000e+000 108293  1.2656e+001 -8.7026e+001  1.4277e-001 25023 108163,108215,108189
 2.5000e+000 108480 -2.1095e+000 -1.3223e+002  3.1907e+000 25023 108241,108163,108454
 2.5000e+000 108503 -1.7950e+001 -1.4038e+002  2.8647e+001 25023 108526,108241,108454
 2.5000e+000 108552 -2.1088e+001 -1.3250e+002  2.1700e+001 25023 108085,108267,108526
 2.5000e+000 108575 -3.0464e+001 -1.3416e+002  2.2546e+001 25023 108085,108526,108454
 2.5000e+000 108823 -9.6975e+000 -1.0966e+002  1.7406e+001 24461 108624,108728,108650
 2.5000e+000 108800 -2.1794e+001 -2.3030e+002 -1.4251e+001 24461 108598,108728,108624
 2.5000e+000 108777 -4.1355e+000 -1.4260e+002  1.5519e+001 24461 108650,108728,108676
 2.5000e+000 108754 -6.6479e+001 -3.9209e+002  3.5477e+001 24461 108676,108728,108702
 2.5000e+000 109022 -3.7226e+001 -1.0850e+002  1.2710e+001 24121 108872,108924,108898
 2.5000e+000 108999 -2.8629e+001 -1.1297e+002  1.2683e+001 24121 108846,108924,108872
 2.5000e+000 108976 -8.8857e+000 -1.1140e+002  2.9416e+001 24121 108846,108950,108924
 2.5000e+000 109483 -4.8717e+001 -1.6011e+002 -1.7437e+001 23717 109209,109339,109235
 2.5000e+000 109460 -2.1180e+001 -1.8033e+002 -3.7530e+001 23717 109209,109365,109339
 2.5000e+000 109437 -1.1544e+001 -1.9287e+002 -1.1752e+001 23717 109287,109339,109313
 2.5000e+000 109414 -9.2282e+001 -1.9844e+002  4.9065e+000 23717 109235,109339,109287
 2.5000e+000 109391 -1.2383e+001 -2.3372e+002  6.9451e+001 23717 109235,109287,109261
 2.5000e+000 109910 -6.2423e+001 -1.8107e+002 -1.8953e+001 23305 109613,109743,109717
 2.5000e+000 109887 -6.2671e+001 -1.8232e+002 -1.2669e+001 23305 109613,109769,109743
 2.5000e+000 109864 -7.3882e+001 -1.7517e+002 -1.6527e+001 23305 109613,109717,109639
 2.5000e+000 109841 -4.7122e+001 -1.6819e+002 -4.9237e+000 23305 109587,109769,109613
 2.5000e+000 109818  4.6101e+000 -1.4181e+002  1.4854e+001 23305 109639,109717,109691
 2.5000e+000 109795 -1.5895e+001 -1.1485e+002 -2.4876e+001 23305 109639,109691,109665
 2.5000e+000 110180 -7.1744e+000 -6.1053e+001 -5.3631e+000 22851 110007,110059,110033
 2.5000e+000 110157 -3.5511e+001 -1.3614e+002  6.7332e+000 22851 109981,110059,110007
 2.5000e+000 110134 -5.0650e+001 -1.4843e+002  7.2366e-001 22851 109955,110059,109981
 2.5000e+000 110111 -2.0582e+001 -1.6458e+002 -1.2900e+001 22851 109955,110085,110059
 2.5000e+000 110737 -9.8136e+000 -1.6160e+002 -1.6586e+001 22333 110760,110469,110391
 2.5000e+000 110714 -9.9705e+000 -1.7064e+002 -1.2958e+001 22333 110760,110391,110365
 2.5000e+000 110691 -2.2927e+000 -1.5220e+002 -1.9399e+001 22333 110832,110521,110469
 2.5000e+000 110668  1.6316e+001 -2.9142e+002 -7.1237e+000 22333 110417,110469,110443
 2.5000e+000 110645 -4.3379e+001 -2.4391e+002 -2.0683e+001 22333 110391,110469,110417
 2.5000e+000 110622  2.9901e+001 -1.3083e+002 -4.0377e+001 22333 110469,110521,110495
 2.5000e+000 110599 -1.0225e+001 -1.2058e+002 -1.9041e+001 22333 110365,110573,110547
 2.5000e+000 110786 -1.0591e+001 -1.5045e+002 -1.5754e+001 22333 110832,110469,110760
 2.5000e+000 110809 -2.1121e+001 -1.6391e+002 -2.1804e+001 22333 110547,110760,110365
 2.5000e+000 110858  1.8160e+001 -1.5094e+002 -2.5900e+001 22333 110547,110521,110832
 2.5000e+000 110881 -7.2831e-001 -1.5384e+002 -2.5157e+001 22333 110547,110832,110760
 2.5000e+000 111308 -8.5298e+001 -1.8802e+002  8.9636e+000 21829 111331,111063,111011
 2.5000e+000 111285 -8.9256e+001 -1.7786e+002 -6.7899e+000 21829 111331,111011,111167
 2.5000e+000 111262 -9.1474e+001 -1.8936e+002  5.0264e+000 21829 111403,111089,111063
 2.5000e+000 111239 -1.0117e+002 -1.7670e+002  2.6990e+001 21829 111011,111063,111037
 2.5000e+000 111216 -6.5417e+001 -1.5794e+002  4.4131e+000 21829 110985,111167,111011
 2.5000e+000 111193 -1.0444e+002 -3.1054e+002  5.3966e+001 21829 111089,111141,111115
 2.5000e+000 111357 -8.9982e+001 -1.9049e+002  5.0289e+000 21829 111403,111063,111331
 2.5000e+000 111380 -9.5906e+001 -2.0172e+002 -1.0132e+001 21829 111141,111331,111167
 2.5000e+000 111429 -9.0323e+001 -1.9083e+002  7.5527e+000 21829 111141,111089,111403
 2.5000e+000 111452 -9.0471e+001 -1.9471e+002  6.1302e+000 21829 111141,111403,111331
 2.5000e+000 112056  4.3392e+001 -1.4315e+002  2.8650e+000 21489 111687,111765,111739
 2.5000e+000 112033  3.3892e+000 -1.6871e+002  1.6788e+001 21489 112151,112079,111687
 2.5000e+000 112010 -3.3799e+000 -2.4976e+002  1.2368e+001 21489 111791,111843,111817
 2.5000e+000 111987 -5.2435e+001 -2.0914e+002 -1.4092e+001 21489 112079,111843,111791
 2.5000e+000 111964  2.6889e+001 -1.5798e+002  3.0817e+001 21489 112151,111687,111661
 2.5000e+000 111941 -2.1807e+001 -1.1599e+002  2.8252e+001 21489 111661,111869,111843
 2.5000e+000 111918  4.5475e+001 -1.5433e+002  2.1569e+001 21489 111687,111739,111713
 2.5000e+000 111895  6.0048e-001 -6.4068e+001  1.2038e+001 21489 111635,111869,111661
 2.5000e+000 112105 -3.3596e+001 -1.7818e+002  1.1349e+001 21489 111765,111687,112079
 2.5000e+000 112128 -3.3298e+001 -1.7480e+002  1.1598e+001 21489 111765,112079,111791
 2.5000e+000 112177 -3.6164e+001 -1.6689e+002 -2.5383e+000 21489 111843,112079,112151
 2.5000e+000 112200 -1.4613e+001 -1.6297e+002  8.9029e+000 21489 111843,112151,111661
 2.5000e+000 112578 -4.2534e+001 -2.0964e+002  9.5527e+000 21177 112382,112434,112408
 2.5000e+000 112555 -5.2055e+001 -2.0935e+002  8.7341e-001 21177 112330,112434,112382
 2.5000e+000 112532 -4.3262e+001 -1.8146e+002  3.0492e+001 21177 112304,112434,112330
 2.5000e+000 112509 -5.0723e+001 -2.0044e+002  0.0000e+000 21177 112330,112382,112356
 2.5000e+000 112486 -1.2714e+001 -1.2455e+002  8.2312e+000 21177 112304,112460,112434
 2.5000e+000 112679 -1.8625e+000 -1.5424e+002 -2.5644e+001 20666 112601,112653,112627
 2.5000e+000 112927 -6.1132e+001 -2.0766e+002  6.0939e+000 19762 112702,112754,112728
 2.5000e+000 112904 -2.3524e+001 -1.9502e+002 -3.6657e+000 19762 112702,112832,112754
 2.5000e+000 112881 -5.1716e+001 -2.0687e+002  3.2715e+001 19762 112754,112832,112806
 2.5000e+000 112858 -7.2844e+001 -2.6187e+002  3.2767e+001 19762 112754,112806,112780
 2.5000e+000 113297 -5.2760e+001 -2.3847e+002  1.5854e+001 19308 112974,113052,113026
 2.5000e+000 113274 -3.6982e+001 -1.9852e+002  6.0190e+000 19308 112974,113156,113052
 2.5000e+000 113251 -2.6812e+001 -2.6202e+002 -3.0516e+001 19308 113052,113130,113104
 2.5000e+000 113228 -4.0426e+001 -1.9804e+002  3.6368e-001 19308 113052,113156,113130
 2.5000e+000 113205 -3.7479e+001 -2.2733e+002  0.0000e+000 19308 113052,113104,113078
 2.5000e+000 113182 -7.6865e+001 -2.4855e+002 -1.1641e+000 19308 112974,113026,113000
 2.5000e+000 113547 -2.1973e+001 -2.1609e+002 -1.4647e+001 18711 113570,113374,113348
 2.5000e+000 113524 -3.1497e+001 -2.0055e+002 -9.7636e+000 18711 113570,113348,113452
 2.5000e+000 113501 -2.5124e+001 -1.5374e+002 -4.0436e+001 18711 113322,113452,113348
 2.5000e+000 113478 -3.2153e+001 -1.9865e+002 -6.7103e+001 18711 113374,113426,113400
 2.5000e+000 113596 -1.4327e+001 -1.9977e+002 -1.9618e+001 18711 113426,113374,113570
 2.5000e+000 113619 -2.7765e+001 -1.8860e+002 -1.1764e+001 18711 113426,113570,113452
 2.5000e+000 113771 -1.0825e+002 -2.6924e+002 -1.3561e+001 18307 113670,113722,113696
 2.5000e+000 113748 -8.6076e+001 -2.5291e+002 -6.0238e+000 18307 113644,113722,113670
 2.5000e+000 113972 -4.6732e+001 -2.2354e+002  3.1711e+000 17945 113822,113874,113848
 2.5000e+000 113949 -5.1355e+001 -2.2235e+002  4.6757e+000 17945 113822,113900,113874
 2.5000e+000 113926 -7.2481e+001 -1.7650e+002  9.8240e+001 17945 113796,113900,113822
 2.5000e+000 114075  5.0801e+001 -2.9343e+002  4.8133e+001 17482 113997,114049,114023
 2.5000e+000 114479 -1.4171e+001 -1.8686e+002 -2.9812e+001 17042 114257,114361,114335
 2.5000e+000 114456 -4.5086e+001 -1.7900e+002 -5.7080e+000 17042 114205,114361,114257
 2.5000e+000 114433 -5.5336e+001 -2.0683e+002  6.6383e+000 17042 114205,114257,114231
 2.5000e+000 114410  3.9903e+001 -2.7718e+002 -1.6763e+001 17042 114283,114335,114309
 2.5000e+000 114387 -1.6746e+000 -2.3898e+002 -1.2091e+001 17042 114257,114335,114283
 2.5000e+000 114879 -8.5085e+001 -2.0052e+002 -3.3434e+000 16638 114631,114683,114657
 2.5000e+000 114856  1.4723e+001 -1.5771e+002 -4.6285e+000 16638 114605,114683,114631
 2.5000e+000 114833  2.5554e+001 -1.1119e+002  5.5991e-001 16638 114605,114761,114683
 2.5000e+000 114810  2.7269e+001 -1.9317e+002 -1.7420e+001 16638 114683,114735,114709
 2.5000e+000 114787 -3.4018e+001 -2.1740e+002 -2.4125e+001 16638 114683,114761,114735
 2.5000e+000 115078 -1.1108e+002 -2.2570e+002  8.7829e+000 16232 114954,115006,114980
 2.5000e+000 115055 -9.2449e+001 -2.3655e+002  7.7605e+000 16232 114928,115006,114954
 2.5000e+000 115032 -4.2377e+001 -3.0685e+002  1.6400e+001 16232 114902,115006,114928
 2.5000e+000 115228 -4.9133e+001 -2.0449e+002  5.4435e+000 15482 115101,115153,115127
 2.5000e+000 115205 -6.0445e+001 -2.0108e+002 -1.4251e+000 15482 115101,115179,115153
 2.5000e+000 115331 -5.3717e+001 -1.9926e+002 -2.0672e+001 15163 115253,115305,115279
 2.5000e+000 115434 -5.3864e+001 -2.0422e+002  2.2151e+001 421 115356,115408,115382
 2.6000e+000 68213 -3.8243e+000 -1.2209e+002 -8.7508e+000 67888 68112,68164,68138
 2.6000e+000 68190 -9.9900e+001 -1.5438e+002 -1.0685e+001 67888 68086,68164,68112
 2.6000e+000 68314 -2.0207e+001 -2.2523e+002  2.7985e+001 67576 68236,68288,68262
 2.6000e+000 68584 -4.9721e+001 -2.8683e+002  1.0920e+001 67378 68385,68489,68463
 2.6000e+000 68561  6.4444e+001 -2.3867e+002  7.4638e+000 67378 68359,68489,68385
 2.6000e+000 68538 -4.3747e+001 -2.5056e+002  1.3372e+001 67378 68385,68463,68411
 2.6000e+000 68515 -2.5254e+001 -1.5638e+002  7.4198e+000 67378 68411,68463,68437
 2.6000e+000 68964 -5.6813e+001 -2.6088e+002  4.1723e+001 67130 68690,68820,68716
 2.6000e+000 68941  7.0656e+001 -2.7009e+002  7.8896e+001 67130 68690,68846,68820
 2.6000e+000 68918 -5.0380e+001 -1.6936e+002  5.7986e+000 67130 68742,68820,68794
 2.6000e+000 68895 -1.3963e+000 -1.6698e+002  1.6836e+001 67130 68716,68820,68742
 2.6000e+000 68872 -2.8454e+001 -1.3693e+002 -1.6811e+001 67130 68742,68794,68768
 2.6000e+000 69065 -4.7923e+001 -1.5996e+002  3.8357e+000 66926 68987,69039,69013
 2.6000e+000 69445 -2.9056e+001 -1.5655e+002 -6.8103e+000 66614 69223,69301,69275
 2.6000e+000 69422 -4.8894e+001 -1.6549e+002 -4.8808e+000 66614 69171,69301,69223
 2.6000e+000 69399 -5.7259e+001 -1.6370e+002 -6.9443e-001 66614 69171,69327,69301
 2.6000e+000 69376 -1.1036e+001 -8.3254e+001  1.5521e+000 66614 69223,69275,69249
 2.6000e+000 69353 -3.9758e+001 -1.7455e+002 -3.9790e+000 66614 69171,69223,69197
 2.6000e+000 69546 -3.7582e+001 -2.3515e+002  1.5112e+001 66416 69468,69520,69494
 2.6000e+000 69997 -3.0435e+001 -2.3704e+002 -2.4493e+001 66104 69700,69830,69726
 2.6000e+000 69974 -3.8333e+001 -3.0943e+002 -5.0618e+001 66104 69700,69856,69830
 2.6000e+000 69951 -3.8772e+001 -1.8088e+002 -1.4139e+001 66104 69726,69804,69778
 2.6000e+000 69928 -2.8571e+001 -2.2174e+002 -1.9617e+001 66104 69726,69830,69804
 2.6000e+000 69905 -4.2828e+001 -1.7140e+002 -6.3960e+000 66104 69726,69778,69752
 2.6000e+000 69882 -9.8529e+000 -4.6653e+002 -8.1016e+001 66104 69674,69856,69700
 2.6000e+000 70326 -3.7276e+001 -9.6332e+001 -1.4453e+001 65814 70349,70153,70127
 2.6000e+000 70303  4.9500e+000 -9.7282e+001 -2.0187e+000 65814 70349,70127,70101
 2.6000e+000 70280  3.9199e+001 -4.8937e+001  5.6258e+001 65814 70101,70231,70205
 2.6000e+000 70257  5.3026e+001 -1.0313e+002  1.6737e+001 65814 70153,70205,70179
 2.6000e+000 70375 -1.6786e+001 -1.0152e+002  1.5945e+001 65814 70205,70153,70349
 2.6000e+000 70398  4.4279e+001 -9.4928e+001  2.4398e+001 65814 70205,70349,70101
 2.6000e+000 70904 -1.2088e+001 -4.8947e+001 -1.8045e+001 65502 70607,70737,70685
 2.6000e+000 70881 -1.3437e+001 -3.3785e+001 -2.5432e+001 65502 70581,70737,70607
 2.6000e+000 70858 -1.3013e+001  5.8202e+000 -3.0032e+000 65502 70581,70763,70737
 2.6000e+000 70835 -2.5472e+001 -5.6379e+001 -2.4825e+001 65502 70685,70737,70711
 2.6000e+000 70812 -8.1565e+001 -6.1167e+001 -3.8526e+000 65502 70607,70659,70633
 2.6000e+000 70789 -2.1501e+001 -6.6054e+001 -2.5029e+000 65502 70607,70685,70659
 2.6000e+000 71103 -2.3949e+001 -2.1283e+002 -6.3326e+000 65304 71126,70979,70953
 2.6000e+000 71080 -4.0892e+001 -2.1845e+002 -2.2211e+000 65304 71126,70953,70927
 2.6000e+000 71057 -6.1818e+001 -2.1977e+002  1.3548e+001 65304 70927,71031,71005
 2.6000e+000 71152 -4.2665e+001 -1.9309e+002 -1.0847e+001 65304 71005,70979,71126
 2.6000e+000 71175 -6.5553e+001 -2.0618e+002 -2.2252e+000 65304 71005,71126,70927
 2.6000e+000 71374  2.4600e+000 -2.0333e+002  1.0620e+001 65106 71198,71276,71224
 2.6000e+000 71351 -6.0035e+001 -2.2177e+002  4.2164e+000 65106 71198,71302,71276
 2.6000e+000 71328  1.9211e+001 -1.6057e+002  2.5820e+001 65106 71224,71276,71250
 2.6000e+000 71756 -1.9004e+001 -1.3100e+002 -1.2686e+001 64652 71508,71638,71534
 2.6000e+000 71733 -4.1671e-002 -1.2251e+002  2.3180e+000 64652 71482,71638,71508
 2.6000e+000 71710 -4.1156e+001 -1.1798e+002 -5.9785e+000 64652 71534,71586,71560
 2.6000e+000 71687 -2.3793e+001 -1.3580e+002 -3.0055e+001 64652 71534,71612,71586
 2.6000e+000 71664 -6.2715e+001 -1.5029e+002 -2.8912e+001 64652 71534,71638,71612
 2.6000e+000 72085 -4.9357e+001 -1.4801e+002 -2.3658e+001 64248 71886,71964,71912
 2.6000e+000 72062 -5.2368e+001 -1.5155e+002 -2.1214e+001 64248 71860,71964,71886
 2.6000e+000 72039 -1.4283e+001 -1.3921e+002 -1.4139e+001 64248 71912,71964,71938
 2.6000e+000 72016 -2.5083e+001 -1.4404e+002 -3.0740e+001 64248 71860,71990,71964
 2.6000e+000 72235 -2.1886e+000 -8.6859e+001 -1.1362e+001 63858 72588,72258,72134
 2.6000e+000 72212 -3.5960e+000 -4.2370e+001  1.7547e+001 63858 72330,72258,72108
 2.6000e+000 72284 -4.6717e-001 -4.6617e+001 -2.4498e+000 63858 72160,72134,72258
 2.6000e+000 72307 -4.4251e+001 -7.8412e+001 -7.8669e+000 63858 72460,72258,72186
 2.6000e+000 72356 -3.4732e+001 -7.0517e+001 -2.9490e+000 63858 72186,72258,72330
 2.6000e+000 72486 -1.2323e+001 -7.6929e+001 -3.7692e+000 63858 72160,72258,72460
 2.6000e+000 72614  1.4007e+001 -8.9741e+001  1.5252e+001 63858 72108,72258,72588
 2.6000e+000 73248 -1.2336e+001 -1.4265e+002  4.5264e+001 63404 72902,72954,72928
 2.6000e+000 73225 -6.3592e+001 -1.5531e+002  2.2315e+001 63404 73271,72954,72902
 2.6000e+000 73202 -5.2855e+001 -1.2058e+002  1.9164e+001 63404 73271,72902,73032
 2.6000e+000 73179 -3.1029e+001 -1.0169e+002  7.1462e+000 63404 72902,73058,73032
 2.6000e+000 73156 -3.8840e+001 -1.2607e+002  5.7847e+000 63404 72980,73032,73006
 2.6000e+000 73133 -3.1182e+001 -9.8826e+001  8.3381e+000 63404 72876,73058,72902
 2.6000e+000 73110 -1.1430e+001 -4.4710e+001 -2.2558e+001 63404 72876,73084,73058
 2.6000e+000 73297 -5.0066e+001 -1.5990e+002  9.2185e-001 63404 72980,72954,73271
 2.6000e+000 73320 -4.8176e+001 -1.4132e+002  9.8044e-001 63404 72980,73271,73032
 2.6000e+000 73470 -5.7850e+001 -3.9761e+002  4.1086e+001 63014 73343,73395,73369
 2.6000e+000 73447 -1.8617e+002 -4.9550e+002 -1.1060e+001 63014 73343,73421,73395
 2.6000e+000 73929  4.8389e+001 -1.7086e+002  2.5003e+001 62702 73759,73811,73785
 2.6000e+000 73906  5.6180e+001 -1.7046e+002  1.7424e+001 62702 73655,73811,73759
 2.6000e+000 73883  1.4117e+001 -2.0319e+002 -1.9519e+000 62702 73655,73759,73681
 2.6000e+000 73860  4.3536e+001 -1.4427e+002 -3.9963e+001 62702 73681,73759,73707
 2.6000e+000 73837 -6.0461e+001 -1.6639e+002  1.6624e+000 62702 73707,73759,73733
 2.6000e+000 74209 -1.0070e+002 -1.7678e+002 -1.3015e-001 62404 74059,74137,74085
 2.6000e+000 74186 -1.1851e+002 -2.3961e+002  3.0017e+001 62404 74033,74137,74059
 2.6000e+000 74163 -1.0782e+002 -1.5672e+002 -5.7864e-001 62404 74085,74137,74111
 2.6000e+000 74408  9.1350e+000 -1.5007e+002  1.3987e+001 62000 74258,74336,74284
 2.6000e+000 74385 -3.3806e+000 -1.5313e+002  1.9905e+001 62000 74232,74336,74258
 2.6000e+000 74362 -2.7775e+001 -1.3156e+002  2.5517e+000 62000 74284,74336,74310
 2.6000e+000 74509  2.9948e+000 -2.0900e+002  3.1294e+001 61802 74431,74483,74457
 2.6000e+000 74759 -5.0048e+001 -1.5823e+002 -2.2886e+000 61554 74782,74586,74560
 2.6000e+000 74736 -2.2380e+001 -1.3967e+002  6.2832e+000 61554 74782,74560,74664
 2.6000e+000 74713 -4.2274e+001 -1.0037e+002  5.8199e+001 61554 74854,74612,74586
 2.6000e+000 74690 -3.5241e+001 -1.5717e+002 -8.4847e-001 61554 74534,74664,74560
 2.6000e+000 74808 -6.9123e+001 -1.3855e+002  1.3713e+001 61554 74854,74586,74782
 2.6000e+000 74831 -2.8614e+001 -1.8248e+002  1.0638e+001 61554 74638,74782,74664
 2.6000e+000 74880  1.5325e+001 -1.3975e+002  6.2396e+001 61554 74638,74612,74854
 2.6000e+000 74903  1.4304e+001 -1.3556e+002  2.9063e+001 61554 74638,74854,74782
 2.6000e+000 75285  2.1361e+001 -1.7599e+002 -5.4983e-001 61356 75063,75167,75115
 2.6000e+000 75262  7.7504e+000 -1.9288e+002 -1.9270e+001 61356 75037,75167,75063
 2.6000e+000 75239  3.2015e+001 -1.7953e+002 -8.7993e-001 61356 75115,75167,75141
 2.6000e+000 75216  9.1389e+000 -1.7961e+002 -1.0210e+000 61356 75063,75115,75089
 2.6000e+000 75193 -6.9175e+001 -1.2560e+002  1.7771e+001 61356 75011,75167,75037
 2.6000e+000 75631  1.2338e+001 -1.5006e+002  6.7697e+000 60952 75654,75412,75360
 2.6000e+000 75608  1.2448e+001 -1.6987e+002 -3.4217e-001 60952 75654,75360,75334
 2.6000e+000 75585 -1.0375e+001 -2.2047e+002  1.0018e+001 60952 75726,75438,75412
 2.6000e+000 75562  3.6622e+001 -1.5119e+002 -3.4284e+001 60952 75308,75490,75334
 2.6000e+000 75539  1.1943e+001 -1.4663e+002 -2.1481e+000 60952 75360,75412,75386
 2.6000e+000 75516 -3.4737e+001 -2.6498e+002 -7.3044e+000 60952 75438,75490,75464
 2.6000e+000 75680  7.9109e+000 -1.7798e+002  8.9667e+000 60952 75726,75412,75654
 2.6000e+000 75703  1.1819e+001 -1.6716e+002 -7.7597e-001 60952 75490,75654,75334
 2.6000e+000 75752 -2.1820e+000 -1.7231e+002 -2.1695e+000 60952 75490,75438,75726
 2.6000e+000 75775 -2.2442e+000 -1.7001e+002 -5.3310e+000 60952 75490,75726,75654
 2.6000e+000 76155 -6.9141e-001 -1.4980e+002 -9.8581e+000 60754 75933,75985,75959
 2.6000e+000 76132 -2.1284e+001 -1.6441e+002  2.1877e+001 60754 75933,76037,75985
 2.6000e+000 76109  2.8933e+001 -1.6580e+002  1.0001e+001 60754 75985,76037,76011
 2.6000e+000 76086 -5.1173e+001 -1.3332e+002  5.3307e+000 60754 75881,76037,75933
 2.6000e+000 76063 -7.7283e+001 -1.1580e+002  3.8054e+001 60754 75881,75933,75907
 2.6000e+000 76612 -2.1971e+001 -1.1685e+002  2.5581e+000 60350 76635,76442,76390
 2.6000e+000 76589  3.9926e+000 -1.3304e+002  8.5687e+000 60350 76635,76390,76364
 2.6000e+000 76566 -4.4146e+000 -1.7105e+002 -1.2626e+001 60350 76364,76494,76468
 2.6000e+000 76543 -1.4101e+000 -1.0586e+002  1.0491e+001 60350 76390,76442,76416
 2.6000e+000 76520 -5.9273e+001 -1.0924e+002 -2.8563e+001 60350 76338,76494,76364
 2.6000e+000 76661 -3.6570e+001 -1.2759e+002  7.2551e+000 60350 76468,76442,76635
 2.6000e+000 76684 -1.7807e+001 -1.4697e+002  1.4760e+001 60350 76468,76635,76364
 2.6000e+000 76932 -5.8139e+001 -1.8837e+002 -2.1356e+000 59946 76955,76733,76707
 2.6000e+000 76909 -5.8497e+001 -1.8811e+002  2.5512e+000 59946 77027,76955,76707
 2.6000e+000 76886 -5.5810e+001 -1.8812e+002  1.5989e+000 59946 77027,76707,76837
 2.6000e+000 76863 -2.7359e+001 -2.0199e+002 -2.1022e+001 59946 76733,76785,76759
 2.6000e+000 76981 -6.6964e+001 -1.8989e+002 -5.0007e+000 59946 76785,76733,76955
 2.6000e+000 77004 -6.0974e+001 -1.8712e+002  9.3898e-001 59946 76785,76955,76811
 2.6000e+000 77053 -5.4782e+001 -1.8807e+002  1.8540e+000 59946 76811,76955,77027
 2.6000e+000 77076 -5.2603e+001 -1.8786e+002  4.5256e-001 59946 76811,77027,76837
 2.6000e+000 77226 -5.1056e+001 -1.4121e+002  4.0069e+000 59542 77099,77151,77125
 2.6000e+000 77203 -6.5407e+001 -1.7496e+002  6.1612e+000 59542 77099,77177,77151
 2.6000e+000 77427 -8.6080e+001 -1.6881e+002 -1.6889e+001 59030 77450,77277,77251
 2.6000e+000 77404 -4.5529e+001 -1.2582e+002 -6.0894e+001 59030 77450,77251,77355
 2.6000e+000 77381  1.8513e+001 -1.9404e+002 -1.4323e+001 59030 77277,77329,77303
 2.6000e+000 77476 -3.7584e+001 -1.7808e+002 -4.3102e+001 59030 77329,77277,77450
 2.6000e+000 77499  5.7888e+000 -1.5741e+002 -7.7713e+001 59030 77329,77450,77355
 2.6000e+000 77749 -7.6340e+001 -2.1721e+002  2.3591e+001 58426 77772,77628,77602
 2.6000e+000 77726 -4.5292e+001 -2.3802e+002  6.2562e+001 58426 77524,77654,77628
 2.6000e+000 77703 -5.4088e+001 -2.2461e+002  1.5969e+001 58426 77772,77602,77550
 2.6000e+000 77680 -2.9536e+001 -2.0974e+002 -1.4671e+001 58426 77550,77602,77576
 2.6000e+000 77798 -5.2214e+001 -2.0543e+002  2.8871e+001 58426 77524,77628,77772
 2.6000e+000 77821 -4.4179e+001 -2.2232e+002  1.7086e+001 58426 77524,77772,77550
 2.6000e+000 78071 -1.0120e+002 -2.2762e+002  2.2945e+001 57922 78094,77924,77898
 2.6000e+000 78048 -1.2108e+002 -2.2726e+002 -3.8850e+000 57922 78094,77898,77872
 2.6000e+000 78025 -8.9363e+001 -1.9944e+002  2.1505e+001 57922 78166,77846,77950
 2.6000e+000 78002 -8.3025e+000 -1.9876e+002  3.2490e+001 57922 77846,77976,77950
 2.6000e+000 78120 -8.2745e+001 -2.2339e+002  1.5076e+001 57922 77950,77924,78094
 2.6000e+000 78143 -9.5957e+001 -2.0468e+002  1.6395e+001 57922 78166,77950,78094
 2.6000e+000 78192 -7.9095e+001 -2.1122e+002  1.0721e+001 57922 77872,77846,78166
 2.6000e+000 78215 -9.2552e+001 -2.2326e+002  4.3052e+000 57922 77872,78166,78094
 2.6000e+000 78416  9.3382e+000 -1.9555e+002 -5.9272e+000 57468 78439,78292,78240
 2.6000e+000 78393  1.7720e+001 -1.8292e+002 -9.6879e+000 57468 78439,78240,78344
 2.6000e+000 78370 -6.7821e+000 -2.7540e+002 -3.4543e+000 57468 78240,78292,78266
 2.6000e+000 78465  1.9168e+001 -1.9547e+002 -1.4741e+001 57468 78318,78292,78439
 2.6000e+000 78488  2.2680e+001 -1.8957e+002 -1.6203e+001 57468 78318,78439,78344
 2.6000e+000 78689  3.1006e+001 -2.1291e+002 -1.2612e+001 57014 78712,78539,78513
 2.6000e+000 78666  9.5299e+000 -2.1032e+002  1.6189e+000 57014 78712,78513,78617
 2.6000e+000 78643 -2.8538e+000 -2.0276e+002  2.2845e+001 57014 78565,78617,78591
 2.6000e+000 78738  2.8213e+000 -1.9271e+002 -1.3262e+001 57014 78565,78539,78712
 2.6000e+000 78761 -2.7633e+001 -2.0762e+002  9.4366e+000 57014 78565,78712,78617
 2.6000e+000 79241 -7.1520e+001 -1.8342e+002  5.9265e+000 56652 79264,78895,78869
 2.6000e+000 79218 -3.3406e+001 -2.5289e+002 -2.6009e+001 56652 79264,78869,79051
 2.6000e+000 79195 -4.8519e+001 -2.2609e+002 -5.6998e+001 56652 78869,79077,79051
 2.6000e+000 79172 -5.2011e+001 -1.1750e+002 -1.6075e+001 56652 78895,78973,78947
 2.6000e+000 79149 -8.9998e+001 -3.7047e+002 -3.4047e+001 56652 78973,79051,78999
 2.6000e+000 79126 -4.3966e+001 -1.3062e+002 -1.7045e+001 56652 78895,78947,78921
 2.6000e+000 79103 -6.2299e+001 -2.2565e+002  5.3934e+001 56652 78999,79051,79025
 2.6000e+000 79290 -4.3883e+001 -1.3863e+002  3.1610e+001 56652 78973,78895,79264
 2.6000e+000 79313 -4.0789e+000 -2.1462e+002  2.3885e+000 56652 78973,79264,79051
 2.6000e+000 79512 -2.0325e+001 -2.6895e+002  2.0456e+001 56062 79388,79440,79414
 2.6000e+000 79489 -9.7451e+001 -1.3260e+002  3.6749e+001 56062 79336,79440,79388
 2.6000e+000 79466 -3.8863e+001 -1.6361e+002  4.5519e+001 56062 79336,79388,79362
 2.6000e+000 79941 -3.0243e+001 -1.6568e+002  2.8616e+001 55658 79964,79670,79644
 2.6000e+000 79918 -4.7232e+001 -1.6851e+002  3.1934e+001 55658 79964,79644,79800
 2.6000e+000 79895 -4.6210e+001 -1.7719e+002  1.4739e+001 55658 80036,79696,79670
 2.6000e+000 79872 -5.0787e+001 -1.4055e+002 -1.5691e+000 55658 80108,79722,79696
 2.6000e+000 79849 -7.4688e+001 -1.4865e+002  6.9371e+000 55658 79722,79774,79748
 2.6000e+000 79826 -1.3117e-001 -1.5244e+002  8.3890e+000 55658 79618,79800,79644
 2.6000e+000 79990 -4.8962e+001 -1.7685e+002  2.2686e+001 55658 80036,79670,79964
 2.6000e+000 80013 -4.4306e+001 -1.5733e+002  3.2746e+001 55658 79774,79964,79800
 2.6000e+000 80062 -3.6759e+001 -1.5586e+002  1.2880e+001 55658 80108,79696,80036
 2.6000e+000 80085 -4.8586e+001 -1.5868e+002  2.9575e+001 55658 79774,80036,79964
 2.6000e+000 80134 -7.8862e+001 -1.5885e+002  6.8445e+000 55658 79774,79722,80108
 2.6000e+000 80157 -7.0694e+001 -1.7648e+002  2.1728e+001 55658 79774,80108,80036
 2.6000e+000 80307 -8.0572e+001 -1.5842e+002  2.1996e+001 55254 80402,80330,80206
 2.6000e+000 80284 -8.1864e+001 -2.1610e+002  1.6837e+001 55254 80330,80180,80258
 2.6000e+000 80356 -9.8454e+001 -1.9914e+002  3.9932e+001 55254 80232,80206,80330
 2.6000e+000 80379 -3.2713e+001 -1.6994e+002  5.0612e+001 55254 80232,80330,80258
 2.6000e+000 80428 -1.1646e+002 -2.0076e+002  4.8490e+000 55254 80180,80330,80402
 2.6000e+000 80659  1.1541e+001 -1.8823e+002 -1.9599e+001 54850 80558,80610,80584
 2.6000e+000 80636  1.9897e+001 -1.7930e+002 -1.3262e+001 54850 80532,80610,80558
 2.6000e+000 80760  5.1997e+000 -1.7526e+002 -1.1559e+001 54652 80682,80734,80708
 2.6000e+000 81164  6.6567e+000 -1.8033e+002 -5.1511e+000 54248 81187,80942,80890
 2.6000e+000 81141 -1.6492e+000 -1.8394e+002 -2.0074e+000 54248 81187,80890,81046
 2.6000e+000 81118 -6.6642e-001 -1.8610e+002  3.9532e+001 54248 80942,81020,80994
 2.6000e+000 81095  6.1885e+000 -1.8902e+002  3.1644e-001 54248 80890,80942,80916
 2.6000e+000 81072 -6.7183e+000 -9.2570e+001  2.2533e+000 54248 80942,80994,80968
 2.6000e+000 81213 -2.7059e+000 -1.7625e+002 -4.7950e+000 54248 81020,80942,81187
 2.6000e+000 81236 -9.3547e+000 -1.7779e+002 -2.7896e+000 54248 81020,81187,81046
 2.6000e+000 81663 -8.2780e+001 -1.5282e+002  2.2133e+001 53594 81340,81444,81366
 2.6000e+000 81640 -7.2490e+001 -2.3044e+002  1.0596e+001 53594 81340,81470,81444
 2.6000e+000 81617 -2.2876e+001 -2.0034e+002 -1.2035e+001 53594 81340,81522,81470
 2.6000e+000 81594 -3.9523e+001 -1.0899e+002 -8.9700e+000 53594 81392,81444,81418
 2.6000e+000 81571 -5.3235e+001 -1.2712e+002 -1.5201e+001 53594 81366,81444,81392
 2.6000e+000 81548  5.9487e+000 -2.9248e+002  4.9523e+001 53594 81470,81522,81496
 2.6000e+000 81943 -2.5820e+001 -1.0644e+002 -9.9023e+000 53104 81966,81845,81819
 2.6000e+000 81920 -4.2711e+001 -1.0437e+002 -1.6297e+001 53104 81966,81819,81767
 2.6000e+000 81897 -3.9678e+001 -9.8900e+001 -1.3981e+001 53104 81767,81819,81793
 2.6000e+000 81992 -1.4555e+001 -1.1287e+002 -1.8571e+001 53104 81871,81845,81966
 2.6000e+000 82015 -2.9711e+001 -1.0898e+002 -2.7927e+001 53104 81871,81966,81767
 2.6000e+000 82491 -1.5597e+001 -1.0778e+002 -2.4036e+001 52650 82145,82249,82171
 2.6000e+000 82468 -8.7786e+001 -1.4414e+002 -1.1780e+001 52650 82145,82301,82249
 2.6000e+000 82445 -8.3819e+001 -1.9665e+002 -3.3244e+001 52650 82249,82301,82275
 2.6000e+000 82422 -4.1629e+001 -2.4162e+002 -3.3893e+001 52650 82119,82301,82145
 2.6000e+000 82399 -2.3610e+001 -7.1056e+001  8.2906e+000 52650 82171,82249,82223
 2.6000e+000 82376  3.5363e+001 -2.0758e+002 -4.3220e+001 52650 82119,82327,82301
 2.6000e+000 82353 -5.2769e+000 -3.6797e+001 -1.4684e+001 52650 82171,82223,82197
 2.6000e+000 82739 -3.8927e+001 -1.0088e+002 -5.7057e+000 52246 82762,82540,82514
 2.6000e+000 82716 -2.1743e+001 -8.5295e+001 -1.2470e+001 52246 82762,82514,82644
 2.6000e+000 82693 -4.9704e+001 -1.1601e+002  8.7289e+000 52246 82540,82618,82592
 2.6000e+000 82670 -3.7364e+001 -9.6242e+001 -2.5657e+000 52246 82540,82592,82566
 2.6000e+000 82788 -2.3394e+001 -1.1706e+002  2.7919e+000 52246 82618,82540,82762
 2.6000e+000 82811 -8.6098e+000 -1.0760e+002 -1.3857e+000 52246 82618,82762,82644
 2.6000e+000 83059  1.4739e+001 -1.3072e+002  2.9190e+000 51578 82860,82964,82938
 2.6000e+000 83036  1.6186e+001 -1.2433e+002 -1.4894e+001 51578 82834,82964,82860
 2.6000e+000 83013  1.7430e+001 -1.1466e+002  1.0441e+001 51578 82860,82938,82886
 2.6000e+000 82990  2.0138e+001 -1.1323e+002  1.4347e+001 51578 82886,82938,82912
 2.6000e+000 83309 -1.7527e+001 -7.3807e+001  2.1632e+001 51138 83332,83162,83136
 2.6000e+000 83286  6.3705e+000 -1.0155e+002  3.6433e+000 51138 83332,83136,83110
 2.6000e+000 83263 -3.2266e+001 -1.0269e+002 -1.2345e+001 51138 83404,83214,83188
 2.6000e+000 83240 -6.6159e-001 -4.7319e+001  4.6753e+000 51138 83084,83214,83110
 2.6000e+000 83358 -4.1485e+001 -1.1179e+002  3.6258e+001 51138 83188,83162,83332
 2.6000e+000 83381 -1.6702e+001 -1.2120e+002  4.3292e+000 51138 83404,83188,83332
 2.6000e+000 83430 -1.1424e+001 -5.5518e+001 -8.8501e+000 51138 83110,83214,83404
 2.6000e+000 83453 -7.2360e-001 -8.4636e+001  7.6443e+000 51138 83110,83404,83332
 2.6000e+000 83835 -2.1536e+001 -1.3369e+002 -9.9996e+000 50734 83613,83717,83691
 2.6000e+000 83812 -2.7497e+001 -1.5074e+002 -2.9157e+001 50734 83561,83717,83613
 2.6000e+000 83789 -1.6352e+001 -6.6419e+001 -4.3548e+001 50734 83561,83613,83587
 2.6000e+000 83766 -2.8932e+001 -9.3859e+001 -5.2749e+000 50734 83613,83691,83639
 2.6000e+000 83743 -3.2838e+001 -9.3550e+001  2.1664e+001 50734 83639,83691,83665
 2.6000e+000 84034  6.2048e+000 -7.5886e+001 -1.7451e+001 50230 84057,83884,83858
 2.6000e+000 84011  7.8215e-002 -8.2832e+001 -4.9576e+000 50230 84129,84057,83858
 2.6000e+000 83988  5.7474e+000 -8.1939e+001 -6.6877e+000 50230 84129,83858,83962
 2.6000e+000 84083 -1.2877e+001 -8.4570e+001 -1.5387e+001 50230 83910,83884,84057
 2.6000e+000 84106 -5.2391e+000 -9.2043e+001 -4.6974e-001 50230 83910,84057,83936
 2.6000e+000 84155  8.1030e+000 -8.2843e+001 -4.4745e+000 50230 83936,84057,84129
 2.6000e+000 84178  1.0571e+001 -8.4287e+001 -6.4873e+000 50230 83936,84129,83962
 2.6000e+000 84558 -2.8703e+001 -1.0954e+002 -1.5698e+001 49768 84581,84388,84362
 2.6000e+000 84535 -7.8139e+001 -1.1079e+002 -1.1640e+000 49768 84581,84362,84310
 2.6000e+000 84512  1.5840e+001 -1.1944e+002 -1.8573e+001 49768 84653,84440,84414
 2.6000e+000 84489 -5.9826e+001 -1.2487e+002  1.7383e+001 49768 84310,84362,84336
 2.6000e+000 84466  2.9955e+000 -7.9751e+001  2.4051e+001 49768 84284,84440,84310
 2.6000e+000 84607  1.0339e+001 -8.5653e+001 -3.3801e+001 49768 84414,84388,84581
 2.6000e+000 84630 -2.3776e+000 -1.1439e+002 -1.1842e+001 49768 84653,84414,84581
 2.6000e+000 84679 -8.7159e+000 -1.0922e+002 -2.6644e+001 49768 84310,84440,84653
 2.6000e+000 84702 -3.3120e+001 -1.1071e+002 -2.6489e+001 49768 84310,84653,84581
 2.6000e+000 85159 -7.4494e+001 -1.7832e+002 -4.5303e+001 49192 84885,84937,84911
 2.6000e+000 85136 -7.0378e+001 -1.4118e+002 -3.5688e+001 49192 84885,85041,84937
 2.6000e+000 85113 -4.8184e+001 -1.1339e+002 -2.2341e+001 49192 84963,85041,84989
 2.6000e+000 85090 -4.7580e+001 -1.1351e+002 -2.5408e+001 49192 84937,85041,84963
 2.6000e+000 85067 -4.1293e+001 -1.2062e+002 -1.3846e+001 49192 84989,85041,85015
 2.6000e+000 85714 -6.3442e+001 -1.0297e+002  6.3693e+000 48638 85368,85498,85394
 2.6000e+000 85691 -8.6307e+001 -1.1953e+002  1.6540e+001 48638 85368,85524,85498
 2.6000e+000 85668 -7.7590e+001 -1.0575e+002  2.9295e+001 48638 85737,85420,85394
 2.6000e+000 85645 -6.4725e+001 -1.1145e+002  1.6952e+001 48638 85737,85394,85498
 2.6000e+000 85622 -5.0254e+001 -1.2858e+002  2.3767e+001 48638 85446,85498,85472
 2.6000e+000 85599 -2.4410e+001 -9.2961e+001  1.4094e+001 48638 85342,85524,85368
 2.6000e+000 85576 -8.5749e+001 -1.1418e+002  1.8704e+001 48638 85342,85550,85524
 2.6000e+000 85763 -5.7186e+001 -9.6177e+001  3.2980e+001 48638 85446,85420,85737
 2.6000e+000 85786 -5.6656e+001 -1.0563e+002  1.9788e+001 48638 85446,85737,85498
 2.6000e+000 86371 -5.1275e+001 -7.2250e+001 -8.4127e+000 48084 86100,86230,86178
 2.6000e+000 86348 -7.2390e+001 -9.9221e+001 -1.7770e+001 48084 86048,86230,86100
 2.6000e+000 86325 -5.3207e+001 -6.7814e+001  1.4316e+001 48084 86100,86178,86126
 2.6000e+000 86302 -3.7498e+001 -1.7511e+001 -2.2273e+001 48084 86048,86100,86074
 2.6000e+000 86279 -5.9833e+001 -1.1452e+002 -8.9095e+000 48084 86178,86230,86204
 2.6000e+000 86256 -4.3914e+001 -7.9095e+001  1.4337e+001 48084 86126,86178,86152
 2.6000e+000 86619 -3.7097e+001 -9.5999e+001 -3.6917e+000 47630 86642,86446,86420
 2.6000e+000 86596 -4.1837e+001 -1.0442e+002 -2.1907e+001 47630 86642,86420,86394
 2.6000e+000 86573 -5.0688e+001 -1.0817e+002 -2.7390e+001 47630 86394,86524,86498
 2.6000e+000 86550 -1.7577e+001 -1.1180e+002 -1.3506e+000 47630 86446,86498,86472
 2.6000e+000 86668 -4.6239e+001 -1.1673e+002 -8.0104e+000 47630 86498,86446,86642
 2.6000e+000 86691 -4.7669e+001 -1.1890e+002 -2.5934e+001 47630 86498,86642,86394
 2.6000e+000 87022 -1.9751e+000 -5.2799e+001 -2.0704e+001 47226 87045,86875,86849
 2.6000e+000 86999 -1.4015e+001 -6.4297e+001 -2.6304e+001 47226 87045,86849,86797
 2.6000e+000 86976 -4.2490e+000 -2.9645e+001 -1.8043e+001 47226 86797,86849,86823
 2.6000e+000 86953  1.5760e+001 -5.0676e+001 -2.7938e+001 47226 86875,86927,86901
 2.6000e+000 87071  8.3355e+000 -6.8992e+001 -2.3892e+001 47226 86927,86875,87045
 2.6000e+000 87094 -9.8810e-001 -7.6074e+001 -2.7521e+001 47226 86927,87045,86797
 2.6000e+000 87244 -1.6568e+000 -1.0915e+002  3.8747e+001 46814 87267,87169,87143
 2.6000e+000 87221 -5.7870e+001 -1.0836e+002 -2.1207e+000 46814 87267,87143,87117
 2.6000e+000 87293 -1.3973e+001 -1.1040e+002 -1.3501e+001 46814 87339,87267,87195
 2.6000e+000 87316  2.0478e+001 -7.4384e+001 -2.9298e+001 46814 87469,87267,87117
 2.6000e+000 87365 -3.1347e+001 -9.4224e+001  4.1779e+001 46814 87169,87267,87339
 2.6000e+000 87495  1.6839e+001  3.6108e+001 -3.0687e+001 46814 87195,87267,87469
 2.6000e+000 88001 -4.4310e+001 -1.0744e+002  2.4269e+001 46310 88024,87834,87808
 2.6000e+000 87978 -5.2530e+001 -1.0959e+002  1.7196e+001 46310 88024,87808,87756
 2.6000e+000 87955 -1.4717e+001 -1.4082e+002  6.2112e+000 46310 88096,87730,87860
 2.6000e+000 87932 -3.7358e+001 -1.3105e+002  1.9184e+001 46310 87756,87808,87782
 2.6000e+000 87909 -2.2260e+001 -1.8182e+002  8.2083e+000 46310 87678,87860,87730
 2.6000e+000 87886 -4.4722e+001 -2.9331e+002 -1.1895e+001 46310 87678,87730,87704
 2.6000e+000 88050 -3.8059e+001 -9.3400e+001  1.9499e+001 46310 87860,87834,88024
 2.6000e+000 88073 -1.8658e+001 -1.0137e+002  2.1687e+001 46310 88096,87860,88024
 2.6000e+000 88122 -2.9865e+001 -1.5930e+002 -5.4580e+000 46310 87756,87730,88096
 2.6000e+000 88145 -5.9842e+001 -1.4341e+002  3.1180e+000 46310 87756,88096,88024
 2.6000e+000 88572 -2.9943e+001 -1.1783e+002  2.4033e+000 45856 88249,88405,88275
 2.6000e+000 88549 -2.0259e+001 -3.8445e+001 -2.8255e+001 45856 88249,88431,88405
 2.6000e+000 88526 -6.3729e+001 -1.7192e+002 -2.2958e+001 45856 88327,88405,88353
 2.6000e+000 88503 -2.9838e+001 -1.3381e+002 -8.6926e+000 45856 88275,88405,88327
 2.6000e+000 88480 -5.1845e+001 -1.5003e+002 -3.0448e+001 45856 88353,88405,88379
 2.6000e+000 88457 -1.2680e+002 -3.4670e+002  2.9499e+001 45856 88275,88327,88301
 2.6000e+000 88950 -2.5201e+001 -7.5267e+001 -1.6292e+000 45658 88973,88754,88728
 2.6000e+000 88927 -2.3707e+001 -8.0021e+001 -1.9866e+000 45658 88973,88728,88676
 2.6000e+000 88904 -2.8002e+001 -9.9920e+001  3.3348e+001 45658 88676,88832,88806
 2.6000e+000 88881 -3.8985e+001 -1.0639e+002  1.3385e+001 45658 88676,88728,88702
 2.6000e+000 88858 -3.3304e+001 -7.0082e+001 -1.5882e+001 45658 88754,88806,88780
 2.6000e+000 88999 -2.7192e+001 -7.9110e+001 -8.1992e-001 45658 88806,88754,88973
 2.6000e+000 89022 -2.4356e+001 -8.1918e+001 -1.5844e+000 45658 88806,88973,88676
 2.6000e+000 89351  3.5931e+000 -1.0897e+002 -5.7617e+000 45254 89152,89230,89204
 2.6000e+000 89328 -1.9358e+001 -1.1766e+002 -2.4716e+000 45254 89152,89256,89230
 2.6000e+000 89305 -4.1950e+000 -1.2298e+002 -9.6179e+000 45254 89126,89256,89152
 2.6000e+000 89282 -1.2240e+001 -1.2517e+002  1.1316e+000 45254 89152,89204,89178
 2.6000e+000 89523 -1.9438e+001 -1.1001e+002  3.2008e-001 45006 89422,89474,89448
 2.6000e+000 89500 -1.5700e+001 -1.0843e+002  3.3078e+000 45006 89396,89474,89422
 2.6000e+000 89673 -7.7573e+001 -1.4806e+002  1.2081e+001 44495 89572,89624,89598
 2.6000e+000 89650 -8.6524e+001 -1.7624e+002  1.7766e+001 44495 89546,89624,89572
 2.6000e+000 90104 -1.0198e+000 -1.4382e+002 -9.1367e+000 44005 90199,90127,89937
 2.6000e+000 90081 -1.1064e+001 -1.3602e+002 -1.3102e+000 44005 90271,90127,89859
 2.6000e+000 90058  3.5375e+000 -1.4485e+002 -9.0055e+000 44005 90199,89937,89885
 2.6000e+000 90035 -2.6501e+001 -1.2569e+002  7.4715e+000 44005 90271,89859,89807
 2.6000e+000 90012 -1.7420e+001 -1.5972e+002 -2.1779e+001 44005 89885,89937,89911
 2.6000e+000 89989 -4.3830e+000 -1.3588e+002  2.2325e+001 44005 89807,89859,89833
 2.6000e+000 90153 -1.6761e+001 -1.5078e+002 -1.0274e+001 44005 89963,89937,90127
 2.6000e+000 90176 -1.5482e+001 -1.5121e+002 -5.0882e+000 44005 89963,90127,89781
 2.6000e+000 90225 -1.5268e+001 -1.4061e+002 -6.1432e+000 44005 89859,90127,90199
 2.6000e+000 90248 -3.1646e+000 -1.3604e+002 -3.1796e+000 44005 89859,90199,89885
 2.6000e+000 90297 -3.1726e+001 -1.4862e+002 -6.6884e+000 44005 89781,90127,90271
 2.6000e+000 90320 -4.0695e+001 -1.3491e+002  3.4616e+000 44005 89781,90271,89807
 2.6000e+000 90470 -1.9965e+001 -1.5421e+002 -6.1241e+000 43601 90493,90369,90343
 2.6000e+000 90447 -3.7198e+001 -1.2817e+002  7.9477e+000 43601 90493,90343,90421
 2.6000e+000 90519 -4.6357e+001 -2.0047e+002 -2.2722e+001 43601 90395,90369,90493
 2.6000e+000 90542 -3.9429e+001 -1.4669e+002 -4.3587e+000 43601 90395,90493,90421
 2.6000e+000 90922 -5.1872e+001 -1.6500e+002  1.2717e+001 43154 90945,90700,90674
 2.6000e+000 90899 -5.0940e+001 -1.6963e+002 -1.2411e+001 43154 90945,90674,90648
 2.6000e+000 90876 -5.9182e+001 -1.3340e+002 -9.6498e+000 43154 90648,90778,90752
 2.6000e+000 90853 -2.9432e+001 -2.5689e+002  8.1611e+000 43154 90700,90752,90726
 2.6000e+000 90830 -3.7610e+001 -1.3613e+002 -6.7689e-001 43154 90648,90804,90778
 2.6000e+000 90971 -6.0110e+001 -1.8690e+002  1.4439e+001 43154 90752,90700,90945
 2.6000e+000 90994 -5.6265e+001 -1.8241e+002 -9.9179e+000 43154 90752,90945,90648
 2.6000e+000 91451 -1.6787e+001 -1.2219e+002 -2.5331e+001 42650 91203,91255,91229
 2.6000e+000 91428 -5.8047e+000 -1.1723e+002 -8.8051e+000 42650 91203,91333,91255
 2.6000e+000 91405 -6.2134e-001 -1.8663e+002 -2.6438e+001 42650 91177,91333,91203
 2.6000e+000 91382 -5.4196e+001 -1.9505e+002  1.2138e+001 42650 91255,91333,91281
 2.6000e+000 91359  2.2850e+001 -1.5905e+002  1.7057e+000 42650 91281,91333,91307
 2.6000e+000 91721 -7.9641e+001 -1.7663e+002  2.0731e+001 42288 91496,91600,91522
 2.6000e+000 91698 -4.2277e+001 -1.0550e+002 -4.1925e+000 42288 91496,91626,91600
 2.6000e+000 91675 -4.8206e+001 -1.6336e+002  3.0766e+001 42288 91522,91574,91548
 2.6000e+000 91652 -1.8809e+001 -1.5201e+002  2.2933e+001 42288 91522,91600,91574
 2.6000e+000 92199 -1.1415e+002 -1.9293e+002 -1.3774e+000 41898 92222,91983,91879
 2.6000e+000 92176 -1.1453e+002 -2.1733e+002 -1.0942e+001 41898 92294,92222,91879
 2.6000e+000 92153 -1.2126e+002 -2.0866e+002 -1.6805e+001 41898 92294,91879,91853
 2.6000e+000 92130 -9.7512e+001 -1.1458e+002  1.2612e+001 41898 91879,91957,91931
 2.6000e+000 92107 -1.0159e+002 -1.8766e+002 -4.9627e-001 41898 91879,91983,91957
 2.6000e+000 92084 -1.0915e+002 -1.0977e+002  2.4881e+001 41898 91879,91931,91905
 2.6000e+000 92061 -1.0724e+002 -1.7978e+002 -1.8047e+001 41898 91827,92035,91853
 2.6000e+000 92248 -1.1603e+002 -2.2393e+002  5.8769e+000 41898 92009,91983,92222
 2.6000e+000 92271 -1.1020e+002 -2.3045e+002 -2.1160e+001 41898 92009,92222,92035
 2.6000e+000 92320 -1.0203e+002 -2.0687e+002 -1.7102e+001 41898 92035,92222,92294
 2.6000e+000 92343 -1.0783e+002 -1.9971e+002 -2.3150e+001 41898 92035,92294,91853
 2.6000e+000 92770 -3.5506e+001 -1.7891e+002 -1.3769e+001 41437 92865,92793,92525
 2.6000e+000 92747 -5.0776e+001 -1.9893e+002 -1.9380e+001 41437 92793,92473,92629
 2.6000e+000 92724 -1.6987e+001 -1.8455e+002 -2.3797e+001 41437 92865,92525,92499
 2.6000e+000 92701 -5.0291e+001 -1.5891e+002 -2.8476e+001 41437 92525,92603,92577
 2.6000e+000 92678 -8.1215e-001 -1.8612e+002 -1.4333e+001 41437 92447,92629,92473
 2.6000e+000 92655 -8.7351e+001 -1.4058e+002 -1.5754e+001 41437 92525,92577,92551
 2.6000e+000 92819 -3.9187e+001 -1.8728e+002 -2.9424e+001 41437 92603,92525,92793
 2.6000e+000 92842 -8.1244e+001 -2.0211e+002 -5.1261e+001 41437 92603,92793,92629
 2.6000e+000 92891  4.8350e-001 -1.9049e+002 -1.6157e+001 41437 92473,92793,92865
 2.6000e+000 92914  2.6816e+001 -1.8580e+002 -3.0563e+001 41437 92473,92865,92499
 2.6000e+000 93243 -3.3645e+001 -2.6314e+002  9.4120e+001 41097 93044,93096,93070
 2.6000e+000 93220 -5.7351e+001 -2.3360e+002  4.7999e+001 41097 93044,93122,93096
 2.6000e+000 93197  2.0377e+001 -1.6090e+002  1.7596e+001 41097 93044,93148,93122
 2.6000e+000 93174 -3.2039e+001 -1.1094e+002  5.2559e+001 41097 93018,93148,93044
 2.6000e+000 93393 -3.4850e+000 -1.9343e+002  1.2976e+001 40643 93416,93292,93344
 2.6000e+000 93370 -8.3627e+000 -1.7513e+002  1.5178e+001 40643 93266,93344,93292
 2.6000e+000 93442 -6.7160e+000 -1.9187e+002  1.7182e+001 40643 93318,93292,93416
 2.6000e+000 93901 -5.7481e+001 -1.8897e+002 -1.7464e+001 40132 93924,93731,93705
 2.6000e+000 93878 -5.8138e+001 -1.8715e+002 -1.7504e+001 40132 93996,93924,93705
 2.6000e+000 93855 -6.9554e+001 -2.1502e+002 -8.7416e+000 40132 93996,93705,93653
 2.6000e+000 93832 -2.7606e+001 -2.0942e+002 -1.4960e+001 40132 93653,93705,93679
 2.6000e+000 93809 -5.6089e+001 -1.6688e+002  4.8684e-001 40132 93627,93783,93757
 2.6000e+000 93950 -5.9165e+001 -1.9226e+002 -1.6805e+001 40132 93757,93731,93924
 2.6000e+000 93973 -5.9341e+001 -1.6293e+002 -1.9853e+000 40132 93757,93924,93627
 2.6000e+000 94022 -7.8309e+001 -2.0443e+002  2.4499e+000 40132 93627,93924,93996
 2.6000e+000 94045 -7.2680e+001 -2.1423e+002  8.8501e+000 40132 93627,93996,93653
 2.6000e+000 94423 -3.2361e+001 -2.1662e+002 -2.1404e+001 39514 94149,94227,94175
 2.6000e+000 94400 -2.4252e+001 -1.7870e+002  5.8840e+000 39514 94149,94305,94227
 2.6000e+000 94377 -9.0322e+000 -2.3286e+002 -2.4762e+001 39514 94175,94227,94201
 2.6000e+000 94354 -2.1785e+001 -1.8259e+002  6.4889e+000 39514 94227,94305,94279
 2.6000e+000 94331 -2.6942e+001 -1.8356e+002  1.3547e+001 39514 94227,94279,94253
 2.6000e+000 94573 -1.0001e+001 -1.0879e+002 -3.1419e+001 38822 94596,94498,94472
 2.6000e+000 94550  2.7623e+001 -1.2105e+002  1.9779e+001 38822 94596,94472,94446
 2.6000e+000 94622 -5.3475e+001 -1.2766e+002 -2.7695e+001 38822 94524,94498,94596
 2.6000e+000 94645 -4.7526e+001 -1.5592e+002  2.8723e+001 38822 94524,94596,94446
 2.6000e+000 95025 -2.5924e+001 -1.5226e+002 -1.7258e+001 38418 95048,94829,94777
 2.6000e+000 95002 -1.3265e+001 -1.4579e+002 -1.4982e+001 38418 95120,95048,94777
 2.6000e+000 94979 -9.0562e+000 -1.5023e+002 -1.4380e+001 38418 95120,94777,94751
 2.6000e+000 94956  2.9375e+001 -1.4839e+002 -1.7291e+001 38418 95192,94881,94855
 2.6000e+000 94933 -5.4497e+001 -1.4532e+002 -1.2702e+001 38418 94777,94829,94803
 2.6000e+000 95074 -2.5641e+001 -1.8299e+002  7.7049e+000 38418 94855,94829,95048
 2.6000e+000 95097  1.9667e+001 -1.4945e+002 -6.9311e+000 38418 95192,94855,95048
 2.6000e+000 95146 -2.1003e+001 -1.4872e+002 -1.2149e+001 38418 94907,95048,95120
 2.6000e+000 95169 -1.4169e+001 -1.5154e+002 -1.1129e+001 38418 94907,95120,94751
 2.6000e+000 95218  1.0412e+001 -1.2387e+002 -1.9801e+001 38418 94907,94881,95192
 2.6000e+000 95241 -1.3863e+001 -1.4028e+002 -5.7457e+000 38418 94907,95192,95048
 2.6000e+000 95511 -5.5054e+001 -1.7206e+002  7.4945e+000 38049 95312,95390,95364
 2.6000e+000 95488 -3.9998e+001 -1.6594e+002  8.0200e+000 38049 95312,95416,95390
 2.6000e+000 95465 -1.8770e+001 -1.6242e+002 -1.1162e+001 38049 95312,95364,95338
 2.6000e+000 95442 -1.6328e+001 -1.5540e+002  1.4885e+001 38049 95286,95416,95312
 2.6000e+000 95808 -5.5297e+001 -2.0019e+002 -6.8948e+000 37437 95831,95586,95560
 2.6000e+000 95785  6.7061e+000 -2.0232e+002 -7.3916e+000 37437 95831,95560,95534
 2.6000e+000 95762 -9.7788e+001 -1.8193e+002  8.2325e+000 37437 95586,95664,95638
 2.6000e+000 95739 -2.0857e+001 -9.6662e+001 -4.3640e+001 37437 95534,95690,95664
 2.6000e+000 95716 -9.3972e+001 -1.2857e+002  5.9089e+000 37437 95586,95638,95612
 2.6000e+000 95857 -9.6200e+001 -1.8885e+002  1.9217e+001 37437 95664,95586,95831
 2.6000e+000 95880 -3.0537e+001 -1.8906e+002  1.9725e+001 37437 95664,95831,95534
 2.6000e+000 96390 -6.7284e+001 -1.3810e+002 -1.0162e+001 36883 96413,96145,96093
 2.6000e+000 96367 -5.9238e+001 -1.3292e+002 -3.3516e+000 36883 96413,96093,96067
 2.6000e+000 96344 -4.0199e+001 -1.5730e+002 -3.9502e+000 36883 96067,96249,96171
 2.6000e+000 96321 -5.4423e+001 -1.5440e+002 -6.9544e+000 36883 96093,96145,96119
 2.6000e+000 96298 -7.8032e+001 -2.5531e+002  2.5132e+001 36883 96171,96249,96197
 2.6000e+000 96275 -1.8637e+001 -2.0802e+002  1.7579e+000 36883 96197,96249,96223
 2.6000e+000 96439 -6.2101e+001 -1.2793e+002 -4.1507e+000 36883 96171,96145,96413
 2.6000e+000 96462 -5.7275e+001 -1.2950e+002  1.9870e+000 36883 96171,96413,96067
 2.6000e+000 96781 -5.1036e+000 -1.4022e+002 -3.1849e+001 36215 96559,96663,96637
 2.6000e+000 96758 -5.0610e+001 -1.3686e+002 -3.2590e+001 36215 96507,96663,96559
 2.6000e+000 96735 -3.0419e+001 -1.0409e+002  8.1083e+000 36215 96585,96637,96611
 2.6000e+000 96712 -1.0590e+002 -1.7355e+002 -2.6412e+001 36215 96559,96637,96585
 2.6000e+000 96689 -2.6570e+001 -1.8223e+002 -1.6375e+001 36215 96507,96559,96533
 2.6000e+000 97161  1.4282e+000 -8.7491e+001 -3.8785e+000 35818 97184,96965,96939
 2.6000e+000 97138 -1.1775e+001 -1.0047e+002 -1.1260e+001 35818 97184,96939,96887
 2.6000e+000 97115 -3.5035e+000 -1.1003e+002  2.0144e+001 35818 96965,97043,97017
 2.6000e+000 97092 -7.8844e+000 -9.4428e+001 -1.2948e+001 35818 96887,96939,96913
 2.6000e+000 97069 -5.8134e+001 -1.1406e+002  1.1839e+001 35818 96965,97017,96991
 2.6000e+000 97210  1.6092e+001 -9.9015e+001  4.0949e+000 35818 97043,96965,97184
 2.6000e+000 97233  4.9199e+000 -1.0777e+002 -2.0762e+000 35818 97043,97184,96887
 2.6000e+000 97739 -4.9968e+001 -1.6633e+002 -3.8769e+001 35214 97416,97468,97442
 2.6000e+000 97716 -5.7938e+001 -1.1791e+002 -1.3376e+001 35214 97416,97598,97468
 2.6000e+000 97693 -5.2440e+001 -1.1490e+002 -4.1210e+000 35214 97762,97520,97468
 2.6000e+000 97670 -5.5072e+001 -1.1960e+002 -1.1866e+001 35214 97762,97468,97598
 2.6000e+000 97647 -5.1149e+001 -1.0538e+002 -2.5012e+001 35214 97546,97598,97572
 2.6000e+000 97624 -3.3158e+001 -1.1085e+002 -7.7709e+000 35214 97468,97520,97494
 2.6000e+000 97788 -5.5505e+001 -1.2393e+002 -7.4035e+000 35214 97546,97520,97762
 2.6000e+000 97811 -5.6134e+001 -1.2763e+002 -1.4631e+001 35214 97546,97762,97598
 2.6000e+000 98189 -1.3071e+001 -9.7591e+001 -6.5065e+000 34760 98356,98212,97967
 2.6000e+000 98166 -2.5518e+001 -1.1626e+002 -1.3770e+001 34760 98284,98212,97941
 2.6000e+000 98143 -4.6239e+001 -1.0479e+002 -4.5569e+000 34760 98284,97941,97915
 2.6000e+000 98120 -1.2297e+001 -1.2249e+002 -1.1596e+000 34760 98484,97993,97967
 2.6000e+000 98097 -8.3061e+000 -1.0924e+002 -2.1002e+000 34760 98556,98045,98019
 2.6000e+000 98238 -1.9018e+001 -1.1695e+002 -1.9681e+000 34760 98484,97967,98212
 2.6000e+000 98261 -1.4095e+000 -1.1351e+002 -5.7039e+000 34760 98556,98019,98212
 2.6000e+000 98310 -7.2793e+000 -9.5806e+001 -2.2462e+001 34760 98071,98212,98284
 2.6000e+000 98333 -2.1414e+001 -6.7608e+001 -1.7528e+001 34760 98071,98284,97915
 2.6000e+000 98382 -6.3849e+001 -1.2882e+002 -2.0983e+001 34760 97941,98212,98356
 2.6000e+000 98510  2.8590e-001 -1.1946e+002 -4.6883e+000 34760 98019,97993,98484
 2.6000e+000 98533 -1.1257e+001 -1.1775e+002 -5.2964e+000 34760 98019,98484,98212
 2.6000e+000 98582  2.9362e-001 -1.0397e+002  1.4046e-001 34760 98071,98045,98556
 2.6000e+000 98605  3.0689e+000 -1.1065e+002 -4.4092e+000 34760 98071,98556,98212
 2.6000e+000 99032 -6.4657e+001 -1.4749e+002  2.1347e+001 34156 98735,98891,98839
 2.6000e+000 99009 -5.6603e+001 -1.5197e+002  1.1088e+001 34156 98709,98891,98735
 2.6000e+000 98986 -1.9366e+001 -1.3489e+002  2.2292e+001 34156 98735,98813,98787
 2.6000e+000 98963 -1.8529e+001 -1.3977e+002  1.5185e+001 34156 98735,98839,98813
 2.6000e+000 98940  2.5766e+000 -1.9344e+002  2.3960e+001 34156 98735,98787,98761
 2.6000e+000 98917 -5.6561e+001 -1.2653e+002  1.0286e+001 34156 98839,98891,98865
 2.6000e+000 99231  6.4833e+000 -6.6745e+001  1.4598e+001 33766 99055,99133,99107
 2.6000e+000 99208 -2.9798e+001 -7.4793e+001  2.5979e+001 33766 99055,99159,99133
 2.6000e+000 99185 -1.3264e+001 -1.1212e+002  9.2604e+000 33766 99055,99107,99081
 2.6000e+000 99818 -2.6344e+001 -1.1548e+002  1.5138e-001 33248 99521,99651,99573
 2.6000e+000 99795 -3.6328e+001 -1.1524e+002  7.4306e+000 33248 99521,99677,99651
 2.6000e+000 99772 -5.5167e+001 -1.4600e+002 -1.5088e+001 33248 99573,99651,99599
 2.6000e+000 99749 -3.5130e+001 -1.4430e+002  1.0214e+001 33248 99495,99677,99521
 2.6000e+000 99726 -2.6723e+001 -1.3042e+002 -3.4216e+001 33248 99599,99651,99625
 2.6000e+000 99703 -4.2780e+001 -1.3676e+002  7.3922e+000 33248 99521,99573,99547
 2.6000e+000 100196 -5.0505e+001 -1.2148e+002 -2.0027e+001 32794 100219,99948,99922
 2.6000e+000 100173 -5.6216e+001 -1.3352e+002 -1.1508e+001 32794 100219,99922,100052
 2.6000e+000 100150 -6.1780e+001 -1.2340e+002  4.3586e+000 32794 99974,100052,100026
 2.6000e+000 100127 -6.6812e+001 -1.2582e+002 -1.2968e+001 32794 99922,100078,100052
 2.6000e+000 100104 -6.7631e+001 -1.5312e+002  2.7436e+001 32794 99974,100026,100000
 2.6000e+000 100245 -6.0146e+001 -1.1848e+002 -8.2063e+000 32794 99974,99948,100219
 2.6000e+000 100268 -6.4471e+001 -1.3485e+002  3.0208e-001 32794 99974,100219,100052
 2.6000e+000 100418 -7.0316e+000 -1.1297e+002 -1.7828e+001 32504 100571,100343,100317
 2.6000e+000 100395 -4.5965e+001 -1.3058e+002  7.1846e+000 32504 100571,100317,100441
 2.6000e+000 100467  3.0879e+001 -5.7496e+001 -4.4297e+001 32504 100291,100369,100441
 2.6000e+000 100597  1.0503e+001 -9.3708e+001 -4.8397e+001 32504 100369,100343,100571
 2.6000e+000 100620 -7.0338e+000 -8.6981e+001 -2.6760e+001 32504 100369,100571,100441
 2.6000e+000 101020 -2.3422e+001 -1.0911e+002  4.8590e+000 32142 100772,100902,100876
 2.6000e+000 100997 -1.5174e+001 -9.8584e+001  8.5528e+000 32142 100746,100902,100772
 2.6000e+000 100974 -9.2659e+000 -1.2633e+002  1.1640e+001 32142 101043,100824,100798
 2.6000e+000 100951 -2.2014e+001 -1.3213e+002  9.2441e+000 32142 101043,100798,100772
 2.6000e+000 100928 -7.4155e+001 -1.5307e+002 -3.7490e+001 32142 101115,100876,100850
 2.6000e+000 101069  1.1917e+001 -1.3445e+002 -1.3230e+001 32142 100850,100824,101043
 2.6000e+000 101092 -4.0545e+001 -1.5766e+002 -1.8161e+001 32142 101115,100850,101043
 2.6000e+000 101141 -3.2603e+001 -1.2912e+002 -1.4431e+001 32142 100772,100876,101115
 2.6000e+000 101164 -6.4442e+000 -1.3220e+002  6.6411e+000 32142 100772,101115,101043
 2.6000e+000 101719 -6.2947e+001 -1.5020e+002  1.8658e+001 31538 101742,101477,101399
 2.6000e+000 101696 -7.8850e+001 -1.8071e+002  4.1949e+000 31538 101814,101742,101399
 2.6000e+000 101673 -9.0930e+001 -1.5494e+002 -1.3699e+001 31538 101814,101399,101373
 2.6000e+000 101650 -6.4333e+001 -1.0991e+002  1.1948e+001 31538 101425,101477,101451
 2.6000e+000 101627 -6.0851e+001 -1.2780e+002  2.4148e+000 31538 101399,101477,101425
 2.6000e+000 101604 -3.1316e+001 -1.8630e+002  3.7644e+001 31538 101477,101529,101503
 2.6000e+000 101581 -2.5102e+001 -1.0332e+002 -1.0615e+001 31538 101347,101555,101373
 2.6000e+000 101768 -6.9812e+001 -1.8181e+002  1.7183e+001 31538 101529,101477,101742
 2.6000e+000 101791 -6.2299e+001 -1.8686e+002 -7.2123e+000 31538 101529,101742,101555
 2.6000e+000 101840 -4.8879e+001 -1.5458e+002 -7.7185e+000 31538 101555,101742,101814
 2.6000e+000 101863 -6.6187e+001 -1.3349e+002 -2.4103e+001 31538 101555,101814,101373
 2.6000e+000 102111 -8.4597e+001 -2.4577e+002  2.9207e+001 31112 101886,101990,101912
 2.6000e+000 102088 -2.6777e+001 -1.5983e+002 -2.9772e+000 31112 101886,102016,101990
 2.6000e+000 102065 -4.0359e+001 -2.3918e+002  4.3289e+001 31112 101912,101990,101964
 2.6000e+000 102042 -6.5137e+001 -2.8448e+002  5.3111e+001 31112 101912,101964,101938
 2.6000e+000 102408 -2.8524e+001 -1.4034e+002  1.8396e+001 30658 102431,102186,102160
 2.6000e+000 102385 -5.1664e+001 -1.3541e+002  4.0087e+000 30658 102431,102160,102264
 2.6000e+000 102362 -5.0657e+001 -1.5909e+002  6.9040e+000 30658 102186,102238,102212
 2.6000e+000 102339 -6.0597e+001 -1.4791e+002 -7.5683e+000 30658 102134,102264,102160
 2.6000e+000 102316 -3.9401e+001 -1.2078e+002 -4.2203e+001 30658 102134,102290,102264
 2.6000e+000 102457 -4.5891e+001 -1.5242e+002  1.2632e+001 30658 102238,102186,102431
 2.6000e+000 102480 -7.1049e+001 -1.5039e+002 -2.8268e+000 30658 102238,102431,102264
 2.6000e+000 102681 -2.8197e+001 -1.7607e+002  2.2716e+001 30004 102704,102557,102505
 2.6000e+000 102658 -2.5071e+001 -1.8345e+002  2.6013e+001 30004 102704,102505,102609
 2.6000e+000 102635 -6.8787e+000 -1.5133e+002  4.5061e+000 30004 102505,102557,102531
 2.6000e+000 102730 -2.7611e+001 -1.7076e+002  2.2541e+001 30004 102583,102557,102704
 2.6000e+000 102753 -2.2899e+001 -1.7513e+002  2.7877e+001 30004 102583,102704,102609
 2.6000e+000 103003 -2.2776e+001 -1.3835e+002 -6.5258e+000 29564 103026,102804,102778
 2.6000e+000 102980 -2.8083e+001 -1.5641e+002 -8.4286e+000 29564 103026,102778,102908
 2.6000e+000 102957  3.0794e+000 -1.3234e+002  1.5611e+001 29564 102856,102908,102882
 2.6000e+000 102934 -3.8084e+001 -1.3691e+002  9.1137e+000 29564 102804,102856,102830
 2.6000e+000 103052 -2.4467e+001 -1.3056e+002  5.7469e+000 29564 102856,102804,103026
 2.6000e+000 103075 -2.9715e+001 -1.4449e+002  2.2117e+000 29564 102856,103026,102908
 2.6000e+000 103634 -7.0952e+001 -1.7341e+002 -2.4727e+001 29160 103657,103418,103392
 2.6000e+000 103611 -6.7476e+001 -1.6712e+002 -1.2264e+001 29160 103657,103392,103314
 2.6000e+000 103588 -3.3714e+001 -1.5731e+002 -2.2994e+001 29160 103314,103392,103366
 2.6000e+000 103565 -5.7990e+001 -1.8138e+002 -1.2383e+001 29160 103314,103366,103340
 2.6000e+000 103542 -9.0247e+001 -1.6301e+002 -1.9643e+001 29160 103262,103444,103314
 2.6000e+000 103519 -1.0393e+002 -1.8351e+002 -3.5306e+001 29160 103262,103314,103288
 2.6000e+000 103496 -6.1542e+001 -1.7247e+002 -1.0689e+001 29160 103262,103470,103444
 2.6000e+000 103683 -8.9414e+001 -1.8717e+002 -3.6849e+001 29160 103444,103418,103657
 2.6000e+000 103706 -7.5173e+001 -1.6683e+002 -2.2588e+001 29160 103444,103657,103314
 2.6000e+000 104035 -5.0297e+001 -1.4584e+002  1.4121e+001 28770 103836,103914,103862
 2.6000e+000 104012 -4.5229e+001 -1.4429e+002  1.4303e+001 28770 103810,103914,103836
 2.6000e+000 103989  4.7238e+000 -1.3415e+002  2.2532e+001 28770 103810,103940,103914
 2.6000e+000 103966 -1.2258e+001 -1.2638e+002  3.1504e+001 28770 103862,103914,103888
 2.6000e+000 104185  1.0727e+001 -1.7194e+002  4.9712e+000 28366 104208,104110,104084
 2.6000e+000 104162  5.7661e+001 -1.2813e+002  3.9065e+001 28366 104280,104208,104084
 2.6000e+000 104234  1.7518e+001 -1.4622e+002  2.1638e+000 28366 104610,104208,104136
 2.6000e+000 104257 -2.2158e+001 -1.6039e+002  1.5661e+001 28366 104538,104410,104208
 2.6000e+000 104306 -2.4491e+001 -1.7137e+002  2.1494e+001 28366 104538,104208,104280
 2.6000e+000 104436  4.3127e+000 -1.5608e+002 -3.3121e+000 28366 104136,104208,104410
 2.6000e+000 104564 -2.5876e+001 -1.4612e+002  1.3055e+001 28366 104058,104410,104538
 2.6000e+000 104587 -2.4711e+001 -1.5479e+002  1.7386e+001 28366 104058,104538,104280
 2.6000e+000 104636 -1.7596e+001 -1.6013e+002  6.4131e+000 28366 104110,104208,104610
 2.6000e+000 105349 -3.3017e+001 -1.2611e+002 -1.3297e+001 27976 105516,105372,105107
 2.6000e+000 105326 -5.4698e+001 -1.2709e+002  2.8107e+000 27976 105588,105372,105055
 2.6000e+000 105303 -5.4632e+001 -1.2250e+002 -1.4879e+001 27976 105444,105159,105133
 2.6000e+000 105280 -1.9325e+001 -1.3076e+002 -8.3190e+000 27976 105516,105107,105081
 2.6000e+000 105257 -5.2081e+001 -1.3958e+002  9.9469e+000 27976 105588,105055,105029
 2.6000e+000 105234 -2.4316e+001 -1.0493e+002  1.8824e+000 27976 105003,105185,105159
 2.6000e+000 105211 -3.5009e+001 -8.3191e+001  1.7074e+001 27976 104977,105185,105003
 2.6000e+000 105398 -2.6378e+001 -1.2827e+002 -1.6985e+001 27976 105133,105107,105372
 2.6000e+000 105421 -4.4148e+001 -1.3338e+002 -8.7209e+000 27976 105444,105133,105372
 2.6000e+000 105470 -4.5870e+001 -1.0539e+002 -8.4497e+000 27976 105003,105159,105444
 2.6000e+000 105493 -3.7425e+001 -1.1661e+002 -5.6484e+000 27976 105003,105444,105372
 2.6000e+000 105542 -2.3808e+001 -1.2485e+002 -1.8189e+000 27976 105055,105372,105516
 2.6000e+000 105565 -3.2330e+000 -1.2677e+002  1.7439e+000 27976 105055,105516,105081
 2.6000e+000 105614 -6.0777e+001 -1.3948e+002  8.9081e+000 27976 105003,105372,105588
 2.6000e+000 105637 -5.9737e+001 -1.5148e+002  1.6791e+001 27976 105003,105588,105029
 2.6000e+000 106143 -7.0408e+001 -2.0784e+002  1.1261e+001 27664 106166,105846,105820
 2.6000e+000 106120 -5.3556e+001 -1.6640e+002  5.1643e+000 27664 106310,106166,105820
 2.6000e+000 106097 -2.5452e+001 -1.8553e+002 -3.9023e+001 27664 106382,106238,105950
 2.6000e+000 106074 -3.9028e+001 -1.6446e+002  6.0984e+000 27664 106310,105820,106002
 2.6000e+000 106051  1.3151e+001 -1.6618e+002 -3.2567e+001 27664 106382,105950,105924
 2.6000e+000 106028 -2.4946e+001 -2.9202e+002 -8.0296e+000 27664 105846,105898,105872
 2.6000e+000 106192 -6.6925e+001 -2.3017e+002 -2.7050e+001 27664 105898,105846,106166
 2.6000e+000 106215 -4.5646e+001 -1.9427e+002 -9.7288e+000 27664 106238,105898,106166
 2.6000e+000 106264 -1.1233e+002 -2.0965e+002 -4.9938e+001 27664 105976,105950,106238
 2.6000e+000 106287 -4.1121e+001 -1.9310e+002 -1.0551e+001 27664 105976,106238,106166
 2.6000e+000 106336 -3.9017e+001 -1.7303e+002  1.8177e+001 27664 105976,106166,106310
 2.6000e+000 106359 -2.2407e+001 -1.7002e+002  1.8587e+001 27664 105976,106310,106002
 2.6000e+000 106408 -4.4353e+001 -1.5674e+002  4.1580e+000 27664 105898,106238,106382
 2.6000e+000 106431 -2.0159e+001 -1.4568e+002  7.1097e+000 27664 105898,106382,105924
 2.6000e+000 106728 -2.0382e+001 -1.1140e+002  2.2648e+001 27153 106751,106506,106454
 2.6000e+000 106705 -1.8614e+001 -1.1071e+002  1.8859e+001 27153 106751,106454,106610
 2.6000e+000 106682 -3.3075e+001 -9.0205e+001  5.9976e+000 27153 106454,106506,106480
 2.6000e+000 106659 -2.7062e+001 -1.0872e+002  1.1191e+001 27153 106532,106610,106584
 2.6000e+000 106636 -4.4644e+001 -6.6197e+001  2.2407e+001 27153 106532,106584,106558
 2.6000e+000 106777 -1.4820e+001 -1.1426e+002  2.2391e+001 27153 106532,106506,106751
 2.6000e+000 106800 -1.3177e+001 -1.1183e+002  1.7721e+001 27153 106532,106751,106610
 2.6000e+000 107180 -3.6357e+001 -1.5056e+002  5.6028e-001 26642 107203,106984,106958
 2.6000e+000 107157 -7.4862e+001 -1.6641e+002  2.0014e+000 26642 107203,106958,106932
 2.6000e+000 107134 -8.4148e+001 -1.7405e+002 -2.2505e+001 26642 107275,107036,107010
 2.6000e+000 107111 -5.5688e+001 -1.6899e+002 -2.6769e+001 26642 106932,107062,107036
 2.6000e+000 107088 -1.8659e+000 -1.3246e+002  1.5702e+001 26642 106906,107062,106932
 2.6000e+000 107229 -1.2565e+001 -1.3305e+002 -4.2116e+001 26642 107010,106984,107203
 2.6000e+000 107252 -7.7553e+001 -1.6957e+002 -2.7415e+001 26642 107275,107010,107203
 2.6000e+000 107301 -7.5094e+001 -1.7181e+002 -2.6022e+001 26642 106932,107036,107275
 2.6000e+000 107324 -7.0798e+001 -1.7330e+002 -2.8203e+001 26642 106932,107275,107203
 2.6000e+000 107675 -3.4983e+001 -9.2517e+001  9.1853e+000 26045 107450,107554,107476
 2.6000e+000 107652 -2.3428e+001 -7.7969e+001  1.4008e+000 26045 107450,107580,107554
 2.6000e+000 107629 -1.3470e+001 -7.0016e+001 -5.3555e-001 26045 107476,107528,107502
 2.6000e+000 107606 -6.2947e+000 -8.5522e+001  4.7250e+000 26045 107476,107554,107528
 2.6000e+000 107874 -2.3857e+001 -1.4085e+002  3.5479e+001 25641 107750,107802,107776
 2.6000e+000 107851 -3.0679e+001 -1.0438e+002  1.9945e+001 25641 107724,107802,107750
 2.6000e+000 107828 -3.1754e+001 -1.0612e+002  1.8231e+001 25641 107698,107802,107724
 2.6000e+000 108431 -9.8040e+000 -1.4831e+002  2.9048e+001 25023 108526,108267,108241
 2.6000e+000 108408 -2.3844e-001 -1.3410e+002  5.1693e+000 25023 108059,108267,108085
 2.6000e+000 108385 -1.9048e+001 -1.6280e+002  2.5678e+001 25023 108454,108163,108111
 2.6000e+000 108362 -6.9103e+001 -1.5941e+002  4.9787e+001 25023 108454,108111,108085
 2.6000e+000 108339 -5.7339e+001 -2.0655e+002  4.4351e+001 25023 108111,108163,108137
 2.6000e+000 108316 -3.3722e+001 -1.1526e+002 -7.2464e+000 25023 108163,108241,108215
 2.6000e+000 108293  1.8286e+001 -9.2075e+001 -1.6030e+000 25023 108163,108215,108189
 2.6000e+000 108480 -9.1741e-001 -1.4070e+002  2.5087e+000 25023 108241,108163,108454
 2.6000e+000 108503 -1.8885e+001 -1.4988e+002  3.0107e+001 25023 108526,108241,108454
 2.6000e+000 108552 -2.2087e+001 -1.4149e+002  2.3043e+001 25023 108085,108267,108526
 2.6000e+000 108575 -3.1477e+001 -1.4332e+002  2.3957e+001 25023 108085,108526,108454
 2.6000e+000 108823 -9.4681e+000 -1.1772e+002  1.8361e+001 24461 108624,108728,108650
 2.6000e+000 108800 -2.2708e+001 -2.4568e+002 -1.5247e+001 24461 108598,108728,108624
 2.6000e+000 108777 -4.5061e+000 -1.5332e+002  1.6024e+001 24461 108650,108728,108676
 2.6000e+000 108754 -7.1153e+001 -4.2087e+002  3.7650e+001 24461 108676,108728,108702
 2.6000e+000 109022 -3.9519e+001 -1.1667e+002  1.1741e+001 24121 108872,108924,108898
 2.6000e+000 108999 -3.1905e+001 -1.1974e+002  1.1961e+001 24121 108846,108924,108872
 2.6000e+000 108976 -9.4860e+000 -1.1796e+002  3.1076e+001 24121 108846,108950,108924
 2.6000e+000 109483 -5.1591e+001 -1.6832e+002 -1.7921e+001 23717 109209,109339,109235
 2.6000e+000 109460 -2.1894e+001 -1.9036e+002 -3.9580e+001 23717 109209,109365,109339
 2.6000e+000 109437 -1.2138e+001 -2.0418e+002 -1.3347e+001 23717 109287,109339,109313
 2.6000e+000 109414 -9.8062e+001 -2.0876e+002  5.5309e+000 23717 109235,109339,109287
 2.6000e+000 109391 -1.4212e+001 -2.4677e+002  7.3489e+001 23717 109235,109287,109261
 2.6000e+000 109910 -6.4911e+001 -1.9022e+002 -2.1638e+001 23305 109613,109743,109717
 2.6000e+000 109887 -6.6501e+001 -1.9249e+002 -1.2789e+001 23305 109613,109769,109743
 2.6000e+000 109864 -7.7683e+001 -1.8445e+002 -1.8835e+001 23305 109613,109717,109639
 2.6000e+000 109841 -5.1735e+001 -1.8088e+002 -5.2348e+000 23305 109587,109769,109613
 2.6000e+000 109818  5.8055e+000 -1.4894e+002  1.6020e+001 23305 109639,109717,109691
 2.6000e+000 109795 -1.6361e+001 -1.1842e+002 -2.8581e+001 23305 109639,109691,109665
 2.6000e+000 110180 -2.3957e+000 -5.2139e+001 -1.1932e+001 22851 110007,110059,110033
 2.6000e+000 110157 -3.6506e+001 -1.4520e+002  6.8326e+000 22851 109981,110059,110007
 2.6000e+000 110134 -5.2163e+001 -1.5728e+002  1.0495e+000 22851 109955,110059,109981
 2.6000e+000 110111 -2.0786e+001 -1.7373e+002 -1.3165e+001 22851 109955,110085,110059
 2.6000e+000 110737 -9.6508e+000 -1.7204e+002 -1.7093e+001 22333 110760,110469,110391
 2.6000e+000 110714 -1.0515e+001 -1.8285e+002 -1.2735e+001 22333 110760,110391,110365
 2.6000e+000 110691 -2.4715e+000 -1.6144e+002 -2.0170e+001 22333 110832,110521,110469
 2.6000e+000 110668  1.8545e+001 -3.1232e+002 -7.0070e+000 22333 110417,110469,110443
 2.6000e+000 110645 -4.5472e+001 -2.6022e+002 -2.1994e+001 22333 110391,110469,110417
 2.6000e+000 110622  3.1996e+001 -1.3840e+002 -4.3035e+001 22333 110469,110521,110495
 2.6000e+000 110599 -1.1088e+001 -1.2759e+002 -1.8904e+001 22333 110365,110573,110547
 2.6000e+000 110786 -1.1204e+001 -1.5966e+002 -1.6384e+001 22333 110832,110469,110760
 2.6000e+000 110809 -2.2347e+001 -1.7434e+002 -2.2351e+001 22333 110547,110760,110365
 2.6000e+000 110858  1.9113e+001 -1.6027e+002 -2.7016e+001 22333 110547,110521,110832
 2.6000e+000 110881 -8.5407e-001 -1.6346e+002 -2.6313e+001 22333 110547,110832,110760
 2.6000e+000 111308 -9.0884e+001 -1.9851e+002  1.0003e+001 21829 111331,111063,111011
 2.6000e+000 111285 -9.5329e+001 -1.8797e+002 -6.5048e+000 21829 111331,111011,111167
 2.6000e+000 111262 -9.7581e+001 -1.9976e+002  5.7361e+000 21829 111403,111089,111063
 2.6000e+000 111239 -1.0818e+002 -1.8730e+002  2.9319e+001 21829 111011,111063,111037
 2.6000e+000 111216 -7.0097e+001 -1.6708e+002  5.3626e+000 21829 110985,111167,111011
 2.6000e+000 111193 -1.1037e+002 -3.2525e+002  5.7476e+001 21829 111089,111141,111115
 2.6000e+000 111357 -9.5891e+001 -2.0101e+002  5.7470e+000 21829 111403,111063,111331
 2.6000e+000 111380 -1.0224e+002 -2.1315e+002 -1.0176e+001 21829 111141,111331,111167
 2.6000e+000 111429 -9.6390e+001 -2.0144e+002  8.5573e+000 21829 111141,111089,111403
 2.6000e+000 111452 -9.6487e+001 -2.0573e+002  6.9878e+000 21829 111141,111403,111331
 2.6000e+000 112056  4.5822e+001 -1.5268e+002  2.1291e+000 21489 111687,111765,111739
 2.6000e+000 112033  4.3581e+000 -1.7930e+002  1.7843e+001 21489 112151,112079,111687
 2.6000e+000 112010 -2.8100e+000 -2.6629e+002  1.3673e+001 21489 111791,111843,111817
 2.6000e+000 111987 -5.5279e+001 -2.2218e+002 -1.5000e+001 21489 112079,111843,111791
 2.6000e+000 111964  2.9513e+001 -1.6780e+002  3.2852e+001 21489 112151,111687,111661
 2.6000e+000 111941 -2.2335e+001 -1.2259e+002  3.0292e+001 21489 111661,111869,111843
 2.6000e+000 111918  4.9223e+001 -1.6470e+002  2.2922e+001 21489 111687,111739,111713
 2.6000e+000 111895  1.7069e+000 -6.6887e+001  1.2336e+001 21489 111635,111869,111661
 2.6000e+000 112105 -3.5176e+001 -1.8988e+002  1.1868e+001 21489 111765,111687,112079
 2.6000e+000 112128 -3.4844e+001 -1.8579e+002  1.2188e+001 21489 111765,112079,111791
 2.6000e+000 112177 -3.8016e+001 -1.7739e+002 -2.8010e+000 21489 111843,112079,112151
 2.6000e+000 112200 -1.4929e+001 -1.7315e+002  9.4423e+000 21489 111843,112151,111661
 2.6000e+000 112578 -4.4512e+001 -2.2223e+002  1.0032e+001 21177 112382,112434,112408
 2.6000e+000 112555 -5.4437e+001 -2.2135e+002  8.2323e-001 21177 112330,112434,112382
 2.6000e+000 112532 -4.5124e+001 -1.9142e+002  3.2645e+001 21177 112304,112434,112330
 2.6000e+000 112509 -5.3248e+001 -2.1234e+002  0.0000e+000 21177 112330,112382,112356
 2.6000e+000 112486 -1.2901e+001 -1.3043e+002  8.8115e+000 21177 112304,112460,112434
 2.6000e+000 112679 -1.7209e+000 -1.5884e+002 -2.7323e+001 20666 112601,112653,112627
 2.6000e+000 112927 -6.4514e+001 -2.2054e+002  6.0941e+000 19762 112702,112754,112728
 2.6000e+000 112904 -2.5090e+001 -2.0724e+002 -4.1453e+000 19762 112702,112832,112754
 2.6000e+000 112881 -5.4679e+001 -2.1956e+002  3.4124e+001 19762 112754,112832,112806
 2.6000e+000 112858 -7.7252e+001 -2.7738e+002  3.3631e+001 19762 112754,112806,112780
 2.6000e+000 113297 -5.7932e+001 -2.5697e+002  1.6720e+001 19308 112974,113052,113026
 2.6000e+000 113274 -3.8335e+001 -2.1406e+002  5.4697e+000 19308 112974,113156,113052
 2.6000e+000 113251 -2.0297e+001 -2.8490e+002 -3.4557e+001 19308 113052,113130,113104
 2.6000e+000 113228 -4.1967e+001 -2.1411e+002 -1.6647e-001 19308 113052,113156,113130
 2.6000e+000 113205 -4.0037e+001 -2.4787e+002  0.0000e+000 19308 113052,113104,113078
 2.6000e+000 113182 -8.2419e+001 -2.6518e+002 -1.0402e+000 19308 112974,113026,113000
 2.6000e+000 113547 -2.3064e+001 -2.2882e+002 -1.5994e+001 18711 113570,113374,113348
 2.6000e+000 113524 -3.3785e+001 -2.1199e+002 -1.0732e+001 18711 113570,113348,113452
 2.6000e+000 113501 -2.8013e+001 -1.6529e+002 -4.2754e+001 18711 113322,113452,113348
 2.6000e+000 113478 -3.3252e+001 -2.0976e+002 -7.2833e+001 18711 113374,113426,113400
 2.6000e+000 113596 -1.4083e+001 -2.1120e+002 -2.1489e+001 18711 113426,113374,113570
 2.6000e+000 113619 -2.9331e+001 -1.9932e+002 -1.3035e+001 18711 113426,113570,113452
 2.6000e+000 113771 -1.1532e+002 -2.8669e+002 -1.4852e+001 18307 113670,113722,113696
 2.6000e+000 113748 -9.0919e+001 -2.6877e+002 -6.5689e+000 18307 113644,113722,113670
 2.6000e+000 113972 -4.8521e+001 -2.3819e+002  2.9446e+000 17945 113822,113874,113848
 2.6000e+000 113949 -5.3546e+001 -2.3655e+002  4.8195e+000 17945 113822,113900,113874
 2.6000e+000 113926 -7.5801e+001 -1.8661e+002  1.0523e+002 17945 113796,113900,113822
 2.6000e+000 114075 -3.2982e+001 -3.5947e+002  3.9689e+001 17482 113997,114049,114023
 2.6000e+000 114479 -1.4302e+001 -1.9878e+002 -3.2544e+001 17042 114257,114361,114335
 2.6000e+000 114456 -4.8417e+001 -1.9074e+002 -6.0757e+000 17042 114205,114361,114257
 2.6000e+000 114433 -5.9669e+001 -2.2009e+002  6.9422e+000 17042 114205,114257,114231
 2.6000e+000 114410  4.8209e+001 -2.9443e+002 -1.9427e+001 17042 114283,114335,114309
 2.6000e+000 114387 -4.8282e-001 -2.5586e+002 -1.3035e+001 17042 114257,114335,114283
 2.6000e+000 114879 -8.9410e+001 -2.1285e+002 -4.4783e+000 16638 114631,114683,114657
 2.6000e+000 114856  1.6483e+001 -1.6754e+002 -5.3576e+000 16638 114605,114683,114631
 2.6000e+000 114833  2.7537e+001 -1.1864e+002  4.4669e-001 16638 114605,114761,114683
 2.6000e+000 114810  2.9381e+001 -2.0462e+002 -1.8502e+001 16638 114683,114735,114709
 2.6000e+000 114787 -3.5657e+001 -2.3080e+002 -2.5930e+001 16638 114683,114761,114735
 2.6000e+000 115078 -1.1840e+002 -2.3962e+002  9.5382e+000 16232 114954,115006,114980
 2.6000e+000 115055 -9.8196e+001 -2.5067e+002  8.2744e+000 16232 114928,115006,114954
 2.6000e+000 115032 -4.4730e+001 -3.2532e+002  1.7518e+001 16232 114902,115006,114928
 2.6000e+000 115228 -5.2319e+001 -2.1686e+002  5.9217e+000 15482 115101,115153,115127
 2.6000e+000 115205 -6.4733e+001 -2.1296e+002 -1.7749e+000 15482 115101,115179,115153
 2.6000e+000 115331 -5.6563e+001 -2.1174e+002 -2.2802e+001 15163 115253,115305,115279
 2.6000e+000 115434 -5.6692e+001 -2.1675e+002  2.2192e+001 421 115356,115408,115382
 2.7000e+000 68213 -6.3872e+000 -1.3665e+002 -8.7821e+000 67888 68112,68164,68138
 2.7000e+000 68190 -1.0247e+002 -1.6828e+002 -1.1462e+001 67888 68086,68164,68112
 2.7000e+000 68314 -2.0266e+001 -2.3919e+002  2.8454e+001 67576 68236,68288,68262
 2.7000e+000 68584 -5.4385e+001 -3.0525e+002  1.1420e+001 67378 68385,68489,68463
 2.7000e+000 68561  6.2792e+001 -2.5613e+002  8.5530e+000 67378 68359,68489,68385
 2.7000e+000 68538 -4.8028e+001 -2.6746e+002  1.4033e+001 67378 68385,68463,68411
 2.7000e+000 68515 -2.8204e+001 -1.6853e+002  7.5890e+000 67378 68411,68463,68437
 2.7000e+000 68964 -6.1407e+001 -2.7541e+002  4.3589e+001 67130 68690,68820,68716
 2.7000e+000 68941  7.1783e+001 -2.8507e+002  8.2430e+001 67130 68690,68846,68820
 2.7000e+000 68918 -5.4862e+001 -1.7984e+002  6.2409e+000 67130 68742,68820,68794
 2.7000e+000 68895 -4.1531e+000 -1.7756e+002  1.7844e+001 67130 68716,68820,68742
 2.7000e+000 68872 -3.2403e+001 -1.4662e+002 -1.6920e+001 67130 68742,68794,68768
 2.7000e+000 69065 -5.2053e+001 -1.7030e+002  4.1462e+000 66926 68987,69039,69013
 2.7000e+000 69445 -3.1538e+001 -1.6543e+002 -6.9333e+000 66614 69223,69301,69275
 2.7000e+000 69422 -5.2602e+001 -1.7429e+002 -5.8674e+000 66614 69171,69301,69223
 2.7000e+000 69399 -6.4429e+001 -1.7589e+002 -1.1123e-001 66614 69171,69327,69301
 2.7000e+000 69376 -1.2569e+001 -9.0820e+001  8.7119e-001 66614 69223,69275,69249
 2.7000e+000 69353 -4.1269e+001 -1.8351e+002 -4.4406e+000 66614 69171,69223,69197
 2.7000e+000 69546 -4.2716e+001 -2.4912e+002  1.5701e+001 66416 69468,69520,69494
 2.7000e+000 69997 -3.3222e+001 -2.5286e+002 -2.5889e+001 66104 69700,69830,69726
 2.7000e+000 69974 -4.1140e+001 -3.2806e+002 -5.3026e+001 66104 69700,69856,69830
 2.7000e+000 69951 -4.3053e+001 -1.9303e+002 -1.5193e+001 66104 69726,69804,69778
 2.7000e+000 69928 -3.1123e+001 -2.3644e+002 -2.0782e+001 66104 69726,69830,69804
 2.7000e+000 69905 -4.6600e+001 -1.8313e+002 -7.2414e+000 66104 69726,69778,69752
 2.7000e+000 69882 -1.0282e+001 -4.9376e+002 -8.5537e+001 66104 69674,69856,69700
 2.7000e+000 70326 -4.0830e+001 -1.0469e+002 -1.4882e+001 65814 70349,70153,70127
 2.7000e+000 70303  3.6615e+000 -1.0536e+002 -2.0579e+000 65814 70349,70127,70101
 2.7000e+000 70280  3.8468e+001 -5.5515e+001  6.0806e+001 65814 70101,70231,70205
 2.7000e+000 70257  5.3316e+001 -1.1273e+002  1.7862e+001 65814 70153,70205,70179
 2.7000e+000 70375 -1.9351e+001 -1.1061e+002  1.7233e+001 65814 70205,70153,70349
 2.7000e+000 70398  4.5073e+001 -1.0325e+002  2.5828e+001 65814 70205,70349,70101
 2.7000e+000 70904 -1.2100e+001 -5.2481e+001 -1.9756e+001 65502 70607,70737,70685
 2.7000e+000 70881 -1.6930e+001 -3.8214e+001 -2.6833e+001 65502 70581,70737,70607
 2.7000e+000 70858 -1.6283e+001  2.4662e+000 -4.1364e+000 65502 70581,70763,70737
 2.7000e+000 70835 -2.7194e+001 -6.0812e+001 -2.7195e+001 65502 70685,70737,70711
 2.7000e+000 70812 -8.6985e+001 -6.7410e+001 -3.4345e+000 65502 70607,70659,70633
 2.7000e+000 70789 -2.3018e+001 -7.2359e+001 -1.8940e+000 65502 70607,70685,70659
 2.7000e+000 71103 -2.6744e+001 -2.2678e+002 -6.4226e+000 65304 71126,70979,70953
 2.7000e+000 71080 -4.3909e+001 -2.3341e+002 -2.0328e+000 65304 71126,70953,70927
 2.7000e+000 71057 -6.5878e+001 -2.3495e+002  1.5160e+001 65304 70927,71031,71005
 2.7000e+000 71152 -4.6029e+001 -2.0504e+002 -1.0959e+001 65304 71005,70979,71126
 2.7000e+000 71175 -6.9806e+001 -2.1999e+002 -1.8926e+000 65304 71005,71126,70927
 2.7000e+000 71374 -3.5279e-002 -2.1815e+002  1.1124e+001 65106 71198,71276,71224
 2.7000e+000 71351 -6.5914e+001 -2.3766e+002  4.3420e+000 65106 71198,71302,71276
 2.7000e+000 71328  1.7957e+001 -1.7258e+002  2.5805e+001 65106 71224,71276,71250
 2.7000e+000 71756 -2.0676e+001 -1.4223e+002 -1.2528e+001 64652 71508,71638,71534
 2.7000e+000 71733  1.2739e-001 -1.3295e+002  2.6252e+000 64652 71482,71638,71508
 2.7000e+000 71710 -4.4456e+001 -1.2562e+002 -5.4216e+000 64652 71534,71586,71560
 2.7000e+000 71687 -2.6962e+001 -1.4653e+002 -3.0686e+001 64652 71534,71612,71586
 2.7000e+000 71664 -6.7304e+001 -1.6135e+002 -2.9731e+001 64652 71534,71638,71612
 2.7000e+000 72085 -5.0686e+001 -1.5773e+002 -2.4815e+001 64248 71886,71964,71912
 2.7000e+000 72062 -5.4738e+001 -1.6199e+002 -2.2010e+001 64248 71860,71964,71886
 2.7000e+000 72039 -1.4691e+001 -1.4800e+002 -1.4921e+001 64248 71912,71964,71938
 2.7000e+000 72016 -2.6773e+001 -1.5489e+002 -3.1719e+001 64248 71860,71990,71964
 2.7000e+000 72235 -1.9572e+000 -9.3560e+001 -1.1884e+001 63858 72588,72258,72134
 2.7000e+000 72212 -3.8414e+000 -4.7114e+001  1.8620e+001 63858 72330,72258,72108
 2.7000e+000 72284 -1.1953e+000 -5.2099e+001 -2.8914e+000 63858 72160,72134,72258
 2.7000e+000 72307 -4.7216e+001 -8.4884e+001 -7.9661e+000 63858 72460,72258,72186
 2.7000e+000 72356 -3.7431e+001 -7.7346e+001 -3.5278e+000 63858 72186,72258,72330
 2.7000e+000 72486 -1.2729e+001 -8.1908e+001 -4.4749e+000 63858 72160,72258,72460
 2.7000e+000 72614  1.5590e+001 -9.6281e+001  1.5848e+001 63858 72108,72258,72588
 2.7000e+000 73248 -1.4199e+001 -1.5147e+002  4.9425e+001 63404 72902,72954,72928
 2.7000e+000 73225 -6.9736e+001 -1.6666e+002  2.4579e+001 63404 73271,72954,72902
 2.7000e+000 73202 -5.6897e+001 -1.2801e+002  2.0578e+001 63404 73271,72902,73032
 2.7000e+000 73179 -3.3986e+001 -1.0940e+002  9.2498e+000 63404 72902,73058,73032
 2.7000e+000 73156 -4.0292e+001 -1.3546e+002  6.5065e+000 63404 72980,73032,73006
 2.7000e+000 73133 -3.5632e+001 -1.0997e+002  8.9921e+000 63404 72876,73058,72902
 2.7000e+000 73110 -1.2878e+001 -4.9602e+001 -2.5360e+001 63404 72876,73084,73058
 2.7000e+000 73297 -5.3745e+001 -1.7148e+002  5.3505e-001 63404 72980,72954,73271
 2.7000e+000 73320 -5.0887e+001 -1.5101e+002  2.0406e-001 63404 72980,73271,73032
 2.7000e+000 73470 -6.0597e+001 -4.1788e+002  4.3126e+001 63014 73343,73395,73369
 2.7000e+000 73447 -1.9478e+002 -5.1939e+002 -1.1348e+001 63014 73343,73421,73395
 2.7000e+000 73929  4.8165e+001 -1.8325e+002  2.5489e+001 62702 73759,73811,73785
 2.7000e+000 73906  5.6788e+001 -1.8262e+002  1.7616e+001 62702 73655,73811,73759
 2.7000e+000 73883  1.3464e+001 -2.1729e+002 -2.3030e+000 62702 73655,73759,73681
 2.7000e+000 73860  4.4907e+001 -1.5442e+002 -4.3173e+001 62702 73681,73759,73707
 2.7000e+000 73837 -6.7099e+001 -1.7998e+002  1.7017e+000 62702 73707,73759,73733
 2.7000e+000 74209 -1.0667e+002 -1.8889e+002 -6.8326e-001 62404 74059,74137,74085
 2.7000e+000 74186 -1.2731e+002 -2.5636e+002  3.1635e+001 62404 74033,74137,74059
 2.7000e+000 74163 -1.1277e+002 -1.6732e+002 -6.6618e-001 62404 74085,74137,74111
 2.7000e+000 74408  9.2366e+000 -1.6038e+002  1.4784e+001 62000 74258,74336,74284
 2.7000e+000 74385 -4.0203e+000 -1.6345e+002  2.1530e+001 62000 74232,74336,74258
 2.7000e+000 74362 -2.9044e+001 -1.4135e+002  2.9179e+000 62000 74284,74336,74310
 2.7000e+000 74509 -1.5028e-001 -2.2726e+002  3.3731e+001 61802 74431,74483,74457
 2.7000e+000 74759 -5.4164e+001 -1.7035e+002 -1.4904e+000 61554 74782,74586,74560
 2.7000e+000 74736 -2.6367e+001 -1.5111e+002  7.5993e+000 61554 74782,74560,74664
 2.7000e+000 74713 -4.5252e+001 -1.0944e+002  6.2800e+001 61554 74854,74612,74586
 2.7000e+000 74690 -4.0446e+001 -1.6709e+002 -1.3213e+000 61554 74534,74664,74560
 2.7000e+000 74808 -7.4082e+001 -1.5035e+002  1.5148e+001 61554 74854,74586,74782
 2.7000e+000 74831 -3.1269e+001 -1.9692e+002  1.1598e+001 61554 74638,74782,74664
 2.7000e+000 74880  1.6365e+001 -1.5151e+002  6.7228e+001 61554 74638,74612,74854
 2.7000e+000 74903  1.5218e+001 -1.4711e+002  3.1529e+001 61554 74638,74854,74782
 2.7000e+000 75285  2.1345e+001 -1.8788e+002 -8.3864e-001 61356 75063,75167,75115
 2.7000e+000 75262  5.7582e+000 -2.0841e+002 -2.0868e+001 61356 75037,75167,75063
 2.7000e+000 75239  3.2071e+001 -1.9152e+002 -1.1519e+000 61356 75115,75167,75141
 2.7000e+000 75216  8.1113e+000 -1.9031e+002 -3.2362e-001 61356 75063,75115,75089
 2.7000e+000 75193 -7.7083e+001 -1.3180e+002  2.0978e+001 61356 75011,75167,75037
 2.7000e+000 75631  1.0422e+001 -1.5953e+002  7.1992e+000 60952 75654,75412,75360
 2.7000e+000 75608  9.6953e+000 -1.8015e+002 -2.5459e-001 60952 75654,75360,75334
 2.7000e+000 75585 -1.2365e+001 -2.3181e+002  1.0750e+001 60952 75726,75438,75412
 2.7000e+000 75562  3.6311e+001 -1.6098e+002 -3.5327e+001 60952 75308,75490,75334
 2.7000e+000 75539  9.0321e+000 -1.5648e+002 -1.7593e+000 60952 75360,75412,75386
 2.7000e+000 75516 -3.7917e+001 -2.7989e+002 -6.9735e+000 60952 75438,75490,75464
 2.7000e+000 75680  6.2010e+000 -1.8879e+002  9.3270e+000 60952 75726,75412,75654
 2.7000e+000 75703  9.9568e+000 -1.7778e+002 -7.9218e-001 60952 75490,75654,75334
 2.7000e+000 75752 -3.5958e+000 -1.8257e+002 -1.7836e+000 60952 75490,75438,75726
 2.7000e+000 75775 -3.8879e+000 -1.8056e+002 -5.2747e+000 60952 75490,75726,75654
 2.7000e+000 76155  4.0084e-001 -1.5930e+002 -1.1343e+001 60754 75933,75985,75959
 2.7000e+000 76132 -2.3466e+001 -1.7593e+002  2.3527e+001 60754 75933,76037,75985
 2.7000e+000 76109  3.2168e+001 -1.7618e+002  1.0154e+001 60754 75985,76037,76011
 2.7000e+000 76086 -5.5120e+001 -1.4201e+002  5.9702e+000 60754 75881,76037,75933
 2.7000e+000 76063 -8.3419e+001 -1.2315e+002  4.1422e+001 60754 75881,75933,75907
 2.7000e+000 76612 -2.4009e+001 -1.2543e+002  1.7249e+000 60350 76635,76442,76390
 2.7000e+000 76589  3.7228e+000 -1.4396e+002  8.0010e+000 60350 76635,76390,76364
 2.7000e+000 76566 -4.8082e+000 -1.8392e+002 -1.2723e+001 60350 76364,76494,76468
 2.7000e+000 76543 -1.6787e+000 -1.1323e+002  1.1228e+001 60350 76390,76442,76416
 2.7000e+000 76520 -6.6032e+001 -1.1644e+002 -3.0605e+001 60350 76338,76494,76364
 2.7000e+000 76661 -3.9402e+001 -1.3793e+002  7.2186e+000 60350 76468,76442,76635
 2.7000e+000 76684 -1.9234e+001 -1.5957e+002  1.5268e+001 60350 76468,76635,76364
 2.7000e+000 76932 -6.0226e+001 -2.0037e+002 -2.1488e+000 59946 76955,76733,76707
 2.7000e+000 76909 -6.0735e+001 -2.0030e+002  3.2619e+000 59946 77027,76955,76707
 2.7000e+000 76886 -5.9388e+001 -2.0009e+002  2.7714e+000 59946 77027,76707,76837
 2.7000e+000 76863 -2.9211e+001 -2.1669e+002 -2.1860e+001 59946 76733,76785,76759
 2.7000e+000 76981 -7.0657e+001 -2.0243e+002 -5.1311e+000 59946 76785,76733,76955
 2.7000e+000 77004 -6.3877e+001 -1.9832e+002  1.1745e+000 59946 76785,76955,76811
 2.7000e+000 77053 -5.8753e+001 -2.0054e+002  2.6913e+000 59946 76811,76955,77027
 2.7000e+000 77076 -5.7546e+001 -2.0006e+002  1.9665e+000 59946 76811,77027,76837
 2.7000e+000 77226 -5.6015e+001 -1.5190e+002  4.4293e+000 59542 77099,77151,77125
 2.7000e+000 77203 -7.1348e+001 -1.8804e+002  6.6813e+000 59542 77099,77177,77151
 2.7000e+000 77427 -9.1520e+001 -1.8019e+002 -1.7755e+001 59030 77450,77277,77251
 2.7000e+000 77404 -4.8787e+001 -1.3482e+002 -6.3961e+001 59030 77450,77251,77355
 2.7000e+000 77381  1.6350e+001 -2.0734e+002 -1.5043e+001 59030 77277,77329,77303
 2.7000e+000 77476 -4.0400e+001 -1.8992e+002 -4.5307e+001 59030 77329,77277,77450
 2.7000e+000 77499  5.1844e+000 -1.6810e+002 -8.1624e+001 59030 77329,77450,77355
 2.7000e+000 77749 -8.1047e+001 -2.3135e+002  2.5158e+001 58426 77772,77628,77602
 2.7000e+000 77726 -4.7805e+001 -2.5623e+002  6.9287e+001 58426 77524,77654,77628
 2.7000e+000 77703 -5.7927e+001 -2.3912e+002  1.7239e+001 58426 77772,77602,77550
 2.7000e+000 77680 -3.1395e+001 -2.2324e+002 -1.4510e+001 58426 77550,77602,77576
 2.7000e+000 77798 -5.6003e+001 -2.1901e+002  3.0687e+001 58426 77524,77628,77772
 2.7000e+000 77821 -4.7682e+001 -2.3666e+002  1.8432e+001 58426 77524,77772,77550
 2.7000e+000 78071 -1.0732e+002 -2.4033e+002  2.4609e+001 57922 78094,77924,77898
 2.7000e+000 78048 -1.2875e+002 -2.4175e+002 -3.3673e+000 57922 78094,77898,77872
 2.7000e+000 78025 -9.6198e+001 -2.1275e+002  2.3335e+001 57922 78166,77846,77950
 2.7000e+000 78002 -1.1285e+001 -2.1229e+002  3.5008e+001 57922 77846,77976,77950
 2.7000e+000 78120 -8.7291e+001 -2.3737e+002  1.6075e+001 57922 77950,77924,78094
 2.7000e+000 78143 -1.0166e+002 -2.1799e+002  1.7318e+001 57922 78166,77950,78094
 2.7000e+000 78192 -8.6726e+001 -2.2541e+002  1.2983e+001 57922 77872,77846,78166
 2.7000e+000 78215 -9.9342e+001 -2.3822e+002  5.8050e+000 57922 77872,78166,78094
 2.7000e+000 78416  9.4808e+000 -2.0729e+002 -6.4805e+000 57468 78439,78292,78240
 2.7000e+000 78393  1.7909e+001 -1.9485e+002 -1.0244e+001 57468 78439,78240,78344
 2.7000e+000 78370 -6.2834e+000 -2.9097e+002 -3.1064e+000 57468 78240,78292,78266
 2.7000e+000 78465  1.9296e+001 -2.0715e+002 -1.5159e+001 57468 78318,78292,78439
 2.7000e+000 78488  2.2829e+001 -2.0140e+002 -1.6668e+001 57468 78318,78439,78344
 2.7000e+000 78689  3.3802e+001 -2.2598e+002 -1.3584e+001 57014 78712,78539,78513
 2.7000e+000 78666  1.0680e+001 -2.2265e+002  1.8250e+000 57014 78712,78513,78617
 2.7000e+000 78643 -5.7597e+000 -2.1620e+002  2.2157e+001 57014 78565,78617,78591
 2.7000e+000 78738  3.7932e+000 -2.0550e+002 -1.4495e+001 57014 78565,78539,78712
 2.7000e+000 78761 -2.8439e+001 -2.2014e+002  9.8464e+000 57014 78565,78712,78617
 2.7000e+000 79241 -7.7366e+001 -1.9480e+002  7.0268e+000 56652 79264,78895,78869
 2.7000e+000 79218 -3.6639e+001 -2.6899e+002 -2.7038e+001 56652 79264,78869,79051
 2.7000e+000 79195 -5.0586e+001 -2.3983e+002 -6.0025e+001 56652 78869,79077,79051
 2.7000e+000 79172 -5.7763e+001 -1.2502e+002 -1.6282e+001 56652 78895,78973,78947
 2.7000e+000 79149 -9.8230e+001 -3.9560e+002 -3.6040e+001 56652 78973,79051,78999
 2.7000e+000 79126 -4.5885e+001 -1.4174e+002 -1.7997e+001 56652 78895,78947,78921
 2.7000e+000 79103 -7.0066e+001 -2.4364e+002  5.8501e+001 56652 78999,79051,79025
 2.7000e+000 79290 -4.8068e+001 -1.4705e+002  3.4423e+001 56652 78973,78895,79264
 2.7000e+000 79313 -5.5089e+000 -2.2814e+002  3.2770e+000 56652 78973,79264,79051
 2.7000e+000 79512 -2.2255e+001 -2.8916e+002  2.2409e+001 56062 79388,79440,79414
 2.7000e+000 79489 -1.0670e+002 -1.4391e+002  3.9304e+001 56062 79336,79440,79388
 2.7000e+000 79466 -4.3032e+001 -1.7131e+002  4.9927e+001 56062 79336,79388,79362
 2.7000e+000 79941 -3.1130e+001 -1.7578e+002  3.1014e+001 55658 79964,79670,79644
 2.7000e+000 79918 -5.0323e+001 -1.7762e+002  3.4428e+001 55658 79964,79644,79800
 2.7000e+000 79895 -4.9317e+001 -1.8857e+002  1.6072e+001 55658 80036,79696,79670
 2.7000e+000 79872 -5.4539e+001 -1.5098e+002 -6.5355e-001 55658 80108,79722,79696
 2.7000e+000 79849 -7.9925e+001 -1.5904e+002  7.9594e+000 55658 79722,79774,79748
 2.7000e+000 79826 -5.2174e-001 -1.6066e+002  9.1609e+000 55658 79618,79800,79644
 2.7000e+000 79990 -5.2131e+001 -1.8819e+002  2.4390e+001 55658 80036,79670,79964
 2.7000e+000 80013 -4.8326e+001 -1.6702e+002  3.4786e+001 55658 79774,79964,79800
 2.7000e+000 80062 -3.9662e+001 -1.6658e+002  1.4529e+001 55658 80108,79696,80036
 2.7000e+000 80085 -5.1794e+001 -1.6810e+002  3.2097e+001 55658 79774,80036,79964
 2.7000e+000 80134 -8.4232e+001 -1.6947e+002  7.9684e+000 55658 79774,79722,80108
 2.7000e+000 80157 -7.5597e+001 -1.8769e+002  2.3548e+001 55658 79774,80108,80036
 2.7000e+000 80307 -8.5654e+001 -1.6911e+002  2.3728e+001 55254 80402,80330,80206
 2.7000e+000 80284 -8.6386e+001 -2.2896e+002  1.7713e+001 55254 80330,80180,80258
 2.7000e+000 80356 -1.0490e+002 -2.1293e+002  4.3667e+001 55254 80232,80206,80330
 2.7000e+000 80379 -3.3977e+001 -1.8152e+002  5.4306e+001 55254 80232,80330,80258
 2.7000e+000 80428 -1.2371e+002 -2.1384e+002  5.6019e+000 55254 80180,80330,80402
 2.7000e+000 80659  1.0438e+001 -2.0134e+002 -1.9850e+001 54850 80558,80610,80584
 2.7000e+000 80636  2.1557e+001 -1.9152e+002 -1.3560e+001 54850 80532,80610,80558
 2.7000e+000 80760  2.4080e+000 -1.8761e+002 -1.2485e+001 54652 80682,80734,80708
 2.7000e+000 81164  5.8191e+000 -1.9255e+002 -4.7329e+000 54248 81187,80942,80890
 2.7000e+000 81141 -2.8309e+000 -1.9763e+002 -1.3721e+000 54248 81187,80890,81046
 2.7000e+000 81118 -2.6962e+000 -1.9771e+002  4.1566e+001 54248 80942,81020,80994
 2.7000e+000 81095  5.6921e+000 -2.0181e+002  1.7691e+000 54248 80890,80942,80916
 2.7000e+000 81072 -8.8122e+000 -1.0030e+002  2.7241e+000 54248 80942,80994,80968
 2.7000e+000 81213 -4.2492e+000 -1.8735e+002 -4.0991e+000 54248 81020,80942,81187
 2.7000e+000 81236 -1.0874e+001 -1.8988e+002 -1.9691e+000 54248 81020,81187,81046
 2.7000e+000 81663 -8.9374e+001 -1.6355e+002  2.4340e+001 53594 81340,81444,81366
 2.7000e+000 81640 -7.7635e+001 -2.4642e+002  1.1657e+001 53594 81340,81470,81444
 2.7000e+000 81617 -2.5547e+001 -2.1468e+002 -1.2498e+001 53594 81340,81522,81470
 2.7000e+000 81594 -4.2713e+001 -1.1665e+002 -9.2735e+000 53594 81392,81444,81418
 2.7000e+000 81571 -5.7135e+001 -1.3572e+002 -1.5829e+001 53594 81366,81444,81392
 2.7000e+000 81548  7.3245e+000 -3.1722e+002  5.6346e+001 53594 81470,81522,81496
 2.7000e+000 81943 -2.8618e+001 -1.1426e+002 -9.5078e+000 53104 81966,81845,81819
 2.7000e+000 81920 -4.7373e+001 -1.1167e+002 -1.6597e+001 53104 81966,81819,81767
 2.7000e+000 81897 -4.3949e+001 -1.0582e+002 -1.3561e+001 53104 81767,81819,81793
 2.7000e+000 81992 -1.6056e+001 -1.2124e+002 -1.9144e+001 53104 81871,81845,81966
 2.7000e+000 82015 -3.2819e+001 -1.1655e+002 -2.9541e+001 53104 81871,81966,81767
 2.7000e+000 82491 -1.7393e+001 -1.1639e+002 -2.5167e+001 52650 82145,82249,82171
 2.7000e+000 82468 -9.3674e+001 -1.5503e+002 -1.1974e+001 52650 82145,82301,82249
 2.7000e+000 82445 -8.9477e+001 -2.1020e+002 -3.4613e+001 52650 82249,82301,82275
 2.7000e+000 82422 -4.5076e+001 -2.5691e+002 -3.5161e+001 52650 82119,82301,82145
 2.7000e+000 82399 -2.7026e+001 -7.8108e+001  8.8952e+000 52650 82171,82249,82223
 2.7000e+000 82376  3.6307e+001 -2.2070e+002 -4.6537e+001 52650 82119,82327,82301
 2.7000e+000 82353 -7.4742e+000 -3.9823e+001 -1.6948e+001 52650 82171,82223,82197
 2.7000e+000 82739 -4.3729e+001 -1.1089e+002 -5.1474e+000 52246 82762,82540,82514
 2.7000e+000 82716 -2.5030e+001 -9.4068e+001 -1.2491e+001 52246 82762,82514,82644
 2.7000e+000 82693 -5.5610e+001 -1.2584e+002  1.1780e+001 52246 82540,82618,82592
 2.7000e+000 82670 -4.3926e+001 -1.0454e+002 -6.2256e-001 52246 82540,82592,82566
 2.7000e+000 82788 -2.6627e+001 -1.2841e+002  4.1901e+000 52246 82618,82540,82762
 2.7000e+000 82811 -1.0505e+001 -1.1816e+002 -3.1160e-001 52246 82618,82762,82644
 2.7000e+000 83059  1.4387e+001 -1.4101e+002  3.4069e+000 51578 82860,82964,82938
 2.7000e+000 83036  1.6034e+001 -1.3422e+002 -1.3920e+001 51578 82834,82964,82860
 2.7000e+000 83013  1.6784e+001 -1.2333e+002  1.1707e+001 51578 82860,82938,82886
 2.7000e+000 82990  1.9842e+001 -1.2020e+002  1.5026e+001 51578 82886,82938,82912
 2.7000e+000 83309 -1.9708e+001 -8.0715e+001  2.3963e+001 51138 83332,83162,83136
 2.7000e+000 83286  5.0087e+000 -1.1022e+002  4.8822e+000 51138 83332,83136,83110
 2.7000e+000 83263 -3.5735e+001 -1.1158e+002 -1.2347e+001 51138 83404,83214,83188
 2.7000e+000 83240 -1.0118e+000 -5.2724e+001  5.2710e+000 51138 83084,83214,83110
 2.7000e+000 83358 -4.4828e+001 -1.2104e+002  3.8995e+001 51138 83188,83162,83332
 2.7000e+000 83381 -1.9208e+001 -1.3116e+002  5.2829e+000 51138 83404,83188,83332
 2.7000e+000 83430 -1.3628e+001 -6.1742e+001 -8.4559e+000 51138 83110,83214,83404
 2.7000e+000 83453 -2.1760e+000 -9.2514e+001  8.9617e+000 51138 83110,83404,83332
 2.7000e+000 83835 -2.3611e+001 -1.4306e+002 -1.0359e+001 50734 83613,83717,83691
 2.7000e+000 83812 -3.0297e+001 -1.6193e+002 -3.0406e+001 50734 83561,83717,83613
 2.7000e+000 83789 -1.7468e+001 -7.3067e+001 -4.5851e+001 50734 83561,83613,83587
 2.7000e+000 83766 -3.1004e+001 -1.0105e+002 -5.2708e+000 50734 83613,83691,83639
 2.7000e+000 83743 -3.4808e+001 -1.0004e+002  2.3072e+001 50734 83639,83691,83665
 2.7000e+000 84034  4.4977e+000 -8.2569e+001 -1.7218e+001 50230 84057,83884,83858
 2.7000e+000 84011 -1.5825e+000 -8.9192e+001 -4.3725e+000 50230 84129,84057,83858
 2.7000e+000 83988  3.8906e+000 -8.7634e+001 -6.1258e+000 50230 84129,83858,83962
 2.7000e+000 84083 -1.3993e+001 -9.1302e+001 -1.4356e+001 50230 83910,83884,84057
 2.7000e+000 84106 -7.2402e+000 -1.0124e+002  6.4365e-001 50230 83910,84057,83936
 2.7000e+000 84155  6.1578e+000 -9.0154e+001 -4.2462e+000 50230 83936,84057,84129
 2.7000e+000 84178  8.6476e+000 -9.0782e+001 -6.1307e+000 50230 83936,84129,83962
 2.7000e+000 84558 -2.9923e+001 -1.1716e+002 -1.7208e+001 49768 84581,84388,84362
 2.7000e+000 84535 -8.3158e+001 -1.1830e+002 -1.3385e+000 49768 84581,84362,84310
 2.7000e+000 84512  1.8289e+001 -1.2741e+002 -2.0037e+001 49768 84653,84440,84414
 2.7000e+000 84489 -6.3273e+001 -1.3333e+002  1.8730e+001 49768 84310,84362,84336
 2.7000e+000 84466  3.6852e+000 -8.4597e+001  2.6212e+001 49768 84284,84440,84310
 2.7000e+000 84607  1.2053e+001 -9.0840e+001 -3.6657e+001 49768 84414,84388,84581
 2.7000e+000 84630 -1.4207e+000 -1.2201e+002 -1.2755e+001 49768 84653,84414,84581
 2.7000e+000 84679 -8.2641e+000 -1.1635e+002 -2.8773e+001 49768 84310,84440,84653
 2.7000e+000 84702 -3.4654e+001 -1.1799e+002 -2.8597e+001 49768 84310,84653,84581
 2.7000e+000 85159 -7.9939e+001 -1.8982e+002 -4.6052e+001 49192 84885,84937,84911
 2.7000e+000 85136 -7.4669e+001 -1.4968e+002 -3.6552e+001 49192 84885,85041,84937
 2.7000e+000 85113 -5.0760e+001 -1.2088e+002 -2.2711e+001 49192 84963,85041,84989
 2.7000e+000 85090 -5.0262e+001 -1.2109e+002 -2.5482e+001 49192 84937,85041,84963
 2.7000e+000 85067 -4.3883e+001 -1.3142e+002 -1.1205e+001 49192 84989,85041,85015
 2.7000e+000 85714 -6.6507e+001 -1.1032e+002  6.5888e+000 48638 85368,85498,85394
 2.7000e+000 85691 -8.9837e+001 -1.2756e+002  1.6965e+001 48638 85368,85524,85498
 2.7000e+000 85668 -8.0502e+001 -1.1262e+002  3.0026e+001 48638 85737,85420,85394
 2.7000e+000 85645 -6.7591e+001 -1.1896e+002  1.7473e+001 48638 85737,85394,85498
 2.7000e+000 85622 -5.2315e+001 -1.3717e+002  2.4961e+001 48638 85446,85498,85472
 2.7000e+000 85599 -2.4238e+001 -9.9644e+001  1.5022e+001 48638 85342,85524,85368
 2.7000e+000 85576 -8.7777e+001 -1.2041e+002  1.8972e+001 48638 85342,85550,85524
 2.7000e+000 85763 -5.9786e+001 -1.0282e+002  3.4108e+001 48638 85446,85420,85737
 2.7000e+000 85786 -5.9344e+001 -1.1270e+002  2.0626e+001 48638 85446,85737,85498
 2.7000e+000 86371 -5.6214e+001 -7.9335e+001 -8.3720e+000 48084 86100,86230,86178
 2.7000e+000 86348 -7.8510e+001 -1.0602e+002 -1.7988e+001 48084 86048,86230,86100
 2.7000e+000 86325 -5.6351e+001 -7.3946e+001  1.5256e+001 48084 86100,86178,86126
 2.7000e+000 86302 -4.2538e+001 -2.1739e+001 -2.3150e+001 48084 86048,86100,86074
 2.7000e+000 86279 -6.4392e+001 -1.2270e+002 -9.2858e+000 48084 86178,86230,86204
 2.7000e+000 86256 -4.6853e+001 -8.7086e+001  1.4982e+001 48084 86126,86178,86152
 2.7000e+000 86619 -4.0165e+001 -1.0267e+002 -2.4508e+000 47630 86642,86446,86420
 2.7000e+000 86596 -4.5743e+001 -1.1153e+002 -2.0916e+001 47630 86642,86420,86394
 2.7000e+000 86573 -5.4744e+001 -1.1515e+002 -2.7150e+001 47630 86394,86524,86498
 2.7000e+000 86550 -1.8620e+001 -1.1642e+002  4.0331e-002 47630 86446,86498,86472
 2.7000e+000 86668 -4.9471e+001 -1.2368e+002 -7.5234e+000 47630 86498,86446,86642
 2.7000e+000 86691 -5.1574e+001 -1.2616e+002 -2.5671e+001 47630 86498,86642,86394
 2.7000e+000 87022 -2.2720e+000 -5.7848e+001 -2.1950e+001 47226 87045,86875,86849
 2.7000e+000 86999 -1.5657e+001 -6.9498e+001 -2.8246e+001 47226 87045,86849,86797
 2.7000e+000 86976 -5.5445e+000 -3.2703e+001 -1.8998e+001 47226 86797,86849,86823
 2.7000e+000 86953  1.7409e+001 -5.5005e+001 -2.9312e+001 47226 86875,86927,86901
 2.7000e+000 87071  9.3210e+000 -7.4788e+001 -2.5575e+001 47226 86927,86875,87045
 2.7000e+000 87094 -1.3567e+000 -8.1926e+001 -2.9648e+001 47226 86927,87045,86797
 2.7000e+000 87244 -1.7731e+000 -1.1870e+002  4.1648e+001 46814 87267,87169,87143
 2.7000e+000 87221 -6.2736e+001 -1.1893e+002 -2.3878e+000 46814 87267,87143,87117
 2.7000e+000 87293 -1.4600e+001 -1.1999e+002 -1.3246e+001 46814 87339,87267,87195
 2.7000e+000 87316  2.0122e+001 -8.2982e+001 -2.9701e+001 46814 87469,87267,87117
 2.7000e+000 87365 -3.1881e+001 -1.0286e+002  4.4620e+001 46814 87169,87267,87339
 2.7000e+000 87495  1.7827e+001  3.6086e+001 -3.1778e+001 46814 87195,87267,87469
 2.7000e+000 88001 -4.7535e+001 -1.1568e+002  2.5304e+001 46310 88024,87834,87808
 2.7000e+000 87978 -5.5578e+001 -1.1774e+002  1.8158e+001 46310 88024,87808,87756
 2.7000e+000 87955 -1.7642e+001 -1.5010e+002  7.1838e+000 46310 88096,87730,87860
 2.7000e+000 87932 -4.0847e+001 -1.4096e+002  1.9806e+001 46310 87756,87808,87782
 2.7000e+000 87909 -2.5381e+001 -1.9374e+002  9.5164e+000 46310 87678,87860,87730
 2.7000e+000 87886 -4.6609e+001 -3.0451e+002 -1.1729e+001 46310 87678,87730,87704
 2.7000e+000 88050 -4.0366e+001 -9.9548e+001  2.0027e+001 46310 87860,87834,88024
 2.7000e+000 88073 -2.1348e+001 -1.0921e+002  2.2872e+001 46310 88096,87860,88024
 2.7000e+000 88122 -3.2736e+001 -1.6934e+002 -5.1324e+000 46310 87756,87730,88096
 2.7000e+000 88145 -6.3207e+001 -1.5289e+002  3.5674e+000 46310 87756,88096,88024
 2.7000e+000 88572 -3.1741e+001 -1.2565e+002  3.0979e+000 45856 88249,88405,88275
 2.7000e+000 88549 -2.2954e+001 -4.1199e+001 -2.9467e+001 45856 88249,88431,88405
 2.7000e+000 88526 -6.7736e+001 -1.8494e+002 -2.4479e+001 45856 88327,88405,88353
 2.7000e+000 88503 -3.2309e+001 -1.4389e+002 -9.4430e+000 45856 88275,88405,88327
 2.7000e+000 88480 -5.4822e+001 -1.6021e+002 -3.1584e+001 45856 88353,88405,88379
 2.7000e+000 88457 -1.3584e+002 -3.6994e+002  3.1422e+001 45856 88275,88327,88301
 2.7000e+000 88950 -2.8508e+001 -8.5139e+001 -1.3297e+000 45658 88973,88754,88728
 2.7000e+000 88927 -2.7030e+001 -8.8865e+001 -1.5354e+000 45658 88973,88728,88676
 2.7000e+000 88904 -3.1700e+001 -1.0945e+002  3.6247e+001 45658 88676,88832,88806
 2.7000e+000 88881 -4.3383e+001 -1.1768e+002  1.4049e+001 45658 88676,88728,88702
 2.7000e+000 88858 -3.5931e+001 -7.6070e+001 -1.6747e+001 45658 88754,88806,88780
 2.7000e+000 88999 -3.0189e+001 -8.7859e+001 -6.1257e-001 45658 88806,88754,88973
 2.7000e+000 89022 -2.7689e+001 -9.0089e+001 -1.2040e+000 45658 88806,88973,88676
 2.7000e+000 89351  5.4230e+000 -1.1623e+002 -6.7919e+000 45254 89152,89230,89204
 2.7000e+000 89328 -1.9151e+001 -1.2540e+002 -2.7848e+000 45254 89152,89256,89230
 2.7000e+000 89305 -2.6065e+000 -1.3117e+002 -1.0563e+001 45254 89126,89256,89152
 2.7000e+000 89282 -1.0559e+001 -1.3314e+002  1.6805e-001 45254 89152,89204,89178
 2.7000e+000 89523 -1.9510e+001 -1.1736e+002  4.1225e-001 45006 89422,89474,89448
 2.7000e+000 89500 -1.4861e+001 -1.1539e+002  4.1291e+000 45006 89396,89474,89422
 2.7000e+000 89673 -8.3597e+001 -1.5869e+002  1.3197e+001 44495 89572,89624,89598
 2.7000e+000 89650 -9.3282e+001 -1.8929e+002  1.9430e+001 44495 89546,89624,89572
 2.7000e+000 90104 -1.0319e+000 -1.5362e+002 -8.5806e+000 44005 90199,90127,89937
 2.7000e+000 90081 -1.3124e+001 -1.4726e+002  7.0798e-001 44005 90271,90127,89859
 2.7000e+000 90058  4.2594e+000 -1.5486e+002 -8.4427e+000 44005 90199,89937,89885
 2.7000e+000 90035 -3.0102e+001 -1.3778e+002  1.0262e+001 44005 90271,89859,89807
 2.7000e+000 90012 -1.8409e+001 -1.6802e+002 -2.2845e+001 44005 89885,89937,89911
 2.7000e+000 89989 -6.9431e+000 -1.4904e+002  2.6304e+001 44005 89807,89859,89833
 2.7000e+000 90153 -2.0368e+001 -1.6184e+002 -9.0792e+000 44005 89963,89937,90127
 2.7000e+000 90176 -1.8280e+001 -1.6127e+002 -2.5038e+000 44005 89963,90127,89781
 2.7000e+000 90225 -1.7122e+001 -1.5007e+002 -5.1847e+000 44005 89859,90127,90199
 2.7000e+000 90248 -3.3444e+000 -1.4504e+002 -1.8555e+000 44005 89859,90199,89885
 2.7000e+000 90297 -3.6236e+001 -1.5943e+002 -3.7938e+000 44005 89781,90127,90271
 2.7000e+000 90320 -4.6241e+001 -1.4617e+002  7.0853e+000 44005 89781,90271,89807
 2.7000e+000 90470 -2.1114e+001 -1.6422e+002 -6.8936e+000 43601 90493,90369,90343
 2.7000e+000 90447 -3.9723e+001 -1.3663e+002  8.2384e+000 43601 90493,90343,90421
 2.7000e+000 90519 -4.9343e+001 -2.1338e+002 -2.4552e+001 43601 90395,90369,90493
 2.7000e+000 90542 -4.2148e+001 -1.5626e+002 -4.8093e+000 43601 90395,90493,90421
 2.7000e+000 90922 -5.6657e+001 -1.7676e+002  1.3614e+001 43154 90945,90700,90674
 2.7000e+000 90899 -5.5387e+001 -1.8147e+002 -1.2719e+001 43154 90945,90674,90648
 2.7000e+000 90876 -6.3946e+001 -1.4389e+002 -9.6871e+000 43154 90648,90778,90752
 2.7000e+000 90853 -3.3078e+001 -2.7338e+002  8.9272e+000 43154 90700,90752,90726
 2.7000e+000 90830 -4.0909e+001 -1.4696e+002  2.2930e-002 43154 90648,90804,90778
 2.7000e+000 90971 -6.5246e+001 -1.9978e+002  1.5582e+001 43154 90752,90700,90945
 2.7000e+000 90994 -6.0997e+001 -1.9496e+002 -9.9482e+000 43154 90752,90945,90648
 2.7000e+000 91451 -1.7314e+001 -1.2841e+002 -2.7361e+001 42650 91203,91255,91229
 2.7000e+000 91428 -4.0182e+000 -1.2241e+002 -9.5670e+000 42650 91203,91333,91255
 2.7000e+000 91405  5.9512e-001 -1.9821e+002 -2.8940e+001 42650 91177,91333,91203
 2.7000e+000 91382 -5.5931e+001 -2.0632e+002  1.2806e+001 42650 91255,91333,91281
 2.7000e+000 91359  2.5655e+001 -1.6761e+002  1.2023e+000 42650 91281,91333,91307
 2.7000e+000 91721 -8.3844e+001 -1.8764e+002  2.2236e+001 42288 91496,91600,91522
 2.7000e+000 91698 -4.3769e+001 -1.1130e+002 -4.4401e+000 42288 91496,91626,91600
 2.7000e+000 91675 -5.0497e+001 -1.7285e+002  3.2683e+001 42288 91522,91574,91548
 2.7000e+000 91652 -1.9341e+001 -1.6155e+002  2.4538e+001 42288 91522,91600,91574
 2.7000e+000 92199 -1.2068e+002 -2.0561e+002 -2.0542e+000 41898 92222,91983,91879
 2.7000e+000 92176 -1.2074e+002 -2.3122e+002 -1.2080e+001 41898 92294,92222,91879
 2.7000e+000 92153 -1.2750e+002 -2.2193e+002 -1.8072e+001 41898 92294,91879,91853
 2.7000e+000 92130 -1.0256e+002 -1.2312e+002  1.2144e+001 41898 91879,91957,91931
 2.7000e+000 92107 -1.0717e+002 -1.9992e+002 -1.3635e+000 41898 91879,91983,91957
 2.7000e+000 92084 -1.1358e+002 -1.1726e+002  2.4161e+001 41898 91879,91931,91905
 2.7000e+000 92061 -1.1325e+002 -1.9157e+002 -1.9551e+001 41898 91827,92035,91853
 2.7000e+000 92248 -1.2284e+002 -2.3827e+002  5.6288e+000 41898 92009,91983,92222
 2.7000e+000 92271 -1.1668e+002 -2.4522e+002 -2.3066e+001 41898 92009,92222,92035
 2.7000e+000 92320 -1.0802e+002 -2.2019e+002 -1.8727e+001 41898 92035,92222,92294
 2.7000e+000 92343 -1.1392e+002 -2.1262e+002 -2.4946e+001 41898 92035,92294,91853
 2.7000e+000 92770 -4.0275e+001 -1.9017e+002 -1.6140e+001 41437 92865,92793,92525
 2.7000e+000 92747 -5.4922e+001 -2.1112e+002 -2.0294e+001 41437 92793,92473,92629
 2.7000e+000 92724 -1.9332e+001 -1.9752e+002 -2.7540e+001 41437 92865,92525,92499
 2.7000e+000 92701 -5.9996e+001 -1.6889e+002 -3.2096e+001 41437 92525,92603,92577
 2.7000e+000 92678 -1.5824e+000 -1.9762e+002 -1.4995e+001 41437 92447,92629,92473
 2.7000e+000 92655 -9.8789e+001 -1.5192e+002 -1.9993e+001 41437 92525,92577,92551
 2.7000e+000 92819 -4.3635e+001 -1.9778e+002 -3.1716e+001 41437 92603,92525,92793
 2.7000e+000 92842 -8.5792e+001 -2.1269e+002 -5.3194e+001 41437 92603,92793,92629
 2.7000e+000 92891 -2.9165e-001 -2.0066e+002 -1.7931e+001 41437 92473,92793,92865
 2.7000e+000 92914  2.8795e+001 -1.9741e+002 -3.4016e+001 41437 92473,92865,92499
 2.7000e+000 93243 -3.4985e+001 -2.8596e+002  1.0173e+002 41097 93044,93096,93070
 2.7000e+000 93220 -5.8806e+001 -2.4856e+002  5.1631e+001 41097 93044,93122,93096
 2.7000e+000 93197  2.3858e+001 -1.7263e+002  1.9759e+001 41097 93044,93148,93122
 2.7000e+000 93174 -3.4774e+001 -1.1872e+002  5.7639e+001 41097 93018,93148,93044
 2.7000e+000 93393 -3.3330e+000 -2.0620e+002  1.3590e+001 40643 93416,93292,93344
 2.7000e+000 93370 -8.4147e+000 -1.8538e+002  1.6198e+001 40643 93266,93344,93292
 2.7000e+000 93442 -7.6601e+000 -2.0511e+002  1.7723e+001 40643 93318,93292,93416
 2.7000e+000 93901 -6.2991e+001 -1.9694e+002 -1.3895e+001 40132 93924,93731,93705
 2.7000e+000 93878 -6.6659e+001 -1.9869e+002 -1.5220e+001 40132 93996,93924,93705
 2.7000e+000 93855 -7.8344e+001 -2.2700e+002 -8.0594e+000 40132 93996,93705,93653
 2.7000e+000 93832 -3.9701e+001 -2.2468e+002 -1.2959e+001 40132 93653,93705,93679
 2.7000e+000 93809 -5.9808e+001 -1.8028e+002  4.4312e+000 40132 93627,93783,93757
 2.7000e+000 93950 -6.4081e+001 -2.0329e+002 -1.3865e+001 40132 93757,93731,93924
 2.7000e+000 93973 -6.4679e+001 -1.7442e+002  7.5820e-001 40132 93757,93924,93627
 2.7000e+000 94022 -8.3496e+001 -2.1506e+002  5.6257e+000 40132 93627,93924,93996
 2.7000e+000 94045 -7.9778e+001 -2.2538e+002  1.0651e+001 40132 93627,93996,93653
 2.7000e+000 94423 -3.2926e+001 -2.3024e+002 -2.3990e+001 39514 94149,94227,94175
 2.7000e+000 94400 -2.4553e+001 -1.8989e+002  5.8624e+000 39514 94149,94305,94227
 2.7000e+000 94377 -8.3826e+000 -2.4662e+002 -2.7613e+001 39514 94175,94227,94201
 2.7000e+000 94354 -2.1897e+001 -1.9402e+002  6.5180e+000 39514 94227,94305,94279
 2.7000e+000 94331 -2.7611e+001 -1.9520e+002  1.3705e+001 39514 94227,94279,94253
 2.7000e+000 94573 -1.6822e+001 -1.1672e+002 -3.2716e+001 38822 94596,94498,94472
 2.7000e+000 94550  2.0265e+001 -1.3040e+002  1.8381e+001 38822 94596,94472,94446
 2.7000e+000 94622 -5.9754e+001 -1.3547e+002 -2.7287e+001 38822 94524,94498,94596
 2.7000e+000 94645 -5.4816e+001 -1.6615e+002  2.9052e+001 38822 94524,94596,94446
 2.7000e+000 95025 -2.7387e+001 -1.6484e+002 -1.6133e+001 38418 95048,94829,94777
 2.7000e+000 95002 -1.6231e+001 -1.5810e+002 -1.2883e+001 38418 95120,95048,94777
 2.7000e+000 94979 -1.3154e+001 -1.6012e+002 -1.2290e+001 38418 95120,94777,94751
 2.7000e+000 94956  3.4326e+001 -1.5915e+002 -1.7812e+001 38418 95192,94881,94855
 2.7000e+000 94933 -5.8768e+001 -1.6370e+002 -9.8528e+000 38418 94777,94829,94803
 2.7000e+000 95074 -2.7490e+001 -1.9919e+002  1.0792e+001 38418 94855,94829,95048
 2.7000e+000 95097  2.3085e+001 -1.6082e+002 -5.9464e+000 38418 95192,94855,95048
 2.7000e+000 95146 -2.2916e+001 -1.5808e+002 -1.0625e+001 38418 94907,95048,95120
 2.7000e+000 95169 -1.7063e+001 -1.5808e+002 -9.3246e+000 38418 94907,95120,94751
 2.7000e+000 95218  1.2350e+001 -1.3000e+002 -2.0598e+001 38418 94907,94881,95192
 2.7000e+000 95241 -1.5853e+001 -1.4967e+002 -4.3467e+000 38418 94907,95192,95048
 2.7000e+000 95511 -5.9621e+001 -1.8588e+002  7.7002e+000 38049 95312,95390,95364
 2.7000e+000 95488 -4.4796e+001 -1.7997e+002  8.5460e+000 38049 95312,95416,95390
 2.7000e+000 95465 -2.1648e+001 -1.7597e+002 -1.1835e+001 38049 95312,95364,95338
 2.7000e+000 95442 -1.6672e+001 -1.6818e+002  1.6555e+001 38049 95286,95416,95312
 2.7000e+000 95808 -5.8611e+001 -2.1732e+002 -6.9921e+000 37437 95831,95586,95560
 2.7000e+000 95785  8.5382e+000 -2.1936e+002 -7.4768e+000 37437 95831,95560,95534
 2.7000e+000 95762 -1.0471e+002 -1.9581e+002  7.6727e+000 37437 95586,95664,95638
 2.7000e+000 95739 -2.1426e+001 -1.0271e+002 -4.7763e+001 37437 95534,95690,95664
 2.7000e+000 95716 -9.9822e+001 -1.3652e+002  5.4911e+000 37437 95586,95638,95612
 2.7000e+000 95857 -1.0289e+002 -2.0492e+002  2.1379e+001 37437 95664,95586,95831
 2.7000e+000 95880 -3.1707e+001 -2.0484e+002  2.1976e+001 37437 95664,95831,95534
 2.7000e+000 96390 -7.0786e+001 -1.4548e+002 -1.1836e+001 36883 96413,96145,96093
 2.7000e+000 96367 -6.2124e+001 -1.3998e+002 -4.8092e+000 36883 96413,96093,96067
 2.7000e+000 96344 -4.1656e+001 -1.6637e+002 -5.2981e+000 36883 96067,96249,96171
 2.7000e+000 96321 -5.6556e+001 -1.6110e+002 -8.9783e+000 36883 96093,96145,96119
 2.7000e+000 96298 -8.1359e+001 -2.6956e+002  2.6415e+001 36883 96171,96249,96197
 2.7000e+000 96275 -1.8703e+001 -2.1947e+002  1.6097e+000 36883 96197,96249,96223
 2.7000e+000 96439 -6.5402e+001 -1.3503e+002 -5.2081e+000 36883 96171,96145,96413
 2.7000e+000 96462 -6.0088e+001 -1.3650e+002  1.0975e+000 36883 96171,96413,96067
 2.7000e+000 96781 -3.8869e+000 -1.4756e+002 -3.4092e+001 36215 96559,96663,96637
 2.7000e+000 96758 -5.2934e+001 -1.4436e+002 -3.5067e+001 36215 96507,96663,96559
 2.7000e+000 96735 -3.1657e+001 -1.0970e+002  8.4758e+000 36215 96585,96637,96611
 2.7000e+000 96712 -1.1183e+002 -1.8336e+002 -2.8198e+001 36215 96559,96637,96585
 2.7000e+000 96689 -2.8521e+001 -1.9415e+002 -1.8309e+001 36215 96507,96559,96533
 2.7000e+000 97161  2.0838e+000 -9.2237e+001 -5.0588e+000 35818 97184,96965,96939
 2.7000e+000 97138 -1.2166e+001 -1.0870e+002 -1.2519e+001 35818 97184,96939,96887
 2.7000e+000 97115 -2.0044e+000 -1.1636e+002  2.1098e+001 35818 96965,97043,97017
 2.7000e+000 97092 -8.5356e+000 -1.0118e+002 -1.3831e+001 35818 96887,96939,96913
 2.7000e+000 97069 -6.0893e+001 -1.2099e+002  1.2072e+001 35818 96965,97017,96991
 2.7000e+000 97210  1.7660e+001 -1.0653e+002  4.5764e+000 35818 97043,96965,97184
 2.7000e+000 97233  5.9392e+000 -1.1794e+002 -1.5529e+000 35818 97043,97184,96887
 2.7000e+000 97739 -6.4332e+001 -1.8740e+002 -4.3057e+001 35214 97416,97468,97442
 2.7000e+000 97716 -7.3222e+001 -1.3140e+002 -1.3948e+001 35214 97416,97598,97468
 2.7000e+000 97693 -6.2485e+001 -1.2657e+002 -3.2440e-001 35214 97762,97520,97468
 2.7000e+000 97670 -6.5278e+001 -1.3219e+002 -9.9504e+000 35214 97762,97468,97598
 2.7000e+000 97647 -5.5010e+001 -1.2201e+002 -2.2207e+001 35214 97546,97598,97572
 2.7000e+000 97624 -4.0872e+001 -1.2501e+002 -3.6196e+000 35214 97468,97520,97494
 2.7000e+000 97788 -6.6301e+001 -1.3758e+002 -4.0469e+000 35214 97546,97520,97762
 2.7000e+000 97811 -6.6815e+001 -1.4206e+002 -1.3051e+001 35214 97546,97762,97598
 2.7000e+000 98189 -1.2800e+001 -1.0284e+002 -9.2437e+000 34760 98356,98212,97967
 2.7000e+000 98166 -2.7073e+001 -1.2359e+002 -1.8251e+001 34760 98284,98212,97941
 2.7000e+000 98143 -4.8544e+001 -1.1165e+002 -8.6912e+000 34760 98284,97941,97915
 2.7000e+000 98120 -1.4138e+001 -1.3568e+002 -4.3593e+000 34760 98484,97993,97967
 2.7000e+000 98097 -1.0555e+001 -1.1362e+002 -4.9859e+000 34760 98556,98045,98019
 2.7000e+000 98238 -2.1209e+001 -1.2797e+002 -4.9208e+000 34760 98484,97967,98212
 2.7000e+000 98261 -1.8829e+000 -1.2030e+002 -9.5756e+000 34760 98556,98019,98212
 2.7000e+000 98310 -8.5611e+000 -1.0208e+002 -2.6990e+001 34760 98071,98212,98284
 2.7000e+000 98333 -2.2951e+001 -7.2619e+001 -2.1790e+001 34760 98071,98284,97915
 2.7000e+000 98382 -6.6908e+001 -1.3698e+002 -2.4961e+001 34760 97941,98212,98356
 2.7000e+000 98510 -2.0830e+000 -1.2977e+002 -8.2197e+000 34760 98019,97993,98484
 2.7000e+000 98533 -1.3762e+001 -1.2577e+002 -8.1283e+000 34760 98019,98484,98212
 2.7000e+000 98582  1.6081e-001 -1.0580e+002 -1.5401e+000 34760 98071,98045,98556
 2.7000e+000 98605  3.5304e+000 -1.1545e+002 -7.5192e+000 34760 98071,98556,98212
 2.7000e+000 99032 -6.7838e+001 -1.5579e+002  2.1725e+001 34156 98735,98891,98839
 2.7000e+000 99009 -5.9882e+001 -1.6079e+002  1.0799e+001 34156 98709,98891,98735
 2.7000e+000 98986 -1.9980e+001 -1.4204e+002  2.3319e+001 34156 98735,98813,98787
 2.7000e+000 98963 -1.8913e+001 -1.4742e+002  1.5132e+001 34156 98735,98839,98813
 2.7000e+000 98940  3.6024e+000 -2.0571e+002  2.5026e+001 34156 98735,98787,98761
 2.7000e+000 98917 -5.8985e+001 -1.3271e+002  8.7674e+000 34156 98839,98891,98865
 2.7000e+000 99231  1.0220e+001 -7.0989e+001  1.6035e+001 33766 99055,99133,99107
 2.7000e+000 99208 -2.9080e+001 -7.9761e+001  2.8397e+001 33766 99055,99159,99133
 2.7000e+000 99185 -1.0063e+001 -1.2161e+002  1.1517e+001 33766 99055,99107,99081
 2.7000e+000 99818 -4.5834e+001 -1.2532e+002  3.6617e+000 33248 99521,99651,99573
 2.7000e+000 99795 -4.3328e+001 -1.1892e+002  1.3079e+001 33248 99521,99677,99651
 2.7000e+000 99772 -6.6230e+001 -1.5088e+002 -6.3802e+000 33248 99573,99651,99599
 2.7000e+000 99749 -4.5560e+001 -1.4901e+002  1.4049e+001 33248 99495,99677,99521
 2.7000e+000 99726 -3.3912e+001 -1.3376e+002 -2.8331e+001 33248 99599,99651,99625
 2.7000e+000 99703 -5.7622e+001 -1.5177e+002  1.0169e+001 33248 99521,99573,99547
 2.7000e+000 100196 -5.3183e+001 -1.3256e+002 -1.9043e+001 32794 100219,99948,99922
 2.7000e+000 100173 -5.8486e+001 -1.4375e+002 -1.0822e+001 32794 100219,99922,100052
 2.7000e+000 100150 -6.2678e+001 -1.3037e+002  5.4371e+000 32794 99974,100052,100026
 2.7000e+000 100127 -7.0764e+001 -1.3411e+002 -1.2714e+001 32794 99922,100078,100052
 2.7000e+000 100104 -6.8668e+001 -1.5978e+002  2.8145e+001 32794 99974,100026,100000
 2.7000e+000 100245 -6.2484e+001 -1.2994e+002 -8.0357e+000 32794 99974,99948,100219
 2.7000e+000 100268 -6.6358e+001 -1.4511e+002  1.8571e-001 32794 99974,100219,100052
 2.7000e+000 100418 -7.3152e+000 -1.1952e+002 -1.9750e+001 32504 100571,100343,100317
 2.7000e+000 100395 -4.8217e+001 -1.3803e+002  6.8373e+000 32504 100571,100317,100441
 2.7000e+000 100467  3.3135e+001 -6.0515e+001 -4.7127e+001 32504 100291,100369,100441
 2.7000e+000 100597  1.1215e+001 -9.8920e+001 -5.1702e+001 32504 100369,100343,100571
 2.7000e+000 100620 -7.1513e+000 -9.1642e+001 -2.8698e+001 32504 100369,100571,100441
 2.7000e+000 101020 -2.2419e+001 -1.1122e+002  5.2283e+000 32142 100772,100902,100876
 2.7000e+000 100997 -1.5158e+001 -1.0212e+002  8.4915e+000 32142 100746,100902,100772
 2.7000e+000 100974 -9.4720e+000 -1.2903e+002  1.1936e+001 32142 101043,100824,100798
 2.7000e+000 100951 -2.3795e+001 -1.3452e+002  9.7318e+000 32142 101043,100798,100772
 2.7000e+000 100928 -7.2939e+001 -1.5474e+002 -3.6166e+001 32142 101115,100876,100850
 2.7000e+000 101069  1.1912e+001 -1.3676e+002 -1.3019e+001 32142 100850,100824,101043
 2.7000e+000 101092 -4.0269e+001 -1.5931e+002 -1.7252e+001 32142 101115,100850,101043
 2.7000e+000 101141 -3.2496e+001 -1.3128e+002 -1.3740e+001 32142 100772,100876,101115
 2.7000e+000 101164 -7.0339e+000 -1.3433e+002  6.8663e+000 32142 100772,101115,101043
 2.7000e+000 101719 -6.6387e+001 -1.5757e+002  1.8988e+001 31538 101742,101477,101399
 2.7000e+000 101696 -8.3573e+001 -1.9079e+002  3.2354e+000 31538 101814,101742,101399
 2.7000e+000 101673 -9.6563e+001 -1.6389e+002 -1.5790e+001 31538 101814,101399,101373
 2.7000e+000 101650 -6.7860e+001 -1.1543e+002  1.2081e+001 31538 101425,101477,101451
 2.7000e+000 101627 -6.4446e+001 -1.3428e+002  2.0515e+000 31538 101399,101477,101425
 2.7000e+000 101604 -3.3187e+001 -1.9525e+002  3.9121e+001 31538 101477,101529,101503
 2.7000e+000 101581 -2.7037e+001 -1.1051e+002 -1.2570e+001 31538 101347,101555,101373
 2.7000e+000 101768 -7.4047e+001 -1.9216e+002  1.7493e+001 31538 101529,101477,101742
 2.7000e+000 101791 -6.5450e+001 -1.9730e+002 -8.4721e+000 31538 101529,101742,101555
 2.7000e+000 101840 -5.1469e+001 -1.6371e+002 -9.0425e+000 31538 101555,101742,101814
 2.7000e+000 101863 -6.9928e+001 -1.4165e+002 -2.6447e+001 31538 101555,101814,101373
 2.7000e+000 102111 -8.9956e+001 -2.5955e+002  3.0510e+001 31112 101886,101990,101912
 2.7000e+000 102088 -2.9292e+001 -1.6877e+002 -2.9884e+000 31112 101886,102016,101990
 2.7000e+000 102065 -4.3617e+001 -2.5319e+002  4.6011e+001 31112 101912,101990,101964
 2.7000e+000 102042 -6.9036e+001 -3.0112e+002  5.5913e+001 31112 101912,101964,101938
 2.7000e+000 102408 -3.0112e+001 -1.4895e+002  1.9296e+001 30658 102431,102186,102160
 2.7000e+000 102385 -5.5419e+001 -1.4403e+002  4.1239e+000 30658 102431,102160,102264
 2.7000e+000 102362 -5.4256e+001 -1.6862e+002  6.9163e+000 30658 102186,102238,102212
 2.7000e+000 102339 -6.6118e+001 -1.5816e+002 -8.7063e+000 30658 102134,102264,102160
 2.7000e+000 102316 -4.2778e+001 -1.2906e+002 -4.5281e+001 30658 102134,102290,102264
 2.7000e+000 102457 -4.9355e+001 -1.6150e+002  1.3096e+001 30658 102238,102186,102431
 2.7000e+000 102480 -7.6812e+001 -1.5968e+002 -3.2294e+000 30658 102238,102431,102264
 2.7000e+000 102681 -2.7330e+001 -1.8810e+002  2.3491e+001 30004 102704,102557,102505
 2.7000e+000 102658 -2.3841e+001 -1.9846e+002  2.8099e+001 30004 102704,102505,102609
 2.7000e+000 102635 -4.0215e+000 -1.5837e+002  5.1288e+000 30004 102505,102557,102531
 2.7000e+000 102730 -2.7182e+001 -1.8002e+002  2.2798e+001 30004 102583,102557,102704
 2.7000e+000 102753 -2.2450e+001 -1.8680e+002  3.0322e+001 30004 102583,102704,102609
 2.7000e+000 103003 -2.3759e+001 -1.4485e+002 -7.7153e+000 29564 103026,102804,102778
 2.7000e+000 102980 -2.9569e+001 -1.6515e+002 -1.0061e+001 29564 103026,102778,102908
 2.7000e+000 102957  2.6599e+000 -1.3890e+002  1.5734e+001 29564 102856,102908,102882
 2.7000e+000 102934 -4.1482e+001 -1.4215e+002  9.6364e+000 29564 102804,102856,102830
 2.7000e+000 103052 -2.5359e+001 -1.3600e+002  6.0581e+000 29564 102856,102804,103026
 2.7000e+000 103075 -3.1248e+001 -1.5173e+002  1.8747e+000 29564 102856,103026,102908
 2.7000e+000 103634 -7.0517e+001 -1.8028e+002 -2.6607e+001 29160 103657,103418,103392
 2.7000e+000 103611 -6.6967e+001 -1.7417e+002 -1.2492e+001 29160 103657,103392,103314
 2.7000e+000 103588 -4.1257e+001 -1.5073e+002 -2.2638e+001 29160 103314,103392,103366
 2.7000e+000 103565 -4.5733e+001 -1.6438e+002 -2.0710e+001 29160 103314,103366,103340
 2.7000e+000 103542 -8.9035e+001 -1.7008e+002 -1.9767e+001 29160 103262,103444,103314
 2.7000e+000 103519 -1.0523e+002 -2.0433e+002 -2.5428e+001 29160 103262,103314,103288
 2.7000e+000 103496 -7.0450e+001 -1.8675e+002 -7.6628e+000 29160 103262,103470,103444
 2.7000e+000 103683 -9.1065e+001 -1.9493e+002 -3.8919e+001 29160 103444,103418,103657
 2.7000e+000 103706 -7.5929e+001 -1.7435e+002 -2.2856e+001 29160 103444,103657,103314
 2.7000e+000 104035 -5.2457e+001 -1.5230e+002  1.4648e+001 28770 103836,103914,103862
 2.7000e+000 104012 -4.7115e+001 -1.5159e+002  1.4164e+001 28770 103810,103914,103836
 2.7000e+000 103989  6.4906e+000 -1.4066e+002  2.2937e+001 28770 103810,103940,103914
 2.7000e+000 103966 -1.2826e+001 -1.3215e+002  3.2761e+001 28770 103862,103914,103888
 2.7000e+000 104185 -2.6319e+001 -1.6726e+002  2.8385e+001 28366 104208,104110,104084
 2.7000e+000 104162 -1.9563e+001 -1.4108e+002  2.6091e+001 28366 104280,104208,104084
 2.7000e+000 104234  1.6379e+001 -1.6299e+002  1.9063e+001 28366 104610,104208,104136
 2.7000e+000 104257 -3.8656e+001 -1.5828e+002  1.9548e+001 28366 104538,104410,104208
 2.7000e+000 104306 -5.7247e+001 -1.6014e+002  1.9185e+001 28366 104538,104208,104280
 2.7000e+000 104436 -2.1262e+001 -1.6861e+002  4.3803e+000 28366 104136,104208,104410
 2.7000e+000 104564 -5.8137e+001 -1.5726e+002  9.6365e+000 28366 104058,104410,104538
 2.7000e+000 104587 -6.9528e+001 -1.5478e+002  7.9797e+000 28366 104058,104538,104280
 2.7000e+000 104636  9.5186e+000 -1.6523e+002  2.2174e+001 28366 104110,104208,104610
 2.7000e+000 105349 -3.4697e+001 -1.3310e+002 -1.4406e+001 27976 105516,105372,105107
 2.7000e+000 105326 -5.7413e+001 -1.3374e+002  2.5521e+000 27976 105588,105372,105055
 2.7000e+000 105303 -5.7217e+001 -1.2901e+002 -1.5998e+001 27976 105444,105159,105133
 2.7000e+000 105280 -2.0211e+001 -1.3815e+002 -9.0506e+000 27976 105516,105107,105081
 2.7000e+000 105257 -5.4535e+001 -1.4689e+002  1.0191e+001 27976 105588,105055,105029
 2.7000e+000 105234 -2.5099e+001 -1.1045e+002  1.4474e+000 27976 105003,105185,105159
 2.7000e+000 105211 -3.6533e+001 -8.7669e+001  1.7387e+001 27976 104977,105185,105003
 2.7000e+000 105398 -2.7442e+001 -1.3495e+002 -1.8401e+001 27976 105133,105107,105372
 2.7000e+000 105421 -4.6368e+001 -1.4038e+002 -9.5673e+000 27976 105444,105133,105372
 2.7000e+000 105470 -4.8194e+001 -1.1119e+002 -9.3088e+000 27976 105003,105159,105444
 2.7000e+000 105493 -3.9415e+001 -1.2287e+002 -6.3877e+000 27976 105003,105444,105372
 2.7000e+000 105542 -2.4940e+001 -1.3148e+002 -2.3858e+000 27976 105055,105372,105516
 2.7000e+000 105565 -3.2856e+000 -1.3372e+002  1.5006e+000 27976 105055,105516,105081
 2.7000e+000 105614 -6.3960e+001 -1.4676e+002  8.9501e+000 27976 105003,105372,105588
 2.7000e+000 105637 -6.2790e+001 -1.5943e+002  1.7375e+001 27976 105003,105588,105029
 2.7000e+000 106143 -7.1579e+001 -2.1499e+002  1.3520e+001 27664 106166,105846,105820
 2.7000e+000 106120 -5.3470e+001 -1.6778e+002  7.1799e+000 27664 106310,106166,105820
 2.7000e+000 106097 -2.9643e+001 -1.9655e+002 -3.2982e+001 27664 106382,106238,105950
 2.7000e+000 106074 -3.5647e+001 -1.6468e+002  7.8314e+000 27664 106310,105820,106002
 2.7000e+000 106051  5.8615e+000 -1.7578e+002 -2.3672e+001 27664 106382,105950,105924
 2.7000e+000 106028 -2.5397e+001 -3.0855e+002 -7.5248e+000 27664 105846,105898,105872
 2.7000e+000 106192 -6.9514e+001 -2.4017e+002 -2.8630e+001 27664 105898,105846,106166
 2.7000e+000 106215 -4.5343e+001 -2.0110e+002 -7.1770e+000 27664 106238,105898,106166
 2.7000e+000 106264 -1.1075e+002 -2.1735e+002 -4.5282e+001 27664 105976,105950,106238
 2.7000e+000 106287 -4.2313e+001 -2.0055e+002 -7.6603e+000 27664 105976,106238,106166
 2.7000e+000 106336 -3.5547e+001 -1.7721e+002  2.3447e+001 27664 105976,106166,106310
 2.7000e+000 106359 -1.5094e+001 -1.7273e+002  2.3426e+001 27664 105976,106310,106002
 2.7000e+000 106408 -4.4252e+001 -1.6267e+002  7.0875e+000 27664 105898,106238,106382
 2.7000e+000 106431 -2.3435e+001 -1.5202e+002  1.3248e+001 27664 105898,106382,105924
 2.7000e+000 106728 -2.0680e+001 -1.1508e+002  2.3985e+001 27153 106751,106506,106454
 2.7000e+000 106705 -1.9016e+001 -1.1503e+002  1.9764e+001 27153 106751,106454,106610
 2.7000e+000 106682 -3.3571e+001 -9.2758e+001  6.8962e+000 27153 106454,106506,106480
 2.7000e+000 106659 -2.9029e+001 -1.1280e+002  1.1739e+001 27153 106532,106610,106584
 2.7000e+000 106636 -4.5112e+001 -6.6156e+001  2.4383e+001 27153 106532,106584,106558
 2.7000e+000 106777 -1.4696e+001 -1.1671e+002  2.4140e+001 27153 106532,106506,106751
 2.7000e+000 106800 -1.3507e+001 -1.1546e+002  1.9014e+001 27153 106532,106751,106610
 2.7000e+000 107180 -3.4552e+001 -1.4650e+002  7.1235e+000 26642 107203,106984,106958
 2.7000e+000 107157 -7.6493e+001 -1.6542e+002  2.4618e+000 26642 107203,106958,106932
 2.7000e+000 107134 -8.9339e+001 -1.8001e+002 -2.1994e+001 26642 107275,107036,107010
 2.7000e+000 107111 -5.7806e+001 -1.7653e+002 -2.8912e+001 26642 106932,107062,107036
 2.7000e+000 107088 -1.9534e+000 -1.3820e+002  1.6421e+001 26642 106906,107062,106932
 2.7000e+000 107229 -1.1554e+001 -1.3467e+002 -3.9499e+001 26642 107010,106984,107203
 2.7000e+000 107252 -7.9971e+001 -1.6800e+002 -2.7216e+001 26642 107275,107010,107203
 2.7000e+000 107301 -7.7940e+001 -1.7817e+002 -2.8750e+001 26642 106932,107036,107275
 2.7000e+000 107324 -7.4521e+001 -1.7862e+002 -3.0457e+001 26642 106932,107275,107203
 2.7000e+000 107675 -3.5957e+001 -9.7203e+001  9.5904e+000 26045 107450,107554,107476
 2.7000e+000 107652 -2.3395e+001 -8.1514e+001  1.2074e+000 26045 107450,107580,107554
 2.7000e+000 107629 -1.2540e+001 -7.4525e+001 -4.5351e-001 26045 107476,107528,107502
 2.7000e+000 107606 -5.5848e+000 -8.9882e+001  4.7649e+000 26045 107476,107554,107528
 2.7000e+000 107874 -2.6434e+001 -1.4824e+002  3.7767e+001 25641 107750,107802,107776
 2.7000e+000 107851 -3.2480e+001 -1.0890e+002  2.2160e+001 25641 107724,107802,107750
 2.7000e+000 107828 -3.5738e+001 -1.1261e+002  1.8967e+001 25641 107698,107802,107724
 2.7000e+000 108431 -1.0518e+001 -1.5615e+002  3.0156e+001 25023 108526,108267,108241
 2.7000e+000 108408 -1.9779e-001 -1.4135e+002  5.2808e+000 25023 108059,108267,108085
 2.7000e+000 108385 -1.9990e+001 -1.7086e+002  2.6930e+001 25023 108454,108163,108111
 2.7000e+000 108362 -7.2549e+001 -1.6758e+002  5.1948e+001 25023 108454,108111,108085
 2.7000e+000 108339 -6.0230e+001 -2.1757e+002  4.6847e+001 25023 108111,108163,108137
 2.7000e+000 108316 -3.5654e+001 -1.2169e+002 -7.8221e+000 25023 108163,108241,108215
 2.7000e+000 108293  2.0163e+001 -9.6857e+001 -1.9953e+000 25023 108163,108215,108189
 2.7000e+000 108480 -1.0800e+000 -1.4804e+002  2.4839e+000 25023 108241,108163,108454
 2.7000e+000 108503 -2.0012e+001 -1.5770e+002  3.1228e+001 25023 108526,108241,108454
 2.7000e+000 108552 -2.3315e+001 -1.4920e+002  2.3904e+001 25023 108085,108267,108526
 2.7000e+000 108575 -3.3138e+001 -1.5102e+002  2.4823e+001 25023 108085,108526,108454
 2.7000e+000 108823 -1.1114e+001 -1.2207e+002  1.8771e+001 24461 108624,108728,108650
 2.7000e+000 108800 -2.3172e+001 -2.5422e+002 -1.5662e+001 24461 108598,108728,108624
 2.7000e+000 108777 -4.1717e+000 -1.6076e+002  1.6704e+001 24461 108650,108728,108676
 2.7000e+000 108754 -7.4999e+001 -4.4581e+002  3.9857e+001 24461 108676,108728,108702
 2.7000e+000 109022 -4.1236e+001 -1.2271e+002  1.2078e+001 24121 108872,108924,108898
 2.7000e+000 108999 -3.3717e+001 -1.2553e+002  1.2349e+001 24121 108846,108924,108872
 2.7000e+000 108976 -1.1474e+001 -1.2405e+002  3.2043e+001 24121 108846,108950,108924
 2.7000e+000 109483 -5.3466e+001 -1.7413e+002 -1.7227e+001 23717 109209,109339,109235
 2.7000e+000 109460 -2.1602e+001 -1.9842e+002 -4.0536e+001 23717 109209,109365,109339
 2.7000e+000 109437 -7.8230e+000 -2.1441e+002 -1.2383e+001 23717 109287,109339,109313
 2.7000e+000 109414 -1.0108e+002 -2.1816e+002  9.1588e+000 23717 109235,109339,109287
 2.7000e+000 109391 -9.9480e+000 -2.5827e+002  8.2767e+001 23717 109235,109287,109261
 2.7000e+000 109910 -6.7954e+001 -1.9916e+002 -2.1118e+001 23305 109613,109743,109717
 2.7000e+000 109887 -7.0331e+001 -2.0176e+002 -1.2276e+001 23305 109613,109769,109743
 2.7000e+000 109864 -8.3984e+001 -1.9415e+002 -1.7317e+001 23305 109613,109717,109639
 2.7000e+000 109841 -5.3991e+001 -1.8681e+002 -4.1387e+000 23305 109587,109769,109613
 2.7000e+000 109818  1.0578e+001 -1.5391e+002  2.0302e+001 23305 109639,109717,109691
 2.7000e+000 109795 -1.7944e+001 -1.2310e+002 -2.7268e+001 23305 109639,109691,109665
 2.7000e+000 110180 -2.4808e+000 -5.4971e+001 -1.2633e+001 22851 110007,110059,110033
 2.7000e+000 110157 -3.8476e+001 -1.5320e+002  7.2121e+000 22851 109981,110059,110007
 2.7000e+000 110134 -5.4965e+001 -1.6596e+002  1.0936e+000 22851 109955,110059,109981
 2.7000e+000 110111 -2.1970e+001 -1.8349e+002 -1.3856e+001 22851 109955,110085,110059
 2.7000e+000 110737 -4.7800e+001 -1.8599e+002 -3.4415e+001 22333 110760,110469,110391
 2.7000e+000 110714 -7.1676e+000 -1.9576e+002 -3.1292e+001 22333 110760,110391,110365
 2.7000e+000 110691 -4.0026e+000 -1.8076e+002 -2.8258e+001 22333 110832,110521,110469
 2.7000e+000 110668 -4.1966e+000 -3.0096e+002 -6.5652e-001 22333 110417,110469,110443
 2.7000e+000 110645 -9.4801e+001 -2.7746e+002 -3.8235e+000 22333 110391,110469,110417
 2.7000e+000 110622  3.6539e+001 -1.5677e+002 -4.7276e+001 22333 110469,110521,110495
 2.7000e+000 110599 -9.0677e-001 -1.2162e+002  1.4870e+000 22333 110365,110573,110547
 2.7000e+000 110786 -1.5593e+001 -1.7871e+002 -2.3553e+001 22333 110832,110469,110760
 2.7000e+000 110809  4.3801e+000 -1.9131e+002 -2.3928e+001 22333 110547,110760,110365
 2.7000e+000 110858  2.5776e+001 -1.8006e+002 -3.7547e+001 22333 110547,110521,110832
 2.7000e+000 110881 -1.6503e+000 -1.8535e+002 -3.7214e+001 22333 110547,110832,110760
 2.7000e+000 111308 -9.5677e+001 -2.1611e+002  1.1335e+001 21829 111331,111063,111011
 2.7000e+000 111285 -9.3900e+001 -2.0516e+002 -2.6385e+000 21829 111331,111011,111167
 2.7000e+000 111262 -1.0009e+002 -2.1548e+002  9.6998e+000 21829 111403,111089,111063
 2.7000e+000 111239 -1.1759e+002 -2.1898e+002  3.0703e+001 21829 111011,111063,111037
 2.7000e+000 111216 -6.7436e+001 -1.6002e+002  8.5112e+000 21829 110985,111167,111011
 2.7000e+000 111193 -1.1324e+002 -3.4912e+002  6.9654e+001 21829 111089,111141,111115
 2.7000e+000 111357 -9.7726e+001 -2.1739e+002  9.6793e+000 21829 111403,111063,111331
 2.7000e+000 111380 -1.0185e+002 -2.2661e+002 -2.8724e+000 21829 111141,111331,111167
 2.7000e+000 111429 -1.0238e+002 -2.1821e+002  1.2182e+001 21829 111141,111089,111403
 2.7000e+000 111452 -9.9834e+001 -2.2168e+002  1.1056e+001 21829 111141,111403,111331
 2.7000e+000 112056  4.6123e+001 -1.7060e+002  3.8784e+000 21489 111687,111765,111739
 2.7000e+000 112033  5.2587e+000 -1.9705e+002  1.9714e+001 21489 112151,112079,111687
 2.7000e+000 112010 -1.3751e+001 -3.0089e+002  2.0229e+001 21489 111791,111843,111817
 2.7000e+000 111987 -6.1536e+001 -2.4349e+002 -1.5380e+001 21489 112079,111843,111791
 2.7000e+000 111964  3.3527e+001 -1.8349e+002  3.6473e+001 21489 112151,111687,111661
 2.7000e+000 111941 -2.3734e+001 -1.3379e+002  3.2516e+001 21489 111661,111869,111843
 2.7000e+000 111918  5.5342e+001 -1.8058e+002  2.5032e+001 21489 111687,111739,111713
 2.7000e+000 111895  3.4573e+000 -7.0714e+001  1.3250e+001 21489 111635,111869,111661
 2.7000e+000 112105 -3.9918e+001 -2.0951e+002  1.2751e+001 21489 111765,111687,112079
 2.7000e+000 112128 -4.2222e+001 -2.0408e+002  1.4911e+001 21489 111765,112079,111791
 2.7000e+000 112177 -4.2278e+001 -1.9438e+002 -4.0217e+000 21489 111843,112079,112151
 2.7000e+000 112200 -1.6435e+001 -1.8915e+002  9.6199e+000 21489 111843,112151,111661
 2.7000e+000 112578 -4.9522e+001 -2.4420e+002  1.0555e+001 21177 112382,112434,112408
 2.7000e+000 112555 -5.9753e+001 -2.4272e+002  9.0389e-001 21177 112330,112434,112382
 2.7000e+000 112532 -4.9037e+001 -2.1022e+002  3.5182e+001 21177 112304,112434,112330
 2.7000e+000 112509 -5.8260e+001 -2.3456e+002  0.0000e+000 21177 112330,112382,112356
 2.7000e+000 112486 -1.4265e+001 -1.4207e+002  8.6186e+000 21177 112304,112460,112434
 2.7000e+000 112679 -2.8395e+000 -1.7660e+002 -2.8420e+001 20666 112601,112653,112627
 2.7000e+000 112927 -6.7178e+001 -2.3057e+002  7.2613e+000 19762 112702,112754,112728
 2.7000e+000 112904 -2.6006e+001 -2.1638e+002 -3.4952e+000 19762 112702,112832,112754
 2.7000e+000 112881 -5.7223e+001 -2.3050e+002  3.6209e+001 19762 112754,112832,112806
 2.7000e+000 112858 -8.0679e+001 -2.9066e+002  3.5736e+001 19762 112754,112806,112780
 2.7000e+000 113297 -6.1553e+001 -2.7101e+002  1.7541e+001 19308 112974,113052,113026
 2.7000e+000 113274 -4.0565e+001 -2.2599e+002  5.6253e+000 19308 112974,113156,113052
 2.7000e+000 113251 -2.1367e+001 -3.0071e+002 -3.6463e+001 19308 113052,113130,113104
 2.7000e+000 113228 -4.4292e+001 -2.2602e+002 -1.6745e-001 19308 113052,113156,113130
 2.7000e+000 113205 -4.2247e+001 -2.6167e+002  0.0000e+000 19308 113052,113104,113078
 2.7000e+000 113182 -8.6942e+001 -2.7900e+002 -9.9838e-001 19308 112974,113026,113000
 2.7000e+000 113547 -1.8703e+001 -2.4460e+002 -1.5718e+001 18711 113570,113374,113348
 2.7000e+000 113524 -2.8516e+001 -2.2561e+002 -9.6374e+000 18711 113570,113348,113452
 2.7000e+000 113501 -2.2641e+001 -1.7385e+002 -4.6495e+001 18711 113322,113452,113348
 2.7000e+000 113478 -3.2670e+001 -2.2115e+002 -7.6339e+001 18711 113374,113426,113400
 2.7000e+000 113596 -1.2737e+001 -2.2423e+002 -2.1272e+001 18711 113426,113374,113570
 2.7000e+000 113619 -2.5952e+001 -2.0963e+002 -1.1425e+001 18711 113426,113570,113452
 2.7000e+000 113771 -1.2096e+002 -3.0384e+002 -1.6011e+001 18307 113670,113722,113696
 2.7000e+000 113748 -9.5862e+001 -2.8323e+002 -6.9891e+000 18307 113644,113722,113670
 2.7000e+000 113972 -5.0446e+001 -2.5146e+002  3.3861e+000 17945 113822,113874,113848
 2.7000e+000 113949 -5.4352e+001 -2.4925e+002  5.4711e+000 17945 113822,113900,113874
 2.7000e+000 113926 -7.8097e+001 -1.9346e+002  1.1545e+002 17945 113796,113900,113822
 2.7000e+000 114075 -3.4992e+001 -3.7964e+002  4.1834e+001 17482 113997,114049,114023
 2.7000e+000 114479 -1.4594e+001 -2.0908e+002 -3.4063e+001 17042 114257,114361,114335
 2.7000e+000 114456 -5.0603e+001 -2.0095e+002 -6.1961e+000 17042 114205,114361,114257
 2.7000e+000 114433 -6.1751e+001 -2.3202e+002  7.5891e+000 17042 114205,114257,114231
 2.7000e+000 114410  5.1649e+001 -3.0964e+002 -2.0752e+001 17042 114283,114335,114309
 2.7000e+000 114387 -4.4834e-001 -2.6943e+002 -1.3760e+001 17042 114257,114335,114283
 2.7000e+000 114879 -1.1356e+002 -2.2656e+002 -2.5356e+000 16638 114631,114683,114657
 2.7000e+000 114856 -8.0318e+000 -1.8195e+002 -9.4259e-001 16638 114605,114683,114631
 2.7000e+000 114833  6.9662e+000 -1.3202e+002  1.0947e+000 16638 114605,114761,114683
 2.7000e+000 114810  3.2131e+001 -2.1438e+002 -2.0078e+001 16638 114683,114735,114709
 2.7000e+000 114787 -5.4823e+001 -2.4168e+002 -2.4726e+001 16638 114683,114761,114735
 2.7000e+000 115078 -1.1487e+002 -2.4741e+002  6.5797e+000 16232 114954,115006,114980
 2.7000e+000 115055 -1.0745e+002 -2.6395e+002  8.8450e+000 16232 114928,115006,114954
 2.7000e+000 115032 -4.8395e+001 -3.4392e+002  1.9264e+001 16232 114902,115006,114928
 2.7000e+000 115228 -6.4774e+001 -2.3695e+002  6.2472e+000 15482 115101,115153,115127
 2.7000e+000 115205 -6.4382e+001 -2.2861e+002 -1.6942e+000 15482 115101,115179,115153
 2.7000e+000 115331 -6.2203e+001 -2.3245e+002 -2.6106e+001 15163 115253,115305,115279
 2.7000e+000 115434 -7.6191e+001 -2.3924e+002  3.3067e+001 421 115356,115408,115382
 2.8000e+000 68213 -7.5391e+000 -1.4002e+002 -1.0249e+001 67888 68112,68164,68138
 2.8000e+000 68190 -1.1940e+002 -1.7610e+002 -1.4111e+001 67888 68086,68164,68112
 2.8000e+000 68314 -2.3004e+001 -2.5362e+002  3.0566e+001 67576 68236,68288,68262
 2.8000e+000 68584 -5.6316e+001 -3.2262e+002  1.1833e+001 67378 68385,68489,68463
 2.8000e+000 68561  6.9152e+001 -2.6975e+002  8.1686e+000 67378 68359,68489,68385
 2.8000e+000 68538 -5.0196e+001 -2.8378e+002  1.4335e+001 67378 68385,68463,68411
 2.8000e+000 68515 -2.9133e+001 -1.7849e+002  7.5009e+000 67378 68411,68463,68437
 2.8000e+000 68964 -6.5582e+001 -2.9369e+002  4.5971e+001 67130 68690,68820,68716
 2.8000e+000 68941  7.5021e+001 -3.0353e+002  8.7016e+001 67130 68690,68846,68820
 2.8000e+000 68918 -5.8865e+001 -1.9180e+002  6.1212e+000 67130 68742,68820,68794
 2.8000e+000 68895 -5.5558e+000 -1.9012e+002  1.8937e+001 67130 68716,68820,68742
 2.8000e+000 68872 -3.5739e+001 -1.5834e+002 -1.8532e+001 67130 68742,68794,68768
 2.8000e+000 69065 -5.5214e+001 -1.7975e+002  3.6134e+000 66926 68987,69039,69013
 2.8000e+000 69445 -3.3575e+001 -1.7506e+002 -6.8458e+000 66614 69223,69301,69275
 2.8000e+000 69422 -5.5145e+001 -1.8393e+002 -6.0682e+000 66614 69171,69301,69223
 2.8000e+000 69399 -6.6718e+001 -1.8493e+002 -4.1282e-001 66614 69171,69327,69301
 2.8000e+000 69376 -1.1593e+001 -9.3305e+001  3.9052e-001 66614 69223,69275,69249
 2.8000e+000 69353 -4.3904e+001 -1.9360e+002 -4.7325e+000 66614 69171,69223,69197
 2.8000e+000 69546 -4.6479e+001 -2.6558e+002  1.6249e+001 66416 69468,69520,69494
 2.8000e+000 69997 -3.6137e+001 -2.6969e+002 -2.7171e+001 66104 69700,69830,69726
 2.8000e+000 69974 -4.5257e+001 -3.4887e+002 -5.5807e+001 66104 69700,69856,69830
 2.8000e+000 69951 -4.5724e+001 -2.0552e+002 -1.6203e+001 66104 69726,69804,69778
 2.8000e+000 69928 -3.3225e+001 -2.5113e+002 -2.2085e+001 66104 69726,69830,69804
 2.8000e+000 69905 -5.0008e+001 -1.9587e+002 -8.2871e+000 66104 69726,69778,69752
 2.8000e+000 69882 -1.3176e+001 -5.2109e+002 -8.9621e+001 66104 69674,69856,69700
 2.8000e+000 70326 -4.4343e+001 -1.1303e+002 -1.5480e+001 65814 70349,70153,70127
 2.8000e+000 70303  2.5894e+000 -1.1380e+002 -1.8785e+000 65814 70349,70127,70101
 2.8000e+000 70280  3.8762e+001 -6.0521e+001  6.5193e+001 65814 70101,70231,70205
 2.8000e+000 70257  5.4017e+001 -1.2261e+002  1.8298e+001 65814 70153,70205,70179
 2.8000e+000 70375 -2.1653e+001 -1.1892e+002  1.8264e+001 65814 70205,70153,70349
 2.8000e+000 70398  4.6155e+001 -1.1132e+002  2.7433e+001 65814 70205,70349,70101
 2.8000e+000 70904 -1.3097e+001 -5.7179e+001 -2.1068e+001 65502 70607,70737,70685
 2.8000e+000 70881 -1.7997e+001 -4.2779e+001 -2.8217e+001 65502 70581,70737,70607
 2.8000e+000 70858 -1.7556e+001  5.2028e-001 -3.6931e+000 65502 70581,70763,70737
 2.8000e+000 70835 -2.8664e+001 -6.5727e+001 -2.8562e+001 65502 70685,70737,70711
 2.8000e+000 70812 -9.5559e+001 -7.5439e+001 -3.7120e+000 65502 70607,70659,70633
 2.8000e+000 70789 -2.5306e+001 -7.9525e+001 -1.5129e+000 65502 70607,70685,70659
 2.8000e+000 71103 -2.7547e+001 -2.4039e+002 -7.3504e+000 65304 71126,70979,70953
 2.8000e+000 71080 -4.6535e+001 -2.4701e+002 -2.6659e+000 65304 71126,70953,70927
 2.8000e+000 71057 -7.0096e+001 -2.4852e+002  1.5717e+001 65304 70927,71031,71005
 2.8000e+000 71152 -4.8666e+001 -2.1770e+002 -1.2415e+001 65304 71005,70979,71126
 2.8000e+000 71175 -7.4535e+001 -2.3295e+002 -2.6375e+000 65304 71005,71126,70927
 2.8000e+000 71374  3.2092e-001 -2.3196e+002  1.1286e+001 65106 71198,71276,71224
 2.8000e+000 71351 -6.9651e+001 -2.5201e+002  4.4220e+000 65106 71198,71302,71276
 2.8000e+000 71328  1.9629e+001 -1.8267e+002  2.9237e+001 65106 71224,71276,71250
 2.8000e+000 71756 -2.4081e+001 -1.5418e+002 -1.2729e+001 64652 71508,71638,71534
 2.8000e+000 71733  2.5191e-001 -1.4339e+002  2.6254e+000 64652 71482,71638,71508
 2.8000e+000 71710 -4.9545e+001 -1.3609e+002 -5.2933e+000 64652 71534,71586,71560
 2.8000e+000 71687 -3.0341e+001 -1.5624e+002 -3.2044e+001 64652 71534,71612,71586
 2.8000e+000 71664 -7.3111e+001 -1.7229e+002 -3.0670e+001 64652 71534,71638,71612
 2.8000e+000 72085 -5.5102e+001 -1.6919e+002 -2.5718e+001 64248 71886,71964,71912
 2.8000e+000 72062 -5.8982e+001 -1.7310e+002 -2.3189e+001 64248 71860,71964,71886
 2.8000e+000 72039 -1.6521e+001 -1.5999e+002 -1.5328e+001 64248 71912,71964,71938
 2.8000e+000 72016 -3.0153e+001 -1.6600e+002 -3.3177e+001 64248 71860,71990,71964
 2.8000e+000 72235 -2.4005e+000 -1.0145e+002 -1.3133e+001 63858 72588,72258,72134
 2.8000e+000 72212 -4.5004e+000 -5.2023e+001  1.9835e+001 63858 72330,72258,72108
 2.8000e+000 72284 -1.9735e+000 -5.7521e+001 -3.6736e+000 63858 72160,72134,72258
 2.8000e+000 72307 -5.1254e+001 -9.2143e+001 -8.4374e+000 63858 72460,72258,72186
 2.8000e+000 72356 -4.0054e+001 -8.3805e+001 -3.6652e+000 63858 72186,72258,72330
 2.8000e+000 72486 -1.3959e+001 -8.8274e+001 -5.1071e+000 63858 72160,72258,72460
 2.8000e+000 72614  1.6914e+001 -1.0417e+002  1.6622e+001 63858 72108,72258,72588
 2.8000e+000 73248 -1.6460e+001 -1.6243e+002  5.3238e+001 63404 72902,72954,72928
 2.8000e+000 73225 -7.5446e+001 -1.7947e+002  2.6872e+001 63404 73271,72954,72902
 2.8000e+000 73202 -6.1410e+001 -1.3819e+002  2.2425e+001 63404 73271,72902,73032
 2.8000e+000 73179 -3.5668e+001 -1.1775e+002  1.0192e+001 63404 72902,73058,73032
 2.8000e+000 73156 -4.2891e+001 -1.4567e+002  7.7865e+000 63404 72980,73032,73006
 2.8000e+000 73133 -3.7076e+001 -1.1880e+002  9.7345e+000 63404 72876,73058,72902
 2.8000e+000 73110 -1.3989e+001 -5.3454e+001 -2.7583e+001 63404 72876,73084,73058
 2.8000e+000 73297 -5.8062e+001 -1.8453e+002  1.0903e+000 63404 72980,72954,73271
 2.8000e+000 73320 -5.4734e+001 -1.6273e+002  5.9724e-001 63404 72980,73271,73032
 2.8000e+000 73470 -6.4867e+001 -4.4567e+002  4.6516e+001 63014 73343,73395,73369
 2.8000e+000 73447 -2.0888e+002 -5.5332e+002 -1.1859e+001 63014 73343,73421,73395
 2.8000e+000 73929  5.0027e+001 -1.9505e+002  2.7582e+001 62702 73759,73811,73785
 2.8000e+000 73906  5.9623e+001 -1.9438e+002  1.8750e+001 62702 73655,73811,73759
 2.8000e+000 73883  1.3301e+001 -2.3070e+002 -2.5720e+000 62702 73655,73759,73681
 2.8000e+000 73860  4.6344e+001 -1.6473e+002 -4.5803e+001 62702 73681,73759,73707
 2.8000e+000 73837 -7.2009e+001 -1.9059e+002  1.5746e+000 62702 73707,73759,73733
 2.8000e+000 74209 -1.1335e+002 -2.0103e+002 -1.1930e+000 62404 74059,74137,74085
 2.8000e+000 74186 -1.3484e+002 -2.7249e+002  3.3053e+001 62404 74033,74137,74059
 2.8000e+000 74163 -1.2166e+002 -1.8313e+002 -2.2079e+000 62404 74085,74137,74111
 2.8000e+000 74408  1.0651e+001 -1.7217e+002  1.6424e+001 62000 74258,74336,74284
 2.8000e+000 74385 -2.8903e+000 -1.7533e+002  2.3250e+001 62000 74232,74336,74258
 2.8000e+000 74362 -3.2004e+001 -1.5163e+002  3.1696e+000 62000 74284,74336,74310
 2.8000e+000 74509 -5.8350e-001 -2.4038e+002  3.6086e+001 61802 74431,74483,74457
 2.8000e+000 74759 -5.7763e+001 -1.7983e+002 -1.8879e+000 61554 74782,74586,74560
 2.8000e+000 74736 -2.8584e+001 -1.5962e+002  7.6604e+000 61554 74782,74560,74664
 2.8000e+000 74713 -4.9388e+001 -1.1789e+002  6.6671e+001 61554 74854,74612,74586
 2.8000e+000 74690 -4.2689e+001 -1.7635e+002 -1.0229e+000 61554 74534,74664,74560
 2.8000e+000 74808 -7.9302e+001 -1.5946e+002  1.5918e+001 61554 74854,74586,74782
 2.8000e+000 74831 -3.3494e+001 -2.0662e+002  1.1718e+001 61554 74638,74782,74664
 2.8000e+000 74880  1.6108e+001 -1.6060e+002  7.0756e+001 61554 74638,74612,74854
 2.8000e+000 74903  1.5169e+001 -1.5517e+002  3.2563e+001 61554 74638,74854,74782
 2.8000e+000 75285  2.1522e+001 -1.9760e+002 -1.2007e+000 61356 75063,75167,75115
 2.8000e+000 75262  6.0296e+000 -2.1809e+002 -2.0997e+001 61356 75037,75167,75063
 2.8000e+000 75239  3.2366e+001 -2.0202e+002 -1.3095e+000 61356 75115,75167,75141
 2.8000e+000 75216  6.6987e+000 -2.0040e+002 -6.7065e-001 61356 75063,75115,75089
 2.8000e+000 75193 -7.8629e+001 -1.4314e+002  2.0123e+001 61356 75011,75167,75037
 2.8000e+000 75631  9.5153e+000 -1.6655e+002  8.0771e+000 60952 75654,75412,75360
 2.8000e+000 75608  8.1871e+000 -1.8883e+002 -9.0258e-003 60952 75654,75360,75334
 2.8000e+000 75585 -1.3697e+001 -2.4262e+002  1.1685e+001 60952 75726,75438,75412
 2.8000e+000 75562  3.5689e+001 -1.7020e+002 -3.7073e+001 60952 75308,75490,75334
 2.8000e+000 75539  5.9203e+000 -1.6389e+002 -2.1812e+000 60952 75360,75412,75386
 2.8000e+000 75516 -4.0055e+001 -2.9421e+002 -7.5654e+000 60952 75438,75490,75464
 2.8000e+000 75680  5.6667e+000 -1.9780e+002  1.0076e+001 60952 75726,75412,75654
 2.8000e+000 75703  9.3350e+000 -1.8733e+002 -5.4109e-001 60952 75490,75654,75334
 2.8000e+000 75752 -4.4686e+000 -1.9177e+002 -1.2936e+000 60952 75490,75438,75726
 2.8000e+000 75775 -4.6200e+000 -1.8928e+002 -4.9712e+000 60952 75490,75726,75654
 2.8000e+000 76155 -1.5384e+000 -1.7057e+002 -1.1283e+001 60754 75933,75985,75959
 2.8000e+000 76132 -2.8085e+001 -1.8869e+002  2.5177e+001 60754 75933,76037,75985
 2.8000e+000 76109  3.2259e+001 -1.8733e+002  1.0391e+001 60754 75985,76037,76011
 2.8000e+000 76086 -6.0826e+001 -1.4889e+002  6.8166e+000 60754 75881,76037,75933
 2.8000e+000 76063 -8.9011e+001 -1.2859e+002  4.2660e+001 60754 75881,75933,75907
 2.8000e+000 76612 -2.5726e+001 -1.3513e+002  2.2835e+000 60350 76635,76442,76390
 2.8000e+000 76589  3.4004e+000 -1.5513e+002  8.8049e+000 60350 76635,76390,76364
 2.8000e+000 76566 -4.6359e+000 -1.9810e+002 -1.3660e+001 60350 76364,76494,76468
 2.8000e+000 76543 -2.0677e+000 -1.2228e+002  1.2119e+001 60350 76390,76442,76416
 2.8000e+000 76520 -7.1189e+001 -1.2547e+002 -3.3098e+001 60350 76338,76494,76364
 2.8000e+000 76661 -4.1773e+001 -1.4869e+002  8.2487e+000 60350 76468,76442,76635
 2.8000e+000 76684 -2.0535e+001 -1.7182e+002  1.6710e+001 60350 76468,76635,76364
 2.8000e+000 76932 -6.5324e+001 -2.1244e+002 -2.8388e+000 59946 76955,76733,76707
 2.8000e+000 76909 -6.5962e+001 -2.1254e+002  3.1367e+000 59946 77027,76955,76707
 2.8000e+000 76886 -6.3963e+001 -2.1216e+002  2.4043e+000 59946 77027,76707,76837
 2.8000e+000 76863 -3.2432e+001 -2.3156e+002 -2.2839e+001 59946 76733,76785,76759
 2.8000e+000 76981 -7.5820e+001 -2.1482e+002 -5.3768e+000 59946 76785,76733,76955
 2.8000e+000 77004 -6.9220e+001 -2.1261e+002  1.5298e+000 59946 76785,76955,76811
 2.8000e+000 77053 -6.3060e+001 -2.1307e+002  2.1751e+000 59946 76811,76955,77027
 2.8000e+000 77076 -6.1224e+001 -2.1220e+002  1.0921e+000 59946 76811,77027,76837
 2.8000e+000 77226 -6.0565e+001 -1.6434e+002  4.7647e+000 59542 77099,77151,77125
 2.8000e+000 77203 -7.7064e+001 -2.0243e+002  7.6211e+000 59542 77099,77177,77151
 2.8000e+000 77427 -9.6374e+001 -1.9069e+002 -1.8346e+001 59030 77450,77277,77251
 2.8000e+000 77404 -5.1726e+001 -1.4309e+002 -6.6406e+001 59030 77450,77251,77355
 2.8000e+000 77381  1.7486e+001 -2.1994e+002 -1.4500e+001 59030 77277,77329,77303
 2.8000e+000 77476 -4.3091e+001 -2.0095e+002 -4.7174e+001 59030 77329,77277,77450
 2.8000e+000 77499  4.3660e+000 -1.7807e+002 -8.4926e+001 59030 77329,77450,77355
 2.8000e+000 77749 -8.6193e+001 -2.4674e+002  2.6859e+001 58426 77772,77628,77602
 2.8000e+000 77726 -5.1875e+001 -2.7589e+002  7.5428e+001 58426 77524,77654,77628
 2.8000e+000 77703 -6.2252e+001 -2.5459e+002  1.8635e+001 58426 77772,77602,77550
 2.8000e+000 77680 -3.2994e+001 -2.3732e+002 -1.4392e+001 58426 77550,77602,77576
 2.8000e+000 77798 -6.0081e+001 -2.3417e+002  3.2496e+001 58426 77524,77628,77772
 2.8000e+000 77821 -5.1410e+001 -2.5218e+002  1.9812e+001 58426 77524,77772,77550
 2.8000e+000 78071 -1.1546e+002 -2.5653e+002  2.5247e+001 57922 78094,77924,77898
 2.8000e+000 78048 -1.3689e+002 -2.5379e+002 -4.7922e+000 57922 78094,77898,77872
 2.8000e+000 78025 -1.0253e+002 -2.2216e+002  2.3750e+001 57922 78166,77846,77950
 2.8000e+000 78002 -1.3536e+001 -2.2419e+002  3.7626e+001 57922 77846,77976,77950
 2.8000e+000 78120 -9.3640e+001 -2.4961e+002  1.5912e+001 57922 77950,77924,78094
 2.8000e+000 78143 -1.0907e+002 -2.2798e+002  1.7428e+001 57922 78166,77950,78094
 2.8000e+000 78192 -9.1482e+001 -2.3565e+002  1.1956e+001 57922 77872,77846,78166
 2.8000e+000 78215 -1.0589e+002 -2.4960e+002  4.2829e+000 57922 77872,78166,78094
 2.8000e+000 78416  1.0876e+001 -2.1893e+002 -7.3155e+000 57468 78439,78292,78240
 2.8000e+000 78393  1.9675e+001 -2.0523e+002 -1.1290e+001 57468 78439,78240,78344
 2.8000e+000 78370 -5.9599e+000 -3.1042e+002 -3.3613e+000 57468 78240,78292,78266
 2.8000e+000 78465  2.1191e+001 -2.1897e+002 -1.6870e+001 57468 78318,78292,78439
 2.8000e+000 78488  2.4882e+001 -2.1248e+002 -1.8349e+001 57468 78318,78439,78344
 2.8000e+000 78689  3.3294e+001 -2.4106e+002 -1.4579e+001 57014 78712,78539,78513
 2.8000e+000 78666  9.2941e+000 -2.3840e+002  1.3253e+000 57014 78712,78513,78617
 2.8000e+000 78643 -6.2435e+000 -2.3285e+002  2.4297e+001 57014 78565,78617,78591
 2.8000e+000 78738  1.9283e+000 -2.1841e+002 -1.5242e+001 57014 78565,78539,78712
 2.8000e+000 78761 -3.2136e+001 -2.3536e+002  1.0102e+001 57014 78565,78712,78617
 2.8000e+000 79241 -8.2318e+001 -2.0574e+002  7.8454e+000 56652 79264,78895,78869
 2.8000e+000 79218 -3.9684e+001 -2.8393e+002 -2.7854e+001 56652 79264,78869,79051
 2.8000e+000 79195 -5.5444e+001 -2.5375e+002 -6.2442e+001 56652 78869,79077,79051
 2.8000e+000 79172 -6.3057e+001 -1.3209e+002 -1.7565e+001 56652 78895,78973,78947
 2.8000e+000 79149 -1.0339e+002 -4.1486e+002 -3.6621e+001 56652 78973,79051,78999
 2.8000e+000 79126 -4.9751e+001 -1.5284e+002 -1.9270e+001 56652 78895,78947,78921
 2.8000e+000 79103 -7.3592e+001 -2.5536e+002  6.1833e+001 56652 78999,79051,79025
 2.8000e+000 79290 -5.1576e+001 -1.5529e+002  3.6814e+001 56652 78973,78895,79264
 2.8000e+000 79313 -7.0341e+000 -2.4077e+002  4.2166e+000 56652 78973,79264,79051
 2.8000e+000 79512 -2.3352e+001 -3.0873e+002  2.4306e+001 56062 79388,79440,79414
 2.8000e+000 79489 -1.1400e+002 -1.5317e+002  4.2306e+001 56062 79336,79440,79388
 2.8000e+000 79466 -4.7118e+001 -1.8007e+002  5.3829e+001 56062 79336,79388,79362
 2.8000e+000 79941 -3.1542e+001 -1.8605e+002  3.2209e+001 55658 79964,79670,79644
 2.8000e+000 79918 -5.3059e+001 -1.8805e+002  3.6024e+001 55658 79964,79644,79800
 2.8000e+000 79895 -5.1292e+001 -1.9968e+002  1.6227e+001 55658 80036,79696,79670
 2.8000e+000 79872 -5.7628e+001 -1.5998e+002 -2.7423e+000 55658 80108,79722,79696
 2.8000e+000 79849 -8.6918e+001 -1.7058e+002  6.1348e+000 55658 79722,79774,79748
 2.8000e+000 79826 -2.1570e-001 -1.6968e+002  1.1367e+001 55658 79618,79800,79644
 2.8000e+000 79990 -5.5073e+001 -1.9966e+002  2.4849e+001 55658 80036,79670,79964
 2.8000e+000 80013 -5.1691e+001 -1.7645e+002  3.5982e+001 55658 79774,79964,79800
 2.8000e+000 80062 -4.1004e+001 -1.7655e+002  1.4033e+001 55658 80108,79696,80036
 2.8000e+000 80085 -5.4320e+001 -1.7713e+002  3.3075e+001 55658 79774,80036,79964
 2.8000e+000 80134 -9.0571e+001 -1.7919e+002  6.4061e+000 55658 79774,79722,80108
 2.8000e+000 80157 -8.0968e+001 -1.9892e+002  2.3537e+001 55658 79774,80108,80036
 2.8000e+000 80307 -9.0883e+001 -1.7876e+002  2.4743e+001 55254 80402,80330,80206
 2.8000e+000 80284 -9.2658e+001 -2.4350e+002  1.8773e+001 55254 80330,80180,80258
 2.8000e+000 80356 -1.1092e+002 -2.2445e+002  4.4264e+001 55254 80232,80206,80330
 2.8000e+000 80379 -3.8287e+001 -1.9220e+002  5.6047e+001 55254 80232,80330,80258
 2.8000e+000 80428 -1.3141e+002 -2.2644e+002  5.4228e+000 55254 80180,80330,80402
 2.8000e+000 80659  1.1651e+001 -2.1450e+002 -2.0732e+001 54850 80558,80610,80584
 2.8000e+000 80636  2.3057e+001 -2.0443e+002 -1.4288e+001 54850 80532,80610,80558
 2.8000e+000 80760  3.2617e+000 -1.9727e+002 -1.4137e+001 54652 80682,80734,80708
 2.8000e+000 81164  6.1092e+000 -2.0582e+002 -4.9944e+000 54248 81187,80942,80890
 2.8000e+000 81141 -3.2555e+000 -2.1053e+002 -1.4075e+000 54248 81187,80890,81046
 2.8000e+000 81118 -3.8942e+000 -2.1217e+002  4.4734e+001 54248 80942,81020,80994
 2.8000e+000 81095  6.8605e+000 -2.1250e+002  1.2366e+000 54248 80890,80942,80916
 2.8000e+000 81072 -9.9644e+000 -1.0789e+002  3.1165e+000 54248 80942,80994,80968
 2.8000e+000 81213 -4.7512e+000 -2.0069e+002 -4.4603e+000 54248 81020,80942,81187
 2.8000e+000 81236 -1.2067e+001 -2.0284e+002 -2.1937e+000 54248 81020,81187,81046
 2.8000e+000 81663 -9.5345e+001 -1.7471e+002  2.5783e+001 53594 81340,81444,81366
 2.8000e+000 81640 -8.2894e+001 -2.6262e+002  1.2357e+001 53594 81340,81470,81444
 2.8000e+000 81617 -2.6895e+001 -2.2877e+002 -1.3014e+001 53594 81340,81522,81470
 2.8000e+000 81594 -4.5558e+001 -1.2515e+002 -9.6382e+000 53594 81392,81444,81418
 2.8000e+000 81571 -6.1024e+001 -1.4522e+002 -1.6604e+001 53594 81366,81444,81392
 2.8000e+000 81548  8.7762e+000 -3.4249e+002  6.3461e+001 53594 81470,81522,81496
 2.8000e+000 81943 -3.1238e+001 -1.2217e+002 -1.1095e+001 53104 81966,81845,81819
 2.8000e+000 81920 -5.0685e+001 -1.2014e+002 -1.8472e+001 53104 81966,81819,81767
 2.8000e+000 81897 -4.6664e+001 -1.1263e+002 -1.5738e+001 53104 81767,81819,81793
 2.8000e+000 81992 -1.8250e+001 -1.2986e+002 -2.1130e+001 53104 81871,81845,81966
 2.8000e+000 82015 -3.5772e+001 -1.2587e+002 -3.1904e+001 53104 81871,81966,81767
 2.8000e+000 82491 -1.7919e+001 -1.2497e+002 -2.6930e+001 52650 82145,82249,82171
 2.8000e+000 82468 -9.9385e+001 -1.6707e+002 -1.1933e+001 52650 82145,82301,82249
 2.8000e+000 82445 -9.5150e+001 -2.2579e+002 -3.5880e+001 52650 82249,82301,82275
 2.8000e+000 82422 -4.8346e+001 -2.7342e+002 -3.6263e+001 52650 82119,82301,82145
 2.8000e+000 82399 -2.8681e+001 -8.4083e+001  9.6567e+000 52650 82171,82249,82223
 2.8000e+000 82376  3.8181e+001 -2.3472e+002 -4.9640e+001 52650 82119,82327,82301
 2.8000e+000 82353 -7.5287e+000 -4.2989e+001 -1.7996e+001 52650 82171,82223,82197
 2.8000e+000 82739 -4.5457e+001 -1.1823e+002 -5.2821e+000 52246 82762,82540,82514
 2.8000e+000 82716 -2.6358e+001 -9.8752e+001 -1.3065e+001 52246 82762,82514,82644
 2.8000e+000 82693 -5.8688e+001 -1.3460e+002  1.2104e+001 52246 82540,82618,82592
 2.8000e+000 82670 -4.4269e+001 -1.1279e+002 -2.3620e-001 52246 82540,82592,82566
 2.8000e+000 82788 -2.7965e+001 -1.3699e+002  4.2974e+000 52246 82618,82540,82762
 2.8000e+000 82811 -1.2576e+001 -1.2592e+002 -9.7826e-001 52246 82618,82762,82644
 2.8000e+000 83059  1.4899e+001 -1.5083e+002  3.0431e+000 51578 82860,82964,82938
 2.8000e+000 83036  1.7384e+001 -1.4197e+002 -1.4789e+001 51578 82834,82964,82860
 2.8000e+000 83013  1.6966e+001 -1.3195e+002  1.1925e+001 51578 82860,82938,82886
 2.8000e+000 82990  2.0454e+001 -1.2955e+002  1.6549e+001 51578 82886,82938,82912
 2.8000e+000 83309 -2.4277e+001 -8.6792e+001  2.7628e+001 51138 83332,83162,83136
 2.8000e+000 83286  1.9926e+000 -1.1929e+002  6.6760e+000 51138 83332,83136,83110
 2.8000e+000 83263 -4.0136e+001 -1.2068e+002 -1.1030e+001 51138 83404,83214,83188
 2.8000e+000 83240 -1.9518e-001 -5.7306e+001  5.4661e+000 51138 83084,83214,83110
 2.8000e+000 83358 -5.1766e+001 -1.3091e+002  4.4090e+001 51138 83188,83162,83332
 2.8000e+000 83381 -2.2978e+001 -1.4144e+002  7.5461e+000 51138 83404,83188,83332
 2.8000e+000 83430 -1.6977e+001 -6.7852e+001 -7.5061e+000 51138 83110,83214,83404
 2.8000e+000 83453 -5.3934e+000 -1.0050e+002  1.0902e+001 51138 83110,83404,83332
 2.8000e+000 83835 -2.5581e+001 -1.5327e+002 -1.0412e+001 50734 83613,83717,83691
 2.8000e+000 83812 -3.2571e+001 -1.7298e+002 -3.1651e+001 50734 83561,83717,83613
 2.8000e+000 83789 -1.8811e+001 -8.0780e+001 -4.7769e+001 50734 83561,83613,83587
 2.8000e+000 83766 -3.3489e+001 -1.0819e+002 -4.9269e+000 50734 83613,83691,83639
 2.8000e+000 83743 -3.7246e+001 -1.0667e+002  2.4736e+001 50734 83639,83691,83665
 2.8000e+000 84034  6.3946e+000 -8.7074e+001 -1.9075e+001 50230 84057,83884,83858
 2.8000e+000 84011 -7.0174e-001 -9.5613e+001 -5.3850e+000 50230 84129,84057,83858
 2.8000e+000 83988  4.4125e+000 -9.5146e+001 -6.9070e+000 50230 84129,83858,83962
 2.8000e+000 84083 -1.4081e+001 -9.6815e+001 -1.5717e+001 50230 83910,83884,84057
 2.8000e+000 84106 -6.4811e+000 -1.0533e+002 -2.9602e-001 50230 83910,84057,83936
 2.8000e+000 84155  6.3244e+000 -9.5124e+001 -4.7858e+000 50230 83936,84057,84129
 2.8000e+000 84178  8.5254e+000 -9.6766e+001 -6.6452e+000 50230 83936,84129,83962
 2.8000e+000 84558 -3.2002e+001 -1.2465e+002 -1.8142e+001 49768 84581,84388,84362
 2.8000e+000 84535 -8.8449e+001 -1.2605e+002 -1.4814e+000 49768 84581,84362,84310
 2.8000e+000 84512  1.8863e+001 -1.3597e+002 -2.1346e+001 49768 84653,84440,84414
 2.8000e+000 84489 -6.7480e+001 -1.4201e+002  1.9693e+001 49768 84310,84362,84336
 2.8000e+000 84466  4.0397e+000 -9.0713e+001  2.7394e+001 49768 84284,84440,84310
 2.8000e+000 84607  1.3038e+001 -9.6811e+001 -3.9031e+001 49768 84414,84388,84581
 2.8000e+000 84630 -1.8917e+000 -1.3006e+002 -1.3690e+001 49768 84653,84414,84581
 2.8000e+000 84679 -9.1037e+000 -1.2448e+002 -3.0567e+001 49768 84310,84440,84653
 2.8000e+000 84702 -3.7000e+001 -1.2613e+002 -3.0424e+001 49768 84310,84653,84581
 2.8000e+000 85159 -8.4931e+001 -2.0234e+002 -5.2351e+001 49192 84885,84937,84911
 2.8000e+000 85136 -8.1835e+001 -1.6345e+002 -4.0953e+001 49192 84885,85041,84937
 2.8000e+000 85113 -5.6526e+001 -1.2980e+002 -2.5335e+001 49192 84963,85041,84989
 2.8000e+000 85090 -5.6211e+001 -1.3113e+002 -2.9476e+001 49192 84937,85041,84963
 2.8000e+000 85067 -4.8467e+001 -1.3863e+002 -1.5053e+001 49192 84989,85041,85015
 2.8000e+000 85714 -7.0872e+001 -1.1728e+002  6.7488e+000 48638 85368,85498,85394
 2.8000e+000 85691 -9.5306e+001 -1.3604e+002  1.7612e+001 48638 85368,85524,85498
 2.8000e+000 85668 -8.4081e+001 -1.1866e+002  3.1023e+001 48638 85737,85420,85394
 2.8000e+000 85645 -7.1275e+001 -1.2615e+002  1.8252e+001 48638 85737,85394,85498
 2.8000e+000 85622 -5.5964e+001 -1.4508e+002  2.6343e+001 48638 85446,85498,85472
 2.8000e+000 85599 -2.5841e+001 -1.0671e+002  1.6153e+001 48638 85342,85524,85368
 2.8000e+000 85576 -9.3652e+001 -1.2883e+002  2.0350e+001 48638 85342,85550,85524
 2.8000e+000 85763 -6.3242e+001 -1.0861e+002  3.5835e+001 48638 85446,85420,85737
 2.8000e+000 85786 -6.2963e+001 -1.1917e+002  2.1978e+001 48638 85446,85737,85498
 2.8000e+000 86371 -5.8756e+001 -8.4020e+001 -9.0143e+000 48084 86100,86230,86178
 2.8000e+000 86348 -8.1722e+001 -1.1244e+002 -1.9059e+001 48084 86048,86230,86100
 2.8000e+000 86325 -6.0342e+001 -7.8846e+001  1.6435e+001 48084 86100,86178,86126
 2.8000e+000 86302 -4.3399e+001 -2.2586e+001 -2.5300e+001 48084 86048,86100,86074
 2.8000e+000 86279 -6.8158e+001 -1.3035e+002 -9.5662e+000 48084 86178,86230,86204
 2.8000e+000 86256 -4.9558e+001 -9.3764e+001  1.6116e+001 48084 86126,86178,86152
 2.8000e+000 86619 -4.4873e+001 -1.1010e+002 -3.7945e+000 47630 86642,86446,86420
 2.8000e+000 86596 -5.0589e+001 -1.1991e+002 -2.4785e+001 47630 86642,86420,86394
 2.8000e+000 86573 -6.3111e+001 -1.2788e+002 -3.0130e+001 47630 86394,86524,86498
 2.8000e+000 86550 -2.1064e+001 -1.2838e+002 -1.0790e+000 47630 86446,86498,86472
 2.8000e+000 86668 -5.5414e+001 -1.3398e+002 -8.9980e+000 47630 86498,86446,86642
 2.8000e+000 86691 -5.7284e+001 -1.3658e+002 -2.9649e+001 47630 86498,86642,86394
 2.8000e+000 87022 -1.4830e-001 -6.2932e+001 -2.4490e+001 47226 87045,86875,86849
 2.8000e+000 86999 -1.3370e+001 -7.4253e+001 -3.0725e+001 47226 87045,86849,86797
 2.8000e+000 86976 -3.6763e+000 -3.6080e+001 -1.9590e+001 47226 86797,86849,86823
 2.8000e+000 86953  2.0262e+001 -5.8188e+001 -3.0607e+001 47226 86875,86927,86901
 2.8000e+000 87071  1.1372e+001 -7.9560e+001 -2.8092e+001 47226 86927,86875,87045
 2.8000e+000 87094  7.8650e-001 -8.6472e+001 -3.2117e+001 47226 86927,87045,86797
 2.8000e+000 87244 -2.0559e+000 -1.2981e+002  4.7124e+001 46814 87267,87169,87143
 2.8000e+000 87221 -6.9723e+001 -1.2915e+002 -1.7552e+000 46814 87267,87143,87117
 2.8000e+000 87293 -1.4919e+001 -1.3071e+002 -1.1033e+001 46814 87339,87267,87195
 2.8000e+000 87316  1.9068e+001 -9.0607e+001 -2.9325e+001 46814 87469,87267,87117
 2.8000e+000 87365 -2.9129e+001 -1.1164e+002  4.9084e+001 46814 87169,87267,87339
 2.8000e+000 87495  1.8132e+001  3.5639e+001 -3.2021e+001 46814 87195,87267,87469
 2.8000e+000 88001 -5.1233e+001 -1.2466e+002  2.6125e+001 46310 88024,87834,87808
 2.8000e+000 87978 -5.9585e+001 -1.2677e+002  1.8621e+001 46310 88024,87808,87756
 2.8000e+000 87955 -1.8722e+001 -1.6092e+002  7.0484e+000 46310 88096,87730,87860
 2.8000e+000 87932 -4.3011e+001 -1.4980e+002  2.0811e+001 46310 87756,87808,87782
 2.8000e+000 87909 -2.5767e+001 -2.0688e+002  1.0289e+001 46310 87678,87860,87730
 2.8000e+000 87886 -4.8414e+001 -3.2793e+002 -1.3575e+001 46310 87678,87730,87704
 2.8000e+000 88050 -4.3942e+001 -1.0819e+002  2.1202e+001 46310 87860,87834,88024
 2.8000e+000 88073 -2.2895e+001 -1.1770e+002  2.3890e+001 46310 88096,87860,88024
 2.8000e+000 88122 -3.5146e+001 -1.8121e+002 -5.8144e+000 46310 87756,87730,88096
 2.8000e+000 88145 -6.7761e+001 -1.6378e+002  3.5249e+000 46310 87756,88096,88024
 2.8000e+000 88572 -3.1351e+001 -1.3248e+002  2.5290e+000 45856 88249,88405,88275
 2.8000e+000 88549 -2.2173e+001 -4.2707e+001 -3.2073e+001 45856 88249,88431,88405
 2.8000e+000 88526 -7.1019e+001 -1.9530e+002 -2.6004e+001 45856 88327,88405,88353
 2.8000e+000 88503 -3.4117e+001 -1.5158e+002 -1.0243e+001 45856 88275,88405,88327
 2.8000e+000 88480 -5.7278e+001 -1.6801e+002 -3.2483e+001 45856 88353,88405,88379
 2.8000e+000 88457 -1.4394e+002 -3.9174e+002  3.3115e+001 45856 88275,88327,88301
 2.8000e+000 88950 -3.0753e+001 -9.0535e+001 -1.9431e+000 45658 88973,88754,88728
 2.8000e+000 88927 -2.9087e+001 -9.4697e+001 -2.1702e+000 45658 88973,88728,88676
 2.8000e+000 88904 -3.1447e+001 -1.1541e+002  3.7483e+001 45658 88676,88832,88806
 2.8000e+000 88881 -4.5540e+001 -1.2341e+002  1.3986e+001 45658 88676,88728,88702
 2.8000e+000 88858 -3.9216e+001 -8.2138e+001 -1.8375e+001 45658 88754,88806,88780
 2.8000e+000 88999 -3.2660e+001 -9.3676e+001 -1.1338e+000 45658 88806,88754,88973
 2.8000e+000 89022 -2.9837e+001 -9.6147e+001 -1.7870e+000 45658 88806,88973,88676
 2.8000e+000 89351  4.6478e+000 -1.2348e+002 -7.0017e+000 45254 89152,89230,89204
 2.8000e+000 89328 -2.1011e+001 -1.3308e+002 -2.9156e+000 45254 89152,89256,89230
 2.8000e+000 89305 -3.6453e+000 -1.3959e+002 -1.1430e+001 45254 89126,89256,89152
 2.8000e+000 89282 -1.2414e+001 -1.4119e+002  4.2813e-001 45254 89152,89204,89178
 2.8000e+000 89523 -2.2297e+001 -1.2402e+002 -5.5805e-001 45006 89422,89474,89448
 2.8000e+000 89500 -1.6115e+001 -1.2139e+002  4.3866e+000 45006 89396,89474,89422
 2.8000e+000 89673 -8.7861e+001 -1.6790e+002  1.3373e+001 44495 89572,89624,89598
 2.8000e+000 89650 -9.8041e+001 -2.0033e+002  2.0162e+001 44495 89546,89624,89572
 2.8000e+000 90104 -9.1380e+000 -1.6144e+002 -7.0377e+000 44005 90199,90127,89937
 2.8000e+000 90081 -2.4191e+001 -1.5486e+002 -4.6463e-001 44005 90271,90127,89859
 2.8000e+000 90058 -2.5776e+000 -1.6377e+002 -7.1132e+000 44005 90199,89937,89885
 2.8000e+000 90035 -3.7033e+001 -1.4535e+002  6.8979e+000 44005 90271,89859,89807
 2.8000e+000 90012 -2.2712e+001 -1.7714e+002 -1.9555e+001 44005 89885,89937,89911
 2.8000e+000 89989 -7.7299e+000 -1.5611e+002  2.4202e+001 44005 89807,89859,89833
 2.8000e+000 90153 -2.4730e+001 -1.6783e+002 -6.7691e+000 44005 89963,89937,90127
 2.8000e+000 90176 -2.5400e+001 -1.7233e+002 -2.4216e+000 44005 89963,90127,89781
 2.8000e+000 90225 -2.7044e+001 -1.5880e+002 -3.0501e+000 44005 89859,90127,90199
 2.8000e+000 90248 -1.1549e+001 -1.5484e+002  2.6389e-001 44005 89859,90199,89885
 2.8000e+000 90297 -4.1245e+001 -1.6623e+002 -5.6602e+000 44005 89781,90127,90271
 2.8000e+000 90320 -4.8640e+001 -1.5395e+002  2.9270e+000 44005 89781,90271,89807
 2.8000e+000 90470 -2.2435e+001 -1.7299e+002 -7.0252e+000 43601 90493,90369,90343
 2.8000e+000 90447 -4.1882e+001 -1.4416e+002  8.7964e+000 43601 90493,90343,90421
 2.8000e+000 90519 -5.2033e+001 -2.2391e+002 -2.5356e+001 43601 90395,90369,90493
 2.8000e+000 90542 -4.4635e+001 -1.6446e+002 -4.6627e+000 43601 90395,90493,90421
 2.8000e+000 90922 -5.8921e+001 -1.8552e+002  1.5262e+001 43154 90945,90700,90674
 2.8000e+000 90899 -5.8884e+001 -1.9104e+002 -1.2555e+001 43154 90945,90674,90648
 2.8000e+000 90876 -6.8024e+001 -1.5133e+002 -9.9293e+000 43154 90648,90778,90752
 2.8000e+000 90853 -3.4302e+001 -2.8800e+002  9.4907e+000 43154 90700,90752,90726
 2.8000e+000 90830 -4.2976e+001 -1.5425e+002  2.2591e-001 43154 90648,90804,90778
 2.8000e+000 90971 -6.8242e+001 -2.0971e+002  1.6651e+001 43154 90752,90700,90945
 2.8000e+000 90994 -6.4744e+001 -2.0504e+002 -1.0292e+001 43154 90752,90945,90648
 2.8000e+000 91451 -1.6531e+001 -1.3073e+002 -2.7208e+001 42650 91203,91255,91229
 2.8000e+000 91428 -1.2502e+000 -1.2389e+002 -1.1401e+001 42650 91203,91333,91255
 2.8000e+000 91405  7.0656e+000 -2.0560e+002 -3.1806e+001 42650 91177,91333,91203
 2.8000e+000 91382 -5.6867e+001 -2.1497e+002  1.2310e+001 42650 91255,91333,91281
 2.8000e+000 91359  3.1748e+001 -1.7376e+002  5.2396e-001 42650 91281,91333,91307
 2.8000e+000 91721 -8.9186e+001 -1.9827e+002  2.3169e+001 42288 91496,91600,91522
 2.8000e+000 91698 -4.7672e+001 -1.1954e+002 -4.9568e+000 42288 91496,91626,91600
 2.8000e+000 91675 -5.4023e+001 -1.8335e+002  3.4152e+001 42288 91522,91574,91548
 2.8000e+000 91652 -2.1866e+001 -1.7103e+002  2.5597e+001 42288 91522,91600,91574
 2.8000e+000 92199 -1.2669e+002 -2.1563e+002 -1.8896e+000 41898 92222,91983,91879
 2.8000e+000 92176 -1.2628e+002 -2.4273e+002 -1.2473e+001 41898 92294,92222,91879
 2.8000e+000 92153 -1.3325e+002 -2.3213e+002 -1.8811e+001 41898 92294,91879,91853
 2.8000e+000 92130 -1.0801e+002 -1.3032e+002  1.2966e+001 41898 91879,91957,91931
 2.8000e+000 92107 -1.1307e+002 -2.0995e+002 -7.9476e-001 41898 91879,91983,91957
 2.8000e+000 92084 -1.1977e+002 -1.2308e+002  2.6067e+001 41898 91879,91931,91905
 2.8000e+000 92061 -1.1690e+002 -2.0100e+002 -2.1334e+001 41898 91827,92035,91853
 2.8000e+000 92248 -1.3025e+002 -2.5033e+002  6.5049e+000 41898 92009,91983,92222
 2.8000e+000 92271 -1.2246e+002 -2.5739e+002 -2.4553e+001 41898 92009,92222,92035
 2.8000e+000 92320 -1.1292e+002 -2.3030e+002 -2.0273e+001 41898 92035,92222,92294
 2.8000e+000 92343 -1.1916e+002 -2.2190e+002 -2.6930e+001 41898 92035,92294,91853
 2.8000e+000 92770 -4.2031e+001 -1.9914e+002 -1.6310e+001 41437 92865,92793,92525
 2.8000e+000 92747 -5.8216e+001 -2.2349e+002 -2.1039e+001 41437 92793,92473,92629
 2.8000e+000 92724 -2.0567e+001 -2.0590e+002 -2.7941e+001 41437 92865,92525,92499
 2.8000e+000 92701 -6.1976e+001 -1.7630e+002 -3.2906e+001 41437 92525,92603,92577
 2.8000e+000 92678 -1.7944e+000 -2.1073e+002 -1.6149e+001 41437 92447,92629,92473
 2.8000e+000 92655 -1.0587e+002 -1.6026e+002 -2.0966e+001 41437 92525,92577,92551
 2.8000e+000 92819 -4.6137e+001 -2.0849e+002 -3.3103e+001 41437 92603,92525,92793
 2.8000e+000 92842 -9.0690e+001 -2.2423e+002 -5.5981e+001 41437 92603,92793,92629
 2.8000e+000 92891 -6.1128e-001 -2.1198e+002 -1.8894e+001 41437 92473,92793,92865
 2.8000e+000 92914  2.9693e+001 -2.0706e+002 -3.5525e+001 41437 92473,92865,92499
 2.8000e+000 93243 -3.4674e+001 -2.9626e+002  1.0684e+002 41097 93044,93096,93070
 2.8000e+000 93220 -5.9719e+001 -2.5860e+002  5.4918e+001 41097 93044,93122,93096
 2.8000e+000 93197  2.6705e+001 -1.7838e+002  2.1316e+001 41097 93044,93148,93122
 2.8000e+000 93174 -3.5122e+001 -1.2171e+002  6.1074e+001 41097 93018,93148,93044
 2.8000e+000 93393 -3.2227e+000 -2.1600e+002  1.4340e+001 40643 93416,93292,93344
 2.8000e+000 93370 -9.5223e+000 -1.9294e+002  1.7073e+001 40643 93266,93344,93292
 2.8000e+000 93442 -7.1791e+000 -2.1430e+002  1.9167e+001 40643 93318,93292,93416
 2.8000e+000 93901 -6.3657e+001 -2.0521e+002 -1.3811e+001 40132 93924,93731,93705
 2.8000e+000 93878 -6.8147e+001 -2.0930e+002 -1.5615e+001 40132 93996,93924,93705
 2.8000e+000 93855 -8.0858e+001 -2.4023e+002 -6.5961e+000 40132 93996,93705,93653
 2.8000e+000 93832 -4.2916e+001 -2.3559e+002 -1.2104e+001 40132 93653,93705,93679
 2.8000e+000 93809 -6.3546e+001 -1.9251e+002 -1.1681e+000 40132 93627,93783,93757
 2.8000e+000 93950 -6.0502e+001 -2.1529e+002 -1.6560e+001 40132 93757,93731,93924
 2.8000e+000 93973 -6.8684e+001 -1.8959e+002 -3.2297e+000 40132 93757,93924,93627
 2.8000e+000 94022 -8.9053e+001 -2.2802e+002  6.8425e+000 40132 93627,93924,93996
 2.8000e+000 94045 -8.3604e+001 -2.3900e+002  1.3357e+001 40132 93627,93996,93653
 2.8000e+000 94423 -3.5695e+001 -2.4255e+002 -2.4577e+001 39514 94149,94227,94175
 2.8000e+000 94400 -2.6987e+001 -2.0055e+002  6.5123e+000 39514 94149,94305,94227
 2.8000e+000 94377 -9.7332e+000 -2.6145e+002 -2.8159e+001 39514 94175,94227,94201
 2.8000e+000 94354 -2.4459e+001 -2.0471e+002  7.1214e+000 39514 94227,94305,94279
 2.8000e+000 94331 -3.0176e+001 -2.0578e+002  1.4927e+001 39514 94227,94279,94253
 2.8000e+000 94573 -1.7234e+001 -1.2527e+002 -3.4502e+001 38822 94596,94498,94472
 2.8000e+000 94550  2.3287e+001 -1.3867e+002  2.0693e+001 38822 94596,94472,94446
 2.8000e+000 94622 -6.4199e+001 -1.4565e+002 -3.0408e+001 38822 94524,94498,94596
 2.8000e+000 94645 -5.7861e+001 -1.7638e+002  3.0448e+001 38822 94524,94596,94446
 2.8000e+000 95025 -1.1780e+001 -1.7224e+002 -1.2419e+001 38418 95048,94829,94777
 2.8000e+000 95002 -1.6285e+001 -1.8141e+002 -2.1382e+001 38418 95120,95048,94777
 2.8000e+000 94979 -1.1467e+001 -1.8106e+002 -1.9998e+001 38418 95120,94777,94751
 2.8000e+000 94956 -9.9305e+000 -1.6325e+002 -2.2438e+001 38418 95192,94881,94855
 2.8000e+000 94933 -5.2656e+001 -1.4959e+002 -8.4244e+000 38418 94777,94829,94803
 2.8000e+000 95074 -2.9457e+001 -2.2549e+002 -4.7285e+000 38418 94855,94829,95048
 2.8000e+000 95097 -1.4037e+001 -1.8033e+002 -2.4517e+001 38418 95192,94855,95048
 2.8000e+000 95146 -3.0608e+001 -1.7495e+002 -1.7051e+001 38418 94907,95048,95120
 2.8000e+000 95169 -1.8602e+001 -1.6874e+002 -1.3274e+001 38418 94907,95120,94751
 2.8000e+000 95218 -1.4724e+001 -1.3168e+002 -2.0024e+001 38418 94907,94881,95192
 2.8000e+000 95241 -2.4672e+001 -1.5899e+002 -1.7638e+001 38418 94907,95192,95048
 2.8000e+000 95511 -6.2679e+001 -1.9501e+002  7.8180e+000 38049 95312,95390,95364
 2.8000e+000 95488 -4.7356e+001 -1.8897e+002  8.9134e+000 38049 95312,95416,95390
 2.8000e+000 95465 -2.2464e+001 -1.8463e+002 -1.2876e+001 38049 95312,95364,95338
 2.8000e+000 95442 -1.7879e+001 -1.7709e+002  1.7212e+001 38049 95286,95416,95312
 2.8000e+000 95808 -5.5323e+001 -2.1698e+002 -4.7781e+000 37437 95831,95586,95560
 2.8000e+000 95785  1.9852e+001 -2.2689e+002 -8.6439e+000 37437 95831,95560,95534
 2.8000e+000 95762 -1.0986e+002 -2.0548e+002  7.0491e+000 37437 95586,95664,95638
 2.8000e+000 95739 -1.6176e+001 -1.0463e+002 -5.4228e+001 37437 95534,95690,95664
 2.8000e+000 95716 -1.0311e+002 -1.4408e+002  5.7230e+000 37437 95586,95638,95612
 2.8000e+000 95857 -1.0402e+002 -2.0973e+002  2.5714e+001 37437 95664,95586,95831
 2.8000e+000 95880 -2.4572e+001 -2.1753e+002  2.2953e+001 37437 95664,95831,95534
 2.8000e+000 96390 -7.4762e+001 -1.5460e+002 -1.1777e+001 36883 96413,96145,96093
 2.8000e+000 96367 -6.5522e+001 -1.4875e+002 -4.3604e+000 36883 96413,96093,96067
 2.8000e+000 96344 -4.4015e+001 -1.7555e+002 -4.7765e+000 36883 96067,96249,96171
 2.8000e+000 96321 -6.0078e+001 -1.7215e+002 -8.4033e+000 36883 96093,96145,96119
 2.8000e+000 96298 -8.6268e+001 -2.8505e+002  2.8165e+001 36883 96171,96249,96197
 2.8000e+000 96275 -2.0730e+001 -2.3192e+002  1.6801e+000 36883 96197,96249,96223
 2.8000e+000 96439 -6.9075e+001 -1.4358e+002 -4.6940e+000 36883 96171,96145,96413
 2.8000e+000 96462 -6.3374e+001 -1.4508e+002  1.9546e+000 36883 96171,96413,96067
 2.8000e+000 96781 -4.9857e+000 -1.5652e+002 -3.5605e+001 36215 96559,96663,96637
 2.8000e+000 96758 -5.6068e+001 -1.5343e+002 -3.6725e+001 36215 96507,96663,96559
 2.8000e+000 96735 -3.3764e+001 -1.1677e+002  9.0093e+000 36215 96585,96637,96611
 2.8000e+000 96712 -1.1786e+002 -1.9394e+002 -2.9461e+001 36215 96559,96637,96585
 2.8000e+000 96689 -2.9944e+001 -2.0575e+002 -1.8850e+001 36215 96507,96559,96533
 2.8000e+000 97161  2.8074e+000 -9.7330e+001 -4.6356e+000 35818 97184,96965,96939
 2.8000e+000 97138 -1.2053e+001 -1.1540e+002 -1.2234e+001 35818 97184,96939,96887
 2.8000e+000 97115 -1.4421e+000 -1.2293e+002  2.3069e+001 35818 96965,97043,97017
 2.8000e+000 97092 -6.7681e+000 -1.0828e+002 -1.4677e+001 35818 96887,96939,96913
 2.8000e+000 97069 -6.2581e+001 -1.2733e+002  1.3793e+001 35818 96965,97017,96991
 2.8000e+000 97210  1.8985e+001 -1.1296e+002  5.8330e+000 35818 97043,96965,97184
 2.8000e+000 97233  6.8943e+000 -1.2557e+002 -3.6438e-001 35818 97043,97184,96887
 2.8000e+000 97739 -6.8041e+001 -1.9803e+002 -4.4369e+001 35214 97416,97468,97442
 2.8000e+000 97716 -7.6782e+001 -1.3790e+002 -1.3972e+001 35214 97416,97598,97468
 2.8000e+000 97693 -6.5113e+001 -1.3023e+002 -5.1007e+000 35214 97762,97520,97468
 2.8000e+000 97670 -6.8694e+001 -1.3402e+002 -1.0107e+001 35214 97762,97468,97598
 2.8000e+000 97647 -5.0631e+001 -1.2987e+002 -1.7123e+001 35214 97546,97598,97572
 2.8000e+000 97624 -4.2925e+001 -1.3280e+002 -7.3563e+000 35214 97468,97520,97494
 2.8000e+000 97788 -6.6931e+001 -1.3638e+002 -8.5540e+000 35214 97546,97520,97762
 2.8000e+000 97811 -6.8470e+001 -1.3919e+002 -1.3170e+001 35214 97546,97762,97598
 2.8000e+000 98189 -1.3104e+001 -1.0630e+002 -9.8684e+000 34760 98356,98212,97967
 2.8000e+000 98166 -2.8234e+001 -1.2871e+002 -1.9044e+001 34760 98284,98212,97941
 2.8000e+000 98143 -5.0716e+001 -1.1617e+002 -9.0129e+000 34760 98284,97941,97915
 2.8000e+000 98120 -1.4607e+001 -1.4200e+002 -4.9062e+000 34760 98484,97993,97967
 2.8000e+000 98097 -1.0758e+001 -1.1811e+002 -5.4038e+000 34760 98556,98045,98019
 2.8000e+000 98238 -2.2206e+001 -1.3324e+002 -5.4351e+000 34760 98484,97967,98212
 2.8000e+000 98261 -1.9014e+000 -1.2463e+002 -1.0078e+001 34760 98556,98019,98212
 2.8000e+000 98310 -8.8613e+000 -1.0610e+002 -2.8179e+001 34760 98071,98212,98284
 2.8000e+000 98333 -2.3882e+001 -7.5155e+001 -2.2707e+001 34760 98071,98284,97915
 2.8000e+000 98382 -6.8888e+001 -1.4221e+002 -2.6304e+001 34760 97941,98212,98356
 2.8000e+000 98510 -1.8915e+000 -1.3509e+002 -9.0870e+000 34760 98019,97993,98484
 2.8000e+000 98533 -1.4360e+001 -1.3027e+002 -8.8177e+000 34760 98019,98484,98212
 2.8000e+000 98582  2.0746e-001 -1.1030e+002 -1.9736e+000 34760 98071,98045,98556
 2.8000e+000 98605  3.6945e+000 -1.1982e+002 -8.0251e+000 34760 98071,98556,98212
 2.8000e+000 99032 -7.0889e+001 -1.6661e+002  2.3378e+001 34156 98735,98891,98839
 2.8000e+000 99009 -6.2135e+001 -1.7132e+002  1.2449e+001 34156 98709,98891,98735
 2.8000e+000 98986 -1.9064e+001 -1.5060e+002  2.4540e+001 34156 98735,98813,98787
 2.8000e+000 98963 -1.8197e+001 -1.5680e+002  1.6021e+001 34156 98735,98839,98813
 2.8000e+000 98940  5.8234e+000 -2.2177e+002  2.5982e+001 34156 98735,98787,98761
 2.8000e+000 98917 -6.1297e+001 -1.4169e+002  9.6280e+000 34156 98839,98891,98865
 2.8000e+000 99231 -2.1025e+001 -8.7181e+001  8.4431e+000 33766 99055,99133,99107
 2.8000e+000 99208 -3.7403e+001 -1.1418e+002  1.6323e+001 33766 99055,99159,99133
 2.8000e+000 99185 -1.0626e+001 -1.0589e+002  2.1436e+001 33766 99055,99107,99081
 2.8000e+000 99818 -4.6321e+001 -1.2979e+002  2.9871e+000 33248 99521,99651,99573
 2.8000e+000 99795 -4.5060e+001 -1.2307e+002  1.3845e+001 33248 99521,99677,99651
 2.8000e+000 99772 -6.8467e+001 -1.5875e+002 -7.6948e+000 33248 99573,99651,99599
 2.8000e+000 99749 -4.7625e+001 -1.5457e+002  1.4736e+001 33248 99495,99677,99521
 2.8000e+000 99726 -3.1756e+001 -1.3384e+002 -3.1405e+001 33248 99599,99651,99625
 2.8000e+000 99703 -6.1034e+001 -1.5957e+002  1.0725e+001 33248 99521,99573,99547
 2.8000e+000 100196 -4.7315e+001 -1.4000e+002 -2.5137e+001 32794 100219,99948,99922
 2.8000e+000 100173 -5.4125e+001 -1.5397e+002 -1.0866e+001 32794 100219,99922,100052
 2.8000e+000 100150 -7.1836e+001 -1.3985e+002  8.1169e+000 32794 99974,100052,100026
 2.8000e+000 100127 -6.5048e+001 -1.2577e+002 -1.8643e+001 32794 99922,100078,100052
 2.8000e+000 100104 -7.4744e+001 -1.6947e+002  3.1668e+001 32794 99974,100026,100000
 2.8000e+000 100245 -6.3527e+001 -1.3881e+002 -1.1771e+001 32794 99974,99948,100219
 2.8000e+000 100268 -6.6684e+001 -1.5692e+002  2.7197e+000 32794 99974,100219,100052
 2.8000e+000 100418 -7.3173e+000 -1.2685e+002 -2.0533e+001 32504 100571,100343,100317
 2.8000e+000 100395 -5.0668e+001 -1.4647e+002  7.5930e+000 32504 100571,100317,100441
 2.8000e+000 100467  3.5010e+001 -6.4554e+001 -4.9618e+001 32504 100291,100369,100441
 2.8000e+000 100597  1.2280e+001 -1.0510e+002 -5.4364e+001 32504 100369,100343,100571
 2.8000e+000 100620 -7.1842e+000 -9.7405e+001 -3.0038e+001 32504 100369,100571,100441
 2.8000e+000 101020 -2.3176e+001 -1.1593e+002  5.6410e+000 32142 100772,100902,100876
 2.8000e+000 100997 -1.6028e+001 -1.0727e+002  8.8724e+000 32142 100746,100902,100772
 2.8000e+000 100974 -8.7701e+000 -1.3376e+002  1.2832e+001 32142 101043,100824,100798
 2.8000e+000 100951 -2.5079e+001 -1.3945e+002  1.0593e+001 32142 101043,100798,100772
 2.8000e+000 100928 -7.5800e+001 -1.6063e+002 -3.7508e+001 32142 101115,100876,100850
 2.8000e+000 101069  1.4440e+001 -1.4154e+002 -1.4045e+001 32142 100850,100824,101043
 2.8000e+000 101092 -4.1399e+001 -1.6515e+002 -1.7918e+001 32142 101115,100850,101043
 2.8000e+000 101141 -3.3303e+001 -1.3648e+002 -1.3880e+001 32142 100772,100876,101115
 2.8000e+000 101164 -6.6082e+000 -1.3955e+002  7.5067e+000 32142 100772,101115,101043
 2.8000e+000 101719 -7.0624e+001 -1.6856e+002  2.0203e+001 31538 101742,101477,101399
 2.8000e+000 101696 -8.9221e+001 -2.0400e+002  3.4084e+000 31538 101814,101742,101399
 2.8000e+000 101673 -1.0333e+002 -1.7547e+002 -1.7086e+001 31538 101814,101399,101373
 2.8000e+000 101650 -7.2068e+001 -1.2308e+002  1.2468e+001 31538 101425,101477,101451
 2.8000e+000 101627 -6.8640e+001 -1.4323e+002  1.7602e+000 31538 101399,101477,101425
 2.8000e+000 101604 -3.5521e+001 -2.0693e+002  4.1718e+001 31538 101477,101529,101503
 2.8000e+000 101581 -2.8391e+001 -1.1752e+002 -1.2831e+001 31538 101347,101555,101373
 2.8000e+000 101768 -7.9011e+001 -2.0540e+002  1.8794e+001 31538 101529,101477,101742
 2.8000e+000 101791 -6.9292e+001 -2.1056e+002 -8.5731e+000 31538 101529,101742,101555
 2.8000e+000 101840 -5.4462e+001 -1.7533e+002 -9.5433e+000 31538 101555,101742,101814
 2.8000e+000 101863 -7.4400e+001 -1.5192e+002 -2.8282e+001 31538 101555,101814,101373
 2.8000e+000 102111 -9.5216e+001 -2.7566e+002  3.2305e+001 31112 101886,101990,101912
 2.8000e+000 102088 -3.0817e+001 -1.7909e+002 -3.1750e+000 31112 101886,102016,101990
 2.8000e+000 102065 -4.6532e+001 -2.6970e+002  4.9606e+001 31112 101912,101990,101964
 2.8000e+000 102042 -7.4329e+001 -3.2290e+002  6.0345e+001 31112 101912,101964,101938
 2.8000e+000 102408 -3.5382e+001 -1.6411e+002  1.4112e+001 30658 102431,102186,102160
 2.8000e+000 102385 -5.9605e+001 -1.6130e+002  1.7164e+000 30658 102431,102160,102264
 2.8000e+000 102362 -5.8816e+001 -1.7778e+002  5.1724e+000 30658 102186,102238,102212
 2.8000e+000 102339 -6.4863e+001 -1.7341e+002 -1.1102e+001 30658 102134,102264,102160
 2.8000e+000 102316 -4.3198e+001 -1.4485e+002 -4.7796e+001 30658 102134,102290,102264
 2.8000e+000 102457 -5.4941e+001 -1.7343e+002  8.5918e+000 30658 102238,102186,102431
 2.8000e+000 102480 -8.0954e+001 -1.7319e+002 -4.8401e+000 30658 102238,102431,102264
 2.8000e+000 102681 -2.4504e+001 -1.9539e+002  2.8122e+001 30004 102704,102557,102505
 2.8000e+000 102658 -2.8116e+001 -2.0118e+002  3.0664e+001 30004 102704,102505,102609
 2.8000e+000 102635  2.2654e-001 -1.6723e+002  6.5089e+000 30004 102505,102557,102531
 2.8000e+000 102730 -2.8770e+001 -1.8646e+002  2.4804e+001 30004 102583,102557,102704
 2.8000e+000 102753 -3.8065e+001 -1.9445e+002  2.9407e+001 30004 102583,102704,102609
 2.8000e+000 103003 -2.5067e+001 -1.5430e+002 -1.1239e+001 29564 103026,102804,102778
 2.8000e+000 102980 -3.1609e+001 -1.7814e+002 -1.4376e+001 29564 103026,102778,102908
 2.8000e+000 102957  4.1295e+000 -1.4667e+002  1.5014e+001 29564 102856,102908,102882
 2.8000e+000 102934 -4.3357e+001 -1.4862e+002  8.2770e+000 29564 102804,102856,102830
 2.8000e+000 103052 -2.6424e+001 -1.4369e+002  4.9744e+000 29564 102856,102804,103026
 2.8000e+000 103075 -3.3313e+001 -1.6227e+002 -3.3235e-001 29564 102856,103026,102908
 2.8000e+000 103634 -7.5004e+001 -1.9098e+002 -2.5688e+001 29160 103657,103418,103392
 2.8000e+000 103611 -7.0722e+001 -1.8315e+002 -1.1833e+001 29160 103657,103392,103314
 2.8000e+000 103588 -4.3147e+001 -1.5800e+002 -2.2720e+001 29160 103314,103392,103366
 2.8000e+000 103565 -4.7553e+001 -1.7288e+002 -2.0829e+001 29160 103314,103366,103340
 2.8000e+000 103542 -9.1671e+001 -1.7944e+002 -2.2272e+001 29160 103262,103444,103314
 2.8000e+000 103519 -1.0931e+002 -2.1422e+002 -3.1571e+001 29160 103262,103314,103288
 2.8000e+000 103496 -7.0861e+001 -1.9426e+002 -1.1074e+001 29160 103262,103470,103444
 2.8000e+000 103683 -9.5969e+001 -2.0709e+002 -4.0527e+001 29160 103444,103418,103657
 2.8000e+000 103706 -7.9102e+001 -1.8226e+002 -2.4574e+001 29160 103444,103657,103314
 2.8000e+000 104035 -5.5428e+001 -1.6217e+002  1.5029e+001 28770 103836,103914,103862
 2.8000e+000 104012 -4.8835e+001 -1.6166e+002  1.4166e+001 28770 103810,103914,103836
 2.8000e+000 103989  8.4330e+000 -1.5112e+002  2.4817e+001 28770 103810,103940,103914
 2.8000e+000 103966 -1.3154e+001 -1.4060e+002  3.4346e+001 28770 103862,103914,103888
 2.8000e+000 104185 -2.4832e+001 -1.7531e+002  3.1950e+001 28366 104208,104110,104084
 2.8000e+000 104162 -1.9984e+001 -1.4755e+002  2.7118e+001 28366 104280,104208,104084
 2.8000e+000 104234  2.5201e+001 -1.7272e+002  1.9202e+001 28366 104610,104208,104136
 2.8000e+000 104257 -3.8317e+001 -1.6528e+002  1.9815e+001 28366 104538,104410,104208
 2.8000e+000 104306 -5.8907e+001 -1.6753e+002  1.9528e+001 28366 104538,104208,104280
 2.8000e+000 104436 -1.7914e+001 -1.7440e+002  2.5995e+000 28366 104136,104208,104410
 2.8000e+000 104564 -5.9863e+001 -1.6393e+002  8.8578e+000 28366 104058,104410,104538
 2.8000e+000 104587 -7.2468e+001 -1.6136e+002  7.1196e+000 28366 104058,104538,104280
 2.8000e+000 104636  1.5730e+001 -1.7540e+002  2.5469e+001 28366 104110,104208,104610
 2.8000e+000 105349 -3.7178e+001 -1.4187e+002 -1.5529e+001 27976 105516,105372,105107
 2.8000e+000 105326 -6.1241e+001 -1.4233e+002  2.5400e+000 27976 105588,105372,105055
 2.8000e+000 105303 -6.0972e+001 -1.3746e+002 -1.7049e+001 27976 105444,105159,105133
 2.8000e+000 105280 -2.1664e+001 -1.4736e+002 -9.7389e+000 27976 105516,105107,105081
 2.8000e+000 105257 -5.8104e+001 -1.5635e+002  1.0756e+001 27976 105588,105055,105029
 2.8000e+000 105234 -2.6660e+001 -1.1770e+002  1.0493e+000 27976 105003,105185,105159
 2.8000e+000 105211 -3.8676e+001 -9.3178e+001  1.8149e+001 27976 104977,105185,105003
 2.8000e+000 105398 -2.9220e+001 -1.4352e+002 -1.9886e+001 27976 105133,105107,105372
 2.8000e+000 105421 -4.9565e+001 -1.4933e+002 -1.0327e+001 27976 105444,105133,105372
 2.8000e+000 105470 -5.1462e+001 -1.1882e+002 -1.0050e+001 27976 105003,105159,105444
 2.8000e+000 105493 -4.2261e+001 -1.3106e+002 -6.9897e+000 27976 105003,105444,105372
 2.8000e+000 105542 -2.6715e+001 -1.3994e+002 -2.7311e+000 27976 105055,105372,105516
 2.8000e+000 105565 -3.5970e+000 -1.4248e+002  1.5036e+000 27976 105055,105516,105081
 2.8000e+000 105614 -6.8336e+001 -1.5622e+002  9.3612e+000 27976 105003,105372,105588
 2.8000e+000 105637 -6.7048e+001 -1.6974e+002  1.8414e+001 27976 105003,105588,105029
 2.8000e+000 106143 -7.4559e+001 -2.2665e+002  1.3751e+001 27664 106166,105846,105820
 2.8000e+000 106120 -5.5091e+001 -1.7632e+002  6.9057e+000 27664 106310,106166,105820
 2.8000e+000 106097 -2.9736e+001 -2.0844e+002 -3.5540e+001 27664 106382,106238,105950
 2.8000e+000 106074 -3.6681e+001 -1.7264e+002  7.2572e+000 27664 106310,105820,106002
 2.8000e+000 106051  8.1499e+000 -1.8592e+002 -2.5191e+001 27664 106382,105950,105924
 2.8000e+000 106028 -2.4950e+001 -3.2486e+002 -8.4337e+000 27664 105846,105898,105872
 2.8000e+000 106192 -7.1862e+001 -2.5290e+002 -3.0592e+001 27664 105898,105846,106166
 2.8000e+000 106215 -4.6813e+001 -2.1270e+002 -8.1123e+000 27664 106238,105898,106166
 2.8000e+000 106264 -1.1657e+002 -2.3038e+002 -4.9138e+001 27664 105976,105950,106238
 2.8000e+000 106287 -4.3158e+001 -2.1130e+002 -8.9145e+000 27664 105976,106238,106166
 2.8000e+000 106336 -3.6524e+001 -1.8690e+002  2.3926e+001 27664 105976,106166,106310
 2.8000e+000 106359 -1.5336e+001 -1.8175e+002  2.3564e+001 27664 105976,106310,106002
 2.8000e+000 106408 -4.5002e+001 -1.7143e+002  7.2544e+000 27664 105898,106238,106382
 2.8000e+000 106431 -2.2963e+001 -1.6001e+002  1.4244e+001 27664 105898,106382,105924
 2.8000e+000 106728 -2.5394e+001 -1.2200e+002  2.5212e+001 27153 106751,106506,106454
 2.8000e+000 106705 -2.3294e+001 -1.2330e+002  1.8422e+001 27153 106751,106454,106610
 2.8000e+000 106682 -3.6549e+001 -9.5790e+001  8.6408e+000 27153 106454,106506,106480
 2.8000e+000 106659 -3.2868e+001 -1.2014e+002  9.8194e+000 27153 106532,106610,106584
 2.8000e+000 106636 -4.7886e+001 -6.9565e+001  2.3776e+001 27153 106532,106584,106558
 2.8000e+000 106777 -1.6155e+001 -1.2220e+002  2.6141e+001 27153 106532,106506,106751
 2.8000e+000 106800 -1.5354e+001 -1.2273e+002  1.8015e+001 27153 106532,106751,106610
 2.8000e+000 107180 -3.6366e+001 -1.5343e+002  8.8347e+000 26642 107203,106984,106958
 2.8000e+000 107157 -8.0598e+001 -1.7373e+002  2.6280e+000 26642 107203,106958,106932
 2.8000e+000 107134 -9.5311e+001 -1.9068e+002 -2.2509e+001 26642 107275,107036,107010
 2.8000e+000 107111 -6.0550e+001 -1.8665e+002 -3.0711e+001 26642 106932,107062,107036
 2.8000e+000 107088 -2.0601e+000 -1.4617e+002  1.7724e+001 26642 106906,107062,106932
 2.8000e+000 107229 -1.2480e+001 -1.4208e+002 -4.0562e+001 26642 107010,106984,107203
 2.8000e+000 107252 -8.4713e+001 -1.7633e+002 -2.8182e+001 26642 107275,107010,107203
 2.8000e+000 107301 -8.2633e+001 -1.8878e+002 -3.0378e+001 26642 106932,107036,107275
 2.8000e+000 107324 -7.9114e+001 -1.8905e+002 -3.2129e+001 26642 106932,107275,107203
 2.8000e+000 107675 -3.7306e+001 -1.0334e+002  1.0189e+001 26045 107450,107554,107476
 2.8000e+000 107652 -2.3922e+001 -8.6484e+001  1.1697e+000 26045 107450,107580,107554
 2.8000e+000 107629 -1.2734e+001 -8.1189e+001 -2.1157e-001 26045 107476,107528,107502
 2.8000e+000 107606 -6.1008e+000 -9.6106e+001  4.8643e+000 26045 107476,107554,107528
 2.8000e+000 107874 -2.7220e+001 -1.5761e+002  3.9403e+001 25641 107750,107802,107776
 2.8000e+000 107851 -3.4555e+001 -1.1577e+002  2.2032e+001 25641 107724,107802,107750
 2.8000e+000 107828 -3.9257e+001 -1.2107e+002  1.7484e+001 25641 107698,107802,107724
 2.8000e+000 108431 -1.1941e+001 -1.6736e+002  3.1375e+001 25023 108526,108267,108241
 2.8000e+000 108408 -3.2665e-001 -1.5267e+002  5.7450e+000 25023 108059,108267,108085
 2.8000e+000 108385 -2.2032e+001 -1.8159e+002  2.8073e+001 25023 108454,108163,108111
 2.8000e+000 108362 -7.6878e+001 -1.7855e+002  5.3784e+001 25023 108454,108111,108085
 2.8000e+000 108339 -6.3949e+001 -2.3061e+002  4.8963e+001 25023 108111,108163,108137
 2.8000e+000 108316 -3.8931e+001 -1.3030e+002 -8.7463e+000 25023 108163,108241,108215
 2.8000e+000 108293  2.1518e+001 -1.0338e+002 -2.3387e+000 25023 108163,108215,108189
 2.8000e+000 108480 -2.2402e+000 -1.5791e+002  2.2050e+000 25023 108241,108163,108454
 2.8000e+000 108503 -2.2147e+001 -1.6807e+002  3.2181e+001 25023 108526,108241,108454
 2.8000e+000 108552 -2.5434e+001 -1.6133e+002  2.4818e+001 25023 108085,108267,108526
 2.8000e+000 108575 -3.6036e+001 -1.6240e+002  2.5443e+001 25023 108085,108526,108454
 2.8000e+000 108823 -1.0953e+001 -1.3025e+002  1.9883e+001 24461 108624,108728,108650
 2.8000e+000 108800 -2.4386e+001 -2.6936e+002 -1.6446e+001 24461 108598,108728,108624
 2.8000e+000 108777 -3.7512e+000 -1.7136e+002  1.7651e+001 24461 108650,108728,108676
 2.8000e+000 108754 -7.8815e+001 -4.7513e+002  4.2713e+001 24461 108676,108728,108702
 2.8000e+000 109022 -4.3807e+001 -1.3118e+002  1.1542e+001 24121 108872,108924,108898
 2.8000e+000 108999 -3.7163e+001 -1.3540e+002  1.1321e+001 24121 108846,108924,108872
 2.8000e+000 108976 -1.2195e+001 -1.3350e+002  3.2819e+001 24121 108846,108950,108924
 2.8000e+000 109483 -5.6661e+001 -1.8325e+002 -1.8363e+001 23717 109209,109339,109235
 2.8000e+000 109460 -2.3116e+001 -2.0850e+002 -4.2847e+001 23717 109209,109365,109339
 2.8000e+000 109437 -8.3105e+000 -2.2626e+002 -1.3043e+001 23717 109287,109339,109313
 2.8000e+000 109414 -1.0655e+002 -2.2998e+002  9.8364e+000 23717 109235,109339,109287
 2.8000e+000 109391 -9.6644e+000 -2.6954e+002  8.7508e+001 23717 109235,109287,109261
 2.8000e+000 109910 -7.1343e+001 -2.0978e+002 -2.2318e+001 23305 109613,109743,109717
 2.8000e+000 109887 -7.4116e+001 -2.1259e+002 -1.3254e+001 23305 109613,109769,109743
 2.8000e+000 109864 -8.7877e+001 -2.0459e+002 -1.8401e+001 23305 109613,109717,109639
 2.8000e+000 109841 -5.6989e+001 -1.9729e+002 -4.6841e+000 23305 109587,109769,109613
 2.8000e+000 109818  1.2052e+001 -1.6204e+002  2.1299e+001 23305 109639,109717,109691
 2.8000e+000 109795 -1.8658e+001 -1.3003e+002 -2.8604e+001 23305 109639,109691,109665
 2.8000e+000 110180 -2.8732e+000 -5.8904e+001 -1.3373e+001 22851 110007,110059,110033
 2.8000e+000 110157 -4.1067e+001 -1.6305e+002  7.5505e+000 22851 109981,110059,110007
 2.8000e+000 110134 -5.8401e+001 -1.7647e+002  1.1100e+000 22851 109955,110059,109981
 2.8000e+000 110111 -2.3395e+001 -1.9492e+002 -1.4749e+001 22851 109955,110085,110059
 2.8000e+000 110737 -4.9358e+001 -1.9626e+002 -3.7330e+001 22333 110760,110469,110391
 2.8000e+000 110714 -4.9747e+000 -2.0655e+002 -3.4038e+001 22333 110760,110391,110365
 2.8000e+000 110691 -1.9991e+000 -1.9160e+002 -3.0632e+001 22333 110832,110521,110469
 2.8000e+000 110668 -2.7468e+000 -3.1789e+002 -4.5304e-001 22333 110417,110469,110443
 2.8000e+000 110645 -9.9752e+001 -2.9363e+002 -3.5576e+000 22333 110391,110469,110417
 2.8000e+000 110622  4.1306e+001 -1.6569e+002 -5.1706e+001 22333 110469,110521,110495
 2.8000e+000 110599  1.4260e+000 -1.2486e+002  4.0789e+000 22333 110365,110573,110547
 2.8000e+000 110786 -1.4265e+001 -1.8934e+002 -2.5577e+001 22333 110832,110469,110760
 2.8000e+000 110809  8.6978e+000 -2.0166e+002 -2.5240e+001 22333 110547,110760,110365
 2.8000e+000 110858  2.9086e+001 -1.9055e+002 -4.0353e+001 22333 110547,110521,110832
 2.8000e+000 110881  4.3850e-001 -1.9578e+002 -3.9825e+001 22333 110547,110832,110760
 2.8000e+000 111308 -1.0048e+002 -2.2878e+002  1.2442e+001 21829 111331,111063,111011
 2.8000e+000 111285 -9.8380e+001 -2.1673e+002 -2.8677e+000 21829 111331,111011,111167
 2.8000e+000 111262 -1.0545e+002 -2.2796e+002  1.0717e+001 21829 111403,111089,111063
 2.8000e+000 111239 -1.2348e+002 -2.3177e+002  3.2774e+001 21829 111011,111063,111037
 2.8000e+000 111216 -7.0123e+001 -1.6696e+002  8.9474e+000 21829 110985,111167,111011
 2.8000e+000 111193 -1.1997e+002 -3.6822e+002  7.3754e+001 21829 111089,111141,111115
 2.8000e+000 111357 -1.0265e+002 -2.3018e+002  1.0702e+001 21829 111403,111063,111331
 2.8000e+000 111380 -1.0717e+002 -2.4005e+002 -2.9226e+000 21829 111141,111331,111167
 2.8000e+000 111429 -1.0875e+002 -2.3120e+002  1.3385e+001 21829 111141,111089,111403
 2.8000e+000 111452 -1.0531e+002 -2.3483e+002  1.2253e+001 21829 111141,111403,111331
 2.8000e+000 112056  5.2044e+001 -1.7967e+002  4.0820e+000 21489 111687,111765,111739
 2.8000e+000 112033  7.8830e+000 -2.0807e+002  2.1130e+001 21489 112151,112079,111687
 2.8000e+000 112010 -1.2576e+001 -3.1968e+002  2.1843e+001 21489 111791,111843,111817
 2.8000e+000 111987 -6.3338e+001 -2.5766e+002 -1.6567e+001 21489 112079,111843,111791
 2.8000e+000 111964  3.7918e+001 -1.9357e+002  3.8917e+001 21489 112151,111687,111661
 2.8000e+000 111941 -2.3203e+001 -1.4101e+002  3.4326e+001 21489 111661,111869,111843
 2.8000e+000 111918  6.1290e+001 -1.9025e+002  2.6202e+001 21489 111687,111739,111713
 2.8000e+000 111895  4.7527e+000 -7.6169e+001  1.3249e+001 21489 111635,111869,111661
 2.8000e+000 112105 -4.0251e+001 -2.2145e+002  1.3675e+001 21489 111765,111687,112079
 2.8000e+000 112128 -4.2452e+001 -2.1544e+002  1.5845e+001 21489 111765,112079,111791
 2.8000e+000 112177 -4.2701e+001 -2.0504e+002 -4.3336e+000 21489 111843,112079,112151
 2.8000e+000 112200 -1.5272e+001 -1.9946e+002  1.0129e+001 21489 111843,112151,111661
 2.8000e+000 112578 -5.0815e+001 -2.5813e+002  1.1344e+001 21177 112382,112434,112408
 2.8000e+000 112555 -6.2291e+001 -2.5725e+002  7.3555e-001 21177 112330,112434,112382
 2.8000e+000 112532 -5.1110e+001 -2.2269e+002  3.7251e+001 21177 112304,112434,112330
 2.8000e+000 112509 -6.1301e+001 -2.4851e+002  0.0000e+000 21177 112330,112382,112356
 2.8000e+000 112486 -1.4818e+001 -1.4875e+002  8.5032e+000 21177 112304,112460,112434
 2.8000e+000 112679 -2.0190e+000 -1.8021e+002 -2.9779e+001 20666 112601,112653,112627
 2.8000e+000 112927 -7.1239e+001 -2.4328e+002  7.3241e+000 19762 112702,112754,112728
 2.8000e+000 112904 -2.7488e+001 -2.2888e+002 -3.9622e+000 19762 112702,112832,112754
 2.8000e+000 112881 -6.0344e+001 -2.4338e+002  3.8052e+001 19762 112754,112832,112806
 2.8000e+000 112858 -8.5289e+001 -3.0653e+002  3.7077e+001 19762 112754,112806,112780
 2.8000e+000 113297 -6.6211e+001 -2.8713e+002  1.8270e+001 19308 112974,113052,113026
 2.8000e+000 113274 -4.3599e+001 -2.4033e+002  5.6773e+000 19308 112974,113156,113052
 2.8000e+000 113251 -2.2892e+001 -3.1895e+002 -3.8584e+001 19308 113052,113130,113104
 2.8000e+000 113228 -4.7135e+001 -2.3985e+002 -1.3291e-001 19308 113052,113156,113130
 2.8000e+000 113205 -4.4983e+001 -2.7766e+002  0.0000e+000 19308 113052,113104,113078
 2.8000e+000 113182 -9.2303e+001 -2.9501e+002 -8.6637e-001 19308 112974,113026,113000
 2.8000e+000 113547 -1.9056e+001 -2.5973e+002 -1.6796e+001 18711 113570,113374,113348
 2.8000e+000 113524 -2.9314e+001 -2.3904e+002 -1.0141e+001 18711 113570,113348,113452
 2.8000e+000 113501 -2.2303e+001 -1.8229e+002 -4.9244e+001 18711 113322,113452,113348
 2.8000e+000 113478 -3.3965e+001 -2.3309e+002 -8.0959e+001 18711 113374,113426,113400
 2.8000e+000 113596 -1.3333e+001 -2.3745e+002 -2.2725e+001 18711 113426,113374,113570
 2.8000e+000 113619 -2.6980e+001 -2.2132e+002 -1.1936e+001 18711 113426,113570,113452
 2.8000e+000 113771 -1.2820e+002 -3.2138e+002 -1.7313e+001 18307 113670,113722,113696
 2.8000e+000 113748 -1.0145e+002 -3.0026e+002 -7.8939e+000 18307 113644,113722,113670
 2.8000e+000 113972 -5.2708e+001 -2.6509e+002  3.5086e+000 17945 113822,113874,113848
 2.8000e+000 113949 -5.6520e+001 -2.6282e+002  5.6182e+000 17945 113822,113900,113874
 2.8000e+000 113926 -8.1585e+001 -2.0384e+002  1.2210e+002 17945 113796,113900,113822
 2.8000e+000 114075 -3.7525e+001 -4.0276e+002  4.4239e+001 17482 113997,114049,114023
 2.8000e+000 114479 -1.6131e+001 -2.2121e+002 -3.5734e+001 17042 114257,114361,114335
 2.8000e+000 114456 -5.3702e+001 -2.1266e+002 -6.6478e+000 17042 114205,114361,114257
 2.8000e+000 114433 -6.5652e+001 -2.4555e+002  7.9469e+000 17042 114205,114257,114231
 2.8000e+000 114410  5.4374e+001 -3.2695e+002 -2.2433e+001 17042 114283,114335,114309
 2.8000e+000 114387 -1.7829e+000 -2.8526e+002 -1.4654e+001 17042 114257,114335,114283
 2.8000e+000 114879 -1.1956e+002 -2.3943e+002 -1.6923e+000 16638 114631,114683,114657
 2.8000e+000 114856 -6.9937e+000 -1.9171e+002 -6.0120e-001 16638 114605,114683,114631
 2.8000e+000 114833  9.3773e+000 -1.3851e+002  1.1658e+000 16638 114605,114761,114683
 2.8000e+000 114810  3.7107e+001 -2.2740e+002 -2.1845e+001 16638 114683,114735,114709
 2.8000e+000 114787 -5.6463e+001 -2.5580e+002 -2.6177e+001 16638 114683,114761,114735
 2.8000e+000 115078 -1.2148e+002 -2.6268e+002  6.5959e+000 16232 114954,115006,114980
 2.8000e+000 115055 -1.1408e+002 -2.8048e+002  9.1404e+000 16232 114928,115006,114954
 2.8000e+000 115032 -5.1082e+001 -3.6603e+002  2.0197e+001 16232 114902,115006,114928
 2.8000e+000 115228 -6.8285e+001 -2.4987e+002  6.1824e+000 15482 115101,115153,115127
 2.8000e+000 115205 -6.7701e+001 -2.4157e+002 -1.6586e+000 15482 115101,115179,115153
 2.8000e+000 115331 -6.4280e+001 -2.4605e+002 -2.8114e+001 15163 115253,115305,115279
 2.8000e+000 115434 -7.8915e+001 -2.5211e+002  3.6237e+001 421 115356,115408,115382
 2.9000e+000 68213 -8.9987e+000 -1.4905e+002 -1.0549e+001 67888 68112,68164,68138
 2.9000e+000 68190 -1.2422e+002 -1.8637e+002 -1.4354e+001 67888 68086,68164,68112
 2.9000e+000 68314 -2.4018e+001 -2.7036e+002  3.2926e+001 67576 68236,68288,68262
 2.9000e+000 68584 -6.4215e+001 -3.4139e+002  1.2244e+001 67378 68385,68489,68463
 2.9000e+000 68561  6.6501e+001 -2.8687e+002  9.6779e+000 67378 68359,68489,68385
 2.9000e+000 68538 -5.7111e+001 -2.9916e+002  1.5163e+001 67378 68385,68463,68411
 2.9000e+000 68515 -3.4037e+001 -1.9206e+002  7.4093e+000 67378 68411,68463,68437
 2.9000e+000 68964 -6.9511e+001 -3.0975e+002  4.8109e+001 67130 68690,68820,68716
 2.9000e+000 68941  7.6413e+001 -3.2023e+002  9.0686e+001 67130 68690,68846,68820
 2.9000e+000 68918 -6.2178e+001 -2.0285e+002  6.1042e+000 67130 68742,68820,68794
 2.9000e+000 68895 -6.3816e+000 -2.0127e+002  1.9689e+001 67130 68716,68820,68742
 2.9000e+000 68872 -3.8416e+001 -1.6838e+002 -1.9124e+001 67130 68742,68794,68768
 2.9000e+000 69065 -5.9114e+001 -1.9189e+002  3.8285e+000 66926 68987,69039,69013
 2.9000e+000 69445 -3.4721e+001 -1.8720e+002 -7.5638e+000 66614 69223,69301,69275
 2.9000e+000 69422 -5.8891e+001 -1.9741e+002 -6.2666e+000 66614 69171,69301,69223
 2.9000e+000 69399 -7.0457e+001 -1.9747e+002 -5.7855e-001 66614 69171,69327,69301
 2.9000e+000 69376 -1.2669e+001 -1.0017e+002  1.6375e+000 66614 69223,69275,69249
 2.9000e+000 69353 -4.6295e+001 -2.0643e+002 -4.4932e+000 66614 69171,69223,69197
 2.9000e+000 69546 -4.9451e+001 -2.8037e+002  1.7207e+001 66416 69468,69520,69494
 2.9000e+000 69997 -4.0295e+001 -2.8522e+002 -2.8406e+001 66104 69700,69830,69726
 2.9000e+000 69974 -5.0155e+001 -3.6611e+002 -5.7706e+001 66104 69700,69856,69830
 2.9000e+000 69951 -4.9509e+001 -2.1732e+002 -1.6941e+001 66104 69726,69804,69778
 2.9000e+000 69928 -3.7030e+001 -2.6583e+002 -2.3376e+001 66104 69726,69830,69804
 2.9000e+000 69905 -5.3932e+001 -2.0724e+002 -8.6908e+000 66104 69726,69778,69752
 2.9000e+000 69882 -1.2760e+001 -5.4572e+002 -9.5155e+001 66104 69674,69856,69700
 2.9000e+000 70326 -4.8295e+001 -1.2241e+002 -1.6675e+001 65814 70349,70153,70127
 2.9000e+000 70303  3.3405e-001 -1.2316e+002 -2.6273e+000 65814 70349,70127,70101
 2.9000e+000 70280  3.7458e+001 -6.7300e+001  6.8228e+001 65814 70101,70231,70205
 2.9000e+000 70257  5.4622e+001 -1.3290e+002  1.8383e+001 65814 70153,70205,70179
 2.9000e+000 70375 -2.4768e+001 -1.2883e+002  1.8454e+001 65814 70205,70153,70349
 2.9000e+000 70398  4.5605e+001 -1.2084e+002  2.7870e+001 65814 70205,70349,70101
 2.9000e+000 70904 -1.4894e+001 -6.2127e+001 -2.2386e+001 65502 70607,70737,70685
 2.9000e+000 70881 -1.9908e+001 -4.6954e+001 -2.9920e+001 65502 70581,70737,70607
 2.9000e+000 70858 -1.9351e+001 -1.9911e+000 -4.6259e+000 65502 70581,70763,70737
 2.9000e+000 70835 -3.1179e+001 -7.1165e+001 -3.0565e+001 65502 70685,70737,70711
 2.9000e+000 70812 -1.0371e+002 -8.2271e+001 -3.7992e+000 65502 70607,70659,70633
 2.9000e+000 70789 -2.8294e+001 -8.6801e+001 -1.4692e+000 65502 70607,70685,70659
 2.9000e+000 71103 -2.8714e+001 -2.5527e+002 -7.3437e+000 65304 71126,70979,70953
 2.9000e+000 71080 -4.9625e+001 -2.6139e+002 -2.4634e+000 65304 71126,70953,70927
 2.9000e+000 71057 -7.4003e+001 -2.6300e+002  1.7417e+001 65304 70927,71031,71005
 2.9000e+000 71152 -5.1518e+001 -2.3242e+002 -1.2960e+001 65304 71005,70979,71126
 2.9000e+000 71175 -7.9285e+001 -2.4712e+002 -2.6062e+000 65304 71005,71126,70927
 2.9000e+000 71374 -6.1340e-001 -2.4600e+002  1.2595e+001 65106 71198,71276,71224
 2.9000e+000 71351 -7.3353e+001 -2.6780e+002  4.9747e+000 65106 71198,71302,71276
 2.9000e+000 71328  1.9629e+001 -1.9495e+002  2.8239e+001 65106 71224,71276,71250
 2.9000e+000 71756 -2.5267e+001 -1.6369e+002 -1.3454e+001 64652 71508,71638,71534
 2.9000e+000 71733  5.6130e-001 -1.5228e+002  1.5378e+000 64652 71482,71638,71508
 2.9000e+000 71710 -5.2204e+001 -1.4424e+002 -6.1161e+000 64652 71534,71586,71560
 2.9000e+000 71687 -3.3841e+001 -1.6812e+002 -3.3281e+001 64652 71534,71612,71586
 2.9000e+000 71664 -7.8341e+001 -1.8382e+002 -3.2914e+001 64652 71534,71638,71612
 2.9000e+000 72085 -5.8739e+001 -1.7987e+002 -2.7205e+001 64248 71886,71964,71912
 2.9000e+000 72062 -6.2415e+001 -1.8377e+002 -2.4626e+001 64248 71860,71964,71886
 2.9000e+000 72039 -1.8116e+001 -1.6921e+002 -1.6095e+001 64248 71912,71964,71938
 2.9000e+000 72016 -3.3089e+001 -1.7574e+002 -3.4854e+001 64248 71860,71990,71964
 2.9000e+000 72235 -2.2133e+000 -1.0981e+002 -1.4529e+001 63858 72588,72258,72134
 2.9000e+000 72212 -6.7619e+000 -5.9944e+001  1.9601e+001 63858 72330,72258,72108
 2.9000e+000 72284 -3.3066e+000 -6.4960e+001 -5.1485e+000 63858 72160,72134,72258
 2.9000e+000 72307 -5.5744e+001 -1.0086e+002 -1.0050e+001 63858 72460,72258,72186
 2.9000e+000 72356 -4.3479e+001 -9.1832e+001 -4.9329e+000 63858 72186,72258,72330
 2.9000e+000 72486 -1.4999e+001 -9.5579e+001 -7.1346e+000 63858 72160,72258,72460
 2.9000e+000 72614  1.4519e+001 -1.1411e+002  1.6574e+001 63858 72108,72258,72588
 2.9000e+000 73248 -1.9647e+001 -1.7185e+002  5.3963e+001 63404 72902,72954,72928
 2.9000e+000 73225 -8.1498e+001 -1.9060e+002  2.6330e+001 63404 73271,72954,72902
 2.9000e+000 73202 -6.7144e+001 -1.4814e+002  2.1803e+001 63404 73271,72902,73032
 2.9000e+000 73179 -4.1209e+001 -1.2726e+002  9.1759e+000 63404 72902,73058,73032
 2.9000e+000 73156 -5.1102e+001 -1.5819e+002  4.0053e+000 63404 72980,73032,73006
 2.9000e+000 73133 -4.1014e+001 -1.2853e+002  8.6508e+000 63404 72876,73058,72902
 2.9000e+000 73110 -1.5550e+001 -5.9356e+001 -3.0700e+001 63404 72876,73084,73058
 2.9000e+000 73297 -6.3655e+001 -1.9582e+002 -1.8566e-001 63404 72980,72954,73271
 2.9000e+000 73320 -6.0312e+001 -1.7339e+002 -6.4891e-001 63404 72980,73271,73032
 2.9000e+000 73470 -6.8958e+001 -4.6905e+002  4.8932e+001 63014 73343,73395,73369
 2.9000e+000 73447 -2.1976e+002 -5.8059e+002 -1.2118e+001 63014 73343,73421,73395
 2.9000e+000 73929  5.6200e+001 -2.0423e+002  2.9050e+001 62702 73759,73811,73785
 2.9000e+000 73906  6.3252e+001 -2.0453e+002  2.0398e+001 62702 73655,73811,73759
 2.9000e+000 73883  1.3697e+001 -2.4473e+002 -2.3605e+000 62702 73655,73759,73681
 2.9000e+000 73860  4.9009e+001 -1.7389e+002 -4.7124e+001 62702 73681,73759,73707
 2.9000e+000 73837 -7.5653e+001 -2.0088e+002  2.7701e+000 62702 73707,73759,73733
 2.9000e+000 74209 -1.2003e+002 -2.1192e+002 -1.0964e+000 62404 74059,74137,74085
 2.9000e+000 74186 -1.4280e+002 -2.8746e+002  3.5108e+001 62404 74033,74137,74059
 2.9000e+000 74163 -1.2761e+002 -1.9164e+002 -1.6596e+000 62404 74085,74137,74111
 2.9000e+000 74408  9.9910e+000 -1.8290e+002  1.6700e+001 62000 74258,74336,74284
 2.9000e+000 74385 -3.8060e+000 -1.8604e+002  2.3890e+001 62000 74232,74336,74258
 2.9000e+000 74362 -3.4240e+001 -1.6158e+002  2.9648e+000 62000 74284,74336,74310
 2.9000e+000 74509 -1.1047e+000 -2.5173e+002  3.6780e+001 61802 74431,74483,74457
 2.9000e+000 74759 -6.1193e+001 -1.9001e+002 -1.7958e+000 61554 74782,74586,74560
 2.9000e+000 74736 -2.9665e+001 -1.6899e+002  7.8694e+000 61554 74782,74560,74664
 2.9000e+000 74713 -5.3056e+001 -1.2623e+002  7.0848e+001 61554 74854,74612,74586
 2.9000e+000 74690 -4.4212e+001 -1.8679e+002 -8.9369e-001 61554 74534,74664,74560
 2.9000e+000 74808 -8.4311e+001 -1.6919e+002  1.7155e+001 61554 74854,74586,74782
 2.9000e+000 74831 -3.5614e+001 -2.1885e+002  1.2452e+001 61554 74638,74782,74664
 2.9000e+000 74880  1.6182e+001 -1.7011e+002  7.4776e+001 61554 74638,74612,74854
 2.9000e+000 74903  1.5286e+001 -1.6412e+002  3.4280e+001 61554 74638,74854,74782
 2.9000e+000 75285  2.1353e+001 -2.1015e+002 -7.3857e-001 61356 75063,75167,75115
 2.9000e+000 75262  4.2587e+000 -2.3257e+002 -2.2838e+001 61356 75037,75167,75063
 2.9000e+000 75239  3.3281e+001 -2.1472e+002 -9.4135e-001 61356 75115,75167,75141
 2.9000e+000 75216  8.1947e+000 -2.1292e+002 -4.5953e-001 61356 75063,75115,75089
 2.9000e+000 75193 -8.3624e+001 -1.5146e+002  2.1384e+001 61356 75011,75167,75037
 2.9000e+000 75631  1.0385e+001 -1.7443e+002  9.3315e+000 60952 75654,75412,75360
 2.9000e+000 75608  1.0507e+001 -1.9995e+002  1.7182e-001 60952 75654,75360,75334
 2.9000e+000 75585 -1.4208e+001 -2.5660e+002  1.2591e+001 60952 75726,75438,75412
 2.9000e+000 75562  3.9819e+001 -1.8132e+002 -4.0256e+001 60952 75308,75490,75334
 2.9000e+000 75539  1.1373e+001 -1.6929e+002 -2.3932e+000 60952 75360,75412,75386
 2.9000e+000 75516 -4.3034e+001 -3.1277e+002 -8.7252e+000 60952 75438,75490,75464
 2.9000e+000 75680  6.2384e+000 -2.0905e+002  1.1506e+001 60952 75726,75412,75654
 2.9000e+000 75703  1.0517e+001 -2.0037e+002  2.5673e-001 60952 75490,75654,75334
 2.9000e+000 75752 -5.3668e+000 -2.0252e+002 -1.0565e+000 60952 75490,75438,75726
 2.9000e+000 75775 -5.5583e+000 -2.0024e+002 -4.5999e+000 60952 75490,75726,75654
 2.9000e+000 76155 -2.8543e+000 -1.8164e+002 -1.0913e+001 60754 75933,75985,75959
 2.9000e+000 76132 -3.1090e+001 -2.0074e+002  2.6716e+001 60754 75933,76037,75985
 2.9000e+000 76109  3.3150e+001 -1.9791e+002  1.0739e+001 60754 75985,76037,76011
 2.9000e+000 76086 -6.3952e+001 -1.5803e+002  8.1795e+000 60754 75881,76037,75933
 2.9000e+000 76063 -9.2606e+001 -1.3483e+002  4.5546e+001 60754 75881,75933,75907
 2.9000e+000 76612 -2.7610e+001 -1.4484e+002  3.1289e+000 60350 76635,76442,76390
 2.9000e+000 76589  2.4240e+000 -1.6538e+002  9.8553e+000 60350 76635,76390,76364
 2.9000e+000 76566 -5.2862e+000 -2.1107e+002 -1.4955e+001 60350 76364,76494,76468
 2.9000e+000 76543 -1.9349e+000 -1.3113e+002  1.3004e+001 60350 76390,76442,76416
 2.9000e+000 76520 -7.6705e+001 -1.3398e+002 -3.5829e+001 60350 76338,76494,76364
 2.9000e+000 76661 -4.4190e+001 -1.5875e+002  9.2506e+000 60350 76468,76442,76635
 2.9000e+000 76684 -2.2299e+001 -1.8255e+002  1.7966e+001 60350 76468,76635,76364
 2.9000e+000 76932 -6.8630e+001 -2.2373e+002 -2.6969e+000 59946 76955,76733,76707
 2.9000e+000 76909 -6.9288e+001 -2.2371e+002  3.9624e+000 59946 77027,76955,76707
 2.9000e+000 76886 -6.7358e+001 -2.2299e+002  3.2338e+000 59946 77027,76707,76837
 2.9000e+000 76863 -3.2929e+001 -2.4405e+002 -2.3761e+001 59946 76733,76785,76759
 2.9000e+000 76981 -7.9560e+001 -2.2643e+002 -5.0170e+000 59946 76785,76733,76955
 2.9000e+000 77004 -7.2949e+001 -2.2541e+002  2.4184e+000 59946 76785,76955,76811
 2.9000e+000 77053 -6.6536e+001 -2.2487e+002  2.5562e+000 59946 76811,76955,77027
 2.9000e+000 77076 -6.4563e+001 -2.2337e+002  1.4758e+000 59946 76811,77027,76837
 2.9000e+000 77226 -6.6642e+001 -1.7592e+002  4.9077e+000 59542 77099,77151,77125
 2.9000e+000 77203 -8.3965e+001 -2.1600e+002  7.8597e+000 59542 77099,77177,77151
 2.9000e+000 77427 -1.0295e+002 -2.0397e+002 -1.9243e+001 59030 77450,77277,77251
 2.9000e+000 77404 -5.5867e+001 -1.5415e+002 -7.0081e+001 59030 77450,77251,77355
 2.9000e+000 77381  1.7060e+001 -2.3570e+002 -1.4187e+001 59030 77277,77329,77303
 2.9000e+000 77476 -4.6663e+001 -2.1467e+002 -4.9519e+001 59030 77329,77277,77450
 2.9000e+000 77499  3.4481e+000 -1.9079e+002 -8.9443e+001 59030 77329,77450,77355
 2.9000e+000 77749 -9.0198e+001 -2.6240e+002  2.6357e+001 58426 77772,77628,77602
 2.9000e+000 77726 -5.4810e+001 -2.9409e+002  7.8498e+001 58426 77524,77654,77628
 2.9000e+000 77703 -6.5696e+001 -2.7072e+002  1.7954e+001 58426 77772,77602,77550
 2.9000e+000 77680 -3.4114e+001 -2.5259e+002 -1.4191e+001 58426 77550,77602,77576
 2.9000e+000 77798 -6.3647e+001 -2.4919e+002  3.2266e+001 58426 77524,77628,77772
 2.9000e+000 77821 -5.4865e+001 -2.6801e+002  1.9256e+001 58426 77524,77772,77550
 2.9000e+000 78071 -1.2147e+002 -2.7215e+002  2.7769e+001 57922 78094,77924,77898
 2.9000e+000 78048 -1.4398e+002 -2.6845e+002 -4.1483e+000 57922 78094,77898,77872
 2.9000e+000 78025 -1.0784e+002 -2.3537e+002  2.5778e+001 57922 78166,77846,77950
 2.9000e+000 78002 -1.1646e+001 -2.3670e+002  4.0215e+001 57922 77846,77976,77950
 2.9000e+000 78120 -9.7803e+001 -2.6443e+002  1.7631e+001 57922 77950,77924,78094
 2.9000e+000 78143 -1.1472e+002 -2.4148e+002  1.9141e+001 57922 78166,77950,78094
 2.9000e+000 78192 -9.6365e+001 -2.4950e+002  1.3502e+001 57922 77872,77846,78166
 2.9000e+000 78215 -1.1146e+002 -2.6412e+002  5.4545e+000 57922 77872,78166,78094
 2.9000e+000 78416  7.5212e+000 -2.3210e+002 -5.4609e+000 57468 78439,78292,78240
 2.9000e+000 78393  1.9429e+001 -2.1889e+002 -1.0499e+001 57468 78439,78240,78344
 2.9000e+000 78370 -1.1380e+001 -3.2618e+002 -2.5150e+000 57468 78240,78292,78266
 2.9000e+000 78465  2.0802e+001 -2.3079e+002 -1.4706e+001 57468 78318,78292,78439
 2.9000e+000 78488  2.5792e+001 -2.2566e+002 -1.7433e+001 57468 78318,78439,78344
 2.9000e+000 78689  3.6744e+001 -2.5288e+002 -1.5667e+001 57014 78712,78539,78513
 2.9000e+000 78666  1.0432e+001 -2.4947e+002  1.8511e+000 57014 78712,78513,78617
 2.9000e+000 78643 -1.1401e+001 -2.4149e+002  2.3528e+001 57014 78565,78617,78591
 2.9000e+000 78738  2.4433e+000 -2.2922e+002 -1.6637e+001 57014 78565,78539,78712
 2.9000e+000 78761 -3.4472e+001 -2.4657e+002  1.1104e+001 57014 78565,78712,78617
 2.9000e+000 79241 -8.9094e+001 -2.2137e+002  1.0038e+001 56652 79264,78895,78869
 2.9000e+000 79218 -4.3016e+001 -3.0405e+002 -2.8229e+001 56652 79264,78869,79051
 2.9000e+000 79195 -5.8711e+001 -2.7069e+002 -6.6004e+001 56652 78869,79077,79051
 2.9000e+000 79172 -6.5968e+001 -1.4230e+002 -1.8380e+001 56652 78895,78973,78947
 2.9000e+000 79149 -1.1103e+002 -4.4378e+002 -3.8630e+001 56652 78973,79051,78999
 2.9000e+000 79126 -5.0516e+001 -1.6009e+002 -2.1054e+001 56652 78895,78947,78921
 2.9000e+000 79103 -8.1192e+001 -2.7797e+002  6.6353e+001 56652 78999,79051,79025
 2.9000e+000 79290 -5.5674e+001 -1.6821e+002  4.0387e+001 56652 78973,78895,79264
 2.9000e+000 79313 -7.3200e+000 -2.5827e+002  5.3533e+000 56652 78973,79264,79051
 2.9000e+000 79512 -2.4458e+001 -3.2236e+002  2.5419e+001 56062 79388,79440,79414
 2.9000e+000 79489 -1.1937e+002 -1.6093e+002  4.3906e+001 56062 79336,79440,79388
 2.9000e+000 79466 -4.8669e+001 -1.9052e+002  5.5923e+001 56062 79336,79388,79362
 2.9000e+000 79941 -3.4209e+001 -1.9731e+002  3.4132e+001 55658 79964,79670,79644
 2.9000e+000 79918 -5.6598e+001 -2.0026e+002  3.8318e+001 55658 79964,79644,79800
 2.9000e+000 79895 -5.5048e+001 -2.1127e+002  1.7556e+001 55658 80036,79696,79670
 2.9000e+000 79872 -6.1269e+001 -1.6951e+002 -1.7475e+000 55658 80108,79722,79696
 2.9000e+000 79849 -9.0720e+001 -1.7898e+002  7.5891e+000 55658 79722,79774,79748
 2.9000e+000 79826 -1.4138e+000 -1.8127e+002  1.1261e+001 55658 79618,79800,79644
 2.9000e+000 79990 -5.8611e+001 -2.1108e+002  2.6571e+001 55658 80036,79670,79964
 2.9000e+000 80013 -5.4499e+001 -1.8722e+002  3.8571e+001 55658 79774,79964,79800
 2.9000e+000 80062 -4.4245e+001 -1.8684e+002  1.5506e+001 55658 80108,79696,80036
 2.9000e+000 80085 -5.8180e+001 -1.8830e+002  3.5272e+001 55658 79774,80036,79964
 2.9000e+000 80134 -9.5362e+001 -1.8994e+002  7.8977e+000 55658 79774,79722,80108
 2.9000e+000 80157 -8.5512e+001 -2.1041e+002  2.5545e+001 55658 79774,80108,80036
 2.9000e+000 80307 -9.5746e+001 -1.8947e+002  2.6282e+001 55254 80402,80330,80206
 2.9000e+000 80284 -9.7149e+001 -2.5761e+002  1.9964e+001 55254 80330,80180,80258
 2.9000e+000 80356 -1.1704e+002 -2.3802e+002  4.7704e+001 55254 80232,80206,80330
 2.9000e+000 80379 -3.8772e+001 -2.0328e+002  6.0234e+001 55254 80232,80330,80258
 2.9000e+000 80428 -1.3864e+002 -2.3975e+002  5.8974e+000 55254 80180,80330,80402
 2.9000e+000 80659  8.5611e+000 -2.3076e+002 -2.4950e+001 54850 80558,80610,80584
 2.9000e+000 80636  2.1909e+001 -2.1883e+002 -1.7248e+001 54850 80532,80610,80558
 2.9000e+000 80760  2.6356e+000 -2.0859e+002 -1.5030e+001 54652 80682,80734,80708
 2.9000e+000 81164  5.9215e+000 -2.1601e+002 -5.5697e+000 54248 81187,80942,80890
 2.9000e+000 81141 -3.7974e+000 -2.2132e+002 -1.8198e+000 54248 81187,80890,81046
 2.9000e+000 81118 -3.3787e+000 -2.2199e+002  4.6360e+001 54248 80942,81020,80994
 2.9000e+000 81095  6.1459e+000 -2.2580e+002  1.9513e+000 54248 80890,80942,80916
 2.9000e+000 81072 -9.5963e+000 -1.1267e+002  2.6975e+000 54248 80942,80994,80968
 2.9000e+000 81213 -5.4163e+000 -2.1054e+002 -4.9753e+000 54248 81020,80942,81187
 2.9000e+000 81236 -1.2941e+001 -2.1310e+002 -2.5973e+000 54248 81020,81187,81046
 2.9000e+000 81663 -1.0216e+002 -1.8763e+002  2.3939e+001 53594 81340,81444,81366
 2.9000e+000 81640 -9.1661e+001 -2.7764e+002  1.1440e+001 53594 81340,81470,81444
 2.9000e+000 81617 -3.4497e+001 -2.4244e+002 -1.5963e+001 53594 81340,81522,81470
 2.9000e+000 81594 -4.9721e+001 -1.3547e+002 -1.0556e+001 53594 81392,81444,81418
 2.9000e+000 81571 -6.6059e+001 -1.5756e+002 -1.8062e+001 53594 81366,81444,81392
 2.9000e+000 81548  7.6928e+000 -3.6016e+002  6.3954e+001 53594 81470,81522,81496
 2.9000e+000 81943 -3.1670e+001 -1.2730e+002 -1.1019e+001 53104 81966,81845,81819
 2.9000e+000 81920 -5.2019e+001 -1.2492e+002 -1.8729e+001 53104 81966,81819,81767
 2.9000e+000 81897 -4.8687e+001 -1.1902e+002 -1.6055e+001 53104 81767,81819,81793
 2.9000e+000 81992 -1.8103e+001 -1.3516e+002 -2.1475e+001 53104 81871,81845,81966
 2.9000e+000 82015 -3.6373e+001 -1.3065e+002 -3.2749e+001 53104 81871,81966,81767
 2.9000e+000 82491 -1.8468e+001 -1.3472e+002 -2.9388e+001 52650 82145,82249,82171
 2.9000e+000 82468 -1.0610e+002 -1.7957e+002 -1.3726e+001 52650 82145,82301,82249
 2.9000e+000 82445 -1.0136e+002 -2.3990e+002 -3.8767e+001 52650 82249,82301,82275
 2.9000e+000 82422 -5.1957e+001 -2.9116e+002 -3.9293e+001 52650 82119,82301,82145
 2.9000e+000 82399 -3.0024e+001 -9.0514e+001  1.0170e+001 52650 82171,82249,82223
 2.9000e+000 82376  3.8217e+001 -2.5082e+002 -5.3064e+001 52650 82119,82327,82301
 2.9000e+000 82353 -7.9219e+000 -4.6510e+001 -1.9553e+001 52650 82171,82223,82197
 2.9000e+000 82739 -4.7996e+001 -1.1601e+002 -3.7494e+000 52246 82762,82540,82514
 2.9000e+000 82716 -2.6795e+001 -1.0776e+002 -1.0744e+001 52246 82762,82514,82644
 2.9000e+000 82693 -6.0506e+001 -1.3617e+002  9.4750e+000 52246 82540,82618,82592
 2.9000e+000 82670 -5.2723e+001 -1.2437e+002  2.7544e+000 52246 82540,82592,82566
 2.9000e+000 82788 -2.8572e+001 -1.3154e+002  6.6444e+000 52246 82618,82540,82762
 2.9000e+000 82811 -5.2060e+000 -1.2271e+002  4.7248e+000 52246 82618,82762,82644
 2.9000e+000 83059 -1.1275e+001 -1.7020e+002  8.4911e+000 51578 82860,82964,82938
 2.9000e+000 83036 -1.0349e+001 -1.6231e+002 -2.5133e+001 51578 82834,82964,82860
 2.9000e+000 83013  2.5114e+001 -1.3850e+002  2.2552e+001 51578 82860,82938,82886
 2.9000e+000 82990  2.3801e+001 -1.3270e+002  1.6047e+001 51578 82886,82938,82912
 2.9000e+000 83309 -2.6424e+001 -9.2184e+001  3.0218e+001 51138 83332,83162,83136
 2.9000e+000 83286  1.5069e+000 -1.2625e+002  8.2036e+000 51138 83332,83136,83110
 2.9000e+000 83263 -4.2696e+001 -1.2754e+002 -1.0210e+001 51138 83404,83214,83188
 2.9000e+000 83240 -1.2029e+000 -6.1436e+001  6.2417e+000 51138 83084,83214,83110
 2.9000e+000 83358 -5.5370e+001 -1.3841e+002  4.7704e+001 51138 83188,83162,83332
 2.9000e+000 83381 -2.4803e+001 -1.4934e+002  9.2444e+000 51138 83404,83188,83332
 2.9000e+000 83430 -1.8418e+001 -7.2099e+001 -6.5593e+000 51138 83110,83214,83404
 2.9000e+000 83453 -6.3859e+000 -1.0638e+002  1.2724e+001 51138 83110,83404,83332
 2.9000e+000 83835 -2.5120e+001 -1.6220e+002 -1.2499e+001 50734 83613,83717,83691
 2.9000e+000 83812 -3.2409e+001 -1.8281e+002 -3.5014e+001 50734 83561,83717,83613
 2.9000e+000 83789 -1.4664e+001 -8.4996e+001 -5.2961e+001 50734 83561,83613,83587
 2.9000e+000 83766 -3.7331e+001 -1.1471e+002 -7.6509e+000 50734 83613,83691,83639
 2.9000e+000 83743 -4.2390e+001 -1.1473e+002  2.6331e+001 50734 83639,83691,83665
 2.9000e+000 84034 -2.1628e+001 -1.0374e+002 -9.9397e+000 50230 84057,83884,83858
 2.9000e+000 84011 -2.0874e+001 -1.0061e+002 -7.7238e+000 50230 84129,84057,83858
 2.9000e+000 83988 -6.2623e+000 -9.5629e+001 -1.2491e+001 50230 84129,83858,83962
 2.9000e+000 84083 -2.2708e+001 -1.0332e+002 -1.2273e+001 50230 83910,83884,84057
 2.9000e+000 84106 -2.0886e+001 -1.1791e+002 -1.8090e+000 50230 83910,84057,83936
 2.9000e+000 84155  7.5069e-001 -1.0426e+002 -7.7051e+000 50230 83936,84057,84129
 2.9000e+000 84178  7.4128e+000 -1.0514e+002 -1.2602e+001 50230 83936,84129,83962
 2.9000e+000 84558 -3.9758e+001 -1.3238e+002 -2.3593e+001 49768 84581,84388,84362
 2.9000e+000 84535 -9.0879e+001 -1.3417e+002 -9.0924e+000 49768 84581,84362,84310
 2.9000e+000 84512  1.1018e+001 -1.4409e+002 -2.5303e+001 49768 84653,84440,84414
 2.9000e+000 84489 -6.7206e+001 -1.4622e+002  1.3429e+001 49768 84310,84362,84336
 2.9000e+000 84466  1.3694e+000 -9.7990e+001  2.3878e+001 49768 84284,84440,84310
 2.9000e+000 84607 -6.1222e+000 -1.1102e+002 -3.9151e+001 49768 84414,84388,84581
 2.9000e+000 84630 -9.5452e+000 -1.3616e+002 -1.7818e+001 49768 84653,84414,84581
 2.9000e+000 84679 -1.6676e+001 -1.3402e+002 -3.4532e+001 49768 84310,84440,84653
 2.9000e+000 84702 -4.5249e+001 -1.3488e+002 -3.4779e+001 49768 84310,84653,84581
 2.9000e+000 85159 -8.8355e+001 -2.1093e+002 -5.3732e+001 49192 84885,84937,84911
 2.9000e+000 85136 -8.5463e+001 -1.7128e+002 -4.1823e+001 49192 84885,85041,84937
 2.9000e+000 85113 -5.9516e+001 -1.3723e+002 -2.5414e+001 49192 84963,85041,84989
 2.9000e+000 85090 -5.8820e+001 -1.3782e+002 -2.9881e+001 49192 84937,85041,84963
 2.9000e+000 85067 -4.7919e+001 -1.4506e+002 -1.5033e+001 49192 84989,85041,85015
 2.9000e+000 85714 -7.3397e+001 -1.3050e+002  6.6939e-001 48638 85368,85498,85394
 2.9000e+000 85691 -9.6743e+001 -1.4674e+002  1.1057e+001 48638 85368,85524,85498
 2.9000e+000 85668 -8.6706e+001 -1.2700e+002  3.3619e+001 48638 85737,85420,85394
 2.9000e+000 85645 -7.2749e+001 -1.4314e+002  1.7757e+001 48638 85737,85394,85498
 2.9000e+000 85622 -5.7301e+001 -1.4384e+002  2.8865e+001 48638 85446,85498,85472
 2.9000e+000 85599 -2.4374e+001 -1.1767e+002  1.3542e+001 48638 85342,85524,85368
 2.9000e+000 85576 -9.1367e+001 -1.3301e+002  1.3165e+001 48638 85342,85550,85524
 2.9000e+000 85763 -6.2048e+001 -1.1390e+002  4.3807e+001 48638 85446,85420,85737
 2.9000e+000 85786 -6.2732e+001 -1.3047e+002  2.5671e+001 48638 85446,85737,85498
 2.9000e+000 86371 -6.2602e+001 -9.3263e+001 -1.0421e+001 48084 86100,86230,86178
 2.9000e+000 86348 -8.5963e+001 -1.2440e+002 -2.0966e+001 48084 86048,86230,86100
 2.9000e+000 86325 -6.0663e+001 -8.5632e+001  1.8995e+001 48084 86100,86178,86126
 2.9000e+000 86302 -4.2929e+001 -2.3622e+001 -2.6360e+001 48084 86048,86100,86074
 2.9000e+000 86279 -7.3767e+001 -1.4690e+002 -1.0852e+001 48084 86178,86230,86204
 2.9000e+000 86256 -5.1627e+001 -9.7657e+001  1.8836e+001 48084 86126,86178,86152
 2.9000e+000 86619 -4.6718e+001 -1.1654e+002 -4.1334e+000 47630 86642,86446,86420
 2.9000e+000 86596 -5.2426e+001 -1.2645e+002 -2.5424e+001 47630 86642,86420,86394
 2.9000e+000 86573 -6.5893e+001 -1.3365e+002 -3.0754e+001 47630 86394,86524,86498
 2.9000e+000 86550 -2.3061e+001 -1.3513e+002 -1.3925e+000 47630 86446,86498,86472
 2.9000e+000 86668 -5.7395e+001 -1.4074e+002 -9.3088e+000 47630 86498,86446,86642
 2.9000e+000 86691 -5.9220e+001 -1.4334e+002 -3.0258e+001 47630 86498,86642,86394
 2.9000e+000 87022  1.4829e+000 -6.3753e+001 -2.4629e+001 47226 87045,86875,86849
 2.9000e+000 86999 -1.4123e+001 -7.6283e+001 -3.2042e+001 47226 87045,86849,86797
 2.9000e+000 86976 -5.1687e+000 -3.7084e+001 -1.8682e+001 47226 86797,86849,86823
 2.9000e+000 86953  2.4908e+001 -5.9498e+001 -3.1975e+001 47226 86875,86927,86901
 2.9000e+000 87071  1.5304e+001 -8.2635e+001 -2.8981e+001 47226 86927,86875,87045
 2.9000e+000 87094  2.6100e+000 -9.0229e+001 -3.3751e+001 47226 86927,87045,86797
 2.9000e+000 87244 -1.8105e+000 -1.3757e+002  5.0768e+001 46814 87267,87169,87143
 2.9000e+000 87221 -7.3878e+001 -1.3802e+002 -9.6346e-001 46814 87267,87143,87117
 2.9000e+000 87293 -1.6384e+001 -1.4017e+002 -1.1086e+001 46814 87339,87267,87195
 2.9000e+000 87316  1.9655e+001 -9.7372e+001 -2.9866e+001 46814 87469,87267,87117
 2.9000e+000 87365 -2.9239e+001 -1.1920e+002  5.2801e+001 46814 87169,87267,87339
 2.9000e+000 87495  1.8914e+001  3.5672e+001 -3.2695e+001 46814 87195,87267,87469
 2.9000e+000 88001 -5.2043e+001 -1.2942e+002  2.7133e+001 46310 88024,87834,87808
 2.9000e+000 87978 -6.0534e+001 -1.3158e+002  1.9608e+001 46310 88024,87808,87756
 2.9000e+000 87955 -1.9534e+001 -1.6712e+002  7.7175e+000 46310 88096,87730,87860
 2.9000e+000 87932 -4.5088e+001 -1.5648e+002  2.1242e+001 46310 87756,87808,87782
 2.9000e+000 87909 -2.8953e+001 -2.1652e+002  9.8719e+000 46310 87678,87860,87730
 2.9000e+000 87886 -5.2123e+001 -3.4045e+002 -1.4567e+001 46310 87678,87730,87704
 2.9000e+000 88050 -4.3714e+001 -1.1062e+002  2.1284e+001 46310 87860,87834,88024
 2.9000e+000 88073 -2.3418e+001 -1.2223e+002  2.4795e+001 46310 88096,87860,88024
 2.9000e+000 88122 -3.5765e+001 -1.8816e+002 -5.8225e+000 46310 87756,87730,88096
 2.9000e+000 88145 -6.8924e+001 -1.7005e+002  3.6494e+000 46310 87756,88096,88024
 2.9000e+000 88572 -3.3432e+001 -1.3932e+002  3.7882e+000 45856 88249,88405,88275
 2.9000e+000 88549 -2.4051e+001 -4.5052e+001 -3.2572e+001 45856 88249,88431,88405
 2.9000e+000 88526 -7.3862e+001 -2.0173e+002 -2.5470e+001 45856 88327,88405,88353
 2.9000e+000 88503 -3.4387e+001 -1.5792e+002 -8.9124e+000 45856 88275,88405,88327
 2.9000e+000 88480 -5.9141e+001 -1.7242e+002 -3.2300e+001 45856 88353,88405,88379
 2.9000e+000 88457 -1.4807e+002 -4.0813e+002  3.5926e+001 45856 88275,88327,88301
 2.9000e+000 88950 -3.1963e+001 -9.4087e+001 -2.1214e+000 45658 88973,88754,88728
 2.9000e+000 88927 -2.9924e+001 -9.8855e+001 -2.3513e+000 45658 88973,88728,88676
 2.9000e+000 88904 -3.2962e+001 -1.2115e+002  3.9907e+001 45658 88676,88832,88806
 2.9000e+000 88881 -4.8048e+001 -1.3082e+002  1.4983e+001 45658 88676,88728,88702
 2.9000e+000 88858 -3.9501e+001 -8.3102e+001 -1.8062e+001 45658 88754,88806,88780
 2.9000e+000 88999 -3.4299e+001 -9.7679e+001 -1.1139e+000 45658 88806,88754,88973
 2.9000e+000 89022 -3.0961e+001 -1.0052e+002 -1.8597e+000 45658 88806,88973,88676
 2.9000e+000 89351 -3.8110e+001 -1.3796e+002 -7.8911e+000 45254 89152,89230,89204
 2.9000e+000 89328 -3.2099e+001 -1.3532e+002 -7.4988e+000 45254 89152,89256,89230
 2.9000e+000 89305 -4.3293e+000 -1.4260e+002 -1.8658e+001 45254 89126,89256,89152
 2.9000e+000 89282  1.4655e+001 -1.3915e+002 -3.0413e+001 45254 89152,89204,89178
 2.9000e+000 89523 -2.4231e+001 -1.3245e+002 -4.1549e-001 45006 89422,89474,89448
 2.9000e+000 89500 -1.8414e+001 -1.2998e+002  4.2365e+000 45006 89396,89474,89422
 2.9000e+000 89673 -1.1360e+002 -2.0121e+002  1.7664e+001 44495 89572,89624,89598
 2.9000e+000 89650 -1.1601e+002 -1.9865e+002  9.9300e+000 44495 89546,89624,89572
 2.9000e+000 90104 -9.3518e+000 -1.6884e+002 -7.3136e+000 44005 90199,90127,89937
 2.9000e+000 90081 -2.5486e+001 -1.6307e+002  2.1282e-001 44005 90271,90127,89859
 2.9000e+000 90058 -2.5356e+000 -1.7123e+002 -7.3845e+000 44005 90199,89937,89885
 2.9000e+000 90035 -3.9225e+001 -1.5393e+002  8.0340e+000 44005 90271,89859,89807
 2.9000e+000 90012 -2.4309e+001 -1.8541e+002 -2.0894e+001 44005 89885,89937,89911
 2.9000e+000 89989 -9.6032e+000 -1.6478e+002  2.5472e+001 44005 89807,89859,89833
 2.9000e+000 90153 -2.6678e+001 -1.7574e+002 -6.4406e+000 44005 89963,89937,90127
 2.9000e+000 90176 -2.7252e+001 -1.8060e+002 -1.2191e+000 44005 89963,90127,89781
 2.9000e+000 90225 -2.8281e+001 -1.6598e+002 -3.1067e+000 44005 89859,90127,90199
 2.9000e+000 90248 -1.1982e+001 -1.6167e+002  4.1188e-001 44005 89859,90199,89885
 2.9000e+000 90297 -4.3899e+001 -1.7429e+002 -4.5721e+000 44005 89781,90127,90271
 2.9000e+000 90320 -5.1889e+001 -1.6216e+002  4.4610e+000 44005 89781,90271,89807
 2.9000e+000 90470 -2.4764e+001 -1.8301e+002 -7.2788e+000 43601 90493,90369,90343
 2.9000e+000 90447 -4.4858e+001 -1.5235e+002  9.1824e+000 43601 90493,90343,90421
 2.9000e+000 90519 -5.5315e+001 -2.3758e+002 -2.6796e+001 43601 90395,90369,90493
 2.9000e+000 90542 -4.6896e+001 -1.7407e+002 -5.3685e+000 43601 90395,90493,90421
 2.9000e+000 90922 -6.3079e+001 -1.9563e+002  1.4736e+001 43154 90945,90700,90674
 2.9000e+000 90899 -6.2207e+001 -2.0091e+002 -1.3739e+001 43154 90945,90674,90648
 2.9000e+000 90876 -7.1278e+001 -1.5728e+002 -1.0744e+001 43154 90648,90778,90752
 2.9000e+000 90853 -3.4784e+001 -3.0389e+002  9.2865e+000 43154 90700,90752,90726
 2.9000e+000 90830 -4.4872e+001 -1.6050e+002  7.3815e-002 43154 90648,90804,90778
 2.9000e+000 90971 -7.2443e+001 -2.2049e+002  1.6650e+001 43154 90752,90700,90945
 2.9000e+000 90994 -6.8251e+001 -2.1543e+002 -1.0946e+001 43154 90752,90945,90648
 2.9000e+000 91451 -1.7313e+001 -1.3645e+002 -2.8591e+001 42650 91203,91255,91229
 2.9000e+000 91428 -1.4957e+000 -1.2935e+002 -1.1487e+001 42650 91203,91333,91255
 2.9000e+000 91405  6.6873e+000 -2.1591e+002 -3.3185e+001 42650 91177,91333,91203
 2.9000e+000 91382 -5.9133e+001 -2.2506e+002  1.2804e+001 42650 91255,91333,91281
 2.9000e+000 91359  3.3895e+001 -1.8500e+002  3.5630e+000 42650 91281,91333,91307
 2.9000e+000 91721 -8.6023e+001 -2.0082e+002  1.4072e+001 42288 91496,91600,91522
 2.9000e+000 91698 -4.1842e+001 -1.0867e+002 -4.1943e+000 42288 91496,91626,91600
 2.9000e+000 91675 -5.3103e+001 -1.7906e+002  1.5038e+001 42288 91522,91574,91548
 2.9000e+000 91652 -4.3163e+001 -1.8437e+002  1.4397e+001 42288 91522,91600,91574
 2.9000e+000 92199 -1.3087e+002 -2.2303e+002 -6.3406e+000 41898 92222,91983,91879
 2.9000e+000 92176 -1.3507e+002 -2.4171e+002 -1.3793e+001 41898 92294,92222,91879
 2.9000e+000 92153 -1.4339e+002 -2.3706e+002 -2.0120e+001 41898 92294,91879,91853
 2.9000e+000 92130 -1.1358e+002 -1.3749e+002  1.2033e+001 41898 91879,91957,91931
 2.9000e+000 92107 -1.1729e+002 -2.1764e+002 -2.9727e+000 41898 91879,91983,91957
 2.9000e+000 92084 -1.2437e+002 -1.2968e+002  2.4425e+001 41898 91879,91931,91905
 2.9000e+000 92061 -1.2348e+002 -2.0981e+002 -1.6417e+001 41898 91827,92035,91853
 2.9000e+000 92248 -1.2981e+002 -2.4563e+002 -1.4915e+000 41898 92009,91983,92222
 2.9000e+000 92271 -1.2592e+002 -2.4955e+002 -1.8231e+001 41898 92009,92222,92035
 2.9000e+000 92320 -1.2078e+002 -2.3489e+002 -1.5866e+001 41898 92035,92222,92294
 2.9000e+000 92343 -1.2706e+002 -2.2956e+002 -2.1911e+001 41898 92035,92294,91853
 2.9000e+000 92770 -4.3564e+001 -2.0948e+002 -1.7366e+001 41437 92865,92793,92525
 2.9000e+000 92747 -6.0871e+001 -2.3579e+002 -2.2976e+001 41437 92793,92473,92629
 2.9000e+000 92724 -2.1053e+001 -2.1613e+002 -2.9549e+001 41437 92865,92525,92499
 2.9000e+000 92701 -6.5801e+001 -1.8575e+002 -3.4815e+001 41437 92525,92603,92577
 2.9000e+000 92678 -9.5782e-001 -2.2012e+002 -1.6829e+001 41437 92447,92629,92473
 2.9000e+000 92655 -1.1026e+002 -1.7000e+002 -2.2991e+001 41437 92525,92577,92551
 2.9000e+000 92819 -4.8355e+001 -2.2040e+002 -3.4927e+001 41437 92603,92525,92793
 2.9000e+000 92842 -9.5326e+001 -2.3685e+002 -5.9868e+001 41437 92603,92793,92629
 2.9000e+000 92891  1.5792e-001 -2.2398e+002 -2.0463e+001 41437 92473,92793,92865
 2.9000e+000 92914  3.2180e+001 -2.1795e+002 -3.7988e+001 41437 92473,92865,92499
 2.9000e+000 93243 -3.5420e+001 -3.0788e+002  1.1027e+002 41097 93044,93096,93070
 2.9000e+000 93220 -6.0647e+001 -2.6619e+002  5.6153e+001 41097 93044,93122,93096
 2.9000e+000 93197  2.9204e+001 -1.8457e+002  2.1811e+001 41097 93044,93148,93122
 2.9000e+000 93174 -3.4542e+001 -1.2411e+002  6.3942e+001 41097 93018,93148,93044
 2.9000e+000 93393 -2.9318e+000 -2.2301e+002  1.5054e+001 40643 93416,93292,93344
 2.9000e+000 93370 -1.0433e+001 -1.9837e+002  1.7805e+001 40643 93266,93344,93292
 2.9000e+000 93442 -6.5846e+000 -2.2289e+002  1.7352e+001 40643 93318,93292,93416
 2.9000e+000 93901 -6.6754e+001 -2.1581e+002 -1.4909e+001 40132 93924,93731,93705
 2.9000e+000 93878 -7.1106e+001 -2.1970e+002 -1.6650e+001 40132 93996,93924,93705
 2.9000e+000 93855 -8.4195e+001 -2.5158e+002 -7.3458e+000 40132 93996,93705,93653
 2.9000e+000 93832 -4.2321e+001 -2.4652e+002 -1.3415e+001 40132 93653,93705,93679
 2.9000e+000 93809 -6.7824e+001 -2.0228e+002 -9.6952e-001 40132 93627,93783,93757
 2.9000e+000 93950 -6.4124e+001 -2.2579e+002 -1.7352e+001 40132 93757,93731,93924
 2.9000e+000 93973 -7.1615e+001 -1.9865e+002 -3.3117e+000 40132 93757,93924,93627
 2.9000e+000 94022 -9.2652e+001 -2.3902e+002  6.5110e+000 40132 93627,93924,93996
 2.9000e+000 94045 -8.7004e+001 -2.5032e+002  1.3237e+001 40132 93627,93996,93653
 2.9000e+000 94423 -4.6828e+000 -2.2699e+002 -3.6274e+001 39514 94149,94227,94175
 2.9000e+000 94400 -1.7031e+001 -2.1624e+002  2.5049e+001 39514 94149,94305,94227
 2.9000e+000 94377  1.2249e+001 -2.7284e+002 -3.3640e+001 39514 94175,94227,94201
 2.9000e+000 94354 -6.5761e+001 -2.0157e+002  9.2583e+000 39514 94227,94305,94279
 2.9000e+000 94331 -2.4155e+001 -1.8238e+002  1.7992e+001 39514 94227,94279,94253
 2.9000e+000 94573 -1.5891e+001 -1.2897e+002 -3.8052e+001 38822 94596,94498,94472
 2.9000e+000 94550  2.6777e+001 -1.4396e+002  2.0339e+001 38822 94596,94472,94446
 2.9000e+000 94622 -6.5342e+001 -1.5051e+002 -3.2651e+001 38822 94524,94498,94596
 2.9000e+000 94645 -5.9175e+001 -1.8448e+002  3.1766e+001 38822 94524,94596,94446
 2.9000e+000 95025 -1.3561e+001 -1.8026e+002 -1.3696e+001 38418 95048,94829,94777
 2.9000e+000 95002 -1.7519e+001 -1.8903e+002 -2.2428e+001 38418 95120,95048,94777
 2.9000e+000 94979 -1.2161e+001 -1.8879e+002 -2.0908e+001 38418 95120,94777,94751
 2.9000e+000 94956 -1.0463e+001 -1.7014e+002 -2.3886e+001 38418 95192,94881,94855
 2.9000e+000 94933 -5.5604e+001 -1.5616e+002 -9.7194e+000 38418 94777,94829,94803
 2.9000e+000 95074 -3.1400e+001 -2.3494e+002 -5.2178e+000 38418 94855,94829,95048
 2.9000e+000 95097 -1.5017e+001 -1.8798e+002 -2.5771e+001 38418 95192,94855,95048
 2.9000e+000 95146 -3.3114e+001 -1.8229e+002 -1.7682e+001 38418 94907,95048,95120
 2.9000e+000 95169 -1.9982e+001 -1.7573e+002 -1.3594e+001 38418 94907,95120,94751
 2.9000e+000 95218 -1.5940e+001 -1.3649e+002 -2.1401e+001 38418 94907,94881,95192
 2.9000e+000 95241 -2.6983e+001 -1.6543e+002 -1.8532e+001 38418 94907,95192,95048
 2.9000e+000 95511 -6.5424e+001 -2.0555e+002  8.2997e+000 38049 95312,95390,95364
 2.9000e+000 95488 -4.9553e+001 -1.9922e+002  9.2310e+000 38049 95312,95416,95390
 2.9000e+000 95465 -2.3051e+001 -1.9562e+002 -1.3571e+001 38049 95312,95364,95338
 2.9000e+000 95442 -1.8829e+001 -1.8561e+002  1.8123e+001 38049 95286,95416,95312
 2.9000e+000 95808 -5.7875e+001 -2.2583e+002 -6.3564e+000 37437 95831,95586,95560
 2.9000e+000 95785  2.1117e+001 -2.3599e+002 -1.0351e+001 37437 95831,95560,95534
 2.9000e+000 95762 -1.1496e+002 -2.1271e+002  5.8713e+000 37437 95586,95664,95638
 2.9000e+000 95739 -1.7748e+001 -1.0947e+002 -5.6664e+001 37437 95534,95690,95664
 2.9000e+000 95716 -1.0706e+002 -1.4895e+002  5.0123e+000 37437 95586,95638,95612
 2.9000e+000 95857 -1.0906e+002 -2.1811e+002  2.5756e+001 37437 95664,95586,95831
 2.9000e+000 95880 -2.5512e+001 -2.2601e+002  2.2916e+001 37437 95664,95831,95534
 2.9000e+000 96390 -7.3561e+001 -1.6157e+002 -1.2905e+001 36883 96413,96145,96093
 2.9000e+000 96367 -5.8551e+001 -1.5386e+002 -7.6281e+000 36883 96413,96093,96067
 2.9000e+000 96344 -4.1274e+001 -1.8961e+002 -6.1293e-001 36883 96067,96249,96171
 2.9000e+000 96321 -6.3547e+001 -1.8255e+002 -8.0149e+000 36883 96093,96145,96119
 2.9000e+000 96298 -8.9530e+001 -3.1233e+002  2.8823e+001 36883 96171,96249,96197
 2.9000e+000 96275 -2.2430e+001 -2.4914e+002 -4.6158e+000 36883 96197,96249,96223
 2.9000e+000 96439 -6.8681e+001 -1.5454e+002  3.4273e-001 36883 96171,96145,96413
 2.9000e+000 96462 -5.6646e+001 -1.5208e+002  4.4094e+000 36883 96171,96413,96067
 2.9000e+000 96781 -6.1041e+001 -1.8527e+002 -2.7821e+001 36215 96559,96663,96637
 2.9000e+000 96758 -7.5467e+001 -2.0046e+002 -3.4196e+001 36215 96507,96663,96559
 2.9000e+000 96735 -7.4292e+001 -1.3800e+002  1.5050e+001 36215 96585,96637,96611
 2.9000e+000 96712 -1.5896e+002 -2.1611e+002 -2.3634e+001 36215 96559,96637,96585
 2.9000e+000 96689 -3.0100e+001 -2.2620e+002 -8.2235e+000 36215 96507,96559,96533
 2.9000e+000 97161  3.9369e+000 -1.0103e+002 -5.2149e+000 35818 97184,96965,96939
 2.9000e+000 97138 -1.2204e+001 -1.1946e+002 -1.3707e+001 35818 97184,96939,96887
 2.9000e+000 97115  7.3783e-001 -1.2548e+002  2.3941e+001 35818 96965,97043,97017
 2.9000e+000 97092 -7.9968e+000 -1.1066e+002 -1.5214e+001 35818 96887,96939,96913
 2.9000e+000 97069 -6.3183e+001 -1.3253e+002  1.3601e+001 35818 96965,97017,96991
 2.9000e+000 97210  2.1650e+001 -1.1713e+002  5.6511e+000 35818 97043,96965,97184
 2.9000e+000 97233  8.3686e+000 -1.2986e+002 -1.3268e+000 35818 97043,97184,96887
 2.9000e+000 97739 -7.0036e+001 -2.0679e+002 -4.7919e+001 35214 97416,97468,97442
 2.9000e+000 97716 -7.9881e+001 -1.4490e+002 -1.5714e+001 35214 97416,97598,97468
 2.9000e+000 97693 -6.8452e+001 -1.3725e+002 -6.3317e+000 35214 97762,97520,97468
 2.9000e+000 97670 -7.1428e+001 -1.4095e+002 -1.1672e+001 35214 97762,97468,97598
 2.9000e+000 97647 -5.3287e+001 -1.3618e+002 -1.8801e+001 35214 97546,97598,97572
 2.9000e+000 97624 -4.5107e+001 -1.4036e+002 -8.6045e+000 35214 97468,97520,97494
 2.9000e+000 97788 -7.0463e+001 -1.4367e+002 -9.4590e+000 35214 97546,97520,97762
 2.9000e+000 97811 -7.1573e+001 -1.4646e+002 -1.4408e+001 35214 97546,97762,97598
 2.9000e+000 98189 -1.4039e+001 -1.1218e+002 -1.0708e+001 34760 98356,98212,97967
 2.9000e+000 98166 -3.0020e+001 -1.3654e+002 -2.0785e+001 34760 98284,98212,97941
 2.9000e+000 98143 -5.4285e+001 -1.2305e+002 -9.9900e+000 34760 98284,97941,97915
 2.9000e+000 98120 -1.5871e+001 -1.5136e+002 -4.9264e+000 34760 98484,97993,97967
 2.9000e+000 98097 -1.1338e+001 -1.2490e+002 -5.9881e+000 34760 98556,98045,98019
 2.9000e+000 98238 -2.4001e+001 -1.4205e+002 -5.4989e+000 34760 98484,97967,98212
 2.9000e+000 98261 -1.5118e+000 -1.3233e+002 -1.1188e+001 34760 98556,98019,98212
 2.9000e+000 98310 -9.0898e+000 -1.1221e+002 -3.0663e+001 34760 98071,98212,98284
 2.9000e+000 98333 -2.5338e+001 -7.8913e+001 -2.4797e+001 34760 98071,98284,97915
 2.9000e+000 98382 -7.2909e+001 -1.5084e+002 -2.8305e+001 34760 97941,98212,98356
 2.9000e+000 98510 -2.2282e+000 -1.4402e+002 -9.4013e+000 34760 98019,97993,98484
 2.9000e+000 98533 -1.5577e+001 -1.3892e+002 -9.1319e+000 34760 98019,98484,98212
 2.9000e+000 98582  7.6151e-001 -1.1603e+002 -2.0730e+000 34760 98071,98045,98556
 2.9000e+000 98605  4.6194e+000 -1.2677e+002 -8.8360e+000 34760 98071,98556,98212
 2.9000e+000 99032 -7.2148e+001 -1.7252e+002  2.2421e+001 34156 98735,98891,98839
 2.9000e+000 99009 -6.2525e+001 -1.7642e+002  1.2147e+001 34156 98709,98891,98735
 2.9000e+000 98986 -1.7576e+001 -1.5783e+002  2.4699e+001 34156 98735,98813,98787
 2.9000e+000 98963 -1.6992e+001 -1.6517e+002  1.5684e+001 34156 98735,98839,98813
 2.9000e+000 98940  8.7588e+000 -2.3208e+002  2.6281e+001 34156 98735,98787,98761
 2.9000e+000 98917 -6.3263e+001 -1.4962e+002  1.0954e+001 34156 98839,98891,98865
 2.9000e+000 99231 -2.0427e+001 -9.0249e+001  7.4945e+000 33766 99055,99133,99107
 2.9000e+000 99208 -3.7944e+001 -1.1738e+002  1.5717e+001 33766 99055,99159,99133
 2.9000e+000 99185 -1.0915e+001 -1.1098e+002  2.0221e+001 33766 99055,99107,99081
 2.9000e+000 99818 -4.7671e+001 -1.3530e+002  2.7603e+000 33248 99521,99651,99573
 2.9000e+000 99795 -4.6302e+001 -1.2850e+002  1.3696e+001 33248 99521,99677,99651
 2.9000e+000 99772 -7.0765e+001 -1.6604e+002 -8.2771e+000 33248 99573,99651,99599
 2.9000e+000 99749 -4.8309e+001 -1.6072e+002  1.4930e+001 33248 99495,99677,99521
 2.9000e+000 99726 -3.2448e+001 -1.4116e+002 -3.3293e+001 33248 99599,99651,99625
 2.9000e+000 99703 -6.2783e+001 -1.6776e+002  1.0925e+001 33248 99521,99573,99547
 2.9000e+000 100196 -5.0275e+001 -1.4694e+002 -2.6707e+001 32794 100219,99948,99922
 2.9000e+000 100173 -5.7710e+001 -1.6241e+002 -1.2433e+001 32794 100219,99922,100052
 2.9000e+000 100150 -7.4970e+001 -1.4767e+002  8.2819e+000 32794 99974,100052,100026
 2.9000e+000 100127 -6.9178e+001 -1.3354e+002 -2.0351e+001 32794 99922,100078,100052
 2.9000e+000 100104 -7.7668e+001 -1.7874e+002  3.3064e+001 32794 99974,100026,100000
 2.9000e+000 100245 -6.6463e+001 -1.4487e+002 -1.1780e+001 32794 99974,99948,100219
 2.9000e+000 100268 -7.0574e+001 -1.6523e+002  2.6540e+000 32794 99974,100219,100052
 2.9000e+000 100418 -8.3181e+000 -1.3221e+002 -1.4214e+001 32504 100571,100343,100317
 2.9000e+000 100395 -5.3265e+001 -1.5260e+002  1.4572e+001 32504 100571,100317,100441
 2.9000e+000 100467  3.9243e+001 -7.1641e+001 -3.9931e+001 32504 100291,100369,100441
 2.9000e+000 100597  1.1774e+001 -1.1013e+002 -4.9470e+001 32504 100369,100343,100571
 2.9000e+000 100620 -8.4427e+000 -1.0244e+002 -2.4586e+001 32504 100369,100571,100441
 2.9000e+000 101020 -2.4367e+001 -1.2318e+002  5.7898e+000 32142 100772,100902,100876
 2.9000e+000 100997 -1.6483e+001 -1.1295e+002  9.3094e+000 32142 100746,100902,100772
 2.9000e+000 100974 -8.9541e+000 -1.4119e+002  1.3664e+001 32142 101043,100824,100798
 2.9000e+000 100951 -2.6292e+001 -1.4730e+002  1.1261e+001 32142 101043,100798,100772
 2.9000e+000 100928 -7.9737e+001 -1.6970e+002 -3.9370e+001 32142 101115,100876,100850
 2.9000e+000 101069  1.5640e+001 -1.4945e+002 -1.4819e+001 32142 100850,100824,101043
 2.9000e+000 101092 -4.3385e+001 -1.7434e+002 -1.8825e+001 32142 101115,100850,101043
 2.9000e+000 101141 -3.4879e+001 -1.4444e+002 -1.4403e+001 32142 100772,100876,101115
 2.9000e+000 101164 -6.7350e+000 -1.4762e+002  8.0433e+000 32142 100772,101115,101043
 2.9000e+000 101719 -7.6242e+001 -1.8216e+002  2.3435e+001 31538 101742,101477,101399
 2.9000e+000 101696 -9.3837e+001 -2.1977e+002  5.5135e+000 31538 101814,101742,101399
 2.9000e+000 101673 -1.0796e+002 -1.8778e+002 -1.5914e+001 31538 101814,101399,101373
 2.9000e+000 101650 -7.7259e+001 -1.3226e+002  1.5567e+001 31538 101425,101477,101451
 2.9000e+000 101627 -7.2670e+001 -1.5459e+002  3.6512e+000 31538 101399,101477,101425
 2.9000e+000 101604 -4.4678e+001 -2.1916e+002  4.4779e+001 31538 101477,101529,101503
 2.9000e+000 101581 -2.9609e+001 -1.2639e+002 -1.3707e+001 31538 101347,101555,101373
 2.9000e+000 101768 -8.6512e+001 -2.2141e+002  2.2968e+001 31538 101529,101477,101742
 2.9000e+000 101791 -7.5189e+001 -2.2708e+002 -8.0555e+000 31538 101529,101742,101555
 2.9000e+000 101840 -5.8276e+001 -1.8722e+002 -9.4335e+000 31538 101555,101742,101814
 2.9000e+000 101863 -7.8835e+001 -1.6113e+002 -2.9062e+001 31538 101555,101814,101373
 2.9000e+000 102111 -1.1182e+002 -2.8813e+002  3.8399e+001 31112 101886,101990,101912
 2.9000e+000 102088 -3.9487e+001 -1.7047e+002  2.5308e+000 31112 101886,102016,101990
 2.9000e+000 102065 -4.8766e+001 -2.7588e+002  5.4479e+001 31112 101912,101990,101964
 2.9000e+000 102042 -7.7778e+001 -3.3926e+002  6.4754e+001 31112 101912,101964,101938
 2.9000e+000 102408 -3.7431e+001 -1.7369e+002  1.4386e+001 30658 102431,102186,102160
 2.9000e+000 102385 -6.3513e+001 -1.7022e+002  5.7287e-001 30658 102431,102160,102264
 2.9000e+000 102362 -6.2136e+001 -1.8937e+002  4.1446e+000 30658 102186,102238,102212
 2.9000e+000 102339 -6.9589e+001 -1.8261e+002 -1.2245e+001 30658 102134,102264,102160
 2.9000e+000 102316 -4.6483e+001 -1.5217e+002 -5.1224e+001 30658 102134,102290,102264
 2.9000e+000 102457 -5.8175e+001 -1.8430e+002  8.3722e+000 30658 102238,102186,102431
 2.9000e+000 102480 -8.6253e+001 -1.8368e+002 -6.5731e+000 30658 102238,102431,102264
 2.9000e+000 102681 -2.7259e+001 -2.0823e+002  2.9134e+001 30004 102704,102557,102505
 2.9000e+000 102658 -3.0101e+001 -2.1366e+002  3.1520e+001 30004 102704,102505,102609
 2.9000e+000 102635 -9.8167e-001 -1.7785e+002  6.4259e+000 30004 102505,102557,102531
 2.9000e+000 102730 -3.0919e+001 -2.0021e+002  2.6259e+001 30004 102583,102557,102704
 2.9000e+000 102753 -3.8546e+001 -2.0734e+002  3.0556e+001 30004 102583,102704,102609
 2.9000e+000 103003 -2.4877e+001 -1.6485e+002 -1.3861e+001 29564 103026,102804,102778
 2.9000e+000 102980 -3.2525e+001 -1.9184e+002 -1.7103e+001 29564 103026,102778,102908
 2.9000e+000 102957  7.2060e+000 -1.5765e+002  1.5908e+001 29564 102856,102908,102882
 2.9000e+000 102934 -4.4702e+001 -1.5824e+002  7.9540e+000 29564 102804,102856,102830
 2.9000e+000 103052 -2.6853e+001 -1.5305e+002  4.4710e+000 29564 102856,102804,103026
 2.9000e+000 103075 -3.4667e+001 -1.7397e+002 -1.2112e+000 29564 102856,103026,102908
 2.9000e+000 103634 -7.8198e+001 -2.0149e+002 -2.7880e+001 29160 103657,103418,103392
 2.9000e+000 103611 -7.3960e+001 -1.9391e+002 -1.3291e+001 29160 103657,103392,103314
 2.9000e+000 103588 -4.4417e+001 -1.6794e+002 -2.4838e+001 29160 103314,103392,103366
 2.9000e+000 103565 -4.8490e+001 -1.8335e+002 -2.3098e+001 29160 103314,103366,103340
 2.9000e+000 103542 -9.6256e+001 -1.8940e+002 -2.2881e+001 29160 103262,103444,103314
 2.9000e+000 103519 -1.1433e+002 -2.2579e+002 -3.1466e+001 29160 103262,103314,103288
 2.9000e+000 103496 -7.4366e+001 -2.0600e+002 -1.0491e+001 29160 103262,103470,103444
 2.9000e+000 103683 -1.0003e+002 -2.1787e+002 -4.2561e+001 29160 103444,103418,103657
 2.9000e+000 103706 -8.2953e+001 -1.9333e+002 -2.5823e+001 29160 103444,103657,103314
 2.9000e+000 104035 -6.0790e+001 -1.7500e+002  1.7011e+001 28770 103836,103914,103862
 2.9000e+000 104012 -5.2756e+001 -1.7473e+002  1.5700e+001 28770 103810,103914,103836
 2.9000e+000 103989  8.3527e+000 -1.6341e+002  2.6957e+001 28770 103810,103940,103914
 2.9000e+000 103966 -1.4682e+001 -1.5211e+002  3.8077e+001 28770 103862,103914,103888
 2.9000e+000 104185 -2.6209e+001 -1.8605e+002  3.4187e+001 28366 104208,104110,104084
 2.9000e+000 104162 -2.0931e+001 -1.5452e+002  2.8477e+001 28366 104280,104208,104084
 2.9000e+000 104234  2.7723e+001 -1.8096e+002  2.1166e+001 28366 104610,104208,104136
 2.9000e+000 104257 -3.9075e+001 -1.7366e+002  2.0795e+001 28366 104538,104410,104208
 2.9000e+000 104306 -6.1388e+001 -1.7553e+002  2.0187e+001 28366 104538,104208,104280
 2.9000e+000 104436 -1.8673e+001 -1.8431e+002  3.2546e+000 28366 104136,104208,104410
 2.9000e+000 104564 -6.2365e+001 -1.7309e+002  9.0024e+000 28366 104058,104410,104538
 2.9000e+000 104587 -7.6196e+001 -1.6987e+002  6.9023e+000 28366 104058,104538,104280
 2.9000e+000 104636  1.8506e+001 -1.8375e+002  2.6446e+001 28366 104110,104208,104610
 2.9000e+000 105349 -4.1536e+001 -1.5190e+002 -1.5487e+001 27976 105516,105372,105107
 2.9000e+000 105326 -6.5574e+001 -1.5245e+002  4.1051e+000 27976 105588,105372,105055
 2.9000e+000 105303 -6.8905e+001 -1.4783e+002 -1.7039e+001 27976 105444,105159,105133
 2.9000e+000 105280 -2.4326e+001 -1.5794e+002 -9.0970e+000 27976 105516,105107,105081
 2.9000e+000 105257 -6.1529e+001 -1.6688e+002  1.3402e+001 27976 105588,105055,105029
 2.9000e+000 105234 -3.2448e+001 -1.2716e+002  1.4439e+000 27976 105003,105185,105159
 2.9000e+000 105211 -4.4834e+001 -1.0231e+002  1.8809e+001 27976 104977,105185,105003
 2.9000e+000 105398 -3.3512e+001 -1.5331e+002 -1.9864e+001 27976 105133,105107,105372
 2.9000e+000 105421 -5.5503e+001 -1.5978e+002 -1.0166e+001 27976 105444,105133,105372
 2.9000e+000 105470 -5.6981e+001 -1.2826e+002 -9.5412e+000 27976 105003,105159,105444
 2.9000e+000 105493 -4.6918e+001 -1.4132e+002 -6.2979e+000 27976 105003,105444,105372
 2.9000e+000 105542 -2.9943e+001 -1.4988e+002 -1.2568e+000 27976 105055,105372,105516
 2.9000e+000 105565 -4.2750e+000 -1.5262e+002  3.3964e+000 27976 105055,105516,105081
 2.9000e+000 105614 -7.4100e+001 -1.6665e+002  1.1002e+001 27976 105003,105372,105588
 2.9000e+000 105637 -7.2276e+001 -1.8083e+002  2.1149e+001 27976 105003,105588,105029
 2.9000e+000 106143 -7.8589e+001 -2.3984e+002  1.4776e+001 27664 106166,105846,105820
 2.9000e+000 106120 -5.7572e+001 -1.8648e+002  7.3130e+000 27664 106310,106166,105820
 2.9000e+000 106097 -3.0251e+001 -2.1949e+002 -3.8301e+001 27664 106382,106238,105950
 2.9000e+000 106074 -3.8358e+001 -1.8233e+002  7.4695e+000 27664 106310,105820,106002
 2.9000e+000 106051  1.0344e+001 -1.9601e+002 -2.7960e+001 27664 106382,105950,105924
 2.9000e+000 106028 -2.5885e+001 -3.4285e+002 -8.9431e+000 27664 105846,105898,105872
 2.9000e+000 106192 -7.5187e+001 -2.6739e+002 -3.2156e+001 27664 105898,105846,106166
 2.9000e+000 106215 -4.8817e+001 -2.2492e+002 -8.7041e+000 27664 106238,105898,106166
 2.9000e+000 106264 -1.2304e+002 -2.4334e+002 -5.2292e+001 27664 105976,105950,106238
 2.9000e+000 106287 -4.4969e+001 -2.2368e+002 -9.4803e+000 27664 105976,106238,106166
 2.9000e+000 106336 -3.8201e+001 -1.9805e+002  2.5179e+001 27664 105976,106166,106310
 2.9000e+000 106359 -1.6056e+001 -1.9233e+002  2.4580e+001 27664 105976,106310,106002
 2.9000e+000 106408 -4.7179e+001 -1.8150e+002  7.4690e+000 27664 105898,106238,106382
 2.9000e+000 106431 -2.3245e+001 -1.6938e+002  1.4194e+001 27664 105898,106382,105924
 2.9000e+000 106728 -2.6345e+001 -1.3015e+002  2.6151e+001 27153 106751,106506,106454
 2.9000e+000 106705 -2.4169e+001 -1.3133e+002  1.9275e+001 27153 106751,106454,106610
 2.9000e+000 106682 -3.8671e+001 -1.0156e+002  7.9554e+000 27153 106454,106506,106480
 2.9000e+000 106659 -3.4647e+001 -1.2913e+002  1.0152e+001 27153 106532,106610,106584
 2.9000e+000 106636 -5.0506e+001 -7.4689e+001  2.5222e+001 27153 106532,106584,106558
 2.9000e+000 106777 -1.6947e+001 -1.3048e+002  2.7054e+001 27153 106532,106506,106751
 2.9000e+000 106800 -1.6057e+001 -1.3081e+002  1.8820e+001 27153 106532,106751,106610
 2.9000e+000 107180 -3.7123e+001 -1.6131e+002  9.9234e+000 26642 107203,106984,106958
 2.9000e+000 107157 -8.4646e+001 -1.8332e+002  2.4961e+000 26642 107203,106958,106932
 2.9000e+000 107134 -1.0041e+002 -2.0165e+002 -2.4306e+001 26642 107275,107036,107010
 2.9000e+000 107111 -6.3393e+001 -1.9714e+002 -3.3293e+001 26642 106932,107062,107036
 2.9000e+000 107088 -2.0501e+000 -1.5427e+002  1.8604e+001 26642 106906,107062,106932
 2.9000e+000 107229 -1.2200e+001 -1.5068e+002 -4.2836e+001 26642 107010,106984,107203
 2.9000e+000 107252 -8.9022e+001 -1.8604e+002 -3.0341e+001 26642 107275,107010,107203
 2.9000e+000 107301 -8.6829e+001 -1.9966e+002 -3.2818e+001 26642 106932,107036,107275
 2.9000e+000 107324 -8.3140e+001 -1.9988e+002 -3.4650e+001 26642 106932,107275,107203
 2.9000e+000 107675 -4.0160e+001 -1.1106e+002  1.2562e+001 26045 107450,107554,107476
 2.9000e+000 107652 -3.1616e+001 -9.6307e+001  4.2378e+000 26045 107450,107580,107554
 2.9000e+000 107629 -1.4605e+001 -9.0434e+001  2.3759e+000 26045 107476,107528,107502
 2.9000e+000 107606 -1.0033e+001 -1.0427e+002  7.1681e+000 26045 107476,107554,107528
 2.9000e+000 107874 -2.9570e+001 -1.6936e+002  4.2614e+001 25641 107750,107802,107776
 2.9000e+000 107851 -3.7411e+001 -1.2348e+002  2.3762e+001 25641 107724,107802,107750
 2.9000e+000 107828 -4.1432e+001 -1.2963e+002  1.7794e+001 25641 107698,107802,107724
 2.9000e+000 108431 -1.3087e+001 -1.7774e+002  3.3970e+001 25023 108526,108267,108241
 2.9000e+000 108408 -2.4661e-001 -1.6182e+002  5.9595e+000 25023 108059,108267,108085
 2.9000e+000 108385 -2.4645e+001 -1.9284e+002  3.0002e+001 25023 108454,108163,108111
 2.9000e+000 108362 -8.1705e+001 -1.8952e+002  5.6974e+001 25023 108454,108111,108085
 2.9000e+000 108339 -6.8054e+001 -2.4498e+002  5.2188e+001 25023 108111,108163,108137
 2.9000e+000 108316 -4.2305e+001 -1.3767e+002 -7.6706e+000 25023 108163,108241,108215
 2.9000e+000 108293  1.7940e+001 -1.1076e+002 -8.3995e-001 25023 108163,108215,108189
 2.9000e+000 108480 -4.2491e+000 -1.6819e+002  3.5459e+000 25023 108241,108163,108454
 2.9000e+000 108503 -2.4153e+001 -1.7844e+002  3.4817e+001 25023 108526,108241,108454
 2.9000e+000 108552 -2.7688e+001 -1.7129e+002  2.6879e+001 25023 108085,108267,108526
 2.9000e+000 108575 -3.9189e+001 -1.7238e+002  2.7529e+001 25023 108085,108526,108454
 2.9000e+000 108823 -1.0740e+001 -1.3827e+002  2.1037e+001 24461 108624,108728,108650
 2.9000e+000 108800 -2.5719e+001 -2.8528e+002 -1.7434e+001 24461 108598,108728,108624
 2.9000e+000 108777 -3.7230e+000 -1.8193e+002  1.8497e+001 24461 108650,108728,108676
 2.9000e+000 108754 -8.3546e+001 -5.0560e+002  4.5363e+001 24461 108676,108728,108702
 2.9000e+000 109022 -4.7847e+001 -1.4012e+002  1.3512e+001 24121 108872,108924,108898
 2.9000e+000 108999 -3.9050e+001 -1.4531e+002  1.3321e+001 24121 108846,108924,108872
 2.9000e+000 108976 -1.0843e+001 -1.4253e+002  3.5958e+001 24121 108846,108950,108924
 2.9000e+000 109483 -6.0142e+001 -1.9394e+002 -1.9418e+001 23717 109209,109339,109235
 2.9000e+000 109460 -2.4624e+001 -2.2139e+002 -4.5407e+001 23717 109209,109365,109339
 2.9000e+000 109437 -8.4030e+000 -2.4019e+002 -1.3174e+001 23717 109287,109339,109313
 2.9000e+000 109414 -1.1297e+002 -2.4418e+002  1.1135e+001 23717 109235,109339,109287
 2.9000e+000 109391 -1.0369e+001 -2.8725e+002  9.3601e+001 23717 109235,109287,109261
 2.9000e+000 109910 -7.6722e+001 -2.2334e+002 -2.2719e+001 23305 109613,109743,109717
 2.9000e+000 109887 -7.8756e+001 -2.2585e+002 -1.3538e+001 23305 109613,109769,109743
 2.9000e+000 109864 -9.4580e+001 -2.1819e+002 -1.8436e+001 23305 109613,109717,109639
 2.9000e+000 109841 -6.1538e+001 -2.1073e+002 -4.8928e+000 23305 109587,109769,109613
 2.9000e+000 109818  1.1684e+001 -1.7291e+002  2.3516e+001 23305 109639,109717,109691
 2.9000e+000 109795 -2.1988e+001 -1.3957e+002 -2.9205e+001 23305 109639,109691,109665
 2.9000e+000 110180 -5.3694e+000 -6.5614e+001 -1.3656e+001 22851 110007,110059,110033
 2.9000e+000 110157 -4.5174e+001 -1.7363e+002  7.3473e+000 22851 109981,110059,110007
 2.9000e+000 110134 -6.2890e+001 -1.8720e+002  8.7258e-001 22851 109955,110059,109981
 2.9000e+000 110111 -2.5420e+001 -2.0499e+002 -1.6080e+001 22851 109955,110085,110059
 2.9000e+000 110737 -5.2364e+001 -2.0869e+002 -4.0551e+001 22333 110760,110469,110391
 2.9000e+000 110714 -4.1687e+000 -2.2031e+002 -3.6771e+001 22333 110760,110391,110365
 2.9000e+000 110691 -1.5102e+000 -2.0315e+002 -3.2904e+001 22333 110832,110521,110469
 2.9000e+000 110668 -1.6707e+000 -3.3843e+002 -1.8349e-001 22333 110417,110469,110443
 2.9000e+000 110645 -1.0561e+002 -3.1101e+002 -4.0663e+000 22333 110391,110469,110417
 2.9000e+000 110622  4.4289e+001 -1.7554e+002 -5.5753e+001 22333 110469,110521,110495
 2.9000e+000 110599  3.0059e+000 -1.3252e+002  4.5970e+000 22333 110365,110573,110547
 2.9000e+000 110786 -1.4286e+001 -2.0095e+002 -2.7769e+001 22333 110832,110469,110760
 2.9000e+000 110809  1.1091e+001 -2.1459e+002 -2.6984e+001 22333 110547,110760,110365
 2.9000e+000 110858  3.1511e+001 -2.0256e+002 -4.3171e+001 22333 110547,110521,110832
 2.9000e+000 110881  1.1221e+000 -2.0856e+002 -4.2911e+001 22333 110547,110832,110760
 2.9000e+000 111308 -1.0597e+002 -2.4301e+002  1.3391e+001 21829 111331,111063,111011
 2.9000e+000 111285 -1.0320e+002 -2.2987e+002 -3.0697e+000 21829 111331,111011,111167
 2.9000e+000 111262 -1.1117e+002 -2.4187e+002  1.1708e+001 21829 111403,111089,111063
 2.9000e+000 111239 -1.3054e+002 -2.4574e+002  3.5238e+001 21829 111011,111063,111037
 2.9000e+000 111216 -7.3056e+001 -1.7574e+002  9.4743e+000 21829 110985,111167,111011
 2.9000e+000 111193 -1.2733e+002 -3.9263e+002  7.8951e+001 21829 111089,111141,111115
 2.9000e+000 111357 -1.0812e+002 -2.4440e+002  1.1669e+001 21829 111403,111063,111331
 2.9000e+000 111380 -1.1285e+002 -2.5506e+002 -2.9115e+000 21829 111141,111331,111167
 2.9000e+000 111429 -1.1493e+002 -2.4549e+002  1.4659e+001 21829 111141,111089,111403
 2.9000e+000 111452 -1.1112e+002 -2.4955e+002  1.3395e+001 21829 111141,111403,111331
 2.9000e+000 112056  5.6483e+001 -1.8843e+002  2.3343e+000 21489 111687,111765,111739
 2.9000e+000 112033  8.9571e+000 -2.2066e+002  2.2285e+001 21489 112151,112079,111687
 2.9000e+000 112010 -1.2207e+001 -3.4073e+002  2.3549e+001 21489 111791,111843,111817
 2.9000e+000 111987 -6.6697e+001 -2.7391e+002 -1.7831e+001 21489 112079,111843,111791
 2.9000e+000 111964  4.0722e+001 -2.0518e+002  4.1068e+001 21489 112151,111687,111661
 2.9000e+000 111941 -2.4167e+001 -1.5008e+002  3.5989e+001 21489 111661,111869,111843
 2.9000e+000 111918  6.4615e+001 -2.0208e+002  2.8536e+001 21489 111687,111739,111713
 2.9000e+000 111895  6.1488e+000 -7.9728e+001  1.4125e+001 21489 111635,111869,111661
 2.9000e+000 112105 -4.2136e+001 -2.3395e+002  1.4707e+001 21489 111765,111687,112079
 2.9000e+000 112128 -4.4739e+001 -2.2866e+002  1.7036e+001 21489 111765,112079,111791
 2.9000e+000 112177 -4.4526e+001 -2.1740e+002 -4.6728e+000 21489 111843,112079,112151
 2.9000e+000 112200 -1.5512e+001 -2.1136e+002  1.0599e+001 21489 111843,112151,111661
 2.9000e+000 112578 -5.3737e+001 -2.7360e+002  1.1826e+001 21177 112382,112434,112408
 2.9000e+000 112555 -6.4886e+001 -2.7102e+002  1.0353e+000 21177 112330,112434,112382
 2.9000e+000 112532 -5.2823e+001 -2.3420e+002  3.9856e+001 21177 112304,112434,112330
 2.9000e+000 112509 -6.3170e+001 -2.6173e+002  0.0000e+000 21177 112330,112382,112356
 2.9000e+000 112486 -1.5180e+001 -1.5459e+002  8.9823e+000 21177 112304,112460,112434
 2.9000e+000 112679 -2.8598e+000 -1.8823e+002 -3.1344e+001 20666 112601,112653,112627
 2.9000e+000 112927 -7.5638e+001 -2.5762e+002  8.1870e+000 19762 112702,112754,112728
 2.9000e+000 112904 -2.9479e+001 -2.4255e+002 -3.6916e+000 19762 112702,112832,112754
 2.9000e+000 112881 -6.4767e+001 -2.5864e+002  4.1117e+001 19762 112754,112832,112806
 2.9000e+000 112858 -9.0647e+001 -3.2398e+002  3.9990e+001 19762 112754,112806,112780
 2.9000e+000 113297 -6.8267e+001 -3.0017e+002  1.9359e+001 19308 112974,113052,113026
 2.9000e+000 113274 -4.6590e+001 -2.5114e+002  6.6835e+000 19308 112974,113156,113052
 2.9000e+000 113251 -2.6286e+001 -3.3175e+002 -3.9595e+001 19308 113052,113130,113104
 2.9000e+000 113228 -5.0399e+001 -2.5007e+002  9.3612e-002 19308 113052,113156,113130
 2.9000e+000 113205 -4.8784e+001 -2.8935e+002  0.0000e+000 19308 113052,113104,113078
 2.9000e+000 113182 -9.6771e+001 -3.1065e+002 -1.1311e+000 19308 112974,113026,113000
 2.9000e+000 113547 -1.9966e+001 -2.7505e+002 -1.7172e+001 18711 113570,113374,113348
 2.9000e+000 113524 -3.0377e+001 -2.5328e+002 -1.0145e+001 18711 113570,113348,113452
 2.9000e+000 113501 -2.3952e+001 -1.9487e+002 -5.2355e+001 18711 113322,113452,113348
 2.9000e+000 113478 -3.6551e+001 -2.4742e+002 -8.4563e+001 18711 113374,113426,113400
 2.9000e+000 113596 -1.4656e+001 -2.5153e+002 -2.3298e+001 18711 113426,113374,113570
 2.9000e+000 113619 -2.8347e+001 -2.3436e+002 -1.1893e+001 18711 113426,113570,113452
 2.9000e+000 113771 -1.3569e+002 -3.4041e+002 -1.7992e+001 18307 113670,113722,113696
 2.9000e+000 113748 -1.0767e+002 -3.1794e+002 -8.0453e+000 18307 113644,113722,113670
 2.9000e+000 113972 -5.7382e+001 -2.8119e+002  3.9597e+000 17945 113822,113874,113848
 2.9000e+000 113949 -6.0748e+001 -2.7863e+002  6.1972e+000 17945 113822,113900,113874
 2.9000e+000 113926 -8.7249e+001 -2.1645e+002  1.2951e+002 17945 113796,113900,113822
 2.9000e+000 114075 -3.8951e+001 -4.1709e+002  4.5578e+001 17482 113997,114049,114023
 2.9000e+000 114479 -1.8340e+001 -2.3348e+002 -3.6656e+001 17042 114257,114361,114335
 2.9000e+000 114456 -5.6780e+001 -2.2455e+002 -6.8635e+000 17042 114205,114361,114257
 2.9000e+000 114433 -6.9131e+001 -2.5930e+002  8.5581e+000 17042 114205,114257,114231
 2.9000e+000 114410  5.1822e+001 -3.4493e+002 -2.2288e+001 17042 114283,114335,114309
 2.9000e+000 114387 -3.9125e+000 -2.9953e+002 -1.5176e+001 17042 114257,114335,114283
 2.9000e+000 114879 -1.2648e+002 -2.5380e+002 -4.3219e+000 16638 114631,114683,114657
 2.9000e+000 114856 -6.5721e+000 -2.0359e+002 -3.6807e-001 16638 114605,114683,114631
 2.9000e+000 114833  1.1117e+001 -1.4652e+002  1.3951e+000 16638 114605,114761,114683
 2.9000e+000 114810  4.1697e+001 -2.3976e+002 -2.2786e+001 16638 114683,114735,114709
 2.9000e+000 114787 -5.8585e+001 -2.7049e+002 -2.7626e+001 16638 114683,114761,114735
 2.9000e+000 115078 -1.2917e+002 -2.7966e+002  7.3991e+000 16232 114954,115006,114980
 2.9000e+000 115055 -1.2109e+002 -2.9853e+002  1.0055e+001 16232 114928,115006,114954
 2.9000e+000 115032 -5.4732e+001 -3.8938e+002  2.1606e+001 16232 114902,115006,114928
 2.9000e+000 115228 -7.0483e+001 -2.6607e+002  7.1454e+000 15482 115101,115153,115127
 2.9000e+000 115205 -7.1356e+001 -2.5774e+002 -1.1881e+000 15482 115101,115179,115153
 2.9000e+000 115331 -6.7943e+001 -2.6015e+002 -2.9456e+001 15163 115253,115305,115279
 2.9000e+000 115434 -8.3054e+001 -2.6680e+002  3.5736e+001 421 115356,115408,115382
 3.0000e+000 68213 -9.6691e+000 -1.5562e+002 -1.1893e+001 67888 68112,68164,68138
 3.0000e+000 68190 -1.3891e+002 -1.9597e+002 -1.7757e+001 67888 68086,68164,68112
 3.0000e+000 68314 -2.3423e+001 -2.8313e+002  3.4412e+001 67576 68236,68288,68262
 3.0000e+000 68584 -6.6881e+001 -3.6068e+002  1.2962e+001 67378 68385,68489,68463
 3.0000e+000 68561  7.3951e+001 -3.0142e+002  9.0476e+000 67378 68359,68489,68385
 3.0000e+000 68538 -5.9530e+001 -3.1592e+002  1.5976e+001 67378 68385,68463,68411
 3.0000e+000 68515 -3.5933e+001 -2.0313e+002  8.1517e+000 67378 68411,68463,68437
 3.0000e+000 68964 -7.3629e+001 -3.2637e+002  5.0514e+001 67130 68690,68820,68716
 3.0000e+000 68941  8.0286e+001 -3.3660e+002  9.5515e+001 67130 68690,68846,68820
 3.0000e+000 68918 -6.5935e+001 -2.1393e+002  6.0214e+000 67130 68742,68820,68794
 3.0000e+000 68895 -6.9939e+000 -2.1243e+002  2.0530e+001 67130 68716,68820,68742
 3.0000e+000 68872 -4.0687e+001 -1.7768e+002 -2.1172e+001 67130 68742,68794,68768
 3.0000e+000 69065 -5.6873e+001 -2.0502e+002  4.3929e+000 66926 68987,69039,69013
 3.0000e+000 69445 -3.5173e+001 -1.9749e+002 -6.3374e+000 66614 69223,69301,69275
 3.0000e+000 69422 -5.7410e+001 -2.0673e+002 -5.3849e+000 66614 69171,69301,69223
 3.0000e+000 69399 -7.0807e+001 -2.1127e+002  1.0281e+000 66614 69171,69327,69301
 3.0000e+000 69376 -1.0322e+001 -1.0351e+002  2.4660e+000 66614 69223,69275,69249
 3.0000e+000 69353 -4.7332e+001 -2.1754e+002 -4.5134e+000 66614 69171,69223,69197
 3.0000e+000 69546 -5.1990e+001 -2.9587e+002  1.7935e+001 66416 69468,69520,69494
 3.0000e+000 69997 -4.2297e+001 -3.0088e+002 -3.0001e+001 66104 69700,69830,69726
 3.0000e+000 69974 -5.3763e+001 -3.8743e+002 -6.1434e+001 66104 69700,69856,69830
 3.0000e+000 69951 -5.2001e+001 -2.2954e+002 -1.8007e+001 66104 69726,69804,69778
 3.0000e+000 69928 -3.8868e+001 -2.8071e+002 -2.4802e+001 66104 69726,69830,69804
 3.0000e+000 69905 -5.6626e+001 -2.1915e+002 -9.4879e+000 66104 69726,69778,69752
 3.0000e+000 69882 -1.5434e+001 -5.7628e+002 -1.0028e+002 66104 69674,69856,69700
 3.0000e+000 70326 -5.0216e+001 -1.3055e+002 -1.8442e+001 65814 70349,70153,70127
 3.0000e+000 70303  1.4406e+000 -1.3212e+002 -2.8297e+000 65814 70349,70127,70101
 3.0000e+000 70280  4.2079e+001 -7.1418e+001  7.0152e+001 65814 70101,70231,70205
 3.0000e+000 70257  5.8390e+001 -1.3895e+002  1.8890e+001 65814 70153,70205,70179
 3.0000e+000 70375 -2.5066e+001 -1.3610e+002  1.8410e+001 65814 70205,70153,70349
 3.0000e+000 70398  4.9192e+001 -1.2875e+002  2.9201e+001 65814 70205,70349,70101
 3.0000e+000 70904 -1.5068e+001 -6.5971e+001 -2.3459e+001 65502 70607,70737,70685
 3.0000e+000 70881 -2.1014e+001 -5.0722e+001 -3.1067e+001 65502 70581,70737,70607
 3.0000e+000 70858 -2.0413e+001 -3.6122e+000 -4.6039e+000 65502 70581,70763,70737
 3.0000e+000 70835 -3.2196e+001 -7.5466e+001 -3.2003e+001 65502 70685,70737,70711
 3.0000e+000 70812 -1.0729e+002 -8.7196e+001 -3.7978e+000 65502 70607,70659,70633
 3.0000e+000 70789 -2.9391e+001 -9.2481e+001 -1.5964e+000 65502 70607,70685,70659
 3.0000e+000 71103 -3.0653e+001 -2.6939e+002 -7.1938e+000 65304 71126,70979,70953
 3.0000e+000 71080 -5.4134e+001 -2.7399e+002 -2.2566e+000 65304 71126,70953,70927
 3.0000e+000 71057 -7.9594e+001 -2.7726e+002  1.9313e+001 65304 70927,71031,71005
 3.0000e+000 71152 -5.5785e+001 -2.4780e+002 -1.3694e+001 65304 71005,70979,71126
 3.0000e+000 71175 -8.5684e+001 -2.6034e+002 -2.8224e+000 65304 71005,71126,70927
 3.0000e+000 71374 -1.9845e+000 -2.5989e+002  1.2926e+001 65106 71198,71276,71224
 3.0000e+000 71351 -7.7733e+001 -2.8250e+002  5.0414e+000 65106 71198,71302,71276
 3.0000e+000 71328  1.9560e+001 -2.0552e+002  2.9940e+001 65106 71224,71276,71250
 3.0000e+000 71756 -2.8047e+001 -1.7861e+002 -1.4730e+001 64652 71508,71638,71534
 3.0000e+000 71733 -7.3506e-001 -1.6651e+002  2.3117e+000 64652 71482,71638,71508
 3.0000e+000 71710 -5.7734e+001 -1.5362e+002 -3.6674e+000 64652 71534,71586,71560
 3.0000e+000 71687 -3.3967e+001 -1.7705e+002 -3.6283e+001 64652 71534,71612,71586
 3.0000e+000 71664 -8.4127e+001 -1.9560e+002 -3.4956e+001 64652 71534,71638,71612
 3.0000e+000 72085 -6.2632e+001 -1.9161e+002 -2.9124e+001 64248 71886,71964,71912
 3.0000e+000 72062 -6.5529e+001 -1.9673e+002 -2.5150e+001 64248 71860,71964,71886
 3.0000e+000 72039 -1.8124e+001 -1.8030e+002 -1.7034e+001 64248 71912,71964,71938
 3.0000e+000 72016 -3.7227e+001 -1.8763e+002 -3.5145e+001 64248 71860,71990,71964
 3.0000e+000 72235 -2.7170e+000 -1.1629e+002 -1.5677e+001 63858 72588,72258,72134
 3.0000e+000 72212 -6.5304e+000 -6.3489e+001  2.0428e+001 63858 72330,72258,72108
 3.0000e+000 72284 -3.0082e+000 -6.9286e+001 -5.6784e+000 63858 72160,72134,72258
 3.0000e+000 72307 -5.7613e+001 -1.0672e+002 -1.1084e+001 63858 72460,72258,72186
 3.0000e+000 72356 -4.5413e+001 -9.7310e+001 -5.5286e+000 63858 72186,72258,72330
 3.0000e+000 72486 -1.4954e+001 -1.0103e+002 -8.1476e+000 63858 72160,72258,72460
 3.0000e+000 72614  1.5831e+001 -1.2050e+002  1.7248e+001 63858 72108,72258,72588
 3.0000e+000 73248 -2.0967e+001 -1.7798e+002  5.6899e+001 63404 72902,72954,72928
 3.0000e+000 73225 -8.5987e+001 -2.0119e+002  2.7891e+001 63404 73271,72954,72902
 3.0000e+000 73202 -7.0705e+001 -1.5693e+002  2.2997e+001 63404 73271,72902,73032
 3.0000e+000 73179 -4.2936e+001 -1.3461e+002  9.5212e+000 63404 72902,73058,73032
 3.0000e+000 73156 -5.3120e+001 -1.6602e+002  4.4700e+000 63404 72980,73032,73006
 3.0000e+000 73133 -4.1959e+001 -1.3625e+002  8.8527e+000 63404 72876,73058,72902
 3.0000e+000 73110 -1.7109e+001 -6.3653e+001 -3.2616e+001 63404 72876,73084,73058
 3.0000e+000 73297 -6.7047e+001 -2.0651e+002  1.5136e-001 63404 72980,72954,73271
 3.0000e+000 73320 -6.3294e+001 -1.8322e+002 -4.6996e-001 63404 72980,73271,73032
 3.0000e+000 73470 -7.2829e+001 -4.9395e+002  5.1655e+001 63014 73343,73395,73369
 3.0000e+000 73447 -2.3174e+002 -6.1092e+002 -1.2631e+001 63014 73343,73421,73395
 3.0000e+000 73929  4.6046e+001 -2.1693e+002  2.9761e+001 62702 73759,73811,73785
 3.0000e+000 73906  5.3852e+001 -2.1658e+002  2.1974e+001 62702 73655,73811,73759
 3.0000e+000 73883  1.4500e+000 -2.5954e+002 -2.0752e+000 62702 73655,73759,73681
 3.0000e+000 73860  3.7536e+001 -1.8714e+002 -4.7736e+001 62702 73681,73759,73707
 3.0000e+000 73837 -8.6572e+001 -2.1323e+002  1.8952e+000 62702 73707,73759,73733
 3.0000e+000 74209 -1.3170e+002 -2.2532e+002 -9.4491e-001 62404 74059,74137,74085
 3.0000e+000 74186 -1.5531e+002 -3.0176e+002  3.5678e+001 62404 74033,74137,74059
 3.0000e+000 74163 -1.3685e+002 -2.0434e+002 -6.6031e-001 62404 74085,74137,74111
 3.0000e+000 74408  5.7214e+000 -1.9013e+002  2.0052e+001 62000 74258,74336,74284
 3.0000e+000 74385 -5.0555e+000 -1.9272e+002  2.5389e+001 62000 74232,74336,74258
 3.0000e+000 74362 -3.4823e+001 -1.7495e+002  7.1895e+000 62000 74284,74336,74310
 3.0000e+000 74509 -2.1668e+000 -2.6069e+002  3.9982e+001 61802 74431,74483,74457
 3.0000e+000 74759 -6.3477e+001 -2.0377e+002 -1.8104e+000 61554 74782,74586,74560
 3.0000e+000 74736 -2.9525e+001 -1.8135e+002  8.4273e+000 61554 74782,74560,74664
 3.0000e+000 74713 -5.4669e+001 -1.3509e+002  7.1427e+001 61554 74854,74612,74586
 3.0000e+000 74690 -4.4538e+001 -2.0181e+002  1.1255e-001 61554 74534,74664,74560
 3.0000e+000 74808 -8.6907e+001 -1.8039e+002  1.7743e+001 61554 74854,74586,74782
 3.0000e+000 74831 -3.7553e+001 -2.3258e+002  1.3858e+001 61554 74638,74782,74664
 3.0000e+000 74880  1.4837e+001 -1.8163e+002  7.6092e+001 61554 74638,74612,74854
 3.0000e+000 74903  1.3696e+001 -1.7632e+002  3.5869e+001 61554 74638,74854,74782
 3.0000e+000 75285  1.9189e+001 -2.2145e+002 -3.7334e-001 61356 75063,75167,75115
 3.0000e+000 75262  2.6409e+000 -2.4275e+002 -2.2217e+001 61356 75037,75167,75063
 3.0000e+000 75239  3.2955e+001 -2.2549e+002 -9.5196e-001 61356 75115,75167,75141
 3.0000e+000 75216  4.2373e+000 -2.2494e+002 -3.0477e-001 61356 75063,75115,75089
 3.0000e+000 75193 -8.7535e+001 -1.6390e+002  2.1008e+001 61356 75011,75167,75037
 3.0000e+000 75631  8.5451e+000 -1.8379e+002  9.3438e+000 60952 75654,75412,75360
 3.0000e+000 75608  8.8575e+000 -2.0862e+002  4.3889e-001 60952 75654,75360,75334
 3.0000e+000 75585 -1.8976e+001 -2.6951e+002  1.4480e+001 60952 75726,75438,75412
 3.0000e+000 75562  3.6780e+001 -1.8822e+002 -4.1112e+001 60952 75308,75490,75334
 3.0000e+000 75539  7.6776e+000 -1.7963e+002 -1.8439e+000 60952 75360,75412,75386
 3.0000e+000 75516 -4.7600e+001 -3.2801e+002 -8.1132e+000 60952 75438,75490,75464
 3.0000e+000 75680  3.1288e+000 -2.1855e+002  1.2049e+001 60952 75726,75412,75654
 3.0000e+000 75703  8.6259e+000 -2.0692e+002  1.3437e-001 60952 75490,75654,75334
 3.0000e+000 75752 -7.5186e+000 -2.1162e+002 -4.6707e-001 60952 75490,75438,75726
 3.0000e+000 75775 -7.7366e+000 -2.0862e+002 -4.9975e+000 60952 75490,75726,75654
 3.0000e+000 76155 -1.9311e+001 -1.9405e+002 -5.7438e+000 60754 75933,75985,75959
 3.0000e+000 76132 -4.1996e+001 -2.0977e+002  2.6688e+001 60754 75933,76037,75985
 3.0000e+000 76109  1.9155e+001 -2.0755e+002  1.1553e+001 60754 75985,76037,76011
 3.0000e+000 76086 -7.6627e+001 -1.6798e+002  7.2950e+000 60754 75881,76037,75933
 3.0000e+000 76063 -1.0421e+002 -1.4929e+002  4.1952e+001 60754 75881,75933,75907
 3.0000e+000 76612 -2.9573e+001 -1.5351e+002  2.9747e+000 60350 76635,76442,76390
 3.0000e+000 76589  1.7676e+000 -1.7501e+002  9.9802e+000 60350 76635,76390,76364
 3.0000e+000 76566 -5.9990e+000 -2.2295e+002 -1.6150e+001 60350 76364,76494,76468
 3.0000e+000 76543 -1.6508e+000 -1.3871e+002  1.3327e+001 60350 76390,76442,76416
 3.0000e+000 76520 -7.9853e+001 -1.4207e+002 -3.7633e+001 60350 76338,76494,76364
 3.0000e+000 76661 -4.6844e+001 -1.6811e+002  9.4037e+000 60350 76468,76442,76635
 3.0000e+000 76684 -2.3983e+001 -1.9299e+002  1.8500e+001 60350 76468,76635,76364
 3.0000e+000 76932 -6.9249e+001 -2.3539e+002  5.1714e-002 59946 76955,76733,76707
 3.0000e+000 76909 -6.9702e+001 -2.3527e+002  5.0760e+000 59946 77027,76955,76707
 3.0000e+000 76886 -6.5095e+001 -2.3605e+002  3.4929e+000 59946 77027,76707,76837
 3.0000e+000 76863 -3.1863e+001 -2.5290e+002 -2.3532e+001 59946 76733,76785,76759
 3.0000e+000 76981 -8.0000e+001 -2.3679e+002 -4.1225e+000 59946 76785,76733,76955
 3.0000e+000 77004 -7.2173e+001 -2.3179e+002  3.0466e+000 59946 76785,76955,76811
 3.0000e+000 77053 -6.3483e+001 -2.3401e+002  4.7990e+000 59946 76811,76955,77027
 3.0000e+000 77076 -6.0174e+001 -2.3506e+002  2.4750e+000 59946 76811,77027,76837
 3.0000e+000 77226 -7.0794e+001 -1.8613e+002  5.2724e+000 59542 77099,77151,77125
 3.0000e+000 77203 -8.8697e+001 -2.2769e+002  8.2501e+000 59542 77099,77177,77151
 3.0000e+000 77427 -1.0913e+002 -2.1548e+002 -2.0000e+001 59030 77450,77277,77251
 3.0000e+000 77404 -5.8532e+001 -1.6338e+002 -7.5619e+001 59030 77450,77251,77355
 3.0000e+000 77381  2.0674e+001 -2.4383e+002 -1.8829e+001 59030 77277,77329,77303
 3.0000e+000 77476 -4.8178e+001 -2.2651e+002 -5.2240e+001 59030 77329,77277,77450
 3.0000e+000 77499  6.2201e+000 -2.0179e+002 -9.5945e+001 59030 77329,77450,77355
 3.0000e+000 77749 -9.5783e+001 -2.7715e+002  2.7259e+001 58426 77772,77628,77602
 3.0000e+000 77726 -5.9714e+001 -3.1522e+002  8.5454e+001 58426 77524,77654,77628
 3.0000e+000 77703 -6.9794e+001 -2.8544e+002  1.8307e+001 58426 77772,77602,77550
 3.0000e+000 77680 -3.4814e+001 -2.6568e+002 -1.4943e+001 58426 77550,77602,77576
 3.0000e+000 77798 -6.7534e+001 -2.6380e+002  3.3249e+001 58426 77524,77628,77772
 3.0000e+000 77821 -5.8064e+001 -2.8306e+002  1.9487e+001 58426 77524,77772,77550
 3.0000e+000 78071 -1.2379e+002 -2.8370e+002  3.0904e+001 57922 78094,77924,77898
 3.0000e+000 78048 -1.5008e+002 -2.8390e+002 -4.1210e+000 57922 78094,77898,77872
 3.0000e+000 78025 -1.1339e+002 -2.5451e+002  2.4983e+001 57922 78166,77846,77950
 3.0000e+000 78002 -1.9975e+001 -2.5471e+002  3.8402e+001 57922 77846,77976,77950
 3.0000e+000 78120 -9.3141e+001 -2.8135e+002  1.7847e+001 57922 77950,77924,78094
 3.0000e+000 78143 -1.1686e+002 -2.5955e+002  1.7775e+001 57922 78166,77950,78094
 3.0000e+000 78192 -1.0562e+002 -2.6753e+002  1.5927e+001 57922 77872,77846,78166
 3.0000e+000 78215 -1.1630e+002 -2.8099e+002  7.8647e+000 57922 77872,78166,78094
 3.0000e+000 78416 -6.0638e+000 -2.4949e+002  3.0035e+000 57468 78439,78292,78240
 3.0000e+000 78393  2.6289e+001 -2.2942e+002 -9.6986e+000 57468 78439,78240,78344
 3.0000e+000 78370 -2.3863e+001 -3.2277e+002  3.0616e+000 57468 78240,78292,78266
 3.0000e+000 78465  2.8877e+001 -2.4158e+002 -1.1580e+001 57468 78318,78292,78439
 3.0000e+000 78488  4.2130e+001 -2.3890e+002 -2.1078e+001 57468 78318,78439,78344
 3.0000e+000 78689  4.0981e+001 -2.7701e+002 -3.5963e+001 57014 78712,78539,78513
 3.0000e+000 78666 -1.0732e+001 -2.5806e+002  1.7930e-003 57014 78712,78513,78617
 3.0000e+000 78643 -3.6729e+001 -2.7399e+002  4.0346e+001 57014 78565,78617,78591
 3.0000e+000 78738 -2.5545e+001 -2.5501e+002 -4.3419e+001 57014 78565,78539,78712
 3.0000e+000 78761 -8.9234e+001 -2.6159e+002  1.0247e+001 57014 78565,78712,78617
 3.0000e+000 79241 -9.9150e+001 -2.3450e+002  1.2809e+001 56652 79264,78895,78869
 3.0000e+000 79218 -4.5455e+001 -3.2117e+002 -3.0797e+001 56652 79264,78869,79051
 3.0000e+000 79195 -6.5486e+001 -2.9025e+002 -6.7517e+001 56652 78869,79077,79051
 3.0000e+000 79172 -6.5282e+001 -1.4672e+002 -2.5783e+001 56652 78895,78973,78947
 3.0000e+000 79149 -1.1509e+002 -4.6334e+002 -4.5892e+001 56652 78973,79051,78999
 3.0000e+000 79126 -5.7083e+001 -1.5186e+002 -2.7715e+001 56652 78895,78947,78921
 3.0000e+000 79103 -8.0499e+001 -2.7946e+002  6.7174e+001 56652 78999,79051,79025
 3.0000e+000 79290 -5.8892e+001 -1.7986e+002  4.3213e+001 56652 78973,78895,79264
 3.0000e+000 79313 -1.5739e+000 -2.7284e+002  2.6650e+000 56652 78973,79264,79051
 3.0000e+000 79512 -2.6324e+001 -3.4030e+002  2.7476e+001 56062 79388,79440,79414
 3.0000e+000 79489 -1.2807e+002 -1.7095e+002  4.6434e+001 56062 79336,79440,79388
 3.0000e+000 79466 -5.2909e+001 -1.9644e+002  6.0234e+001 56062 79336,79388,79362
 3.0000e+000 79941 -3.5397e+001 -2.0393e+002  3.5631e+001 55658 79964,79670,79644
 3.0000e+000 79918 -5.9119e+001 -2.0679e+002  4.0006e+001 55658 79964,79644,79800
 3.0000e+000 79895 -5.7392e+001 -2.2031e+002  1.7212e+001 55658 80036,79696,79670
 3.0000e+000 79872 -6.3983e+001 -1.7639e+002 -2.6807e+000 55658 80108,79722,79696
 3.0000e+000 79849 -9.4372e+001 -1.8432e+002  7.5986e+000 55658 79722,79774,79748
 3.0000e+000 79826 -5.1058e-001 -1.8677e+002  1.0180e+001 55658 79618,79800,79644
 3.0000e+000 79990 -6.1365e+001 -2.2011e+002  2.7272e+001 55658 80036,79670,79964
 3.0000e+000 80013 -5.6271e+001 -1.9280e+002  4.0597e+001 55658 79774,79964,79800
 3.0000e+000 80062 -4.6057e+001 -1.9449e+002  1.5432e+001 55658 80108,79696,80036
 3.0000e+000 80085 -6.0130e+001 -1.9382e+002  3.6487e+001 55658 79774,80036,79964
 3.0000e+000 80134 -9.9620e+001 -1.9732e+002  7.2686e+000 55658 79774,79722,80108
 3.0000e+000 80157 -8.9269e+001 -2.1882e+002  2.5781e+001 55658 79774,80108,80036
 3.0000e+000 80307 -9.8542e+001 -1.9539e+002  2.7893e+001 55254 80402,80330,80206
 3.0000e+000 80284 -9.7684e+001 -2.6694e+002  2.4930e+001 55254 80330,80180,80258
 3.0000e+000 80356 -1.1958e+002 -2.4327e+002  5.2299e+001 55254 80232,80206,80330
 3.0000e+000 80379 -3.2011e+001 -2.0410e+002  6.9651e+001 55254 80232,80330,80258
 3.0000e+000 80428 -1.4103e+002 -2.4434e+002  7.9901e+000 55254 80180,80330,80402
 3.0000e+000 80659  8.8078e+000 -2.4337e+002 -2.6204e+001 54850 80558,80610,80584
 3.0000e+000 80636  2.3416e+001 -2.3139e+002 -1.8904e+001 54850 80532,80610,80558
 3.0000e+000 80760  2.0830e+000 -2.1598e+002 -1.4906e+001 54652 80682,80734,80708
 3.0000e+000 81164  3.4937e+000 -2.2585e+002 -5.6370e+000 54248 81187,80942,80890
 3.0000e+000 81141 -6.8347e+000 -2.3113e+002 -1.6754e+000 54248 81187,80890,81046
 3.0000e+000 81118 -7.2946e+000 -2.3242e+002  4.7889e+001 54248 80942,81020,80994
 3.0000e+000 81095  4.0965e+000 -2.3340e+002  9.6544e-001 54248 80890,80942,80916
 3.0000e+000 81072 -1.4152e+001 -1.2021e+002  3.0744e+000 54248 80942,80994,80968
 3.0000e+000 81213 -8.3913e+000 -2.2020e+002 -5.0426e+000 54248 81020,80942,81187
 3.0000e+000 81236 -1.6472e+001 -2.2267e+002 -2.5273e+000 54248 81020,81187,81046
 3.0000e+000 81663 -1.0848e+002 -1.9890e+002  2.5213e+001 53594 81340,81444,81366
 3.0000e+000 81640 -9.7267e+001 -2.9306e+002  1.2047e+001 53594 81340,81470,81444
 3.0000e+000 81617 -3.6129e+001 -2.5594e+002 -1.6111e+001 53594 81340,81522,81470
 3.0000e+000 81594 -5.3197e+001 -1.4340e+002 -1.1149e+001 53594 81392,81444,81418
 3.0000e+000 81571 -7.0282e+001 -1.6713e+002 -1.9102e+001 53594 81366,81444,81392
 3.0000e+000 81548  9.2727e+000 -3.8496e+002  7.1667e+001 53594 81470,81522,81496
 3.0000e+000 81943 -2.7368e+001 -1.3223e+002 -1.1945e+001 53104 81966,81845,81819
 3.0000e+000 81920 -4.6557e+001 -1.2181e+002 -1.8858e+001 53104 81966,81819,81767
 3.0000e+000 81897 -4.5192e+001 -1.1895e+002 -1.8340e+001 53104 81767,81819,81793
 3.0000e+000 81992 -1.4484e+001 -1.3227e+002 -2.0744e+001 53104 81871,81845,81966
 3.0000e+000 82015 -2.9785e+001 -1.1681e+002 -3.1336e+001 53104 81871,81966,81767
 3.0000e+000 82491 -1.8876e+001 -1.4188e+002 -3.0819e+001 52650 82145,82249,82171
 3.0000e+000 82468 -1.1256e+002 -1.8907e+002 -1.4899e+001 52650 82145,82301,82249
 3.0000e+000 82445 -1.0792e+002 -2.5400e+002 -4.1474e+001 52650 82249,82301,82275
 3.0000e+000 82422 -5.4171e+001 -3.0748e+002 -4.2127e+001 52650 82119,82301,82145
 3.0000e+000 82399 -3.0785e+001 -9.5439e+001  1.0769e+001 52650 82171,82249,82223
 3.0000e+000 82376  4.2773e+001 -2.6420e+002 -5.5967e+001 52650 82119,82327,82301
 3.0000e+000 82353 -8.5035e+000 -4.9072e+001 -2.0719e+001 52650 82171,82223,82197
 3.0000e+000 82739 -2.9208e+001 -1.3550e+002  1.0284e+001 52246 82762,82540,82514
 3.0000e+000 82716 -3.2379e+001 -9.8860e+001  6.8472e+000 52246 82762,82514,82644
 3.0000e+000 82693 -5.7153e+001 -1.4066e+002  1.9443e+001 52246 82540,82618,82592
 3.0000e+000 82670 -5.6397e+001 -1.2363e+002  8.3104e+000 52246 82540,82592,82566
 3.0000e+000 82788 -3.1592e+001 -1.4706e+002  9.5875e+000 52246 82618,82540,82762
 3.0000e+000 82811 -5.3129e+001 -1.3865e+002 -1.1674e+000 52246 82618,82762,82644
 3.0000e+000 83059 -1.1462e+001 -1.7491e+002  1.3777e+001 51578 82860,82964,82938
 3.0000e+000 83036 -1.3422e+001 -1.7022e+002 -3.5576e+001 51578 82834,82964,82860
 3.0000e+000 83013  4.0589e+001 -1.4903e+002  2.4581e+001 51578 82860,82938,82886
 3.0000e+000 82990  4.3140e+001 -1.2029e+002  8.9797e+000 51578 82886,82938,82912
 3.0000e+000 83309 -2.7961e+001 -1.1357e+002  2.6805e+001 51138 83332,83162,83136
 3.0000e+000 83286  1.8512e+000 -1.3656e+002  1.1054e+001 51138 83332,83136,83110
 3.0000e+000 83263 -4.1586e+001 -1.3237e+002 -6.9323e+000 51138 83404,83214,83188
 3.0000e+000 83240 -1.0148e+000 -5.5899e+001  5.1901e+000 51138 83084,83214,83110
 3.0000e+000 83358 -5.7038e+001 -1.5142e+002  4.9684e+001 51138 83188,83162,83332
 3.0000e+000 83381 -2.3236e+001 -1.5843e+002  1.5788e+001 51138 83404,83188,83332
 3.0000e+000 83430 -1.4525e+001 -6.5077e+001 -7.7623e+000 51138 83110,83214,83404
 3.0000e+000 83453 -4.8815e+000 -1.0650e+002  1.5295e+001 51138 83110,83404,83332
 3.0000e+000 83835 -2.7476e+001 -1.7184e+002 -1.3465e+001 50734 83613,83717,83691
 3.0000e+000 83812 -3.5036e+001 -1.9325e+002 -3.7219e+001 50734 83561,83717,83613
 3.0000e+000 83789 -1.4992e+001 -8.8562e+001 -5.6689e+001 50734 83561,83613,83587
 3.0000e+000 83766 -3.9933e+001 -1.2113e+002 -8.1365e+000 50734 83613,83691,83639
 3.0000e+000 83743 -4.5934e+001 -1.2253e+002  2.8410e+001 50734 83639,83691,83665
 3.0000e+000 84034 -4.6179e+001 -1.1362e+002  4.8615e-001 50230 84057,83884,83858
 3.0000e+000 84011 -3.7576e+001 -1.0552e+002 -1.9317e+001 50230 84129,84057,83858
 3.0000e+000 83988  1.0165e+000 -1.0223e+002 -3.0576e+001 50230 84129,83858,83962
 3.0000e+000 84083 -1.3152e+001 -9.7532e+001 -5.9589e+000 50230 83910,83884,84057
 3.0000e+000 84106 -2.2480e+001 -1.2198e+002 -5.9886e+000 50230 83910,84057,83936
 3.0000e+000 84155  1.6032e+001 -1.0172e+002 -1.4578e+001 50230 83936,84057,84129
 3.0000e+000 84178  3.2414e+001 -1.1457e+002 -2.8364e+001 50230 83936,84129,83962
 3.0000e+000 84558 -4.2102e+001 -1.4015e+002 -2.4919e+001 49768 84581,84388,84362
 3.0000e+000 84535 -9.5538e+001 -1.4187e+002 -9.6053e+000 49768 84581,84362,84310
 3.0000e+000 84512  1.1087e+001 -1.5233e+002 -2.6536e+001 49768 84653,84440,84414
 3.0000e+000 84489 -7.0401e+001 -1.5395e+002  1.4128e+001 49768 84310,84362,84336
 3.0000e+000 84466  1.4128e+000 -1.0379e+002  2.5397e+001 49768 84284,84440,84310
 3.0000e+000 84607 -6.3855e+000 -1.1697e+002 -4.1426e+001 49768 84414,84388,84581
 3.0000e+000 84630 -1.0409e+001 -1.4384e+002 -1.8722e+001 49768 84653,84414,84581
 3.0000e+000 84679 -1.7834e+001 -1.4194e+002 -3.6189e+001 49768 84310,84440,84653
 3.0000e+000 84702 -4.7803e+001 -1.4278e+002 -3.6485e+001 49768 84310,84653,84581
 3.0000e+000 85159 -9.0015e+001 -2.2073e+002 -5.6815e+001 49192 84885,84937,84911
 3.0000e+000 85136 -8.7815e+001 -1.8237e+002 -4.4599e+001 49192 84885,85041,84937
 3.0000e+000 85113 -6.1705e+001 -1.5101e+002 -2.4216e+001 49192 84963,85041,84989
 3.0000e+000 85090 -5.7366e+001 -1.4412e+002 -3.0957e+001 49192 84937,85041,84963
 3.0000e+000 85067 -5.6383e+001 -1.6379e+002 -1.1174e+001 49192 84989,85041,85015
 3.0000e+000 85714 -7.7282e+001 -1.3841e+002  3.7442e-001 48638 85368,85498,85394
 3.0000e+000 85691 -1.0226e+002 -1.5604e+002  1.1484e+001 48638 85368,85524,85498
 3.0000e+000 85668 -9.1234e+001 -1.3468e+002  3.5073e+001 48638 85737,85420,85394
 3.0000e+000 85645 -7.6798e+001 -1.5191e+002  1.8530e+001 48638 85737,85394,85498
 3.0000e+000 85622 -6.0674e+001 -1.5330e+002  3.0347e+001 48638 85446,85498,85472
 3.0000e+000 85599 -2.5176e+001 -1.2511e+002  1.4182e+001 48638 85342,85524,85368
 3.0000e+000 85576 -9.5209e+001 -1.4037e+002  1.3268e+001 48638 85342,85550,85524
 3.0000e+000 85763 -6.5550e+001 -1.2097e+002  4.5948e+001 48638 85446,85420,85737
 3.0000e+000 85786 -6.6323e+001 -1.3844e+002  2.6986e+001 48638 85446,85737,85498
 3.0000e+000 86371 -6.6158e+001 -9.9429e+001 -1.1048e+001 48084 86100,86230,86178
 3.0000e+000 86348 -9.0993e+001 -1.3171e+002 -2.2138e+001 48084 86048,86230,86100
 3.0000e+000 86325 -6.4259e+001 -9.1442e+001  2.0020e+001 48084 86100,86178,86126
 3.0000e+000 86302 -4.5286e+001 -2.4697e+001 -2.7387e+001 48084 86048,86100,86074
 3.0000e+000 86279 -7.7946e+001 -1.5573e+002 -1.1462e+001 48084 86178,86230,86204
 3.0000e+000 86256 -5.4523e+001 -1.0421e+002  1.9880e+001 48084 86126,86178,86152
 3.0000e+000 86619 -5.3710e+001 -1.2288e+002  2.4393e+000 47630 86642,86446,86420
 3.0000e+000 86596 -6.3997e+001 -1.3472e+002 -1.8971e+001 47630 86642,86420,86394
 3.0000e+000 86573 -7.7673e+001 -1.5007e+002 -2.6512e+001 47630 86394,86524,86498
 3.0000e+000 86550 -2.7502e+001 -1.4173e+002  1.7554e+000 47630 86446,86498,86472
 3.0000e+000 86668 -6.4762e+001 -1.4737e+002 -6.7479e+000 47630 86498,86446,86642
 3.0000e+000 86691 -7.0462e+001 -1.5165e+002 -2.7688e+001 47630 86498,86642,86394
 3.0000e+000 87022  2.4593e+000 -7.3929e+001 -2.5768e+001 47226 87045,86875,86849
 3.0000e+000 86999 -1.3416e+001 -8.2652e+001 -3.3563e+001 47226 87045,86849,86797
 3.0000e+000 86976 -5.7618e+000 -4.4864e+001 -1.8857e+001 47226 86797,86849,86823
 3.0000e+000 86953  2.8022e+001 -6.4098e+001 -3.2613e+001 47226 86875,86927,86901
 3.0000e+000 87071  1.7322e+001 -8.9562e+001 -3.0639e+001 47226 86927,86875,87045
 3.0000e+000 87094  3.3862e+000 -9.4591e+001 -3.5593e+001 47226 86927,87045,86797
 3.0000e+000 87244 -2.6392e+000 -1.4866e+002  5.6777e+001 46814 87267,87169,87143
 3.0000e+000 87221 -7.9151e+001 -1.3974e+002  2.4991e-001 46814 87267,87143,87117
 3.0000e+000 87293 -1.7218e+001 -1.4693e+002 -1.1783e+001 46814 87339,87267,87195
 3.0000e+000 87316  2.2556e+001 -9.5427e+001 -3.4753e+001 46814 87469,87267,87117
 3.0000e+000 87365 -2.9061e+001 -1.2370e+002  5.7375e+001 46814 87169,87267,87339
 3.0000e+000 87495  1.9029e+001  4.2418e+001 -3.6438e+001 46814 87195,87267,87469
 3.0000e+000 88001 -5.4824e+001 -1.3538e+002  2.8358e+001 46310 88024,87834,87808
 3.0000e+000 87978 -6.5040e+001 -1.3816e+002  2.0326e+001 46310 88024,87808,87756
 3.0000e+000 87955 -2.1847e+001 -1.7551e+002  7.1295e+000 46310 88096,87730,87860
 3.0000e+000 87932 -4.7727e+001 -1.6597e+002  2.2135e+001 46310 87756,87808,87782
 3.0000e+000 87909 -3.0044e+001 -2.2396e+002  9.9838e+000 46310 87678,87860,87730
 3.0000e+000 87886 -5.5136e+001 -3.5748e+002 -1.6199e+001 46310 87678,87730,87704
 3.0000e+000 88050 -4.5906e+001 -1.1534e+002  2.1069e+001 46310 87860,87834,88024
 3.0000e+000 88073 -2.5806e+001 -1.2817e+002  2.5033e+001 46310 88096,87860,88024
 3.0000e+000 88122 -3.8744e+001 -1.9775e+002 -7.2648e+000 46310 87756,87730,88096
 3.0000e+000 88145 -7.3524e+001 -1.7868e+002  2.6812e+000 46310 87756,88096,88024
 3.0000e+000 88572 -3.5104e+001 -1.4867e+002  4.0122e+000 45856 88249,88405,88275
 3.0000e+000 88549 -2.6167e+001 -4.9160e+001 -3.4349e+001 45856 88249,88431,88405
 3.0000e+000 88526 -7.8462e+001 -2.1448e+002 -2.7198e+001 45856 88327,88405,88353
 3.0000e+000 88503 -3.7394e+001 -1.6955e+002 -1.0039e+001 45856 88275,88405,88327
 3.0000e+000 88480 -6.2617e+001 -1.8187e+002 -3.3371e+001 45856 88353,88405,88379
 3.0000e+000 88457 -1.5896e+002 -4.3081e+002  3.8273e+001 45856 88275,88327,88301
 3.0000e+000 88950 -3.2711e+001 -1.0032e+002 -1.6567e+000 45658 88973,88754,88728
 3.0000e+000 88927 -3.1164e+001 -1.0522e+002 -2.0342e+000 45658 88973,88728,88676
 3.0000e+000 88904 -3.4116e+001 -1.2792e+002  4.0157e+001 45658 88676,88832,88806
 3.0000e+000 88881 -5.0160e+001 -1.3955e+002  1.4961e+001 45658 88676,88728,88702
 3.0000e+000 88858 -4.1332e+001 -9.1629e+001 -1.8664e+001 45658 88754,88806,88780
 3.0000e+000 88999 -3.4721e+001 -1.0415e+002 -8.3709e-001 45658 88806,88754,88973
 3.0000e+000 89022 -3.1806e+001 -1.0706e+002 -1.6423e+000 45658 88806,88973,88676
 3.0000e+000 89351 -4.0335e+001 -1.4655e+002 -8.3130e+000 45254 89152,89230,89204
 3.0000e+000 89328 -3.3818e+001 -1.4364e+002 -7.7482e+000 45254 89152,89256,89230
 3.0000e+000 89305 -4.2704e+000 -1.5121e+002 -1.9481e+001 45254 89126,89256,89152
 3.0000e+000 89282  1.6080e+001 -1.4815e+002 -3.2374e+001 45254 89152,89204,89178
 3.0000e+000 89523 -2.6119e+001 -1.3728e+002 -5.2313e-001 45006 89422,89474,89448
 3.0000e+000 89500 -2.0655e+001 -1.3496e+002  3.8455e+000 45006 89396,89474,89422
 3.0000e+000 89673 -1.2115e+002 -2.1383e+002  1.9005e+001 44495 89572,89624,89598
 3.0000e+000 89650 -1.2347e+002 -2.1043e+002  1.0727e+001 44495 89546,89624,89572
 3.0000e+000 90104 -8.8559e+000 -1.7429e+002 -7.8432e+000 44005 90199,90127,89937
 3.0000e+000 90081 -2.6365e+001 -1.6858e+002  2.5977e-001 44005 90271,90127,89859
 3.0000e+000 90058 -1.1803e+000 -1.7724e+002 -7.9994e+000 44005 90199,89937,89885
 3.0000e+000 90035 -4.0914e+001 -1.5924e+002  8.5128e+000 44005 90271,89859,89807
 3.0000e+000 90012 -2.3508e+001 -1.9171e+002 -2.1877e+001 44005 89885,89937,89911
 3.0000e+000 89989 -1.1512e+001 -1.7063e+002  2.6398e+001 44005 89807,89859,89833
 3.0000e+000 90153 -2.7951e+001 -1.8192e+002 -6.9785e+000 44005 89963,89937,90127
 3.0000e+000 90176 -2.8129e+001 -1.8607e+002 -1.3905e+000 44005 89963,90127,89781
 3.0000e+000 90225 -2.9349e+001 -1.7180e+002 -3.2015e+000 44005 89859,90127,90199
 3.0000e+000 90248 -1.1643e+001 -1.6780e+002  4.5050e-001 44005 89859,90199,89885
 3.0000e+000 90297 -4.6010e+001 -1.8020e+002 -4.5709e+000 44005 89781,90127,90271
 3.0000e+000 90320 -5.4496e+001 -1.6767e+002  4.9336e+000 44005 89781,90271,89807
 3.0000e+000 90470 -2.7482e+001 -1.9254e+002 -7.9555e+000 43601 90493,90369,90343
 3.0000e+000 90447 -4.8554e+001 -1.5955e+002  9.4198e+000 43601 90493,90343,90421
 3.0000e+000 90519 -5.9507e+001 -2.5203e+002 -2.9094e+001 43601 90395,90369,90493
 3.0000e+000 90542 -4.9825e+001 -1.8321e+002 -6.6028e+000 43601 90395,90493,90421
 3.0000e+000 90922 -6.6505e+001 -2.0609e+002  1.6116e+001 43154 90945,90700,90674
 3.0000e+000 90899 -6.4689e+001 -2.1152e+002 -1.5280e+001 43154 90945,90674,90648
 3.0000e+000 90876 -7.4125e+001 -1.6663e+002 -1.1651e+001 43154 90648,90778,90752
 3.0000e+000 90853 -3.8116e+001 -3.2258e+002  1.0433e+001 43154 90700,90752,90726
 3.0000e+000 90830 -4.5815e+001 -1.6921e+002 -9.0544e-001 43154 90648,90804,90778
 3.0000e+000 90971 -7.6626e+001 -2.3352e+002  1.8715e+001 43154 90752,90700,90945
 3.0000e+000 90994 -7.1364e+001 -2.2763e+002 -1.1732e+001 43154 90752,90945,90648
 3.0000e+000 91451 -1.8106e+001 -1.4250e+002 -3.0334e+001 42650 91203,91255,91229
 3.0000e+000 91428 -6.6385e-001 -1.3465e+002 -1.2017e+001 42650 91203,91333,91255
 3.0000e+000 91405  4.1065e+000 -2.2654e+002 -3.5542e+001 42650 91177,91333,91203
 3.0000e+000 91382 -6.1062e+001 -2.3627e+002  1.3153e+001 42650 91255,91333,91281
 3.0000e+000 91359  3.9224e+001 -1.9190e+002  2.0538e+000 42650 91281,91333,91307
 3.0000e+000 91721 -9.0681e+001 -2.1291e+002  1.4776e+001 42288 91496,91600,91522
 3.0000e+000 91698 -4.3783e+001 -1.1491e+002 -4.3536e+000 42288 91496,91626,91600
 3.0000e+000 91675 -5.6074e+001 -1.8992e+002  1.5756e+001 42288 91522,91574,91548
 3.0000e+000 91652 -4.5541e+001 -1.9560e+002  1.5087e+001 42288 91522,91600,91574
 3.0000e+000 92199 -1.3794e+002 -2.3469e+002 -7.0919e+000 41898 92222,91983,91879
 3.0000e+000 92176 -1.4302e+002 -2.5426e+002 -1.4920e+001 41898 92294,92222,91879
 3.0000e+000 92153 -1.5231e+002 -2.4973e+002 -2.1884e+001 41898 92294,91879,91853
 3.0000e+000 92130 -1.1974e+002 -1.4443e+002  1.2096e+001 41898 91879,91957,91931
 3.0000e+000 92107 -1.2464e+002 -2.2950e+002 -3.0621e+000 41898 91879,91983,91957
 3.0000e+000 92084 -1.3137e+002 -1.3499e+002  2.5762e+001 41898 91879,91931,91905
 3.0000e+000 92061 -1.3008e+002 -2.2203e+002 -1.7656e+001 41898 91827,92035,91853
 3.0000e+000 92248 -1.3619e+002 -2.5819e+002 -2.1642e+000 41898 92009,91983,92222
 3.0000e+000 92271 -1.3246e+002 -2.6223e+002 -1.9050e+001 41898 92009,92222,92035
 3.0000e+000 92320 -1.2725e+002 -2.4733e+002 -1.6627e+001 41898 92035,92222,92294
 3.0000e+000 92343 -1.3416e+002 -2.4176e+002 -2.3222e+001 41898 92035,92294,91853
 3.0000e+000 92770 -4.8328e+001 -2.2094e+002 -1.7030e+001 41437 92865,92793,92525
 3.0000e+000 92747 -6.6347e+001 -2.5062e+002 -2.2460e+001 41437 92793,92473,92629
 3.0000e+000 92724 -2.4526e+001 -2.2768e+002 -2.9901e+001 41437 92865,92525,92499
 3.0000e+000 92701 -7.3565e+001 -1.9808e+002 -3.5716e+001 41437 92525,92603,92577
 3.0000e+000 92678 -2.2080e+000 -2.3762e+002 -1.7656e+001 41437 92447,92629,92473
 3.0000e+000 92655 -1.1739e+002 -1.7973e+002 -2.2538e+001 41437 92525,92577,92551
 3.0000e+000 92819 -5.3704e+001 -2.3319e+002 -3.5250e+001 41437 92603,92525,92793
 3.0000e+000 92842 -1.0185e+002 -2.5001e+002 -6.1069e+001 41437 92603,92793,92629
 3.0000e+000 92891 -1.8436e+000 -2.3706e+002 -2.0602e+001 41437 92473,92793,92865
 3.0000e+000 92914  3.2195e+001 -2.3007e+002 -3.9200e+001 41437 92473,92865,92499
 3.0000e+000 93243 -3.6688e+001 -3.2461e+002  1.1661e+002 41097 93044,93096,93070
 3.0000e+000 93220 -6.2907e+001 -2.7993e+002  5.9706e+001 41097 93044,93122,93096
 3.0000e+000 93197  3.2707e+001 -1.9484e+002  2.3753e+001 41097 93044,93148,93122
 3.0000e+000 93174 -3.6122e+001 -1.3009e+002  6.8828e+001 41097 93018,93148,93044
 3.0000e+000 93393 -2.7275e+000 -2.3542e+002  1.6209e+001 40643 93416,93292,93344
 3.0000e+000 93370 -1.1232e+001 -2.0688e+002  1.9432e+001 40643 93266,93344,93292
 3.0000e+000 93442 -6.8249e+000 -2.3531e+002  1.8729e+001 40643 93318,93292,93416
 3.0000e+000 93901 -7.2331e+001 -2.2462e+002 -1.5165e+001 40132 93924,93731,93705
 3.0000e+000 93878 -7.7200e+001 -2.2947e+002 -1.7160e+001 40132 93996,93924,93705
 3.0000e+000 93855 -9.0671e+001 -2.6228e+002 -7.6009e+000 40132 93996,93705,93653
 3.0000e+000 93832 -4.6098e+001 -2.5545e+002 -1.4491e+001 40132 93653,93705,93679
 3.0000e+000 93809 -7.1347e+001 -2.1453e+002 -6.0247e-001 40132 93627,93783,93757
 3.0000e+000 93950 -6.8941e+001 -2.3582e+002 -1.8157e+001 40132 93757,93731,93924
 3.0000e+000 93973 -7.7828e+001 -2.0902e+002 -4.2335e+000 40132 93757,93924,93627
 3.0000e+000 94022 -9.9342e+001 -2.4933e+002  6.6525e+000 40132 93627,93924,93996
 3.0000e+000 94045 -9.3562e+001 -2.6098e+002  1.3558e+001 40132 93627,93996,93653
 3.0000e+000 94423 -4.2603e+000 -2.4002e+002 -3.8481e+001 39514 94149,94227,94175
 3.0000e+000 94400 -1.7619e+001 -2.2906e+002  2.6973e+001 39514 94149,94305,94227
 3.0000e+000 94377  1.3336e+001 -2.8781e+002 -3.5716e+001 39514 94175,94227,94201
 3.0000e+000 94354 -6.9373e+001 -2.1290e+002  1.0265e+001 39514 94227,94305,94279
 3.0000e+000 94331 -2.4587e+001 -1.9226e+002  1.9576e+001 39514 94227,94279,94253
 3.0000e+000 94573 -2.2391e+001 -1.4222e+002 -3.6287e+001 38822 94596,94498,94472
 3.0000e+000 94550  2.3440e+001 -1.5801e+002  2.6231e+001 38822 94596,94472,94446
 3.0000e+000 94622 -7.5513e+001 -1.6533e+002 -3.0842e+001 38822 94524,94498,94596
 3.0000e+000 94645 -6.8663e+001 -2.0125e+002  3.8151e+001 38822 94524,94596,94446
 3.0000e+000 95025 -1.4078e+001 -1.8966e+002 -1.4045e+001 38418 95048,94829,94777
 3.0000e+000 95002 -1.9467e+001 -1.9938e+002 -2.3293e+001 38418 95120,95048,94777
 3.0000e+000 94979 -1.4416e+001 -1.9812e+002 -2.1729e+001 38418 95120,94777,94751
 3.0000e+000 94956 -1.0128e+001 -1.7871e+002 -2.5555e+001 38418 95192,94881,94855
 3.0000e+000 94933 -5.8850e+001 -1.6601e+002 -9.4209e+000 38418 94777,94829,94803
 3.0000e+000 95074 -3.3317e+001 -2.4829e+002 -5.1677e+000 38418 94855,94829,95048
 3.0000e+000 95097 -1.5158e+001 -1.9763e+002 -2.7336e+001 38418 95192,94855,95048
 3.0000e+000 95146 -3.5027e+001 -1.9125e+002 -1.8666e+001 38418 94907,95048,95120
 3.0000e+000 95169 -2.1944e+001 -1.8335e+002 -1.4350e+001 38418 94907,95120,94751
 3.0000e+000 95218 -1.6377e+001 -1.4246e+002 -2.2976e+001 38418 94907,94881,95192
 3.0000e+000 95241 -2.8613e+001 -1.7350e+002 -1.9627e+001 38418 94907,95192,95048
 3.0000e+000 95511 -6.9288e+001 -2.1747e+002  9.0105e+000 38049 95312,95390,95364
 3.0000e+000 95488 -5.2017e+001 -2.1058e+002  9.9866e+000 38049 95312,95416,95390
 3.0000e+000 95465 -2.3631e+001 -2.0565e+002 -1.4480e+001 38049 95312,95364,95338
 3.0000e+000 95442 -1.9647e+001 -1.9681e+002  1.9240e+001 38049 95286,95416,95312
 3.0000e+000 95808 -6.0976e+001 -2.3753e+002 -5.1698e+000 37437 95831,95586,95560
 3.0000e+000 95785  2.0951e+001 -2.4842e+002 -9.5022e+000 37437 95831,95560,95534
 3.0000e+000 95762 -1.2040e+002 -2.2465e+002  7.1396e+000 37437 95586,95664,95638
 3.0000e+000 95739 -2.0004e+001 -1.1446e+002 -5.9619e+001 37437 95534,95690,95664
 3.0000e+000 95716 -1.1170e+002 -1.5897e+002  6.5879e+000 37437 95586,95638,95612
 3.0000e+000 95857 -1.1398e+002 -2.2988e+002  2.8083e+001 37437 95664,95586,95831
 3.0000e+000 95880 -2.7304e+001 -2.3842e+002  2.4936e+001 37437 95664,95831,95534
 3.0000e+000 96390 -7.6936e+001 -1.7039e+002 -1.3287e+001 36883 96413,96145,96093
 3.0000e+000 96367 -6.1276e+001 -1.6232e+002 -7.7155e+000 36883 96413,96093,96067
 3.0000e+000 96344 -4.2591e+001 -1.9977e+002 -6.7711e-001 36883 96067,96249,96171
 3.0000e+000 96321 -6.6768e+001 -1.9236e+002 -8.1238e+000 36883 96093,96145,96119
 3.0000e+000 96298 -9.3725e+001 -3.2983e+002  3.0632e+001 36883 96171,96249,96197
 3.0000e+000 96275 -2.3185e+001 -2.6305e+002 -4.7658e+000 36883 96197,96249,96223
 3.0000e+000 96439 -7.1805e+001 -1.6294e+002  5.0035e-001 36883 96171,96145,96413
 3.0000e+000 96462 -5.9276e+001 -1.6043e+002  4.8083e+000 36883 96171,96413,96067
 3.0000e+000 96781 -6.4457e+001 -1.9607e+002 -2.9198e+001 36215 96559,96663,96637
 3.0000e+000 96758 -8.0070e+001 -2.1287e+002 -3.6237e+001 36215 96507,96663,96559
 3.0000e+000 96735 -7.8377e+001 -1.4668e+002  1.5773e+001 36215 96585,96637,96611
 3.0000e+000 96712 -1.6715e+002 -2.2844e+002 -2.4789e+001 36215 96559,96637,96585
 3.0000e+000 96689 -3.1298e+001 -2.4159e+002 -8.2580e+000 36215 96507,96559,96533
 3.0000e+000 97161  4.4587e+000 -1.0654e+002 -5.1955e+000 35818 97184,96965,96939
 3.0000e+000 97138 -1.2754e+001 -1.2621e+002 -1.4246e+001 35818 97184,96939,96887
 3.0000e+000 97115  1.1301e+000 -1.3178e+002  2.6024e+001 35818 96965,97043,97017
 3.0000e+000 97092 -7.8643e+000 -1.1847e+002 -1.6346e+001 35818 96887,96939,96913
 3.0000e+000 97069 -6.6987e+001 -1.3907e+002  1.5072e+001 35818 96965,97017,96991
 3.0000e+000 97210  2.3298e+001 -1.2369e+002  6.3702e+000 35818 97043,96965,97184
 3.0000e+000 97233  9.1333e+000 -1.3729e+002 -1.0685e+000 35818 97043,97184,96887
 3.0000e+000 97739 -7.7139e+001 -2.1791e+002 -4.9619e+001 35214 97416,97468,97442
 3.0000e+000 97716 -8.6984e+001 -1.5434e+002 -1.6830e+001 35214 97416,97598,97468
 3.0000e+000 97693 -7.4721e+001 -1.4592e+002 -6.5189e+000 35214 97762,97520,97468
 3.0000e+000 97670 -7.7687e+001 -1.4985e+002 -1.2390e+001 35214 97762,97468,97598
 3.0000e+000 97647 -5.8549e+001 -1.4497e+002 -1.9819e+001 35214 97546,97598,97572
 3.0000e+000 97624 -4.9410e+001 -1.5004e+002 -8.7731e+000 35214 97468,97520,97494
 3.0000e+000 97788 -7.6949e+001 -1.5288e+002 -9.7037e+000 35214 97546,97520,97762
 3.0000e+000 97811 -7.8006e+001 -1.5588e+002 -1.5156e+001 35214 97546,97762,97598
 3.0000e+000 98189 -1.4904e+001 -1.1829e+002 -1.0444e+001 34760 98356,98212,97967
 3.0000e+000 98166 -3.2013e+001 -1.4497e+002 -2.0903e+001 34760 98284,98212,97941
 3.0000e+000 98143 -5.6885e+001 -1.3130e+002 -9.9379e+000 34760 98284,97941,97915
 3.0000e+000 98120 -1.7217e+001 -1.5745e+002 -5.3477e+000 34760 98484,97993,97967
 3.0000e+000 98097 -1.4870e+001 -1.3326e+002 -4.9933e+000 34760 98556,98045,98019
 3.0000e+000 98238 -2.5354e+001 -1.4855e+002 -5.9875e+000 34760 98484,97967,98212
 3.0000e+000 98261 -3.5349e+000 -1.4009e+002 -1.0914e+001 34760 98556,98019,98212
 3.0000e+000 98310 -1.0158e+001 -1.2058e+002 -3.1327e+001 34760 98071,98212,98284
 3.0000e+000 98333 -2.7169e+001 -8.6968e+001 -2.5505e+001 34760 98071,98284,97915
 3.0000e+000 98382 -7.6634e+001 -1.5965e+002 -2.9165e+001 34760 97941,98212,98356
 3.0000e+000 98510 -3.3173e+000 -1.5065e+002 -9.7979e+000 34760 98019,97993,98484
 3.0000e+000 98533 -1.6764e+001 -1.4603e+002 -9.6878e+000 34760 98019,98484,98212
 3.0000e+000 98582 -6.6954e-001 -1.2485e+002 -1.4488e+000 34760 98071,98045,98556
 3.0000e+000 98605  3.8881e+000 -1.3567e+002 -8.8851e+000 34760 98071,98556,98212
 3.0000e+000 99032 -7.5877e+001 -1.8232e+002  2.3713e+001 34156 98735,98891,98839
 3.0000e+000 99009 -6.4598e+001 -1.8638e+002  1.2341e+001 34156 98709,98891,98735
 3.0000e+000 98986 -1.7915e+001 -1.6706e+002  2.5957e+001 34156 98735,98813,98787
 3.0000e+000 98963 -1.7211e+001 -1.7450e+002  1.6545e+001 34156 98735,98839,98813
 3.0000e+000 98940  9.9123e+000 -2.4444e+002  2.7714e+001 34156 98735,98787,98761
 3.0000e+000 98917 -6.6285e+001 -1.5759e+002  1.1311e+001 34156 98839,98891,98865
 3.0000e+000 99231 -2.3216e+001 -9.7996e+001  8.5098e+000 33766 99055,99133,99107
 3.0000e+000 99208 -4.2260e+001 -1.2833e+002  1.7544e+001 33766 99055,99159,99133
 3.0000e+000 99185 -1.1809e+001 -1.1802e+002  2.2595e+001 33766 99055,99107,99081
 3.0000e+000 99818 -5.1936e+001 -1.4575e+002  2.7745e+000 33248 99521,99651,99573
 3.0000e+000 99795 -5.1264e+001 -1.3897e+002  1.4153e+001 33248 99521,99677,99651
 3.0000e+000 99772 -7.7335e+001 -1.7841e+002 -9.5770e+000 33248 99573,99651,99599
 3.0000e+000 99749 -5.2822e+001 -1.7277e+002  1.5747e+001 33248 99495,99677,99521
 3.0000e+000 99726 -3.8168e+001 -1.5151e+002 -3.4805e+001 33248 99599,99651,99625
 3.0000e+000 99703 -6.6791e+001 -1.7746e+002  1.0778e+001 33248 99521,99573,99547
 3.0000e+000 100196 -5.3623e+001 -1.5637e+002 -2.9780e+001 32794 100219,99948,99922
 3.0000e+000 100173 -6.1887e+001 -1.7350e+002 -1.3233e+001 32794 100219,99922,100052
 3.0000e+000 100150 -8.2675e+001 -1.5845e+002  9.2368e+000 32794 99974,100052,100026
 3.0000e+000 100127 -7.4336e+001 -1.4120e+002 -2.2107e+001 32794 99922,100078,100052
 3.0000e+000 100104 -8.7705e+001 -1.9253e+002  3.5937e+001 32794 99974,100026,100000
 3.0000e+000 100245 -7.2392e+001 -1.5446e+002 -1.3326e+001 32794 99974,99948,100219
 3.0000e+000 100268 -7.6643e+001 -1.7686e+002  3.4423e+000 32794 99974,100219,100052
 3.0000e+000 100418 -8.4133e+000 -1.3898e+002 -1.4406e+001 32504 100571,100343,100317
 3.0000e+000 100395 -5.5484e+001 -1.6033e+002  1.5486e+001 32504 100571,100317,100441
 3.0000e+000 100467  4.1705e+001 -7.5981e+001 -4.1504e+001 32504 100291,100369,100441
 3.0000e+000 100597  1.2499e+001 -1.1619e+002 -5.1372e+001 32504 100369,100343,100571
 3.0000e+000 100620 -8.7060e+000 -1.0829e+002 -2.5548e+001 32504 100369,100571,100441
 3.0000e+000 101020 -2.6733e+001 -1.3204e+002  5.6910e+000 32142 100772,100902,100876
 3.0000e+000 100997 -1.7402e+001 -1.2057e+002  9.8974e+000 32142 100746,100902,100772
 3.0000e+000 100974 -9.6311e+000 -1.4876e+002  1.4780e+001 32142 101043,100824,100798
 3.0000e+000 100951 -2.7696e+001 -1.5656e+002  1.1585e+001 32142 101043,100798,100772
 3.0000e+000 100928 -8.6294e+001 -1.8131e+002 -4.2872e+001 32142 101115,100876,100850
 3.0000e+000 101069  1.6514e+001 -1.5884e+002 -1.5938e+001 32142 100850,100824,101043
 3.0000e+000 101092 -4.6742e+001 -1.8603e+002 -2.0883e+001 32142 101115,100850,101043
 3.0000e+000 101141 -3.7565e+001 -1.5443e+002 -1.5682e+001 32142 100772,100876,101115
 3.0000e+000 101164 -7.0955e+000 -1.5773e+002  8.3889e+000 32142 100772,101115,101043
 3.0000e+000 101719 -8.0378e+001 -1.9208e+002  2.4785e+001 31538 101742,101477,101399
 3.0000e+000 101696 -9.8733e+001 -2.3154e+002  5.9772e+000 31538 101814,101742,101399
 3.0000e+000 101673 -1.1358e+002 -1.9764e+002 -1.6631e+001 31538 101814,101399,101373
 3.0000e+000 101650 -8.1190e+001 -1.3934e+002  1.6231e+001 31538 101425,101477,101451
 3.0000e+000 101627 -7.6316e+001 -1.6271e+002  3.7580e+000 31538 101399,101477,101425
 3.0000e+000 101604 -4.7731e+001 -2.2986e+002  4.7100e+001 31538 101477,101529,101503
 3.0000e+000 101581 -3.1340e+001 -1.3367e+002 -1.4926e+001 31538 101347,101555,101373
 3.0000e+000 101768 -9.1310e+001 -2.3321e+002  2.4433e+001 31538 101529,101477,101742
 3.0000e+000 101791 -7.9211e+001 -2.3913e+002 -8.3088e+000 31538 101529,101742,101555
 3.0000e+000 101840 -6.1276e+001 -1.9700e+002 -9.9006e+000 31538 101555,101742,101814
 3.0000e+000 101863 -8.2941e+001 -1.6938e+002 -3.0612e+001 31538 101555,101814,101373
 3.0000e+000 102111 -1.1701e+002 -3.0245e+002  4.0325e+001 31112 101886,101990,101912
 3.0000e+000 102088 -4.1174e+001 -1.7865e+002  2.8967e+000 31112 101886,102016,101990
 3.0000e+000 102065 -5.0873e+001 -2.9004e+002  5.7804e+001 31112 101912,101990,101964
 3.0000e+000 102042 -8.1560e+001 -3.5821e+002  6.8542e+001 31112 101912,101964,101938
 3.0000e+000 102408 -3.7067e+001 -1.8457e+002  1.4755e+001 30658 102431,102186,102160
 3.0000e+000 102385 -6.5269e+001 -1.8163e+002  7.4295e-001 30658 102431,102160,102264
 3.0000e+000 102362 -6.5186e+001 -2.0085e+002  3.6046e+000 30658 102186,102238,102212
 3.0000e+000 102339 -7.0930e+001 -1.9384e+002 -1.2070e+001 30658 102134,102264,102160
 3.0000e+000 102316 -4.8280e+001 -1.6239e+002 -5.3146e+001 30658 102134,102290,102264
 3.0000e+000 102457 -5.9986e+001 -1.9481e+002  8.4475e+000 30658 102238,102186,102431
 3.0000e+000 102480 -9.0240e+001 -1.9480e+002 -6.7607e+000 30658 102238,102431,102264
 3.0000e+000 102681 -2.8078e+001 -2.2113e+002  3.1841e+001 30004 102704,102557,102505
 3.0000e+000 102658 -3.1807e+001 -2.2459e+002  3.3351e+001 30004 102704,102505,102609
 3.0000e+000 102635 -4.1613e-001 -1.8992e+002  7.4618e+000 30004 102505,102557,102531
 3.0000e+000 102730 -3.1825e+001 -2.1456e+002  2.9055e+001 30004 102583,102557,102704
 3.0000e+000 102753 -4.0724e+001 -2.2051e+002  3.1913e+001 30004 102583,102704,102609
 3.0000e+000 103003 -2.5583e+001 -1.7391e+002 -1.4989e+001 29564 103026,102804,102778
 3.0000e+000 102980 -3.3999e+001 -2.0274e+002 -1.8134e+001 29564 103026,102778,102908
 3.0000e+000 102957  7.8538e+000 -1.6660e+002  1.7023e+001 29564 102856,102908,102882
 3.0000e+000 102934 -4.7633e+001 -1.6658e+002  8.2693e+000 29564 102804,102856,102830
 3.0000e+000 103052 -2.8169e+001 -1.6146e+002  4.6307e+000 29564 102856,102804,103026
 3.0000e+000 103075 -3.6521e+001 -1.8367e+002 -1.1093e+000 29564 102856,103026,102908
 3.0000e+000 103634 -8.9295e+001 -2.1218e+002 -2.3749e+001 29160 103657,103418,103392
 3.0000e+000 103611 -8.4711e+001 -2.0341e+002 -1.1303e+001 29160 103657,103392,103314
 3.0000e+000 103588 -6.3004e+001 -1.7741e+002 -2.0624e+001 29160 103314,103392,103366
 3.0000e+000 103565 -5.4892e+001 -1.8789e+002 -2.4244e+001 29160 103314,103366,103340
 3.0000e+000 103542 -1.0338e+002 -1.9888e+002 -2.2918e+001 29160 103262,103444,103314
 3.0000e+000 103519 -1.2129e+002 -2.3285e+002 -3.4050e+001 29160 103262,103314,103288
 3.0000e+000 103496 -7.7654e+001 -2.1336e+002 -1.1371e+001 29160 103262,103470,103444
 3.0000e+000 103683 -1.0882e+002 -2.2824e+002 -3.9617e+001 29160 103444,103418,103657
 3.0000e+000 103706 -9.1827e+001 -2.0163e+002 -2.5118e+001 29160 103444,103657,103314
 3.0000e+000 104035 -6.4187e+001 -1.8440e+002  1.7936e+001 28770 103836,103914,103862
 3.0000e+000 104012 -5.5721e+001 -1.8402e+002  1.6618e+001 28770 103810,103914,103836
 3.0000e+000 103989  8.3572e+000 -1.7250e+002  2.8804e+001 28770 103810,103940,103914
 3.0000e+000 103966 -1.5656e+001 -1.6000e+002  4.0097e+001 28770 103862,103914,103888
 3.0000e+000 104185 -2.8312e+001 -1.9148e+002  3.1874e+001 28366 104208,104110,104084
 3.0000e+000 104162 -2.0822e+001 -1.6213e+002  2.9237e+001 28366 104280,104208,104084
 3.0000e+000 104234  2.3078e+001 -1.8861e+002  1.9519e+001 28366 104610,104208,104136
 3.0000e+000 104257 -4.3366e+001 -1.8298e+002  2.0812e+001 28366 104538,104410,104208
 3.0000e+000 104306 -6.4730e+001 -1.8490e+002  2.0294e+001 28366 104538,104208,104280
 3.0000e+000 104436 -2.1280e+001 -1.9184e+002  2.3767e+000 28366 104136,104208,104410
 3.0000e+000 104564 -6.5755e+001 -1.8222e+002  9.4596e+000 28366 104058,104410,104538
 3.0000e+000 104587 -7.8927e+001 -1.7921e+002  7.4871e+000 28366 104058,104538,104280
 3.0000e+000 104636  9.8967e+000 -1.9280e+002  2.6072e+001 28366 104110,104208,104610
 3.0000e+000 105349 -4.3873e+001 -1.5972e+002 -1.6394e+001 27976 105516,105372,105107
 3.0000e+000 105326 -6.8856e+001 -1.6018e+002  4.2223e+000 27976 105588,105372,105055
 3.0000e+000 105303 -7.2685e+001 -1.5546e+002 -1.7763e+001 27976 105444,105159,105133
 3.0000e+000 105280 -2.5601e+001 -1.6618e+002 -9.5753e+000 27976 105516,105107,105081
 3.0000e+000 105257 -6.4468e+001 -1.7547e+002  1.4177e+001 27976 105588,105055,105029
 3.0000e+000 105234 -3.4496e+001 -1.3394e+002  1.3181e+000 27976 105003,105185,105159
 3.0000e+000 105211 -4.7422e+001 -1.0824e+002  1.9281e+001 27976 104977,105185,105003
 3.0000e+000 105398 -3.5466e+001 -1.6099e+002 -2.0965e+001 27976 105133,105107,105372
 3.0000e+000 105421 -5.8578e+001 -1.6776e+002 -1.0674e+001 27976 105444,105133,105372
 3.0000e+000 105470 -6.0039e+001 -1.3520e+002 -9.9750e+000 27976 105003,105159,105444
 3.0000e+000 105493 -4.9547e+001 -1.4875e+002 -6.6132e+000 27976 105003,105444,105372
 3.0000e+000 105542 -3.1567e+001 -1.5744e+002 -1.3547e+000 27976 105055,105372,105516
 3.0000e+000 105565 -4.3796e+000 -1.6044e+002  3.6334e+000 27976 105055,105516,105081
 3.0000e+000 105614 -7.8028e+001 -1.7524e+002  1.1527e+001 27976 105003,105372,105588
 3.0000e+000 105637 -7.6032e+001 -1.9029e+002  2.2382e+001 27976 105003,105588,105029
 3.0000e+000 106143 -8.3778e+001 -2.5331e+002  1.5550e+001 27664 106166,105846,105820
 3.0000e+000 106120 -6.0272e+001 -1.9770e+002  6.8890e+000 27664 106310,106166,105820
 3.0000e+000 106097 -2.8572e+001 -2.3212e+002 -4.3364e+001 27664 106382,106238,105950
 3.0000e+000 106074 -4.0265e+001 -1.9356e+002  7.1819e+000 27664 106310,105820,106002
 3.0000e+000 106051  1.7438e+001 -2.0554e+002 -3.1699e+001 27664 106382,105950,105924
 3.0000e+000 106028 -2.8288e+001 -3.5783e+002 -9.9556e+000 27664 105846,105898,105872
 3.0000e+000 106192 -7.8114e+001 -2.8132e+002 -3.3519e+001 27664 105898,105846,106166
 3.0000e+000 106215 -5.1326e+001 -2.3805e+002 -9.8294e+000 27664 106238,105898,106166
 3.0000e+000 106264 -1.3305e+002 -2.5903e+002 -5.9174e+001 27664 105976,105950,106238
 3.0000e+000 106287 -4.5368e+001 -2.3572e+002 -1.1155e+001 27664 105976,106238,106166
 3.0000e+000 106336 -4.0104e+001 -2.0936e+002  2.5432e+001 27664 105976,106166,106310
 3.0000e+000 106359 -1.7072e+001 -2.0361e+002  2.4945e+001 27664 105976,106310,106002
 3.0000e+000 106408 -4.7881e+001 -1.8919e+002  8.4360e+000 27664 105898,106238,106382
 3.0000e+000 106431 -2.0710e+001 -1.7545e+002  1.5982e+001 27664 105898,106382,105924
 3.0000e+000 106728 -2.6222e+001 -1.3625e+002  2.6864e+001 27153 106751,106506,106454
 3.0000e+000 106705 -2.4201e+001 -1.3751e+002  2.0295e+001 27153 106751,106454,106610
 3.0000e+000 106682 -3.9930e+001 -1.0523e+002  6.8391e+000 27153 106454,106506,106480
 3.0000e+000 106659 -3.6117e+001 -1.3574e+002  1.0806e+001 27153 106532,106610,106584
 3.0000e+000 106636 -5.2368e+001 -7.8072e+001  2.6826e+001 27153 106532,106584,106558
 3.0000e+000 106777 -1.7307e+001 -1.3640e+002  2.7767e+001 27153 106532,106506,106751
 3.0000e+000 106800 -1.6553e+001 -1.3694e+002  1.9911e+001 27153 106532,106751,106610
 3.0000e+000 107180 -3.6101e+001 -1.6582e+002  1.1342e+001 26642 107203,106984,106958
 3.0000e+000 107157 -8.6213e+001 -1.8930e+002  2.4739e+000 26642 107203,106958,106932
 3.0000e+000 107134 -1.0359e+002 -2.0912e+002 -2.5293e+001 26642 107275,107036,107010
 3.0000e+000 107111 -6.5572e+001 -2.0448e+002 -3.4995e+001 26642 106932,107062,107036
 3.0000e+000 107088 -2.6024e+000 -1.6005e+002  1.9376e+001 26642 106906,107062,106932
 3.0000e+000 107229 -1.0465e+001 -1.5623e+002 -4.4205e+001 26642 107010,106984,107203
 3.0000e+000 107252 -9.1224e+001 -1.9218e+002 -3.1847e+001 26642 107275,107010,107203
 3.0000e+000 107301 -8.8835e+001 -2.0696e+002 -3.4539e+001 26642 106932,107036,107275
 3.0000e+000 107324 -8.4838e+001 -2.0722e+002 -3.6522e+001 26642 106932,107275,107203
 3.0000e+000 107675 -4.2021e+001 -1.1691e+002  1.3143e+001 26045 107450,107554,107476
 3.0000e+000 107652 -3.2886e+001 -1.0131e+002  4.3572e+000 26045 107450,107580,107554
 3.0000e+000 107629 -1.4706e+001 -9.6794e+001  2.9928e+000 26045 107476,107528,107502
 3.0000e+000 107606 -1.0247e+001 -1.0974e+002  7.4650e+000 26045 107476,107554,107528
 3.0000e+000 107874 -3.1028e+001 -1.7828e+002  4.5242e+001 25641 107750,107802,107776
 3.0000e+000 107851 -3.9121e+001 -1.2914e+002  2.5328e+001 25641 107724,107802,107750
 3.0000e+000 107828 -4.2816e+001 -1.3593e+002  1.8395e+001 25641 107698,107802,107724
 3.0000e+000 108431 -1.4051e+001 -1.8696e+002  3.5703e+001 25023 108526,108267,108241
 3.0000e+000 108408 -2.7722e-001 -1.7032e+002  6.2743e+000 25023 108059,108267,108085
 3.0000e+000 108385 -2.6038e+001 -2.0263e+002  3.1579e+001 25023 108454,108163,108111
 3.0000e+000 108362 -8.5654e+001 -1.9923e+002  5.9733e+001 25023 108454,108111,108085
 3.0000e+000 108339 -7.1508e+001 -2.5766e+002  5.4979e+001 25023 108111,108163,108137
 3.0000e+000 108316 -4.4527e+001 -1.4440e+002 -7.7804e+000 25023 108163,108241,108215
 3.0000e+000 108293  1.8238e+001 -1.1638e+002 -7.6746e-001 25023 108163,108215,108189
 3.0000e+000 108480 -4.7397e+000 -1.7688e+002  3.8945e+000 25023 108241,108163,108454
 3.0000e+000 108503 -2.5601e+001 -1.8764e+002  3.6568e+001 25023 108526,108241,108454
 3.0000e+000 108552 -2.9275e+001 -1.8034e+002  2.8315e+001 25023 108085,108267,108526
 3.0000e+000 108575 -4.1284e+001 -1.8143e+002  2.8973e+001 25023 108085,108526,108454
 3.0000e+000 108823 -1.0642e+001 -1.4520e+002  2.1920e+001 24461 108624,108728,108650
 3.0000e+000 108800 -2.7767e+001 -2.9993e+002 -1.8740e+001 24461 108598,108728,108624
 3.0000e+000 108777 -3.4872e+000 -1.9108e+002  1.9206e+001 24461 108650,108728,108676
 3.0000e+000 108754 -8.7550e+001 -5.3127e+002  4.7309e+001 24461 108676,108728,108702
 3.0000e+000 109022 -5.0274e+001 -1.4813e+002  1.4569e+001 24121 108872,108924,108898
 3.0000e+000 108999 -4.1176e+001 -1.5311e+002  1.4477e+001 24121 108846,108924,108872
 3.0000e+000 108976 -1.1593e+001 -1.5023e+002  3.8298e+001 24121 108846,108950,108924
 3.0000e+000 109483 -6.2317e+001 -2.0268e+002 -1.9662e+001 23717 109209,109339,109235
 3.0000e+000 109460 -2.4627e+001 -2.3086e+002 -4.7086e+001 23717 109209,109365,109339
 3.0000e+000 109437 -6.4359e+000 -2.5302e+002 -1.3316e+001 23717 109287,109339,109313
 3.0000e+000 109414 -1.1745e+002 -2.5627e+002  1.3312e+001 23717 109235,109339,109287
 3.0000e+000 109391 -8.2603e+000 -3.0040e+002  1.0078e+002 23717 109235,109287,109261
 3.0000e+000 109910 -7.9976e+001 -2.3401e+002 -2.3416e+001 23305 109613,109743,109717
 3.0000e+000 109887 -8.2104e+001 -2.3669e+002 -1.3470e+001 23305 109613,109769,109743
 3.0000e+000 109864 -9.9416e+001 -2.3015e+002 -1.8534e+001 23305 109613,109717,109639
 3.0000e+000 109841 -6.4647e+001 -2.2030e+002 -4.8144e+000 23305 109587,109769,109613
 3.0000e+000 109818  1.4697e+001 -1.8149e+002  2.5355e+001 23305 109639,109717,109691
 3.0000e+000 109795 -2.2926e+001 -1.4617e+002 -3.1319e+001 23305 109639,109691,109665
 3.0000e+000 110180 -5.9307e+000 -6.9340e+001 -1.4299e+001 22851 110007,110059,110033
 3.0000e+000 110157 -4.7651e+001 -1.8250e+002  7.6331e+000 22851 109981,110059,110007
 3.0000e+000 110134 -6.6139e+001 -1.9667e+002  8.7177e-001 22851 109955,110059,109981
 3.0000e+000 110111 -2.6823e+001 -2.1522e+002 -1.6915e+001 22851 109955,110085,110059
 3.0000e+000 110737 -4.4880e+001 -2.1644e+002 -5.0447e+001 22333 110760,110469,110391
 3.0000e+000 110714 -1.8045e+001 -2.3836e+002 -4.1900e+001 22333 110760,110391,110365
 3.0000e+000 110691 -2.4716e+001 -2.0686e+002 -4.2447e+001 22333 110832,110521,110469
 3.0000e+000 110668 -5.4236e+000 -3.5044e+002  3.4296e+000 22333 110417,110469,110443
 3.0000e+000 110645 -1.0508e+002 -3.2547e+002  9.5165e-002 22333 110391,110469,110417
 3.0000e+000 110622 -3.3930e+000 -2.0398e+002 -2.5761e+001 22333 110469,110521,110495
 3.0000e+000 110599 -2.5700e+001 -1.4156e+002  1.5745e+001 22333 110365,110573,110547
 3.0000e+000 110786 -2.5537e+001 -2.0839e+002 -4.3527e+001 22333 110832,110469,110760
 3.0000e+000 110809  1.6827e+000 -2.1754e+002 -3.1543e+001 22333 110547,110760,110365
 3.0000e+000 110858 -1.6139e+001 -2.1148e+002 -4.4584e+001 22333 110547,110521,110832
 3.0000e+000 110881 -2.3603e+001 -2.1760e+002 -4.7496e+001 22333 110547,110832,110760
 3.0000e+000 111308 -1.1265e+002 -2.5757e+002  1.3586e+001 21829 111331,111063,111011
 3.0000e+000 111285 -1.0273e+002 -2.4026e+002 -4.9348e+000 21829 111331,111011,111167
 3.0000e+000 111262 -1.1534e+002 -2.5700e+002  1.4230e+001 21829 111403,111089,111063
 3.0000e+000 111239 -1.4391e+002 -2.8074e+002  3.5547e+001 21829 111011,111063,111037
 3.0000e+000 111216 -6.9344e+001 -1.7937e+002  8.8916e+000 21829 110985,111167,111011
 3.0000e+000 111193 -1.3033e+002 -4.1235e+002  8.6066e+001 21829 111089,111141,111115
 3.0000e+000 111357 -1.1267e+002 -2.5931e+002  1.4179e+001 21829 111403,111063,111331
 3.0000e+000 111380 -1.1577e+002 -2.6826e+002 -1.5174e+000 21829 111141,111331,111167
 3.0000e+000 111429 -1.1968e+002 -2.6025e+002  1.6400e+001 21829 111141,111089,111403
 3.0000e+000 111452 -1.1561e+002 -2.6314e+002  1.5578e+001 21829 111141,111403,111331
 3.0000e+000 112056  6.4529e+001 -1.9930e+002  4.2554e+000 21489 111687,111765,111739
 3.0000e+000 112033  9.5811e+000 -2.2895e+002  2.2813e+001 21489 112151,112079,111687
 3.0000e+000 112010 -6.8653e+000 -3.5363e+002  2.5260e+001 21489 111791,111843,111817
 3.0000e+000 111987 -6.8656e+001 -2.8216e+002 -1.9357e+001 21489 112079,111843,111791
 3.0000e+000 111964  4.2907e+001 -2.1322e+002  4.2595e+001 21489 112151,111687,111661
 3.0000e+000 111941 -2.5585e+001 -1.5619e+002  3.7340e+001 21489 111661,111869,111843
 3.0000e+000 111918  6.9198e+001 -2.1409e+002  3.0173e+001 21489 111687,111739,111713
 3.0000e+000 111895  6.5252e+000 -8.1658e+001  1.5189e+001 21489 111635,111869,111661
 3.0000e+000 112105 -4.2630e+001 -2.4701e+002  1.3429e+001 21489 111765,111687,112079
 3.0000e+000 112128 -4.2343e+001 -2.3654e+002  1.4606e+001 21489 111765,112079,111791
 3.0000e+000 112177 -4.6730e+001 -2.2586e+002 -5.1572e+000 21489 111843,112079,112151
 3.0000e+000 112200 -1.6183e+001 -2.1989e+002  1.0943e+001 21489 111843,112151,111661
 3.0000e+000 112578 -5.6009e+001 -2.8580e+002  1.2554e+001 21177 112382,112434,112408
 3.0000e+000 112555 -6.7983e+001 -2.8316e+002  1.0013e+000 21177 112330,112434,112382
 3.0000e+000 112532 -5.4805e+001 -2.4456e+002  4.1437e+001 21177 112304,112434,112330
 3.0000e+000 112509 -6.6563e+001 -2.7196e+002  0.0000e+000 21177 112330,112382,112356
 3.0000e+000 112486 -1.6566e+001 -1.6258e+002  9.6606e+000 21177 112304,112460,112434
 3.0000e+000 112679 -3.5771e+000 -1.9678e+002 -3.2981e+001 20666 112601,112653,112627
 3.0000e+000 112927 -7.9674e+001 -2.7085e+002  8.9781e+000 19762 112702,112754,112728
 3.0000e+000 112904 -3.0810e+001 -2.5487e+002 -3.5987e+000 19762 112702,112832,112754
 3.0000e+000 112881 -6.7950e+001 -2.7196e+002  4.3479e+001 19762 112754,112832,112806
 3.0000e+000 112858 -9.5019e+001 -3.3992e+002  4.2078e+001 19762 112754,112806,112780
 3.0000e+000 113297 -7.1372e+001 -3.1499e+002  2.0412e+001 19308 112974,113052,113026
 3.0000e+000 113274 -4.8974e+001 -2.6346e+002  7.1885e+000 19308 112974,113156,113052
 3.0000e+000 113251 -2.7814e+001 -3.4787e+002 -4.1433e+001 19308 113052,113130,113104
 3.0000e+000 113228 -5.3054e+001 -2.6234e+002  1.3979e-001 19308 113052,113156,113130
 3.0000e+000 113205 -5.1385e+001 -3.0353e+002  0.0000e+000 19308 113052,113104,113078
 3.0000e+000 113182 -1.0143e+002 -3.2623e+002 -1.1608e+000 19308 112974,113026,113000
 3.0000e+000 113547 -1.8169e+001 -2.9221e+002 -1.7860e+001 18711 113570,113374,113348
 3.0000e+000 113524 -2.9213e+001 -2.6790e+002 -9.9785e+000 18711 113570,113348,113452
 3.0000e+000 113501 -2.3282e+001 -2.0629e+002 -5.6675e+001 18711 113322,113452,113348
 3.0000e+000 113478 -3.6067e+001 -2.6047e+002 -8.9358e+001 18711 113374,113426,113400
 3.0000e+000 113596 -1.3305e+001 -2.6582e+002 -2.4530e+001 18711 113426,113374,113570
 3.0000e+000 113619 -2.7582e+001 -2.4636e+002 -1.1720e+001 18711 113426,113570,113452
 3.0000e+000 113771 -1.4304e+002 -3.5950e+002 -1.9238e+001 18307 113670,113722,113696
 3.0000e+000 113748 -1.1328e+002 -3.3512e+002 -8.5533e+000 18307 113644,113722,113670
 3.0000e+000 113972 -6.0476e+001 -2.9591e+002  4.3448e+000 17945 113822,113874,113848
 3.0000e+000 113949 -6.2729e+001 -2.9292e+002  6.6990e+000 17945 113822,113900,113874
 3.0000e+000 113926 -9.0749e+001 -2.2635e+002  1.3834e+002 17945 113796,113900,113822
 3.0000e+000 114075 -4.0720e+001 -4.3724e+002  4.7735e+001 17482 113997,114049,114023
 3.0000e+000 114479 -1.9110e+001 -2.4498e+002 -3.8171e+001 17042 114257,114361,114335
 3.0000e+000 114456 -5.9244e+001 -2.3571e+002 -7.0816e+000 17042 114205,114361,114257
 3.0000e+000 114433 -7.1944e+001 -2.7227e+002  9.1423e+000 17042 114205,114257,114231
 3.0000e+000 114410  5.3980e+001 -3.6193e+002 -2.3170e+001 17042 114283,114335,114309
 3.0000e+000 114387 -4.1969e+000 -3.1397e+002 -1.5840e+001 17042 114257,114335,114283
 3.0000e+000 114879 -1.3053e+002 -2.7436e+002 -4.1207e+000 16638 114631,114683,114657
 3.0000e+000 114856 -5.4882e+000 -2.2099e+002 -4.6147e+000 16638 114605,114683,114631
 3.0000e+000 114833  2.6974e+001 -1.3993e+002 -9.7115e+000 16638 114605,114761,114683
 3.0000e+000 114810 -2.2282e+001 -2.8358e+002 -1.5559e+001 16638 114683,114735,114709
 3.0000e+000 114787 -4.5362e+001 -3.0443e+002 -2.6163e+001 16638 114683,114761,114735
 3.0000e+000 115078 -1.1856e+002 -2.7418e+002  4.7962e+000 16232 114954,115006,114980
 3.0000e+000 115055 -1.2634e+002 -3.0669e+002  1.3323e+001 16232 114928,115006,114954
 3.0000e+000 115032 -6.0161e+001 -3.8515e+002  2.6143e+001 16232 114902,115006,114928
 3.0000e+000 115228 -9.1079e+001 -2.8573e+002  7.3590e+000 15482 115101,115153,115127
 3.0000e+000 115205 -7.1515e+001 -2.6923e+002 -2.4217e+000 15482 115101,115179,115153
 3.0000e+000 115331 -6.9389e+001 -2.7271e+002 -3.2089e+001 15163 115253,115305,115279
 3.0000e+000 115434 -8.4415e+001 -2.8714e+002  3.7926e+001 421 115356,115408,115382
 3.1000e+000 68213 -8.6186e+000 -1.6383e+002 -1.2371e+001 67888 68112,68164,68138
 3.1000e+000 68190 -1.4373e+002 -2.0732e+002 -1.7056e+001 67888 68086,68164,68112
 3.1000e+000 68314 -2.6389e+001 -2.9582e+002  3.6015e+001 67576 68236,68288,68262
 3.1000e+000 68584 -6.7771e+001 -3.7752e+002  1.3752e+001 67378 68385,68489,68463
 3.1000e+000 68561  7.8170e+001 -3.1609e+002  9.6566e+000 67378 68359,68489,68385
 3.1000e+000 68538 -6.0434e+001 -3.3179e+002  1.6751e+001 67378 68385,68463,68411
 3.1000e+000 68515 -3.7765e+001 -2.1498e+002  9.5029e+000 67378 68411,68463,68437
 3.1000e+000 68964 -7.7898e+001 -3.4307e+002  5.2882e+001 67130 68690,68820,68716
 3.1000e+000 68941  8.3660e+001 -3.5370e+002  1.0013e+002 67130 68690,68846,68820
 3.1000e+000 68918 -6.9800e+001 -2.2528e+002  6.4515e+000 67130 68742,68820,68794
 3.1000e+000 68895 -8.6539e+000 -2.2393e+002  2.1692e+001 67130 68716,68820,68742
 3.1000e+000 68872 -4.3649e+001 -1.8803e+002 -2.2018e+001 67130 68742,68794,68768
 3.1000e+000 69065 -6.1557e+001 -2.1442e+002  4.9421e+000 66926 68987,69039,69013
 3.1000e+000 69445 -3.7441e+001 -2.0828e+002 -6.2332e+000 66614 69223,69301,69275
 3.1000e+000 69422 -6.1479e+001 -2.1785e+002 -5.8645e+000 66614 69171,69301,69223
 3.1000e+000 69399 -7.4524e+001 -2.2060e+002  4.4410e-001 66614 69171,69327,69301
 3.1000e+000 69376 -1.3084e+001 -1.1272e+002  3.7149e+000 66614 69223,69275,69249
 3.1000e+000 69353 -4.9899e+001 -2.2913e+002 -4.6890e+000 66614 69171,69223,69197
 3.1000e+000 69546 -5.5596e+001 -3.1143e+002  1.8326e+001 66416 69468,69520,69494
 3.1000e+000 69997 -4.3962e+001 -3.1605e+002 -3.1314e+001 66104 69700,69830,69726
 3.1000e+000 69974 -5.6255e+001 -4.0679e+002 -6.4303e+001 66104 69700,69856,69830
 3.1000e+000 69951 -5.4212e+001 -2.4178e+002 -1.8953e+001 66104 69726,69804,69778
 3.1000e+000 69928 -4.0280e+001 -2.9482e+002 -2.5932e+001 66104 69726,69830,69804
 3.1000e+000 69905 -5.9346e+001 -2.3091e+002 -9.9861e+000 66104 69726,69778,69752
 3.1000e+000 69882 -1.5391e+001 -6.0457e+002 -1.0538e+002 66104 69674,69856,69700
 3.1000e+000 70326 -5.3984e+001 -1.3870e+002 -1.9331e+001 65814 70349,70153,70127
 3.1000e+000 70303  4.2685e-001 -1.4014e+002 -3.0535e+000 65814 70349,70127,70101
 3.1000e+000 70280  4.3219e+001 -7.5483e+001  7.4243e+001 65814 70101,70231,70205
 3.1000e+000 70257  5.9706e+001 -1.4848e+002  1.9687e+001 65814 70153,70205,70179
 3.1000e+000 70375 -2.7574e+001 -1.4477e+002  1.9501e+001 65814 70205,70153,70349
 3.1000e+000 70398  5.0642e+001 -1.3680e+002  3.0684e+001 65814 70205,70349,70101
 3.1000e+000 70904 -1.6135e+001 -7.0209e+001 -2.4502e+001 65502 70607,70737,70685
 3.1000e+000 70881 -2.2814e+001 -5.4453e+001 -3.2389e+001 65502 70581,70737,70607
 3.1000e+000 70858 -2.2838e+001 -5.0166e+000 -3.6374e+000 65502 70581,70763,70737
 3.1000e+000 70835 -3.4024e+001 -8.0153e+001 -3.3512e+001 65502 70685,70737,70711
 3.1000e+000 70812 -1.1276e+002 -9.3833e+001 -3.9932e+000 65502 70607,70659,70633
 3.1000e+000 70789 -3.1370e+001 -9.8404e+001 -1.3291e+000 65502 70607,70685,70659
 3.1000e+000 71103 -3.2439e+001 -2.8422e+002 -6.9657e+000 65304 71126,70979,70953
 3.1000e+000 71080 -5.7632e+001 -2.8873e+002 -1.7708e+000 65304 71126,70953,70927
 3.1000e+000 71057 -8.4003e+001 -2.9156e+002  2.0991e+001 65304 70927,71031,71005
 3.1000e+000 71152 -5.9124e+001 -2.6208e+002 -1.3944e+001 65304 71005,70979,71126
 3.1000e+000 71175 -9.0871e+001 -2.7470e+002 -2.4641e+000 65304 71005,71126,70927
 3.1000e+000 71374 -2.8743e+000 -2.7228e+002  1.3432e+001 65106 71198,71276,71224
 3.1000e+000 71351 -8.1486e+001 -2.9536e+002  5.4400e+000 65106 71198,71302,71276
 3.1000e+000 71328  1.8510e+001 -2.1771e+002  3.3310e+001 65106 71224,71276,71250
 3.1000e+000 71756 -3.1081e+001 -1.8967e+002 -1.5090e+001 64652 71508,71638,71534
 3.1000e+000 71733 -5.0723e-001 -1.7616e+002  2.5599e+000 64652 71482,71638,71508
 3.1000e+000 71710 -6.1043e+001 -1.6284e+002 -3.2885e+000 64652 71534,71586,71560
 3.1000e+000 71687 -3.6078e+001 -1.8669e+002 -3.7253e+001 64652 71534,71612,71586
 3.1000e+000 71664 -8.9252e+001 -2.0622e+002 -3.5996e+001 64652 71534,71638,71612
 3.1000e+000 72085 -6.5112e+001 -2.0179e+002 -3.0444e+001 64248 71886,71964,71912
 3.1000e+000 72062 -6.9710e+001 -2.0802e+002 -2.5938e+001 64248 71860,71964,71886
 3.1000e+000 72039 -2.1859e+001 -1.8754e+002 -1.8124e+001 64248 71912,71964,71938
 3.1000e+000 72016 -3.9398e+001 -1.9762e+002 -3.6694e+001 64248 71860,71990,71964
 3.1000e+000 72235 -4.4980e+000 -1.2333e+002 -1.6298e+001 63858 72588,72258,72134
 3.1000e+000 72212 -7.7338e+000 -6.7523e+001  2.1689e+001 63858 72330,72258,72108
 3.1000e+000 72284 -4.4139e+000 -7.5937e+001 -6.1401e+000 63858 72160,72134,72258
 3.1000e+000 72307 -6.0790e+001 -1.1311e+002 -1.1790e+001 63858 72460,72258,72186
 3.1000e+000 72356 -4.8684e+001 -1.0317e+002 -5.6331e+000 63858 72186,72258,72330
 3.1000e+000 72486 -1.5539e+001 -1.0631e+002 -9.2055e+000 63858 72160,72258,72460
 3.1000e+000 72614  1.5974e+001 -1.2734e+002  1.8265e+001 63858 72108,72258,72588
 3.1000e+000 73248 -2.3003e+001 -1.8689e+002  6.0837e+001 63404 72902,72954,72928
 3.1000e+000 73225 -9.2053e+001 -2.1315e+002  3.0066e+001 63404 73271,72954,72902
 3.1000e+000 73202 -7.5561e+001 -1.6690e+002  2.4666e+001 63404 73271,72902,73032
 3.1000e+000 73179 -4.5713e+001 -1.4312e+002  1.0409e+001 63404 72902,73058,73032
 3.1000e+000 73156 -5.5536e+001 -1.7497e+002  6.1121e+000 63404 72980,73032,73006
 3.1000e+000 73133 -4.4664e+001 -1.4517e+002  9.5687e+000 63404 72876,73058,72902
 3.1000e+000 73110 -1.8436e+001 -6.7822e+001 -3.4588e+001 63404 72876,73084,73058
 3.1000e+000 73297 -7.1731e+001 -2.1854e+002  9.4104e-001 63404 72980,72954,73271
 3.1000e+000 73320 -6.7362e+001 -1.9431e+002  6.0695e-002 63404 72980,73271,73032
 3.1000e+000 73470 -7.5737e+001 -5.1798e+002  5.4391e+001 63014 73343,73395,73369
 3.1000e+000 73447 -2.4303e+002 -6.4092e+002 -1.3256e+001 63014 73343,73421,73395
 3.1000e+000 73929  4.1896e+001 -2.2868e+002  3.2814e+001 62702 73759,73811,73785
 3.1000e+000 73906  5.3679e+001 -2.2772e+002  2.2358e+001 62702 73655,73811,73759
 3.1000e+000 73883  8.9380e-001 -2.7275e+002 -1.8029e+000 62702 73655,73759,73681
 3.1000e+000 73860  3.9094e+001 -1.9611e+002 -4.9946e+001 62702 73681,73759,73707
 3.1000e+000 73837 -9.2079e+001 -2.2344e+002  2.4892e+000 62702 73707,73759,73733
 3.1000e+000 74209 -1.3890e+002 -2.3785e+002 -1.4687e+000 62404 74059,74137,74085
 3.1000e+000 74186 -1.6304e+002 -3.1846e+002  3.7180e+001 62404 74033,74137,74059
 3.1000e+000 74163 -1.4396e+002 -2.1053e+002 -5.9591e-001 62404 74085,74137,74111
 3.1000e+000 74408  6.3893e+000 -2.0103e+002  2.1508e+001 62000 74258,74336,74284
 3.1000e+000 74385 -3.7971e+000 -2.0325e+002  2.7195e+001 62000 74232,74336,74258
 3.1000e+000 74362 -3.5949e+001 -1.8356e+002  8.2066e+000 62000 74284,74336,74310
 3.1000e+000 74509 -3.5731e+000 -2.7684e+002  4.0305e+001 61802 74431,74483,74457
 3.1000e+000 74759 -6.6498e+001 -2.1503e+002 -2.1525e+000 61554 74782,74586,74560
 3.1000e+000 74736 -3.1580e+001 -1.9138e+002  8.8465e+000 61554 74782,74560,74664
 3.1000e+000 74713 -5.6348e+001 -1.4169e+002  7.4763e+001 61554 74854,74612,74586
 3.1000e+000 74690 -4.6516e+001 -2.0980e+002 -1.0216e-001 61554 74534,74664,74560
 3.1000e+000 74808 -9.0719e+001 -1.9018e+002  1.8191e+001 61554 74854,74586,74782
 3.1000e+000 74831 -3.9132e+001 -2.4551e+002  1.4235e+001 61554 74638,74782,74664
 3.1000e+000 74880  1.6667e+001 -1.9174e+002  7.9933e+001 61554 74638,74612,74854
 3.1000e+000 74903  1.5367e+001 -1.8634e+002  3.7624e+001 61554 74638,74854,74782
 3.1000e+000 75285  2.0453e+001 -2.3120e+002 -8.5134e-001 61356 75063,75167,75115
 3.1000e+000 75262  2.4792e+000 -2.5499e+002 -2.3808e+001 61356 75037,75167,75063
 3.1000e+000 75239  3.3410e+001 -2.3630e+002 -1.0338e+000 61356 75115,75167,75141
 3.1000e+000 75216  5.0809e+000 -2.3332e+002  2.3958e-001 61356 75063,75115,75089
 3.1000e+000 75193 -9.3809e+001 -1.6871e+002  2.3259e+001 61356 75011,75167,75037
 3.1000e+000 75631  8.6843e+000 -1.9231e+002  1.0433e+001 60952 75654,75412,75360
 3.1000e+000 75608  6.5977e+000 -2.1932e+002  6.0533e-001 60952 75654,75360,75334
 3.1000e+000 75585 -1.7400e+001 -2.8107e+002  1.4216e+001 60952 75726,75438,75412
 3.1000e+000 75562  3.8790e+001 -1.9897e+002 -4.2486e+001 60952 75308,75490,75334
 3.1000e+000 75539  4.2244e+000 -1.8902e+002 -2.2653e+000 60952 75360,75412,75386
 3.1000e+000 75516 -4.8193e+001 -3.4302e+002 -9.2130e+000 60952 75438,75490,75464
 3.1000e+000 75680  4.7642e+000 -2.2970e+002  1.2548e+001 60952 75726,75412,75654
 3.1000e+000 75703  8.6217e+000 -2.1873e+002  9.0682e-002 60952 75490,75654,75334
 3.1000e+000 75752 -7.0257e+000 -2.2236e+002 -7.3443e-001 60952 75490,75438,75726
 3.1000e+000 75775 -7.3507e+000 -2.1994e+002 -4.8739e+000 60952 75490,75726,75654
 3.1000e+000 76155 -1.8426e+001 -2.0316e+002 -5.2126e+000 60754 75933,75985,75959
 3.1000e+000 76132 -4.5428e+001 -2.2072e+002  2.7134e+001 60754 75933,76037,75985
 3.1000e+000 76109  2.1388e+001 -2.1684e+002  1.0355e+001 60754 75985,76037,76011
 3.1000e+000 76086 -7.9748e+001 -1.7535e+002  7.7506e+000 60754 75881,76037,75933
 3.1000e+000 76063 -1.0772e+002 -1.5484e+002  4.3468e+001 60754 75881,75933,75907
 3.1000e+000 76612 -3.1848e+001 -1.6301e+002  2.9534e+000 60350 76635,76442,76390
 3.1000e+000 76589  2.5932e+000 -1.8557e+002  1.0761e+001 60350 76635,76390,76364
 3.1000e+000 76566 -6.4706e+000 -2.3591e+002 -1.6825e+001 60350 76364,76494,76468
 3.1000e+000 76543 -2.1996e+000 -1.4715e+002  1.4450e+001 60350 76390,76442,76416
 3.1000e+000 76520 -8.4197e+001 -1.5050e+002 -3.9365e+001 60350 76338,76494,76364
 3.1000e+000 76661 -5.1043e+001 -1.7820e+002  9.6163e+000 60350 76468,76442,76635
 3.1000e+000 76684 -2.6028e+001 -2.0473e+002  1.9570e+001 60350 76468,76635,76364
 3.1000e+000 76932 -7.0622e+001 -2.4579e+002 -9.1077e-001 59946 76955,76733,76707
 3.1000e+000 76909 -7.1795e+001 -2.4695e+002  5.7753e+000 59946 77027,76955,76707
 3.1000e+000 76886 -6.7339e+001 -2.4759e+002  4.2362e+000 59946 77027,76707,76837
 3.1000e+000 76863 -3.3000e+001 -2.6596e+002 -2.4811e+001 59946 76733,76785,76759
 3.1000e+000 76981 -8.3550e+001 -2.4844e+002 -4.4634e+000 59946 76785,76733,76955
 3.1000e+000 77004 -7.4883e+001 -2.4428e+002  4.0659e+000 59946 76785,76955,76811
 3.1000e+000 77053 -6.5903e+001 -2.4581e+002  5.4740e+000 59946 76811,76955,77027
 3.1000e+000 77076 -6.2682e+001 -2.4669e+002  3.2333e+000 59946 76811,77027,76837
 3.1000e+000 77226 -7.5284e+001 -1.9734e+002  5.5833e+000 59542 77099,77151,77125
 3.1000e+000 77203 -9.3924e+001 -2.4039e+002  8.7963e+000 59542 77099,77177,77151
 3.1000e+000 77427 -1.1517e+002 -2.2766e+002 -2.1267e+001 59030 77450,77277,77251
 3.1000e+000 77404 -6.2107e+001 -1.7209e+002 -7.8758e+001 59030 77450,77251,77355
 3.1000e+000 77381  2.1747e+001 -2.5811e+002 -1.9316e+001 59030 77277,77329,77303
 3.1000e+000 77476 -5.1653e+001 -2.3947e+002 -5.5143e+001 59030 77329,77277,77450
 3.1000e+000 77499  4.8654e+000 -2.1294e+002 -1.0027e+002 59030 77329,77450,77355
 3.1000e+000 77749 -1.0170e+002 -2.9128e+002  2.8311e+001 58426 77772,77628,77602
 3.1000e+000 77726 -6.2109e+001 -3.3433e+002  9.2607e+001 58426 77524,77654,77628
 3.1000e+000 77703 -7.4130e+001 -2.9979e+002  1.8791e+001 58426 77772,77602,77550
 3.1000e+000 77680 -3.7097e+001 -2.7890e+002 -1.6048e+001 58426 77550,77602,77576
 3.1000e+000 77798 -7.1675e+001 -2.7744e+002  3.4533e+001 58426 77524,77628,77772
 3.1000e+000 77821 -6.1546e+001 -2.9748e+002  1.9954e+001 58426 77524,77772,77550
 3.1000e+000 78071 -1.3016e+002 -2.9879e+002  3.2560e+001 57922 78094,77924,77898
 3.1000e+000 78048 -1.5704e+002 -2.9708e+002 -4.1875e+000 57922 78094,77898,77872
 3.1000e+000 78025 -1.1877e+002 -2.6678e+002  2.5587e+001 57922 78166,77846,77950
 3.1000e+000 78002 -2.2238e+001 -2.6682e+002  3.9349e+001 57922 77846,77976,77950
 3.1000e+000 78120 -9.7219e+001 -2.9482e+002  1.8507e+001 57922 77950,77924,78094
 3.1000e+000 78143 -1.2259e+002 -2.7199e+002  1.8333e+001 57922 78166,77950,78094
 3.1000e+000 78192 -1.1059e+002 -2.8004e+002  1.6158e+001 57922 77872,77846,78166
 3.1000e+000 78215 -1.2179e+002 -2.9378e+002  7.9927e+000 57922 77872,78166,78094
 3.1000e+000 78416 -6.3533e+000 -2.6198e+002  3.1239e+000 57468 78439,78292,78240
 3.1000e+000 78393  2.6409e+001 -2.4197e+002 -9.7210e+000 57468 78439,78240,78344
 3.1000e+000 78370 -2.2353e+001 -3.3621e+002  4.5905e+000 57468 78240,78292,78266
 3.1000e+000 78465  2.8994e+001 -2.5386e+002 -1.1381e+001 57468 78318,78292,78439
 3.1000e+000 78488  4.2427e+001 -2.5133e+002 -2.1049e+001 57468 78318,78439,78344
 3.1000e+000 78689  4.3282e+001 -2.9077e+002 -3.8468e+001 57014 78712,78539,78513
 3.1000e+000 78666 -1.1314e+001 -2.7048e+002 -4.4813e-001 57014 78712,78513,78617
 3.1000e+000 78643 -3.8800e+001 -2.8779e+002  4.1794e+001 57014 78565,78617,78591
 3.1000e+000 78738 -2.6932e+001 -2.6820e+002 -4.6496e+001 57014 78565,78539,78712
 3.1000e+000 78761 -9.3992e+001 -2.7450e+002  1.0158e+001 57014 78565,78712,78617
 3.1000e+000 79241 -1.0473e+002 -2.4656e+002  1.3942e+001 56652 79264,78895,78869
 3.1000e+000 79218 -4.7912e+001 -3.3761e+002 -3.2050e+001 56652 79264,78869,79051
 3.1000e+000 79195 -6.9264e+001 -3.0467e+002 -7.1233e+001 56652 78869,79077,79051
 3.1000e+000 79172 -6.7649e+001 -1.5358e+002 -2.7701e+001 56652 78895,78973,78947
 3.1000e+000 79149 -1.1976e+002 -4.8440e+002 -4.7785e+001 56652 78973,79051,78999
 3.1000e+000 79126 -6.0084e+001 -1.5854e+002 -2.9466e+001 56652 78895,78947,78921
 3.1000e+000 79103 -8.5183e+001 -2.9591e+002  7.0101e+001 56652 78999,79051,79025
 3.1000e+000 79290 -6.2068e+001 -1.8934e+002  4.5699e+001 56652 78973,78895,79264
 3.1000e+000 79313 -1.3108e+000 -2.8682e+002  2.9020e+000 56652 78973,79264,79051
 3.1000e+000 79512 -2.8232e+001 -3.5884e+002  2.9746e+001 56062 79388,79440,79414
 3.1000e+000 79489 -1.3718e+002 -1.8206e+002  4.9000e+001 56062 79336,79440,79388
 3.1000e+000 79466 -5.7131e+001 -2.0342e+002  6.4691e+001 56062 79336,79388,79362
 3.1000e+000 79941 -3.7599e+001 -2.1518e+002  3.6982e+001 55658 79964,79670,79644
 3.1000e+000 79918 -6.2955e+001 -2.1915e+002  4.1890e+001 55658 79964,79644,79800
 3.1000e+000 79895 -6.0788e+001 -2.3109e+002  1.8868e+001 55658 80036,79696,79670
 3.1000e+000 79872 -6.8337e+001 -1.8851e+002 -1.6951e+000 55658 80108,79722,79696
 3.1000e+000 79849 -1.0083e+002 -1.9774e+002  7.9692e+000 55658 79722,79774,79748
 3.1000e+000 79826 -1.3012e+000 -1.9796e+002  1.1084e+001 55658 79618,79800,79644
 3.1000e+000 79990 -6.5393e+001 -2.3128e+002  2.8289e+001 55658 80036,79670,79964
 3.1000e+000 80013 -6.0199e+001 -2.0329e+002  4.2313e+001 55658 79774,79964,79800
 3.1000e+000 80062 -4.9698e+001 -2.0597e+002  1.6834e+001 55658 80108,79696,80036
 3.1000e+000 80085 -6.4280e+001 -2.0437e+002  3.7907e+001 55658 79774,80036,79964
 3.1000e+000 80134 -1.0533e+002 -2.0853e+002  8.0917e+000 55658 79774,79722,80108
 3.1000e+000 80157 -9.4607e+001 -2.2982e+002  2.6899e+001 55658 79774,80108,80036
 3.1000e+000 80307 -1.0290e+002 -2.0584e+002  3.0026e+001 55254 80402,80330,80206
 3.1000e+000 80284 -1.0315e+002 -2.8216e+002  2.7115e+001 55254 80330,80180,80258
 3.1000e+000 80356 -1.2474e+002 -2.5564e+002  5.4170e+001 55254 80232,80206,80330
 3.1000e+000 80379 -3.4582e+001 -2.1518e+002  7.3354e+001 55254 80232,80330,80258
 3.1000e+000 80428 -1.4941e+002 -2.5769e+002  8.8383e+000 55254 80180,80330,80402
 3.1000e+000 80659  9.2122e+000 -2.5566e+002 -2.6289e+001 54850 80558,80610,80584
 3.1000e+000 80636  2.4197e+001 -2.4370e+002 -1.9134e+001 54850 80532,80610,80558
 3.1000e+000 80760  3.5797e-001 -2.2837e+002 -1.5495e+001 54652 80682,80734,80708
 3.1000e+000 81164  2.2482e+000 -2.3716e+002 -5.1165e+000 54248 81187,80942,80890
 3.1000e+000 81141 -8.1726e+000 -2.4117e+002 -1.2057e+000 54248 81187,80890,81046
 3.1000e+000 81118 -8.9473e+000 -2.4558e+002  5.1274e+001 54248 80942,81020,80994
 3.1000e+000 81095  1.3941e+000 -2.4717e+002  6.2388e-001 54248 80890,80942,80916
 3.1000e+000 81072 -1.5993e+001 -1.2792e+002  4.2675e+000 54248 80942,80994,80968
 3.1000e+000 81213 -9.4585e+000 -2.3238e+002 -4.7744e+000 54248 81020,80942,81187
 3.1000e+000 81236 -1.7901e+001 -2.3394e+002 -2.2812e+000 54248 81020,81187,81046
 3.1000e+000 81663 -1.1434e+002 -2.0983e+002  2.6828e+001 53594 81340,81444,81366
 3.1000e+000 81640 -1.0263e+002 -3.0859e+002  1.3076e+001 53594 81340,81470,81444
 3.1000e+000 81617 -3.7167e+001 -2.6931e+002 -1.6043e+001 53594 81340,81522,81470
 3.1000e+000 81594 -5.6642e+001 -1.5242e+002 -1.1379e+001 53594 81392,81444,81418
 3.1000e+000 81571 -7.4000e+001 -1.7646e+002 -1.9448e+001 53594 81366,81444,81392
 3.1000e+000 81548  1.0359e+001 -4.1041e+002  7.9954e+001 53594 81470,81522,81496
 3.1000e+000 81943 -2.9263e+001 -1.3916e+002 -1.2371e+001 53104 81966,81845,81819
 3.1000e+000 81920 -4.9468e+001 -1.2913e+002 -1.9687e+001 53104 81966,81819,81767
 3.1000e+000 81897 -4.7541e+001 -1.2499e+002 -1.9085e+001 53104 81767,81819,81793
 3.1000e+000 81992 -1.5650e+001 -1.3996e+002 -2.1788e+001 53104 81871,81845,81966
 3.1000e+000 82015 -3.1979e+001 -1.2496e+002 -3.2941e+001 53104 81871,81966,81767
 3.1000e+000 82491 -2.1276e+001 -1.5017e+002 -3.2313e+001 52650 82145,82249,82171
 3.1000e+000 82468 -1.1749e+002 -1.9918e+002 -1.5384e+001 52650 82145,82301,82249
 3.1000e+000 82445 -1.1290e+002 -2.6826e+002 -4.3384e+001 52650 82249,82301,82275
 3.1000e+000 82422 -5.7854e+001 -3.2319e+002 -4.4237e+001 52650 82119,82301,82145
 3.1000e+000 82399 -3.3008e+001 -1.0091e+002  1.1668e+001 52650 82171,82249,82223
 3.1000e+000 82376  4.2763e+001 -2.7801e+002 -6.0177e+001 52650 82119,82327,82301
 3.1000e+000 82353 -8.3312e+000 -5.1208e+001 -2.1863e+001 52650 82171,82223,82197
 3.1000e+000 82739 -3.0422e+001 -1.4135e+002  1.0586e+001 52246 82762,82540,82514
 3.1000e+000 82716 -3.3294e+001 -1.0123e+002  6.6568e+000 52246 82762,82514,82644
 3.1000e+000 82693 -6.0432e+001 -1.4871e+002  1.9990e+001 52246 82540,82618,82592
 3.1000e+000 82670 -5.7977e+001 -1.3461e+002  1.1009e+001 52246 82540,82592,82566
 3.1000e+000 82788 -3.2451e+001 -1.5447e+002  1.0129e+001 52246 82618,82540,82762
 3.1000e+000 82811 -5.5265e+001 -1.4506e+002 -1.6258e+000 52246 82618,82762,82644
 3.1000e+000 83059 -1.2697e+001 -1.8464e+002  1.4198e+001 51578 82860,82964,82938
 3.1000e+000 83036 -1.4748e+001 -1.7973e+002 -3.7108e+001 51578 82834,82964,82860
 3.1000e+000 83013  4.2155e+001 -1.5885e+002  2.4869e+001 51578 82860,82938,82886
 3.1000e+000 82990  4.4526e+001 -1.3068e+002  9.4060e+000 51578 82886,82938,82912
 3.1000e+000 83309 -2.8927e+001 -1.1893e+002  2.8561e+001 51138 83332,83162,83136
 3.1000e+000 83286  2.3623e+000 -1.4344e+002  1.1802e+001 51138 83332,83136,83110
 3.1000e+000 83263 -4.3973e+001 -1.3943e+002 -7.3151e+000 51138 83404,83214,83188
 3.1000e+000 83240 -8.4974e-001 -6.0298e+001  5.2767e+000 51138 83084,83214,83110
 3.1000e+000 83358 -5.9032e+001 -1.5867e+002  5.1917e+001 51138 83188,83162,83332
 3.1000e+000 83381 -2.4504e+001 -1.6641e+002  1.6270e+001 51138 83404,83188,83332
 3.1000e+000 83430 -1.5724e+001 -6.9972e+001 -7.4540e+000 51138 83110,83214,83404
 3.1000e+000 83453 -5.0318e+000 -1.1279e+002  1.6395e+001 51138 83110,83404,83332
 3.1000e+000 83835 -3.0180e+001 -1.8223e+002 -1.3345e+001 50734 83613,83717,83691
 3.1000e+000 83812 -3.7618e+001 -2.0363e+002 -3.9135e+001 50734 83561,83717,83613
 3.1000e+000 83789 -1.7334e+001 -9.6538e+001 -5.8974e+001 50734 83561,83613,83587
 3.1000e+000 83766 -4.3105e+001 -1.2877e+002 -7.6576e+000 50734 83613,83691,83639
 3.1000e+000 83743 -4.8826e+001 -1.2923e+002  2.9914e+001 50734 83639,83691,83665
 3.1000e+000 84034 -4.8769e+001 -1.2031e+002  3.3263e-002 50230 84057,83884,83858
 3.1000e+000 84011 -3.9649e+001 -1.1163e+002 -2.0813e+001 50230 84129,84057,83858
 3.1000e+000 83988  1.4722e+000 -1.0795e+002 -3.2827e+001 50230 84129,83858,83962
 3.1000e+000 84083 -1.3675e+001 -1.0326e+002 -6.6909e+000 50230 83910,83884,84057
 3.1000e+000 84106 -2.3656e+001 -1.2982e+002 -6.5085e+000 50230 83910,84057,83936
 3.1000e+000 84155  1.7448e+001 -1.0782e+002 -1.5852e+001 50230 83936,84057,84129
 3.1000e+000 84178  3.4917e+001 -1.2133e+002 -3.0523e+001 50230 83936,84129,83962
 3.1000e+000 84558 -4.4658e+001 -1.4801e+002 -2.6155e+001 49768 84581,84388,84362
 3.1000e+000 84535 -1.0079e+002 -1.4976e+002 -1.0009e+001 49768 84581,84362,84310
 3.1000e+000 84512  1.1236e+001 -1.6084e+002 -2.7802e+001 49768 84653,84440,84414
 3.1000e+000 84489 -7.4590e+001 -1.6312e+002  1.4896e+001 49768 84310,84362,84336
 3.1000e+000 84466  1.4793e+000 -1.0993e+002  2.6392e+001 49768 84284,84440,84310
 3.1000e+000 84607 -6.7297e+000 -1.2321e+002 -4.3683e+001 49768 84414,84388,84581
 3.1000e+000 84630 -1.1323e+001 -1.5180e+002 -1.9612e+001 49768 84653,84414,84581
 3.1000e+000 84679 -1.9080e+001 -1.5004e+002 -3.7935e+001 49768 84310,84440,84653
 3.1000e+000 84702 -5.0606e+001 -1.5088e+002 -3.8273e+001 49768 84310,84653,84581
 3.1000e+000 85159 -9.4522e+001 -2.3146e+002 -5.8737e+001 49192 84885,84937,84911
 3.1000e+000 85136 -9.1719e+001 -1.9059e+002 -4.6221e+001 49192 84885,85041,84937
 3.1000e+000 85113 -6.3938e+001 -1.5681e+002 -2.5556e+001 49192 84963,85041,84989
 3.1000e+000 85090 -6.0892e+001 -1.5298e+002 -3.2340e+001 49192 84937,85041,84963
 3.1000e+000 85067 -5.9511e+001 -1.7132e+002 -1.1207e+001 49192 84989,85041,85015
 3.1000e+000 85714 -8.1649e+001 -1.4611e+002  4.3583e-001 48638 85368,85498,85394
 3.1000e+000 85691 -1.0804e+002 -1.6439e+002  1.2184e+001 48638 85368,85524,85498
 3.1000e+000 85668 -9.5530e+001 -1.4171e+002  3.6753e+001 48638 85737,85420,85394
 3.1000e+000 85645 -8.0738e+001 -1.6021e+002  1.9578e+001 48638 85737,85394,85498
 3.1000e+000 85622 -6.4196e+001 -1.6145e+002  3.2055e+001 48638 85446,85498,85472
 3.1000e+000 85599 -2.7121e+001 -1.3193e+002  1.5021e+001 48638 85342,85524,85368
 3.1000e+000 85576 -1.0193e+002 -1.4884e+002  1.4478e+001 48638 85342,85550,85524
 3.1000e+000 85763 -6.8974e+001 -1.2743e+002  4.8414e+001 48638 85446,85420,85737
 3.1000e+000 85786 -6.9880e+001 -1.4586e+002  2.8651e+001 48638 85446,85737,85498
 3.1000e+000 86371 -6.8828e+001 -1.0491e+002 -1.1400e+001 48084 86100,86230,86178
 3.1000e+000 86348 -9.5095e+001 -1.3821e+002 -2.3006e+001 48084 86048,86230,86100
 3.1000e+000 86325 -6.8276e+001 -9.7236e+001  2.0853e+001 48084 86100,86178,86126
 3.1000e+000 86302 -4.7555e+001 -2.6903e+001 -2.8330e+001 48084 86048,86100,86074
 3.1000e+000 86279 -8.2078e+001 -1.6359e+002 -1.1209e+001 48084 86178,86230,86204
 3.1000e+000 86256 -5.8477e+001 -1.1205e+002  2.0355e+001 48084 86126,86178,86152
 3.1000e+000 86619 -5.5904e+001 -1.2936e+002  2.3202e+000 47630 86642,86446,86420
 3.1000e+000 86596 -6.6945e+001 -1.4178e+002 -1.9873e+001 47630 86642,86420,86394
 3.1000e+000 86573 -8.2843e+001 -1.5857e+002 -2.7478e+001 47630 86394,86524,86498
 3.1000e+000 86550 -2.8882e+001 -1.4977e+002  1.0801e+000 47630 86446,86498,86472
 3.1000e+000 86668 -6.7386e+001 -1.5476e+002 -7.5341e+000 47630 86498,86446,86642
 3.1000e+000 86691 -7.3619e+001 -1.5932e+002 -2.9230e+001 47630 86498,86642,86394
 3.1000e+000 87022  3.3025e+000 -7.8901e+001 -2.6847e+001 47226 87045,86875,86849
 3.1000e+000 86999 -1.3816e+001 -8.7169e+001 -3.5327e+001 47226 87045,86849,86797
 3.1000e+000 86976 -5.7175e+000 -4.7131e+001 -1.9756e+001 47226 86797,86849,86823
 3.1000e+000 86953  3.0827e+001 -6.7690e+001 -3.4770e+001 47226 86875,86927,86901
 3.1000e+000 87071  1.9534e+001 -9.4660e+001 -3.2216e+001 47226 86927,86875,87045
 3.1000e+000 87094  4.2044e+000 -9.9338e+001 -3.7597e+001 47226 86927,87045,86797
 3.1000e+000 87244 -2.4970e+000 -1.5735e+002  5.9687e+001 46814 87267,87169,87143
 3.1000e+000 87221 -8.2935e+001 -1.4771e+002  3.4883e-001 46814 87267,87143,87117
 3.1000e+000 87293 -1.7955e+001 -1.5519e+002 -1.1963e+001 46814 87339,87267,87195
 3.1000e+000 87316  2.3341e+001 -1.0135e+002 -3.5959e+001 46814 87469,87267,87117
 3.1000e+000 87365 -2.9321e+001 -1.3083e+002  6.0116e+001 46814 87169,87267,87339
 3.1000e+000 87495  1.9830e+001  4.3063e+001 -3.7683e+001 46814 87195,87267,87469
 3.1000e+000 88001 -5.8283e+001 -1.4319e+002  3.0152e+001 46310 88024,87834,87808
 3.1000e+000 87978 -6.7106e+001 -1.4511e+002  2.0783e+001 46310 88024,87808,87756
 3.1000e+000 87955 -2.5343e+001 -1.8483e+002  8.9353e+000 46310 88096,87730,87860
 3.1000e+000 87932 -4.9813e+001 -1.7368e+002  2.2477e+001 46310 87756,87808,87782
 3.1000e+000 87909 -3.5442e+001 -2.3647e+002  1.0990e+001 46310 87678,87860,87730
 3.1000e+000 87886 -6.0978e+001 -3.7405e+002 -1.6375e+001 46310 87678,87730,87704
 3.1000e+000 88050 -4.9017e+001 -1.2231e+002  2.2981e+001 46310 87860,87834,88024
 3.1000e+000 88073 -2.8756e+001 -1.3532e+002  2.7000e+001 46310 88096,87860,88024
 3.1000e+000 88122 -4.1608e+001 -2.0824e+002 -6.5923e+000 46310 87756,87730,88096
 3.1000e+000 88145 -7.6901e+001 -1.8838e+002  3.4839e+000 46310 87756,88096,88024
 3.1000e+000 88572 -3.6079e+001 -1.5644e+002  4.2418e+000 45856 88249,88405,88275
 3.1000e+000 88549 -2.6875e+001 -5.2081e+001 -3.5985e+001 45856 88249,88431,88405
 3.1000e+000 88526 -8.2136e+001 -2.2619e+002 -2.8303e+001 45856 88327,88405,88353
 3.1000e+000 88503 -3.9213e+001 -1.7819e+002 -1.0262e+001 45856 88275,88405,88327
 3.1000e+000 88480 -6.4838e+001 -1.8992e+002 -3.4301e+001 45856 88353,88405,88379
 3.1000e+000 88457 -1.6622e+002 -4.5288e+002  4.0142e+001 45856 88275,88327,88301
 3.1000e+000 88950 -3.4686e+001 -1.0577e+002 -1.6625e+000 45658 88973,88754,88728
 3.1000e+000 88927 -3.3448e+001 -1.1078e+002 -2.1353e+000 45658 88973,88728,88676
 3.1000e+000 88904 -3.5584e+001 -1.3483e+002  4.2585e+001 45658 88676,88832,88806
 3.1000e+000 88881 -5.3034e+001 -1.4644e+002  1.5029e+001 45658 88676,88728,88702
 3.1000e+000 88858 -4.2699e+001 -9.5630e+001 -1.9183e+001 45658 88754,88806,88780
 3.1000e+000 88999 -3.6535e+001 -1.1001e+002 -9.5633e-001 45658 88806,88754,88973
 3.1000e+000 89022 -3.3838e+001 -1.1294e+002 -1.7840e+000 45658 88806,88973,88676
 3.1000e+000 89351 -4.2526e+001 -1.5455e+002 -8.8597e+000 45254 89152,89230,89204
 3.1000e+000 89328 -3.5530e+001 -1.5146e+002 -8.3579e+000 45254 89152,89256,89230
 3.1000e+000 89305 -4.0373e+000 -1.5964e+002 -2.0954e+001 45254 89126,89256,89152
 3.1000e+000 89282  1.6880e+001 -1.5626e+002 -3.4183e+001 45254 89152,89204,89178
 3.1000e+000 89523 -2.5767e+001 -1.4402e+002 -8.4219e-001 45006 89422,89474,89448
 3.1000e+000 89500 -1.8736e+001 -1.4103e+002  4.7814e+000 45006 89396,89474,89422
 3.1000e+000 89673 -1.2787e+002 -2.2567e+002  2.0267e+001 44495 89572,89624,89598
 3.1000e+000 89650 -1.3033e+002 -2.2237e+002  1.1783e+001 44495 89546,89624,89572
 3.1000e+000 90104 -9.9333e+000 -1.8291e+002 -7.4899e+000 44005 90199,90127,89937
 3.1000e+000 90081 -2.9579e+001 -1.7658e+002  7.5435e-001 44005 90271,90127,89859
 3.1000e+000 90058 -1.4586e+000 -1.8609e+002 -7.6383e+000 44005 90199,89937,89885
 3.1000e+000 90035 -4.3974e+001 -1.6654e+002  8.9717e+000 44005 90271,89859,89807
 3.1000e+000 90012 -2.5190e+001 -2.0050e+002 -2.2585e+001 44005 89885,89937,89911
 3.1000e+000 89989 -1.1146e+001 -1.7797e+002  2.7809e+001 44005 89807,89859,89833
 3.1000e+000 90153 -3.0403e+001 -1.9130e+002 -7.1686e+000 44005 89963,89937,90127
 3.1000e+000 90176 -3.0385e+001 -1.9533e+002 -1.0718e+000 44005 89963,90127,89781
 3.1000e+000 90225 -3.2507e+001 -1.8002e+002 -2.4002e+000 44005 89859,90127,90199
 3.1000e+000 90248 -1.2926e+001 -1.7547e+002  1.6679e+000 44005 89859,90199,89885
 3.1000e+000 90297 -4.8775e+001 -1.8874e+002 -4.6018e+000 44005 89781,90127,90271
 3.1000e+000 90320 -5.7111e+001 -1.7558e+002  4.9306e+000 44005 89781,90271,89807
 3.1000e+000 90470 -2.7672e+001 -2.0337e+002 -7.6839e+000 43601 90493,90369,90343
 3.1000e+000 90447 -5.0375e+001 -1.6901e+002  1.0902e+001 43601 90493,90343,90421
 3.1000e+000 90519 -6.2309e+001 -2.6478e+002 -2.9685e+001 43601 90395,90369,90493
 3.1000e+000 90542 -5.2908e+001 -1.9346e+002 -5.4760e+000 43601 90395,90493,90421
 3.1000e+000 90922 -6.9914e+001 -2.1573e+002  1.6974e+001 43154 90945,90700,90674
 3.1000e+000 90899 -6.8420e+001 -2.2150e+002 -1.5530e+001 43154 90945,90674,90648
 3.1000e+000 90876 -7.8789e+001 -1.7554e+002 -1.1673e+001 43154 90648,90778,90752
 3.1000e+000 90853 -4.0112e+001 -3.3833e+002  1.0584e+001 43154 90700,90752,90726
 3.1000e+000 90830 -4.7659e+001 -1.7691e+002 -1.2391e+000 43154 90648,90804,90778
 3.1000e+000 90971 -8.0452e+001 -2.4407e+002  1.9474e+001 43154 90752,90700,90945
 3.1000e+000 90994 -7.5302e+001 -2.3809e+002 -1.2043e+001 43154 90752,90945,90648
 3.1000e+000 91451 -1.7922e+001 -1.4849e+002 -3.1874e+001 42650 91203,91255,91229
 3.1000e+000 91428  1.5573e-001 -1.4034e+002 -1.2774e+001 42650 91203,91333,91255
 3.1000e+000 91405  5.3641e+000 -2.3581e+002 -3.7153e+001 42650 91177,91333,91203
 3.1000e+000 91382 -6.3453e+001 -2.4641e+002  1.3932e+001 42650 91255,91333,91281
 3.1000e+000 91359  4.2469e+001 -2.0022e+002  2.8829e+000 42650 91281,91333,91307
 3.1000e+000 91721 -9.5552e+001 -2.2415e+002  1.5459e+001 42288 91496,91600,91522
 3.1000e+000 91698 -4.6434e+001 -1.2162e+002 -4.7180e+000 42288 91496,91626,91600
 3.1000e+000 91675 -5.9647e+001 -2.0013e+002  1.6477e+001 42288 91522,91574,91548
 3.1000e+000 91652 -4.8526e+001 -2.0613e+002  1.5769e+001 42288 91522,91600,91574
 3.1000e+000 92199 -1.4461e+002 -2.4702e+002 -7.1761e+000 41898 92222,91983,91879
 3.1000e+000 92176 -1.4986e+002 -2.6714e+002 -1.5225e+001 41898 92294,92222,91879
 3.1000e+000 92153 -1.5933e+002 -2.6237e+002 -2.2356e+001 41898 92294,91879,91853
 3.1000e+000 92130 -1.2500e+002 -1.5126e+002  1.3142e+001 41898 91879,91957,91931
 3.1000e+000 92107 -1.2988e+002 -2.4121e+002 -3.1321e+000 41898 91879,91983,91957
 3.1000e+000 92084 -1.3605e+002 -1.4105e+002  2.6512e+001 41898 91879,91931,91905
 3.1000e+000 92061 -1.3579e+002 -2.3343e+002 -1.8041e+001 41898 91827,92035,91853
 3.1000e+000 92248 -1.4225e+002 -2.7108e+002 -2.2277e+000 41898 92009,91983,92222
 3.1000e+000 92271 -1.3916e+002 -2.7564e+002 -1.9871e+001 41898 92009,92222,92035
 3.1000e+000 92320 -1.3366e+002 -2.5981e+002 -1.7195e+001 41898 92035,92222,92294
 3.1000e+000 92343 -1.4075e+002 -2.5408e+002 -2.3966e+001 41898 92035,92294,91853
 3.1000e+000 92770 -5.0104e+001 -2.3045e+002 -1.8084e+001 41437 92865,92793,92525
 3.1000e+000 92747 -6.9300e+001 -2.6291e+002 -2.3357e+001 41437 92793,92473,92629
 3.1000e+000 92724 -2.5465e+001 -2.3699e+002 -3.1382e+001 41437 92865,92525,92499
 3.1000e+000 92701 -7.6179e+001 -2.0634e+002 -3.7752e+001 41437 92525,92603,92577
 3.1000e+000 92678 -1.6084e+000 -2.4922e+002 -1.8316e+001 41437 92447,92629,92473
 3.1000e+000 92655 -1.2227e+002 -1.8879e+002 -2.4866e+001 41437 92525,92577,92551
 3.1000e+000 92819 -5.5829e+001 -2.4350e+002 -3.7430e+001 41437 92603,92525,92793
 3.1000e+000 92842 -1.0616e+002 -2.6116e+002 -6.3831e+001 41437 92603,92793,92629
 3.1000e+000 92891 -1.8425e+000 -2.4785e+002 -2.2048e+001 41437 92473,92793,92865
 3.1000e+000 92914  3.3554e+001 -2.3991e+002 -4.1338e+001 41437 92473,92865,92499
 3.1000e+000 93243 -3.8149e+001 -3.4098e+002  1.2296e+002 41097 93044,93096,93070
 3.1000e+000 93220 -6.5582e+001 -2.9434e+002  6.3502e+001 41097 93044,93122,93096
 3.1000e+000 93197  3.5219e+001 -2.0383e+002  2.5328e+001 41097 93044,93148,93122
 3.1000e+000 93174 -3.7855e+001 -1.3580e+002  7.2715e+001 41097 93018,93148,93044
 3.1000e+000 93393 -2.8695e+000 -2.4789e+002  1.7303e+001 40643 93416,93292,93344
 3.1000e+000 93370 -1.2341e+001 -2.1927e+002  2.0326e+001 40643 93266,93344,93292
 3.1000e+000 93442 -7.4848e+000 -2.4822e+002  1.9487e+001 40643 93318,93292,93416
 3.1000e+000 93901 -7.5349e+001 -2.3643e+002 -1.6309e+001 40132 93924,93731,93705
 3.1000e+000 93878 -8.0798e+001 -2.4059e+002 -1.8422e+001 40132 93996,93924,93705
 3.1000e+000 93855 -9.5244e+001 -2.7578e+002 -8.1953e+000 40132 93996,93705,93653
 3.1000e+000 93832 -4.8022e+001 -2.6938e+002 -1.5247e+001 40132 93653,93705,93679
 3.1000e+000 93809 -7.3451e+001 -2.2389e+002 -9.8686e-001 40132 93627,93783,93757
 3.1000e+000 93950 -7.1101e+001 -2.4761e+002 -1.9795e+001 40132 93757,93731,93924
 3.1000e+000 93973 -8.1392e+001 -2.1854e+002 -4.6593e+000 40132 93757,93924,93627
 3.1000e+000 94022 -1.0454e+002 -2.6187e+002  7.0816e+000 40132 93627,93924,93996
 3.1000e+000 94045 -9.8390e+001 -2.7441e+002  1.4462e+001 40132 93627,93996,93653
 3.1000e+000 94423 -4.7675e+000 -2.5226e+002 -4.0308e+001 39514 94149,94227,94175
 3.1000e+000 94400 -1.8900e+001 -2.4113e+002  2.8345e+001 39514 94149,94305,94227
 3.1000e+000 94377  1.4071e+001 -3.0249e+002 -3.7479e+001 39514 94175,94227,94201
 3.1000e+000 94354 -7.3392e+001 -2.2365e+002  1.0803e+001 39514 94227,94305,94279
 3.1000e+000 94331 -2.6319e+001 -2.0194e+002  2.0685e+001 39514 94227,94279,94253
 3.1000e+000 94573 -2.2933e+001 -1.4895e+002 -3.7013e+001 38822 94596,94498,94472
 3.1000e+000 94550  2.5027e+001 -1.6428e+002  2.7857e+001 38822 94596,94472,94446
 3.1000e+000 94622 -7.8475e+001 -1.7302e+002 -3.2726e+001 38822 94524,94498,94596
 3.1000e+000 94645 -7.0538e+001 -2.0843e+002  3.8864e+001 38822 94524,94596,94446
 3.1000e+000 95025 -1.3951e+001 -1.9878e+002 -1.4999e+001 38418 95048,94829,94777
 3.1000e+000 95002 -1.9621e+001 -2.0936e+002 -2.5148e+001 38418 95120,95048,94777
 3.1000e+000 94979 -1.4482e+001 -2.0788e+002 -2.3532e+001 38418 95120,94777,94751
 3.1000e+000 94956 -1.1212e+001 -1.8698e+002 -2.6604e+001 38418 95192,94881,94855
 3.1000e+000 94933 -6.0910e+001 -1.7435e+002 -1.0069e+001 38418 94777,94829,94803
 3.1000e+000 95074 -3.4640e+001 -2.6147e+002 -5.7418e+000 38418 94855,94829,95048
 3.1000e+000 95097 -1.6139e+001 -2.0776e+002 -2.9235e+001 38418 95192,94855,95048
 3.1000e+000 95146 -3.5884e+001 -2.0067e+002 -2.0322e+001 38418 94907,95048,95120
 3.1000e+000 95169 -2.2319e+001 -1.9222e+002 -1.5801e+001 38418 94907,95120,94751
 3.1000e+000 95218 -1.6897e+001 -1.4878e+002 -2.3612e+001 38418 94907,94881,95192
 3.1000e+000 95241 -2.8794e+001 -1.8188e+002 -2.0840e+001 38418 94907,95192,95048
 3.1000e+000 95511 -7.2464e+001 -2.2751e+002  9.0542e+000 38049 95312,95390,95364
 3.1000e+000 95488 -5.4791e+001 -2.2066e+002  1.0692e+001 38049 95312,95416,95390
 3.1000e+000 95465 -2.6236e+001 -2.1719e+002 -1.4839e+001 38049 95312,95364,95338
 3.1000e+000 95442 -2.1554e+001 -2.0748e+002  2.0002e+001 38049 95286,95416,95312
 3.1000e+000 95808 -6.3929e+001 -2.4925e+002 -5.1545e+000 37437 95831,95586,95560
 3.1000e+000 95785  2.2473e+001 -2.6131e+002 -1.0016e+001 37437 95831,95560,95534
 3.1000e+000 95762 -1.2635e+002 -2.3519e+002  7.3138e+000 37437 95586,95664,95638
 3.1000e+000 95739 -1.7650e+001 -1.2003e+002 -6.2483e+001 37437 95534,95690,95664
 3.1000e+000 95716 -1.1675e+002 -1.6721e+002  7.0919e+000 37437 95586,95638,95612
 3.1000e+000 95857 -1.1975e+002 -2.4167e+002  2.9860e+001 37437 95664,95586,95831
 3.1000e+000 95880 -2.8292e+001 -2.5123e+002  2.6233e+001 37437 95664,95831,95534
 3.1000e+000 96390 -8.0684e+001 -1.7938e+002 -1.3599e+001 36883 96413,96145,96093
 3.1000e+000 96367 -6.4444e+001 -1.7099e+002 -7.6903e+000 36883 96413,96093,96067
 3.1000e+000 96344 -4.4764e+001 -2.0971e+002 -5.1892e-001 36883 96067,96249,96171
 3.1000e+000 96321 -7.0762e+001 -2.0302e+002 -7.9236e+000 36883 96093,96145,96119
 3.1000e+000 96298 -9.8532e+001 -3.4638e+002  3.2222e+001 36883 96171,96249,96197
 3.1000e+000 96275 -2.3703e+001 -2.7548e+002 -5.3673e+000 36883 96197,96249,96223
 3.1000e+000 96439 -7.5280e+001 -1.7145e+002  6.7334e-001 36883 96171,96145,96413
 3.1000e+000 96462 -6.2343e+001 -1.6894e+002  5.2705e+000 36883 96171,96413,96067
 3.1000e+000 96781 -6.7177e+001 -2.0580e+002 -3.0513e+001 36215 96559,96663,96637
 3.1000e+000 96758 -8.3813e+001 -2.2448e+002 -3.8308e+001 36215 96507,96663,96559
 3.1000e+000 96735 -8.1992e+001 -1.5428e+002  1.6708e+001 36215 96585,96637,96611
 3.1000e+000 96712 -1.7510e+002 -2.3988e+002 -2.5840e+001 36215 96559,96637,96585
 3.1000e+000 96689 -3.1145e+001 -2.5540e+002 -8.1174e+000 36215 96507,96559,96533
 3.1000e+000 97161  4.7622e+000 -1.1216e+002 -5.4710e+000 35818 97184,96965,96939
 3.1000e+000 97138 -1.3139e+001 -1.3342e+002 -1.4716e+001 35818 97184,96939,96887
 3.1000e+000 97115  1.4639e+000 -1.3832e+002  2.7424e+001 35818 96965,97043,97017
 3.1000e+000 97092 -8.3921e+000 -1.2562e+002 -1.6715e+001 35818 96887,96939,96913
 3.1000e+000 97069 -7.0493e+001 -1.4648e+002  1.5737e+001 35818 96965,97017,96991
 3.1000e+000 97210  2.4330e+001 -1.3064e+002  6.9165e+000 35818 97043,96965,97184
 3.1000e+000 97233  9.7210e+000 -1.4541e+002 -6.3936e-001 35818 97043,97184,96887
 3.1000e+000 97739 -7.9127e+001 -2.2705e+002 -5.2620e+001 35214 97416,97468,97442
 3.1000e+000 97716 -9.0089e+001 -1.6113e+002 -1.7825e+001 35214 97416,97598,97468
 3.1000e+000 97693 -7.8534e+001 -1.5305e+002 -7.1665e+000 35214 97762,97520,97468
 3.1000e+000 97670 -8.0901e+001 -1.5692e+002 -1.3430e+001 35214 97762,97468,97598
 3.1000e+000 97647 -6.1603e+001 -1.5202e+002 -2.0642e+001 35214 97546,97598,97572
 3.1000e+000 97624 -5.2554e+001 -1.5807e+002 -9.2691e+000 35214 97468,97520,97494
 3.1000e+000 97788 -8.0956e+001 -1.6026e+002 -9.9758e+000 35214 97546,97520,97762
 3.1000e+000 97811 -8.1620e+001 -1.6329e+002 -1.5820e+001 35214 97546,97762,97598
 3.1000e+000 98189 -1.5090e+001 -1.2362e+002 -1.0619e+001 34760 98356,98212,97967
 3.1000e+000 98166 -3.3456e+001 -1.5140e+002 -2.2011e+001 34760 98284,98212,97941
 3.1000e+000 98143 -5.9356e+001 -1.3723e+002 -1.0639e+001 34760 98284,97941,97915
 3.1000e+000 98120 -1.7782e+001 -1.6535e+002 -5.5249e+000 34760 98484,97993,97967
 3.1000e+000 98097 -1.4581e+001 -1.3983e+002 -5.8951e+000 34760 98556,98045,98019
 3.1000e+000 98238 -2.6386e+001 -1.5591e+002 -6.1955e+000 34760 98484,97967,98212
 3.1000e+000 98261 -3.4584e+000 -1.4661e+002 -1.1710e+001 34760 98556,98019,98212
 3.1000e+000 98310 -1.0680e+001 -1.2619e+002 -3.2896e+001 34760 98071,98212,98284
 3.1000e+000 98333 -2.8470e+001 -9.1370e+001 -2.6896e+001 34760 98071,98284,97915
 3.1000e+000 98382 -7.9788e+001 -1.6681e+002 -3.0189e+001 34760 97941,98212,98356
 3.1000e+000 98510 -3.3094e+000 -1.5801e+002 -1.0201e+001 34760 98019,97993,98484
 3.1000e+000 98533 -1.7451e+001 -1.5303e+002 -1.0046e+001 34760 98019,98484,98212
 3.1000e+000 98582 -6.6290e-001 -1.3136e+002 -2.3019e+000 34760 98071,98045,98556
 3.1000e+000 98605  3.8243e+000 -1.4201e+002 -9.6249e+000 34760 98071,98556,98212
 3.1000e+000 99032 -8.0152e+001 -1.9257e+002  2.5234e+001 34156 98735,98891,98839
 3.1000e+000 99009 -6.8633e+001 -1.9722e+002  1.2916e+001 34156 98709,98891,98735
 3.1000e+000 98986 -1.8676e+001 -1.7578e+002  2.7357e+001 34156 98735,98813,98787
 3.1000e+000 98963 -1.7887e+001 -1.8356e+002  1.7389e+001 34156 98735,98839,98813
 3.1000e+000 98940  1.0465e+001 -2.5839e+002  2.9035e+001 34156 98735,98787,98761
 3.1000e+000 98917 -6.9970e+001 -1.6627e+002  1.1783e+001 34156 98839,98891,98865
 3.1000e+000 99231 -2.5139e+001 -1.0349e+002  9.3554e+000 33766 99055,99133,99107
 3.1000e+000 99208 -4.3711e+001 -1.3441e+002  1.8316e+001 33766 99055,99159,99133
 3.1000e+000 99185 -1.3219e+001 -1.2346e+002  2.3815e+001 33766 99055,99107,99081
 3.1000e+000 99818 -5.4351e+001 -1.5258e+002  2.8353e+000 33248 99521,99651,99573
 3.1000e+000 99795 -5.2888e+001 -1.4513e+002  1.4851e+001 33248 99521,99677,99651
 3.1000e+000 99772 -8.0746e+001 -1.8643e+002 -1.0012e+001 33248 99573,99651,99599
 3.1000e+000 99749 -5.5160e+001 -1.8091e+002  1.6196e+001 33248 99495,99677,99521
 3.1000e+000 99726 -3.9310e+001 -1.5746e+002 -3.6591e+001 33248 99599,99651,99625
 3.1000e+000 99703 -6.9797e+001 -1.8599e+002  1.1207e+001 33248 99521,99573,99547
 3.1000e+000 100196 -5.5655e+001 -1.6378e+002 -3.1517e+001 32794 100219,99948,99922
 3.1000e+000 100173 -6.4376e+001 -1.8192e+002 -1.4349e+001 32794 100219,99922,100052
 3.1000e+000 100150 -8.6133e+001 -1.6573e+002  9.5473e+000 32794 99974,100052,100026
 3.1000e+000 100127 -7.7487e+001 -1.4856e+002 -2.3469e+001 32794 99922,100078,100052
 3.1000e+000 100104 -9.0775e+001 -2.0125e+002  3.7514e+001 32794 99974,100026,100000
 3.1000e+000 100245 -7.5117e+001 -1.6156e+002 -1.4035e+001 32794 99974,99948,100219
 3.1000e+000 100268 -7.9766e+001 -1.8539e+002  3.3493e+000 32794 99974,100219,100052
 3.1000e+000 100418 -8.9377e+000 -1.4605e+002 -1.4984e+001 32504 100571,100343,100317
 3.1000e+000 100395 -5.8125e+001 -1.6837e+002  1.6304e+001 32504 100571,100317,100441
 3.1000e+000 100467  4.4111e+001 -7.9857e+001 -4.3256e+001 32504 100291,100369,100441
 3.1000e+000 100597  1.2916e+001 -1.2219e+002 -5.3555e+001 32504 100369,100343,100571
 3.1000e+000 100620 -9.2191e+000 -1.1388e+002 -2.6529e+001 32504 100369,100571,100441
 3.1000e+000 101020 -2.7513e+001 -1.3725e+002  6.2022e+000 32142 100772,100902,100876
 3.1000e+000 100997 -1.8340e+001 -1.2659e+002  1.0378e+001 32142 100746,100902,100772
 3.1000e+000 100974 -9.4594e+000 -1.5557e+002  1.5200e+001 32142 101043,100824,100798
 3.1000e+000 100951 -2.8614e+001 -1.6306e+002  1.2186e+001 32142 101043,100798,100772
 3.1000e+000 100928 -8.9595e+001 -1.8862e+002 -4.4663e+001 32142 101115,100876,100850
 3.1000e+000 101069  1.8284e+001 -1.6528e+002 -1.7053e+001 32142 100850,100824,101043
 3.1000e+000 101092 -4.8285e+001 -1.9349e+002 -2.1759e+001 32142 101115,100850,101043
 3.1000e+000 101141 -3.8759e+001 -1.6075e+002 -1.6281e+001 32142 100772,100876,101115
 3.1000e+000 101164 -6.9735e+000 -1.6418e+002  8.8005e+000 32142 100772,101115,101043
 3.1000e+000 101719 -8.4575e+001 -2.0194e+002  2.5971e+001 31538 101742,101477,101399
 3.1000e+000 101696 -1.0401e+002 -2.4365e+002  6.0953e+000 31538 101814,101742,101399
 3.1000e+000 101673 -1.1964e+002 -2.0828e+002 -1.7621e+001 31538 101814,101399,101373
 3.1000e+000 101650 -8.4340e+001 -1.4664e+002  1.6578e+001 31538 101425,101477,101451
 3.1000e+000 101627 -8.0298e+001 -1.7086e+002  3.7119e+000 31538 101399,101477,101425
 3.1000e+000 101604 -5.0072e+001 -2.4043e+002  4.9354e+001 31538 101477,101529,101503
 3.1000e+000 101581 -3.3161e+001 -1.4136e+002 -1.5740e+001 31538 101347,101555,101373
 3.1000e+000 101768 -9.6046e+001 -2.4546e+002  2.5526e+001 31538 101529,101477,101742
 3.1000e+000 101791 -8.3348e+001 -2.5170e+002 -8.8765e+000 31538 101529,101742,101555
 3.1000e+000 101840 -6.4616e+001 -2.0760e+002 -1.0454e+001 31538 101555,101742,101814
 3.1000e+000 101863 -8.7368e+001 -1.7879e+002 -3.2174e+001 31538 101555,101814,101373
 3.1000e+000 102111 -1.2252e+002 -3.1719e+002  4.2485e+001 31112 101886,101990,101912
 3.1000e+000 102088 -4.3064e+001 -1.8744e+002  3.2854e+000 31112 101886,102016,101990
 3.1000e+000 102065 -5.3188e+001 -3.0459e+002  6.1383e+001 31112 101912,101990,101964
 3.1000e+000 102042 -8.5632e+001 -3.7798e+002  7.2584e+001 31112 101912,101964,101938
 3.1000e+000 102408 -3.8014e+001 -1.9365e+002  1.5702e+001 30658 102431,102186,102160
 3.1000e+000 102385 -6.7966e+001 -1.9048e+002  7.9325e-001 30658 102431,102160,102264
 3.1000e+000 102362 -6.7687e+001 -2.1092e+002  3.9412e+000 30658 102186,102238,102212
 3.1000e+000 102339 -7.3822e+001 -2.0317e+002 -1.2544e+001 30658 102134,102264,102160
 3.1000e+000 102316 -4.9053e+001 -1.6967e+002 -5.5681e+001 30658 102134,102290,102264
 3.1000e+000 102457 -6.2317e+001 -2.0464e+002  8.9872e+000 30658 102238,102186,102431
 3.1000e+000 102480 -9.4463e+001 -2.0459e+002 -7.1929e+000 30658 102238,102431,102264
 3.1000e+000 102681 -2.9279e+001 -2.3378e+002  3.4223e+001 30004 102704,102557,102505
 3.1000e+000 102658 -3.4002e+001 -2.3673e+002  3.5504e+001 30004 102704,102505,102609
 3.1000e+000 102635 -2.9295e-001 -2.0219e+002  7.9764e+000 30004 102505,102557,102531
 3.1000e+000 102730 -3.3693e+001 -2.2691e+002  3.1028e+001 30004 102583,102557,102704
 3.1000e+000 102753 -4.4621e+001 -2.3316e+002  3.3584e+001 30004 102583,102704,102609
 3.1000e+000 103003 -2.6838e+001 -1.8270e+002 -1.5504e+001 29564 103026,102804,102778
 3.1000e+000 102980 -3.5553e+001 -2.1293e+002 -1.8951e+001 29564 103026,102778,102908
 3.1000e+000 102957  8.4607e+000 -1.7455e+002  1.7912e+001 29564 102856,102908,102882
 3.1000e+000 102934 -4.9286e+001 -1.7532e+002  8.9417e+000 29564 102804,102856,102830
 3.1000e+000 103052 -2.9315e+001 -1.6957e+002  5.0611e+000 29564 102856,102804,103026
 3.1000e+000 103075 -3.8065e+001 -1.9291e+002 -1.1079e+000 29564 102856,103026,102908
 3.1000e+000 103634 -9.2685e+001 -2.2102e+002 -2.5062e+001 29160 103657,103418,103392
 3.1000e+000 103611 -8.8036e+001 -2.1218e+002 -1.2184e+001 29160 103657,103392,103314
 3.1000e+000 103588 -6.5210e+001 -1.8576e+002 -2.1874e+001 29160 103314,103392,103366
 3.1000e+000 103565 -5.6404e+001 -1.9709e+002 -2.5804e+001 29160 103314,103366,103340
 3.1000e+000 103542 -1.0804e+002 -2.0865e+002 -2.4528e+001 29160 103262,103444,103314
 3.1000e+000 103519 -1.2758e+002 -2.4655e+002 -3.5630e+001 29160 103262,103314,103288
 3.1000e+000 103496 -8.2079e+001 -2.2532e+002 -1.1647e+001 29160 103262,103470,103444
 3.1000e+000 103683 -1.1285e+002 -2.3752e+002 -4.1265e+001 29160 103444,103418,103657
 3.1000e+000 103706 -9.5454e+001 -2.1043e+002 -2.6277e+001 29160 103444,103657,103314
 3.1000e+000 104035 -6.7310e+001 -1.9329e+002  1.8847e+001 28770 103836,103914,103862
 3.1000e+000 104012 -5.8383e+001 -1.9297e+002  1.7402e+001 28770 103810,103914,103836
 3.1000e+000 103989  9.2791e+000 -1.8076e+002  3.0213e+001 28770 103810,103940,103914
 3.1000e+000 103966 -1.6435e+001 -1.6789e+002  4.2077e+001 28770 103862,103914,103888
 3.1000e+000 104185 -2.9299e+001 -2.0111e+002  3.3766e+001 28366 104208,104110,104084
 3.1000e+000 104162 -2.1724e+001 -1.6990e+002  3.0563e+001 28366 104280,104208,104084
 3.1000e+000 104234  2.5312e+001 -1.9815e+002  2.0093e+001 28366 104610,104208,104136
 3.1000e+000 104257 -4.4724e+001 -1.9163e+002  2.1280e+001 28366 104538,104410,104208
 3.1000e+000 104306 -6.7279e+001 -1.9382e+002  2.0824e+001 28366 104538,104208,104280
 3.1000e+000 104436 -2.1656e+001 -2.0104e+002  1.9771e+000 28366 104136,104208,104410
 3.1000e+000 104564 -6.8331e+001 -1.9052e+002  9.3052e+000 28366 104058,104410,104538
 3.1000e+000 104587 -8.2208e+001 -1.8748e+002  7.2910e+000 28366 104058,104538,104280
 3.1000e+000 104636  1.1177e+001 -2.0254e+002  2.7614e+001 28366 104110,104208,104610
 3.1000e+000 105349 -4.6180e+001 -1.6764e+002 -1.7368e+001 27976 105516,105372,105107
 3.1000e+000 105326 -7.2152e+001 -1.6789e+002  4.3279e+000 27976 105588,105372,105055
 3.1000e+000 105303 -7.6349e+001 -1.6317e+002 -1.8591e+001 27976 105444,105159,105133
 3.1000e+000 105280 -2.6915e+001 -1.7451e+002 -1.0137e+001 27976 105516,105107,105081
 3.1000e+000 105257 -6.7406e+001 -1.8390e+002  1.4905e+001 27976 105588,105055,105029
 3.1000e+000 105234 -3.6097e+001 -1.4076e+002  1.0205e+000 27976 105003,105185,105159
 3.1000e+000 105211 -4.9697e+001 -1.1367e+002  1.9939e+001 27976 104977,105185,105003
 3.1000e+000 105398 -3.7074e+001 -1.6854e+002 -2.2287e+001 27976 105133,105107,105372
 3.1000e+000 105421 -6.1647e+001 -1.7573e+002 -1.1331e+001 27976 105444,105133,105372
 3.1000e+000 105470 -6.3061e+001 -1.4234e+002 -1.0564e+001 27976 105003,105159,105444
 3.1000e+000 105493 -5.2225e+001 -1.5630e+002 -7.1025e+000 27976 105003,105444,105372
 3.1000e+000 105542 -3.3204e+001 -1.6512e+002 -1.5687e+000 27976 105055,105372,105516
 3.1000e+000 105565 -4.5943e+000 -1.6838e+002  3.7438e+000 27976 105055,105516,105081
 3.1000e+000 105614 -8.1981e+001 -1.8362e+002  1.1944e+001 27976 105003,105372,105588
 3.1000e+000 105637 -7.9801e+001 -1.9943e+002  2.3461e+001 27976 105003,105588,105029
 3.1000e+000 106143 -8.7216e+001 -2.6529e+002  1.5962e+001 27664 106166,105846,105820
 3.1000e+000 106120 -6.2830e+001 -2.0783e+002  6.9614e+000 27664 106310,106166,105820
 3.1000e+000 106097 -2.8930e+001 -2.4236e+002 -4.6432e+001 27664 106382,106238,105950
 3.1000e+000 106074 -4.1972e+001 -2.0385e+002  7.4890e+000 27664 106310,105820,106002
 3.1000e+000 106051  1.9967e+001 -2.1445e+002 -3.4410e+001 27664 106382,105950,105924
 3.1000e+000 106028 -2.8087e+001 -3.7361e+002 -1.0977e+001 27664 105846,105898,105872
 3.1000e+000 106192 -8.1359e+001 -2.9448e+002 -3.5212e+001 27664 105898,105846,106166
 3.1000e+000 106215 -5.3377e+001 -2.4912e+002 -1.0712e+001 27664 106238,105898,106166
 3.1000e+000 106264 -1.3975e+002 -2.7115e+002 -6.2882e+001 27664 105976,105950,106238
 3.1000e+000 106287 -4.6993e+001 -2.4680e+002 -1.2082e+001 27664 105976,106238,106166
 3.1000e+000 106336 -4.1829e+001 -2.1942e+002  2.6138e+001 27664 105976,106166,106310
 3.1000e+000 106359 -1.7866e+001 -2.1380e+002  2.5863e+001 27664 105976,106310,106002
 3.1000e+000 106408 -4.9747e+001 -1.9766e+002  8.5465e+000 27664 105898,106238,106382
 3.1000e+000 106431 -2.0695e+001 -1.8311e+002  1.6179e+001 27664 105898,106382,105924
 3.1000e+000 106728 -2.6750e+001 -1.4318e+002  2.7845e+001 27153 106751,106506,106454
 3.1000e+000 106705 -2.4866e+001 -1.4467e+002  2.1370e+001 27153 106751,106454,106610
 3.1000e+000 106682 -4.1064e+001 -1.0937e+002  6.5735e+000 27153 106454,106506,106480
 3.1000e+000 106659 -3.8501e+001 -1.4300e+002  1.1386e+001 27153 106532,106610,106584
 3.1000e+000 106636 -5.5946e+001 -8.1897e+001  2.8337e+001 27153 106532,106584,106558
 3.1000e+000 106777 -1.7984e+001 -1.4280e+002  2.8888e+001 27153 106532,106506,106751
 3.1000e+000 106800 -1.7457e+001 -1.4382e+002  2.1165e+001 27153 106532,106751,106610
 3.1000e+000 107180 -3.6534e+001 -1.7275e+002  1.2108e+001 26642 107203,106984,106958
 3.1000e+000 107157 -8.9609e+001 -1.9773e+002  2.3347e+000 26642 107203,106958,106932
 3.1000e+000 107134 -1.0787e+002 -2.1861e+002 -2.6990e+001 26642 107275,107036,107010
 3.1000e+000 107111 -6.7907e+001 -2.1455e+002 -3.6814e+001 26642 106932,107062,107036
 3.1000e+000 107088 -2.4013e+000 -1.6803e+002  2.0436e+001 26642 106906,107062,106932
 3.1000e+000 107229 -9.8519e+000 -1.6356e+002 -4.6458e+001 26642 107010,106984,107203
 3.1000e+000 107252 -9.4834e+001 -2.0073e+002 -3.3879e+001 26642 107275,107010,107203
 3.1000e+000 107301 -9.2331e+001 -2.1635e+002 -3.6725e+001 26642 106932,107036,107275
 3.1000e+000 107324 -8.8133e+001 -2.1659e+002 -3.8806e+001 26642 106932,107275,107203
 3.1000e+000 107675 -4.3600e+001 -1.2259e+002  1.3765e+001 26045 107450,107554,107476
 3.1000e+000 107652 -3.4678e+001 -1.0657e+002  4.6796e+000 26045 107450,107580,107554
 3.1000e+000 107629 -1.5049e+001 -1.0294e+002  3.4364e+000 26045 107476,107528,107502
 3.1000e+000 107606 -1.1192e+001 -1.1544e+002  7.7785e+000 26045 107476,107554,107528
 3.1000e+000 107874 -3.2921e+001 -1.8763e+002  4.7476e+001 25641 107750,107802,107776
 3.1000e+000 107851 -4.1034e+001 -1.3564e+002  2.6808e+001 25641 107724,107802,107750
 3.1000e+000 107828 -4.4212e+001 -1.4278e+002  1.9173e+001 25641 107698,107802,107724
 3.1000e+000 108431 -1.4869e+001 -1.9612e+002  3.7420e+001 25023 108526,108267,108241
 3.1000e+000 108408 -4.2057e-001 -1.7894e+002  6.3130e+000 25023 108059,108267,108085
 3.1000e+000 108385 -2.7136e+001 -2.1214e+002  3.3335e+001 25023 108454,108163,108111
 3.1000e+000 108362 -8.9731e+001 -2.0880e+002  6.2692e+001 25023 108454,108111,108085
 3.1000e+000 108339 -7.5161e+001 -2.7052e+002  5.8142e+001 25023 108111,108163,108137
 3.1000e+000 108316 -4.6416e+001 -1.5108e+002 -8.0430e+000 25023 108163,108241,108215
 3.1000e+000 108293  1.9536e+001 -1.2173e+002 -1.0967e+000 25023 108163,108215,108189
 3.1000e+000 108480 -4.8462e+000 -1.8535e+002  4.1185e+000 25023 108241,108163,108454
 3.1000e+000 108503 -2.6911e+001 -1.9672e+002  3.8287e+001 25023 108526,108241,108454
 3.1000e+000 108552 -3.0712e+001 -1.8937e+002  2.9737e+001 25023 108085,108267,108526
 3.1000e+000 108575 -4.3238e+001 -1.9042e+002  3.0387e+001 25023 108085,108526,108454
 3.1000e+000 108823 -1.1506e+001 -1.5389e+002  2.2808e+001 24461 108624,108728,108650
 3.1000e+000 108800 -2.9160e+001 -3.1579e+002 -1.9649e+001 24461 108598,108728,108624
 3.1000e+000 108777 -3.5377e+000 -2.0262e+002  2.0058e+001 24461 108650,108728,108676
 3.1000e+000 108754 -9.2375e+001 -5.6224e+002  4.9779e+001 24461 108676,108728,108702
 3.1000e+000 109022 -5.2425e+001 -1.5502e+002  1.5274e+001 24121 108872,108924,108898
 3.1000e+000 108999 -4.2745e+001 -1.6016e+002  1.5216e+001 24121 108846,108924,108872
 3.1000e+000 108976 -1.2220e+001 -1.5729e+002  4.0053e+001 24121 108846,108950,108924
 3.1000e+000 109483 -6.5308e+001 -2.1236e+002 -2.0642e+001 23717 109209,109339,109235
 3.1000e+000 109460 -2.6043e+001 -2.4281e+002 -4.9324e+001 23717 109209,109365,109339
 3.1000e+000 109437 -6.7501e+000 -2.6671e+002 -1.4047e+001 23717 109287,109339,109313
 3.1000e+000 109414 -1.2374e+002 -2.6945e+002  1.4588e+001 23717 109235,109339,109287
 3.1000e+000 109391 -9.1408e+000 -3.1634e+002  1.0649e+002 23717 109235,109287,109261
 3.1000e+000 109910 -8.3797e+001 -2.4596e+002 -2.4847e+001 23305 109613,109743,109717
 3.1000e+000 109887 -8.6020e+001 -2.4877e+002 -1.4323e+001 23305 109613,109769,109743
 3.1000e+000 109864 -1.0407e+002 -2.4163e+002 -1.9797e+001 23305 109613,109717,109639
 3.1000e+000 109841 -6.7357e+001 -2.3091e+002 -5.1027e+000 23305 109587,109769,109613
 3.1000e+000 109818  1.5656e+001 -1.9054e+002  2.6312e+001 23305 109639,109717,109691
 3.1000e+000 109795 -2.4039e+001 -1.5341e+002 -3.3372e+001 23305 109639,109691,109665
 3.1000e+000 110180 -6.1932e+000 -7.2545e+001 -1.5060e+001 22851 110007,110059,110033
 3.1000e+000 110157 -4.9886e+001 -1.9112e+002  8.0153e+000 22851 109981,110059,110007
 3.1000e+000 110134 -6.9319e+001 -2.0604e+002  8.8506e-001 22851 109955,110059,109981
 3.1000e+000 110111 -2.8232e+001 -2.2573e+002 -1.7705e+001 22851 109955,110085,110059
 3.1000e+000 110737 -4.6425e+001 -2.2726e+002 -5.4111e+001 22333 110760,110469,110391
 3.1000e+000 110714 -1.8151e+001 -2.5178e+002 -4.4492e+001 22333 110760,110391,110365
 3.1000e+000 110691 -2.5447e+001 -2.1715e+002 -4.5760e+001 22333 110832,110521,110469
 3.1000e+000 110668 -4.4189e+000 -3.6938e+002  3.3475e+000 22333 110417,110469,110443
 3.1000e+000 110645 -1.0984e+002 -3.4187e+002 -6.1361e-001 22333 110391,110469,110417
 3.1000e+000 110622 -3.3779e+000 -2.1480e+002 -2.6632e+001 22333 110469,110521,110495
 3.1000e+000 110599 -2.5598e+001 -1.4836e+002  1.6632e+001 22333 110365,110573,110547
 3.1000e+000 110786 -2.6291e+001 -2.1874e+002 -4.6892e+001 22333 110832,110469,110760
 3.1000e+000 110809  3.5026e+000 -2.2812e+002 -3.3254e+001 22333 110547,110760,110365
 3.1000e+000 110858 -1.6679e+001 -2.2184e+002 -4.7942e+001 22333 110547,110521,110832
 3.1000e+000 110881 -2.4307e+001 -2.2814e+002 -5.0942e+001 22333 110547,110832,110760
 3.1000e+000 111308 -1.1727e+002 -2.7041e+002  1.3661e+001 21829 111331,111063,111011
 3.1000e+000 111285 -1.0707e+002 -2.5300e+002 -4.8795e+000 21829 111331,111011,111167
 3.1000e+000 111262 -1.2030e+002 -2.6919e+002  1.4359e+001 21829 111403,111089,111063
 3.1000e+000 111239 -1.5006e+002 -2.9444e+002  3.6778e+001 21829 111011,111063,111037
 3.1000e+000 111216 -7.1898e+001 -1.8780e+002  9.6233e+000 21829 110985,111167,111011
 3.1000e+000 111193 -1.3548e+002 -4.3038e+002  9.0698e+001 21829 111089,111141,111115
 3.1000e+000 111357 -1.1716e+002 -2.7192e+002  1.4297e+001 21829 111403,111063,111331
 3.1000e+000 111380 -1.2032e+002 -2.8115e+002 -1.2595e+000 21829 111141,111331,111167
 3.1000e+000 111429 -1.2575e+002 -2.7305e+002  1.6798e+001 21829 111141,111089,111403
 3.1000e+000 111452 -1.2074e+002 -2.7625e+002  1.5918e+001 21829 111141,111403,111331
 3.1000e+000 112056  6.9076e+001 -2.0863e+002  2.7537e+000 21489 111687,111765,111739
 3.1000e+000 112033  1.1157e+001 -2.4018e+002  2.3667e+001 21489 112151,112079,111687
 3.1000e+000 112010 -5.5800e+000 -3.7089e+002  2.6463e+001 21489 111791,111843,111817
 3.1000e+000 111987 -7.1071e+001 -2.9576e+002 -2.0493e+001 21489 112079,111843,111791
 3.1000e+000 111964  4.6272e+001 -2.2397e+002  4.4557e+001 21489 112151,111687,111661
 3.1000e+000 111941 -2.5999e+001 -1.6380e+002  3.9525e+001 21489 111661,111869,111843
 3.1000e+000 111918  7.3730e+001 -2.2485e+002  3.0884e+001 21489 111687,111739,111713
 3.1000e+000 111895  7.5502e+000 -8.5932e+001  1.5667e+001 21489 111635,111869,111661
 3.1000e+000 112105 -4.3680e+001 -2.5938e+002  1.3731e+001 21489 111765,111687,112079
 3.1000e+000 112128 -4.3161e+001 -2.4812e+002  1.4862e+001 21489 111765,112079,111791
 3.1000e+000 112177 -4.8316e+001 -2.3726e+002 -5.4421e+000 21489 111843,112079,112151
 3.1000e+000 112200 -1.6024e+001 -2.3117e+002  1.1579e+001 21489 111843,112151,111661
 3.1000e+000 112578 -5.8899e+001 -3.0141e+002  1.2820e+001 21177 112382,112434,112408
 3.1000e+000 112555 -7.0961e+001 -2.9779e+002  9.1136e-001 21177 112330,112434,112382
 3.1000e+000 112532 -5.7796e+001 -2.5706e+002  4.3881e+001 21177 112304,112434,112330
 3.1000e+000 112509 -6.9712e+001 -2.8719e+002  0.0000e+000 21177 112330,112382,112356
 3.1000e+000 112486 -1.6973e+001 -1.7028e+002  1.0214e+001 21177 112304,112460,112434
 3.1000e+000 112679 -4.0846e+000 -2.0640e+002 -3.4673e+001 20666 112601,112653,112627
 3.1000e+000 112927 -8.3703e+001 -2.8423e+002  9.3165e+000 19762 112702,112754,112728
 3.1000e+000 112904 -3.2432e+001 -2.6761e+002 -3.8464e+000 19762 112702,112832,112754
 3.1000e+000 112881 -7.1461e+001 -2.8563e+002  4.5596e+001 19762 112754,112832,112806
 3.1000e+000 112858 -9.9816e+001 -3.5635e+002  4.3853e+001 19762 112754,112806,112780
 3.1000e+000 113297 -7.4713e+001 -3.2994e+002  2.1349e+001 19308 112974,113052,113026
 3.1000e+000 113274 -5.1294e+001 -2.7602e+002  7.5162e+000 19308 112974,113156,113052
 3.1000e+000 113251 -2.9104e+001 -3.6430e+002 -4.3389e+001 19308 113052,113130,113104
 3.1000e+000 113228 -5.5539e+001 -2.7478e+002  1.3422e-001 19308 113052,113156,113130
 3.1000e+000 113205 -5.3800e+001 -3.1789e+002  0.0000e+000 19308 113052,113104,113078
 3.1000e+000 113182 -1.0631e+002 -3.4223e+002 -1.2312e+000 19308 112974,113026,113000
 3.1000e+000 113547 -1.8836e+001 -3.0786e+002 -1.9559e+001 18711 113570,113374,113348
 3.1000e+000 113524 -3.0171e+001 -2.8219e+002 -1.1210e+001 18711 113570,113348,113452
 3.1000e+000 113501 -2.3198e+001 -2.1572e+002 -6.0234e+001 18711 113322,113452,113348
 3.1000e+000 113478 -3.8130e+001 -2.7363e+002 -9.5017e+001 18711 113374,113426,113400
 3.1000e+000 113596 -1.4303e+001 -2.7986e+002 -2.6518e+001 18711 113426,113374,113570
 3.1000e+000 113619 -2.8799e+001 -2.5913e+002 -1.2933e+001 18711 113426,113570,113452
 3.1000e+000 113771 -1.5072e+002 -3.7666e+002 -2.0488e+001 18307 113670,113722,113696
 3.1000e+000 113748 -1.1920e+002 -3.5299e+002 -9.6729e+000 18307 113644,113722,113670
 3.1000e+000 113972 -6.3399e+001 -3.0983e+002  4.4559e+000 17945 113822,113874,113848
 3.1000e+000 113949 -6.5976e+001 -3.0698e+002  6.7669e+000 17945 113822,113900,113874
 3.1000e+000 113926 -9.5064e+001 -2.3724e+002  1.4439e+002 17945 113796,113900,113822
 3.1000e+000 114075 -4.3312e+001 -4.5836e+002  4.9843e+001 17482 113997,114049,114023
 3.1000e+000 114479 -1.9900e+001 -2.5666e+002 -4.0208e+001 17042 114257,114361,114335
 3.1000e+000 114456 -6.2389e+001 -2.4744e+002 -7.4158e+000 17042 114205,114361,114257
 3.1000e+000 114433 -7.6183e+001 -2.8559e+002  9.5142e+000 17042 114205,114257,114231
 3.1000e+000 114410  5.6955e+001 -3.7922e+002 -2.4331e+001 17042 114283,114335,114309
 3.1000e+000 114387 -4.0615e+000 -3.2930e+002 -1.6593e+001 17042 114257,114335,114283
 3.1000e+000 114879 -1.3601e+002 -2.8759e+002 -5.1376e+000 16638 114631,114683,114657
 3.1000e+000 114856 -4.6124e+000 -2.3163e+002 -5.1530e+000 16638 114605,114683,114631
 3.1000e+000 114833  2.9707e+001 -1.4669e+002 -1.0805e+001 16638 114605,114761,114683
 3.1000e+000 114810 -2.2760e+001 -2.9897e+002 -1.6593e+001 16638 114683,114735,114709
 3.1000e+000 114787 -4.6524e+001 -3.2090e+002 -2.7824e+001 16638 114683,114761,114735
 3.1000e+000 115078 -1.2279e+002 -2.8869e+002  4.7233e+000 16232 114954,115006,114980
 3.1000e+000 115055 -1.3150e+002 -3.2206e+002  1.3609e+001 16232 114928,115006,114954
 3.1000e+000 115032 -6.2469e+001 -4.0402e+002  2.6949e+001 16232 114902,115006,114928
 3.1000e+000 115228 -9.4994e+001 -3.0053e+002  7.5744e+000 15482 115101,115153,115127
 3.1000e+000 115205 -7.3404e+001 -2.8222e+002 -3.3090e+000 15482 115101,115179,115153
 3.1000e+000 115331 -7.2671e+001 -2.8758e+002 -3.4224e+001 15163 115253,115305,115279
 3.1000e+000 115434 -8.7050e+001 -2.9980e+002  3.8503e+001 421 115356,115408,115382
 3.2000e+000 68213 -3.0065e+001 -1.8728e+002 -1.5740e+001 67888 68112,68164,68138
 3.2000e+000 68190 -2.0183e+002 -2.4174e+002 -2.2460e+001 67888 68086,68164,68112
 3.2000e+000 68314 -1.8479e+001 -2.3755e+002  2.4564e+001 67576 68236,68288,68262
 3.2000e+000 68584 -7.5101e+001 -3.9599e+002  1.4061e+001 67378 68385,68489,68463
 3.2000e+000 68561  7.5892e+001 -3.3283e+002  1.0703e+001 67378 68359,68489,68385
 3.2000e+000 68538 -6.7213e+001 -3.4794e+002  1.7291e+001 67378 68385,68463,68411
 3.2000e+000 68515 -4.0686e+001 -2.2634e+002  8.3315e+000 67378 68411,68463,68437
 3.2000e+000 68964 -8.1523e+001 -3.6056e+002  5.5051e+001 67130 68690,68820,68716
 3.2000e+000 68941  8.7126e+001 -3.7041e+002  1.0452e+002 67130 68690,68846,68820
 3.2000e+000 68918 -7.3167e+001 -2.3737e+002  6.5473e+000 67130 68742,68820,68794
 3.2000e+000 68895 -9.3449e+000 -2.3603e+002  2.2521e+001 67130 68716,68820,68742
 3.2000e+000 68872 -4.6288e+001 -1.9920e+002 -2.2842e+001 67130 68742,68794,68768
 3.2000e+000 69065 -5.6095e+001 -2.2482e+002 -1.1632e+000 66926 68987,69039,69013
 3.2000e+000 69445 -2.7206e+001 -2.1037e+002 -1.7928e+001 66614 69223,69301,69275
 3.2000e+000 69422 -5.5629e+001 -2.2830e+002 -7.2386e+000 66614 69171,69301,69223
 3.2000e+000 69399 -6.9503e+001 -2.3195e+002 -5.5173e-001 66614 69171,69327,69301
 3.2000e+000 69376  2.3512e+000 -7.5004e+001  2.0243e+000 66614 69223,69275,69249
 3.2000e+000 69353 -4.8452e+001 -2.4531e+002 -8.0414e+000 66614 69171,69223,69197
 3.2000e+000 69546 -5.8323e+001 -3.2722e+002  1.8872e+001 66416 69468,69520,69494
 3.2000e+000 69997 -4.7222e+001 -3.3319e+002 -3.2679e+001 66104 69700,69830,69726
 3.2000e+000 69974 -6.0179e+001 -4.2708e+002 -6.6844e+001 66104 69700,69856,69830
 3.2000e+000 69951 -5.7010e+001 -2.5501e+002 -1.9695e+001 66104 69726,69804,69778
 3.2000e+000 69928 -4.3157e+001 -3.1073e+002 -2.7200e+001 66104 69726,69830,69804
 3.2000e+000 69905 -6.1906e+001 -2.4369e+002 -1.0448e+001 66104 69726,69778,69752
 3.2000e+000 69882 -1.7031e+001 -6.3310e+002 -1.0996e+002 66104 69674,69856,69700
 3.2000e+000 70326 -5.6916e+001 -1.4661e+002 -2.0274e+001 65814 70349,70153,70127
 3.2000e+000 70303 -5.1781e-003 -1.4831e+002 -3.0679e+000 65814 70349,70127,70101
 3.2000e+000 70280  4.2550e+001 -8.2663e+001  7.9540e+001 65814 70101,70231,70205
 3.2000e+000 70257  6.2218e+001 -1.5651e+002  2.0363e+001 65814 70153,70205,70179
 3.2000e+000 70375 -2.9232e+001 -1.5260e+002  2.0212e+001 65814 70205,70153,70349
 3.2000e+000 70398  5.2414e+001 -1.4459e+002  3.2111e+001 65814 70205,70349,70101
 3.2000e+000 70904 -1.8465e+001 -7.5603e+001 -2.5832e+001 65502 70607,70737,70685
 3.2000e+000 70881 -2.5040e+001 -5.9043e+001 -3.4113e+001 65502 70581,70737,70607
 3.2000e+000 70858 -2.4251e+001 -7.4448e+000 -5.3656e+000 65502 70581,70763,70737
 3.2000e+000 70835 -3.6770e+001 -8.5943e+001 -3.5648e+001 65502 70685,70737,70711
 3.2000e+000 70812 -1.1952e+002 -1.0029e+002 -4.4266e+000 65502 70607,70659,70633
 3.2000e+000 70789 -3.4370e+001 -1.0499e+002 -1.5867e+000 65502 70607,70685,70659
 3.2000e+000 71103 -3.5051e+001 -2.9735e+002 -7.6798e+000 65304 71126,70979,70953
 3.2000e+000 71080 -6.0293e+001 -3.0257e+002 -2.3056e+000 65304 71126,70953,70927
 3.2000e+000 71057 -8.7005e+001 -3.0466e+002  2.1326e+001 65304 70927,71031,71005
 3.2000e+000 71152 -6.2075e+001 -2.7390e+002 -1.4659e+001 65304 71005,70979,71126
 3.2000e+000 71175 -9.4328e+001 -2.8780e+002 -2.9062e+000 65304 71005,71126,70927
 3.2000e+000 71374 -4.6251e+000 -2.8647e+002  1.4028e+001 65106 71198,71276,71224
 3.2000e+000 71351 -8.5757e+001 -3.1085e+002  5.5019e+000 65106 71198,71302,71276
 3.2000e+000 71328  1.7131e+001 -2.3068e+002  3.5667e+001 65106 71224,71276,71250
 3.2000e+000 71756 -3.2039e+001 -1.9935e+002 -1.6205e+001 64652 71508,71638,71534
 3.2000e+000 71733 -2.1902e+000 -1.8611e+002  2.7297e+000 64652 71482,71638,71508
 3.2000e+000 71710 -6.3597e+001 -1.7181e+002 -3.4032e+000 64652 71534,71586,71560
 3.2000e+000 71687 -3.6649e+001 -1.9554e+002 -3.9369e+001 64652 71534,71612,71586
 3.2000e+000 71664 -9.2991e+001 -2.1621e+002 -3.8071e+001 64652 71534,71638,71612
 3.2000e+000 72085 -6.9047e+001 -2.1152e+002 -3.1833e+001 64248 71886,71964,71912
 3.2000e+000 72062 -7.1635e+001 -2.1676e+002 -2.7645e+001 64248 71860,71964,71886
 3.2000e+000 72039 -2.2088e+001 -1.9885e+002 -1.8946e+001 64248 71912,71964,71938
 3.2000e+000 72016 -3.9948e+001 -2.0442e+002 -3.9014e+001 64248 71860,71990,71964
 3.2000e+000 72235 -4.3455e+000 -1.3031e+002 -1.7528e+001 63858 72588,72258,72134
 3.2000e+000 72212 -7.7322e+000 -7.2500e+001  2.2265e+001 63858 72330,72258,72108
 3.2000e+000 72284 -4.0648e+000 -8.0745e+001 -6.8581e+000 63858 72160,72134,72258
 3.2000e+000 72307 -6.3311e+001 -1.2027e+002 -1.2433e+001 63858 72460,72258,72186
 3.2000e+000 72356 -5.0377e+001 -1.0987e+002 -6.1017e+000 63858 72186,72258,72330
 3.2000e+000 72486 -1.5373e+001 -1.1205e+002 -1.0389e+001 63858 72160,72258,72460
 3.2000e+000 72614  1.6035e+001 -1.3510e+002  1.9023e+001 63858 72108,72258,72588
 3.2000e+000 73248 -2.5682e+001 -1.9445e+002  6.3259e+001 63404 72902,72954,72928
 3.2000e+000 73225 -9.6871e+001 -2.2398e+002  3.1566e+001 63404 73271,72954,72902
 3.2000e+000 73202 -7.9545e+001 -1.7646e+002  2.5809e+001 63404 73271,72902,73032
 3.2000e+000 73179 -4.7880e+001 -1.5154e+002  1.1021e+001 63404 72902,73058,73032
 3.2000e+000 73156 -5.8353e+001 -1.8293e+002  6.1910e+000 63404 72980,73032,73006
 3.2000e+000 73133 -4.7058e+001 -1.5474e+002  9.7001e+000 63404 72876,73058,72902
 3.2000e+000 73110 -1.9288e+001 -7.2873e+001 -3.6983e+001 63404 72876,73084,73058
 3.2000e+000 73297 -7.5599e+001 -2.2937e+002  1.5390e+000 63404 72980,72954,73271
 3.2000e+000 73320 -7.0786e+001 -2.0458e+002  4.6618e-001 63404 72980,73271,73032
 3.2000e+000 73470 -8.0625e+001 -5.4350e+002  5.6815e+001 63014 73343,73395,73369
 3.2000e+000 73447 -2.5497e+002 -6.7088e+002 -1.3628e+001 63014 73343,73421,73395
 3.2000e+000 73929  4.5012e+001 -2.3751e+002  3.4356e+001 62702 73759,73811,73785
 3.2000e+000 73906  5.7354e+001 -2.3644e+002  2.3541e+001 62702 73655,73811,73759
 3.2000e+000 73883  9.1179e-001 -2.8259e+002 -2.3627e+000 62702 73655,73759,73681
 3.2000e+000 73860  4.0080e+001 -2.0425e+002 -5.2581e+001 62702 73681,73759,73707
 3.2000e+000 73837 -9.5206e+001 -2.3291e+002  1.5040e+000 62702 73707,73759,73733
 3.2000e+000 74209 -1.4436e+002 -2.4739e+002 -1.2485e+000 62404 74059,74137,74085
 3.2000e+000 74186 -1.7024e+002 -3.3048e+002  3.8566e+001 62404 74033,74137,74059
 3.2000e+000 74163 -1.5014e+002 -2.2432e+002 -9.7324e-001 62404 74085,74137,74111
 3.2000e+000 74408  6.3844e+000 -2.0993e+002  2.2547e+001 62000 74258,74336,74284
 3.2000e+000 74385 -3.8874e+000 -2.1257e+002  2.7241e+001 62000 74232,74336,74258
 3.2000e+000 74362 -3.8584e+001 -1.9184e+002  8.3970e+000 62000 74284,74336,74310
 3.2000e+000 74509 -1.4225e+001 -2.7400e+002  8.3065e+000 61802 74431,74483,74457
 3.2000e+000 74759 -7.0605e+001 -2.2031e+002 -2.0838e+000 61554 74782,74586,74560
 3.2000e+000 74736 -3.2967e+001 -1.9676e+002  8.2172e+000 61554 74782,74560,74664
 3.2000e+000 74713 -6.0286e+001 -1.4645e+002  7.8853e+001 61554 74854,74612,74586
 3.2000e+000 74690 -5.2112e+001 -2.2354e+002 -2.1464e+000 61554 74534,74664,74560
 3.2000e+000 74808 -9.6086e+001 -1.9630e+002  1.8990e+001 61554 74854,74586,74782
 3.2000e+000 74831 -4.1529e+001 -2.5644e+002  1.4242e+001 61554 74638,74782,74664
 3.2000e+000 74880  1.6951e+001 -1.9765e+002  8.3787e+001 61554 74638,74612,74854
 3.2000e+000 74903  1.5748e+001 -1.9150e+002  3.8897e+001 61554 74638,74854,74782
 3.2000e+000 75285 -2.5007e+001 -2.4622e+002  4.9658e+000 61356 75063,75167,75115
 3.2000e+000 75262 -4.1749e+001 -2.6564e+002 -1.8825e+001 61356 75037,75167,75063
 3.2000e+000 75239  6.2778e+001 -2.5691e+002 -3.1643e+000 61356 75115,75167,75141
 3.2000e+000 75216  3.2198e+001 -2.1454e+002  1.7419e+001 61356 75063,75115,75089
 3.2000e+000 75193 -1.1061e+002 -1.9995e+002  1.7854e+001 61356 75011,75167,75037
 3.2000e+000 75631  4.6229e-001 -1.9306e+002  2.9240e+000 60952 75654,75412,75360
 3.2000e+000 75608 -3.2063e+001 -2.2956e+002 -1.2074e+001 60952 75654,75360,75334
 3.2000e+000 75585 -1.5890e+001 -3.0020e+002  1.1344e+001 60952 75726,75438,75412
 3.2000e+000 75562 -3.9208e+001 -2.5027e+002 -4.3213e+001 60952 75308,75490,75334
 3.2000e+000 75539 -6.7915e+000 -1.9369e+002 -3.0164e+000 60952 75360,75412,75386
 3.2000e+000 75516 -3.9472e+001 -3.6623e+002 -8.5415e+000 60952 75438,75490,75464
 3.2000e+000 75680  7.6352e+000 -2.4896e+002  7.1050e-001 60952 75726,75412,75654
 3.2000e+000 75703  2.2275e+000 -2.3650e+002 -1.7206e+001 60952 75490,75654,75334
 3.2000e+000 75752  7.5805e+000 -2.4051e+002 -6.1961e+000 60952 75490,75438,75726
 3.2000e+000 75775  6.3667e+000 -2.3604e+002 -1.5893e+001 60952 75490,75726,75654
 3.2000e+000 76155 -2.0055e+001 -2.1237e+002 -5.0077e+000 60754 75933,75985,75959
 3.2000e+000 76132 -4.5517e+001 -2.2944e+002  2.8020e+001 60754 75933,76037,75985
 3.2000e+000 76109  2.0981e+001 -2.2666e+002  1.1474e+001 60754 75985,76037,76011
 3.2000e+000 76086 -8.2844e+001 -1.8232e+002  7.0577e+000 60754 75881,76037,75933
 3.2000e+000 76063 -1.1339e+002 -1.6049e+002  4.5892e+001 60754 75881,75933,75907
 3.2000e+000 76612 -3.3982e+001 -1.7226e+002  2.8232e+000 60350 76635,76442,76390
 3.2000e+000 76589  1.9496e+000 -1.9528e+002  1.1023e+001 60350 76635,76390,76364
 3.2000e+000 76566 -8.5489e+000 -2.4780e+002 -1.8052e+001 60350 76364,76494,76468
 3.2000e+000 76543 -2.7504e+000 -1.5542e+002  1.5403e+001 60350 76390,76442,76416
 3.2000e+000 76520 -8.9116e+001 -1.5976e+002 -4.1420e+001 60350 76338,76494,76364
 3.2000e+000 76661 -5.4072e+001 -1.8769e+002  9.5793e+000 60350 76468,76442,76635
 3.2000e+000 76684 -2.8018e+001 -2.1497e+002  1.9949e+001 60350 76468,76635,76364
 3.2000e+000 76932 -7.7270e+001 -2.5622e+002  1.3549e+000 59946 76955,76733,76707
 3.2000e+000 76909 -7.9071e+001 -2.5970e+002  4.5070e+000 59946 77027,76955,76707
 3.2000e+000 76886 -7.3377e+001 -2.6162e+002  2.6095e+000 59946 77027,76707,76837
 3.2000e+000 76863 -2.7314e+001 -2.8583e+002 -2.1544e+001 59946 76733,76785,76759
 3.2000e+000 76981 -8.3433e+001 -2.5826e+002  8.4030e-001 59946 76785,76733,76955
 3.2000e+000 77004 -7.9254e+001 -2.5789e+002  5.6581e+000 59946 76785,76955,76811
 3.2000e+000 77053 -7.1820e+001 -2.5655e+002  5.4367e+000 59946 76811,76955,77027
 3.2000e+000 77076 -6.8324e+001 -2.5971e+002  2.6877e+000 59946 76811,77027,76837
 3.2000e+000 77226 -8.0296e+001 -2.0825e+002  5.7211e+000 59542 77099,77151,77125
 3.2000e+000 77203 -9.9499e+001 -2.5249e+002  9.0965e+000 59542 77099,77177,77151
 3.2000e+000 77427 -1.2054e+002 -2.3824e+002 -2.2409e+001 59030 77450,77277,77251
 3.2000e+000 77404 -6.5127e+001 -1.8053e+002 -8.2573e+001 59030 77450,77251,77355
 3.2000e+000 77381  2.0012e+001 -2.7125e+002 -1.9835e+001 59030 77277,77329,77303
 3.2000e+000 77476 -5.4152e+001 -2.5052e+002 -5.7724e+001 59030 77329,77277,77450
 3.2000e+000 77499  4.8955e+000 -2.2308e+002 -1.0493e+002 59030 77329,77450,77355
 3.2000e+000 77749 -1.0732e+002 -3.0560e+002  2.9791e+001 58426 77772,77628,77602
 3.2000e+000 77726 -6.7216e+001 -3.5395e+002  9.9312e+001 58426 77524,77654,77628
 3.2000e+000 77703 -7.8044e+001 -3.1425e+002  1.9650e+001 58426 77772,77602,77550
 3.2000e+000 77680 -3.8903e+001 -2.9225e+002 -1.6469e+001 58426 77550,77602,77576
 3.2000e+000 77798 -7.5260e+001 -2.9135e+002  3.6211e+001 58426 77524,77628,77772
 3.2000e+000 77821 -6.4397e+001 -3.1212e+002  2.0754e+001 58426 77524,77772,77550
 3.2000e+000 78071 -1.3573e+002 -3.1106e+002  3.2377e+001 57922 78094,77924,77898
 3.2000e+000 78048 -1.6485e+002 -3.1182e+002 -6.0946e+000 57922 78094,77898,77872
 3.2000e+000 78025 -1.2370e+002 -2.7924e+002  2.6057e+001 57922 78166,77846,77950
 3.2000e+000 78002 -2.0795e+001 -2.8001e+002  4.1224e+001 57922 77846,77976,77950
 3.2000e+000 78120 -1.0296e+002 -3.0874e+002  1.8399e+001 57922 77950,77924,78094
 3.2000e+000 78143 -1.2825e+002 -2.8492e+002  1.8452e+001 57922 78166,77950,78094
 3.2000e+000 78192 -1.1438e+002 -2.9341e+002  1.5522e+001 57922 77872,77846,78166
 3.2000e+000 78215 -1.2693e+002 -3.0816e+002  6.8658e+000 57922 77872,78166,78094
 3.2000e+000 78416 -8.0903e+000 -2.7339e+002  3.9003e+000 57468 78439,78292,78240
 3.2000e+000 78393  2.8411e+001 -2.5175e+002 -1.0372e+001 57468 78439,78240,78344
 3.2000e+000 78370 -2.5706e+001 -3.5033e+002  4.6869e+000 57468 78240,78292,78266
 3.2000e+000 78465  3.1324e+001 -2.6413e+002 -1.1832e+001 57468 78318,78292,78439
 3.2000e+000 78488  4.6256e+001 -2.6180e+002 -2.2685e+001 57468 78318,78439,78344
 3.2000e+000 78689  4.4731e+001 -3.0242e+002 -3.9634e+001 57014 78712,78539,78513
 3.2000e+000 78666 -1.1602e+001 -2.8159e+002 -3.9465e-001 57014 78712,78513,78617
 3.2000e+000 78643 -4.0271e+001 -3.0000e+002  4.3128e+001 57014 78565,78617,78591
 3.2000e+000 78738 -2.7762e+001 -2.7908e+002 -4.7914e+001 57014 78565,78539,78712
 3.2000e+000 78761 -9.7038e+001 -2.8577e+002  1.0569e+001 57014 78565,78712,78617
 3.2000e+000 79241 -1.0951e+002 -2.5899e+002  1.4905e+001 56652 79264,78895,78869
 3.2000e+000 79218 -5.0417e+001 -3.5449e+002 -3.3006e+001 56652 79264,78869,79051
 3.2000e+000 79195 -7.2029e+001 -3.1994e+002 -7.3889e+001 56652 78869,79077,79051
 3.2000e+000 79172 -7.1780e+001 -1.6165e+002 -2.8422e+001 56652 78895,78973,78947
 3.2000e+000 79149 -1.2782e+002 -5.0796e+002 -4.9975e+001 56652 78973,79051,78999
 3.2000e+000 79126 -6.2089e+001 -1.6840e+002 -3.0644e+001 56652 78895,78947,78921
 3.2000e+000 79103 -9.2675e+001 -3.1343e+002  7.2870e+001 56652 78999,79051,79025
 3.2000e+000 79290 -6.5307e+001 -1.9885e+002  4.8382e+001 56652 78973,78895,79264
 3.2000e+000 79313 -2.1597e+000 -3.0116e+002  3.8758e+000 56652 78973,79264,79051
 3.2000e+000 79512 -3.0446e+001 -3.7592e+002  3.1497e+001 56062 79388,79440,79414
 3.2000e+000 79489 -1.4543e+002 -1.9171e+002  5.1246e+001 56062 79336,79440,79388
 3.2000e+000 79466 -6.1669e+001 -2.0845e+002  6.8629e+001 56062 79336,79388,79362
 3.2000e+000 79941 -3.8507e+001 -2.2366e+002  3.4129e+001 55658 79964,79670,79644
 3.2000e+000 79918 -6.4815e+001 -2.2841e+002  3.9364e+001 55658 79964,79644,79800
 3.2000e+000 79895 -6.0906e+001 -2.3954e+002  1.6940e+001 55658 80036,79696,79670
 3.2000e+000 79872 -7.0620e+001 -2.0008e+002 -5.8117e+000 55658 80108,79722,79696
 3.2000e+000 79849 -1.0572e+002 -2.0684e+002  3.4495e+000 55658 79722,79774,79748
 3.2000e+000 79826 -1.1260e+000 -2.0590e+002  1.1763e+001 55658 79618,79800,79644
 3.2000e+000 79990 -6.7402e+001 -2.4077e+002  2.5006e+001 55658 80036,79670,79964
 3.2000e+000 80013 -6.1487e+001 -2.1100e+002  3.9978e+001 55658 79774,79964,79800
 3.2000e+000 80062 -5.0365e+001 -2.1631e+002  1.3798e+001 55658 80108,79696,80036
 3.2000e+000 80085 -6.5874e+001 -2.1210e+002  3.4823e+001 55658 79774,80036,79964
 3.2000e+000 80134 -1.1023e+002 -2.1776e+002  3.4614e+000 55658 79774,79722,80108
 3.2000e+000 80157 -9.8692e+001 -2.3882e+002  2.3104e+001 55658 79774,80108,80036
 3.2000e+000 80307 -1.0379e+002 -2.1114e+002  3.1149e+001 55254 80402,80330,80206
 3.2000e+000 80284 -1.0262e+002 -2.8583e+002  2.6358e+001 55254 80330,80180,80258
 3.2000e+000 80356 -1.2697e+002 -2.6388e+002  5.8305e+001 55254 80232,80206,80330
 3.2000e+000 80379 -3.1824e+001 -2.2146e+002  7.5716e+001 55254 80232,80330,80258
 3.2000e+000 80428 -1.5165e+002 -2.6425e+002  9.4411e+000 55254 80180,80330,80402
 3.2000e+000 80659  8.6224e+000 -2.6912e+002 -2.7984e+001 54850 80558,80610,80584
 3.2000e+000 80636  2.4780e+001 -2.5610e+002 -2.0134e+001 54850 80532,80610,80558
 3.2000e+000 80760 -2.0636e+001 -2.3989e+002 -2.2775e+001 54652 80682,80734,80708
 3.2000e+000 81164 -1.2928e+001 -2.4995e+002 -6.9435e+000 54248 81187,80942,80890
 3.2000e+000 81141 -1.6955e+001 -2.5825e+002 -4.9872e+000 54248 81187,80890,81046
 3.2000e+000 81118 -2.1154e+001 -2.5820e+002  5.1115e+001 54248 80942,81020,80994
 3.2000e+000 81095 -1.2610e+001 -2.6143e+002  1.9740e+000 54248 80890,80942,80916
 3.2000e+000 81072 -2.5369e+001 -1.3880e+002  3.3247e+000 54248 80942,80994,80968
 3.2000e+000 81213 -1.8820e+001 -2.4366e+002 -5.5623e+000 54248 81020,80942,81187
 3.2000e+000 81236 -2.0651e+001 -2.4911e+002 -4.3419e+000 54248 81020,81187,81046
 3.2000e+000 81663 -1.2015e+002 -2.2031e+002  2.7602e+001 53594 81340,81444,81366
 3.2000e+000 81640 -1.0801e+002 -3.2324e+002  1.3331e+001 53594 81340,81470,81444
 3.2000e+000 81617 -3.9954e+001 -2.8285e+002 -1.5932e+001 53594 81340,81522,81470
 3.2000e+000 81594 -5.8983e+001 -1.6026e+002 -1.1533e+001 53594 81392,81444,81418
 3.2000e+000 81571 -7.7676e+001 -1.8554e+002 -2.0123e+001 53594 81366,81444,81392
 3.2000e+000 81548  1.2184e+001 -4.3589e+002  8.8609e+001 53594 81470,81522,81496
 3.2000e+000 81943 -2.8703e+001 -1.4551e+002 -1.2615e+001 53104 81966,81845,81819
 3.2000e+000 81920 -4.9765e+001 -1.3348e+002 -2.0185e+001 53104 81966,81819,81767
 3.2000e+000 81897 -4.8084e+001 -1.2895e+002 -2.0851e+001 53104 81767,81819,81793
 3.2000e+000 81992 -1.4600e+001 -1.4498e+002 -2.2151e+001 53104 81871,81845,81966
 3.2000e+000 82015 -3.1234e+001 -1.2719e+002 -3.3778e+001 53104 81871,81966,81767
 3.2000e+000 82491 -2.1788e+001 -1.5755e+002 -3.3821e+001 52650 82145,82249,82171
 3.2000e+000 82468 -1.2351e+002 -2.0950e+002 -1.5774e+001 52650 82145,82301,82249
 3.2000e+000 82445 -1.1886e+002 -2.8151e+002 -4.4915e+001 52650 82249,82301,82275
 3.2000e+000 82422 -5.9001e+001 -3.3790e+002 -4.5518e+001 52650 82119,82301,82145
 3.2000e+000 82399 -3.4260e+001 -1.0607e+002  1.2290e+001 52650 82171,82249,82223
 3.2000e+000 82376  4.6284e+001 -2.9025e+002 -6.4335e+001 52650 82119,82327,82301
 3.2000e+000 82353 -9.0740e+000 -5.4160e+001 -2.2809e+001 52650 82171,82223,82197
 3.2000e+000 82739 -3.5158e+001 -1.4906e+002  1.1470e+001 52246 82762,82540,82514
 3.2000e+000 82716 -3.6300e+001 -1.0626e+002  6.7298e+000 52246 82762,82514,82644
 3.2000e+000 82693 -6.5360e+001 -1.5649e+002  2.3535e+001 52246 82540,82618,82592
 3.2000e+000 82670 -6.3522e+001 -1.4338e+002  1.5108e+001 52246 82540,82592,82566
 3.2000e+000 82788 -3.5652e+001 -1.6420e+002  1.1857e+001 52246 82618,82540,82762
 3.2000e+000 82811 -5.7468e+001 -1.5352e+002 -6.4403e-001 52246 82618,82762,82644
 3.2000e+000 83059 -1.4174e+001 -1.9531e+002  1.5556e+001 51578 82860,82964,82938
 3.2000e+000 83036 -1.5897e+001 -1.8899e+002 -3.8618e+001 51578 82834,82964,82860
 3.2000e+000 83013  4.3902e+001 -1.6789e+002  2.6899e+001 51578 82860,82938,82886
 3.2000e+000 82990  4.6857e+001 -1.3719e+002  1.0739e+001 51578 82886,82938,82912
 3.2000e+000 83309 -3.0848e+001 -1.2594e+002  3.0057e+001 51138 83332,83162,83136
 3.2000e+000 83286  1.7669e+000 -1.5129e+002  1.2702e+001 51138 83332,83136,83110
 3.2000e+000 83263 -4.6072e+001 -1.4670e+002 -7.2127e+000 51138 83404,83214,83188
 3.2000e+000 83240 -4.7687e-001 -6.2789e+001  5.6825e+000 51138 83084,83214,83110
 3.2000e+000 83358 -6.2573e+001 -1.6747e+002  5.4890e+001 51138 83188,83162,83332
 3.2000e+000 83381 -2.5850e+001 -1.7527e+002  1.7654e+001 51138 83404,83188,83332
 3.2000e+000 83430 -1.6369e+001 -7.3093e+001 -7.8442e+000 51138 83110,83214,83404
 3.2000e+000 83453 -5.5811e+000 -1.1844e+002  1.7352e+001 51138 83110,83404,83332
 3.2000e+000 83835 -3.2335e+001 -1.9212e+002 -1.3739e+001 50734 83613,83717,83691
 3.2000e+000 83812 -4.0094e+001 -2.1441e+002 -4.0820e+001 50734 83561,83717,83613
 3.2000e+000 83789 -1.9011e+001 -1.0305e+002 -6.1422e+001 50734 83561,83613,83587
 3.2000e+000 83766 -4.5777e+001 -1.3559e+002 -7.6547e+000 50734 83613,83691,83639
 3.2000e+000 83743 -5.1633e+001 -1.3586e+002  3.1576e+001 50734 83639,83691,83665
 3.2000e+000 84034 -5.1320e+001 -1.2640e+002  6.3561e-001 50230 84057,83884,83858
 3.2000e+000 84011 -4.2210e+001 -1.1838e+002 -2.1249e+001 50230 84129,84057,83858
 3.2000e+000 83988  6.7313e-001 -1.1491e+002 -3.3729e+001 50230 84129,83858,83962
 3.2000e+000 84083 -1.3575e+001 -1.0865e+002 -4.9976e+000 50230 83910,83884,84057
 3.2000e+000 84106 -2.5198e+001 -1.3851e+002 -5.3630e+000 50230 83910,84057,83936
 3.2000e+000 84155  1.7295e+001 -1.1392e+002 -1.5900e+001 50230 83936,84057,84129
 3.2000e+000 84178  3.5455e+001 -1.2839e+002 -3.1224e+001 50230 83936,84129,83962
 3.2000e+000 84558 -4.7141e+001 -1.5616e+002 -2.7407e+001 49768 84581,84388,84362
 3.2000e+000 84535 -1.0564e+002 -1.5780e+002 -1.0391e+001 49768 84581,84362,84310
 3.2000e+000 84512  1.0856e+001 -1.6937e+002 -2.9047e+001 49768 84653,84440,84414
 3.2000e+000 84489 -7.8020e+001 -1.7138e+002  1.5737e+001 49768 84310,84362,84336
 3.2000e+000 84466  7.6219e-001 -1.1673e+002  2.6809e+001 49768 84284,84440,84310
 3.2000e+000 84607 -6.5599e+000 -1.2923e+002 -4.6152e+001 49768 84414,84388,84581
 3.2000e+000 84630 -1.2514e+001 -1.5995e+002 -2.0568e+001 49768 84653,84414,84581
 3.2000e+000 84679 -2.0538e+001 -1.5820e+002 -3.9551e+001 49768 84310,84440,84653
 3.2000e+000 84702 -5.3226e+001 -1.5907e+002 -3.9914e+001 49768 84310,84653,84581
 3.2000e+000 85159 -9.6008e+001 -2.4431e+002 -6.6988e+001 49192 84885,84937,84911
 3.2000e+000 85136 -9.7261e+001 -2.0572e+002 -5.0939e+001 49192 84885,85041,84937
 3.2000e+000 85113 -6.8940e+001 -1.6845e+002 -2.6554e+001 49192 84963,85041,84989
 3.2000e+000 85090 -6.4521e+001 -1.6290e+002 -3.6373e+001 49192 84937,85041,84963
 3.2000e+000 85067 -6.1984e+001 -1.8599e+002 -8.7214e+000 49192 84989,85041,85015
 3.2000e+000 85714 -8.6350e+001 -1.5411e+002  7.0303e-001 48638 85368,85498,85394
 3.2000e+000 85691 -1.1442e+002 -1.7388e+002  1.3199e+001 48638 85368,85524,85498
 3.2000e+000 85668 -1.0077e+002 -1.4955e+002  3.8698e+001 48638 85737,85420,85394
 3.2000e+000 85645 -8.5678e+001 -1.6917e+002  2.0987e+001 48638 85737,85394,85498
 3.2000e+000 85622 -6.8371e+001 -1.7141e+002  3.4310e+001 48638 85446,85498,85472
 3.2000e+000 85599 -2.8326e+001 -1.3942e+002  1.6405e+001 48638 85342,85524,85368
 3.2000e+000 85576 -1.0701e+002 -1.5723e+002  1.5863e+001 48638 85342,85550,85524
 3.2000e+000 85763 -7.3515e+001 -1.3479e+002  5.1056e+001 48638 85446,85420,85737
 3.2000e+000 85786 -7.4534e+001 -1.5407e+002  3.0602e+001 48638 85446,85737,85498
 3.2000e+000 86371 -7.3010e+001 -1.1140e+002 -1.1627e+001 48084 86100,86230,86178
 3.2000e+000 86348 -9.9634e+001 -1.4554e+002 -2.3449e+001 48084 86048,86230,86100
 3.2000e+000 86325 -7.2697e+001 -1.0346e+002  2.2304e+001 48084 86100,86178,86126
 3.2000e+000 86302 -4.9641e+001 -2.8478e+001 -2.9080e+001 48084 86048,86100,86074
 3.2000e+000 86279 -8.7177e+001 -1.7273e+002 -1.1226e+001 48084 86178,86230,86204
 3.2000e+000 86256 -6.2496e+001 -1.1928e+002  2.1710e+001 48084 86126,86178,86152
 3.2000e+000 86619 -6.0376e+001 -1.3763e+002  1.9077e+000 47630 86642,86446,86420
 3.2000e+000 86596 -7.1322e+001 -1.5033e+002 -2.1164e+001 47630 86642,86420,86394
 3.2000e+000 86573 -8.5894e+001 -1.6850e+002 -2.8940e+001 47630 86394,86524,86498
 3.2000e+000 86550 -3.0240e+001 -1.5972e+002  1.2514e+000 47630 86446,86498,86472
 3.2000e+000 86668 -7.2265e+001 -1.6400e+002 -7.9187e+000 47630 86498,86446,86642
 3.2000e+000 86691 -7.8289e+001 -1.6856e+002 -3.0490e+001 47630 86498,86642,86394
 3.2000e+000 87022  3.2922e+000 -8.3875e+001 -2.8699e+001 47226 87045,86875,86849
 3.2000e+000 86999 -1.4466e+001 -9.1850e+001 -3.7543e+001 47226 87045,86849,86797
 3.2000e+000 86976 -6.4611e+000 -5.0362e+001 -2.0706e+001 47226 86797,86849,86823
 3.2000e+000 86953  3.2536e+001 -7.1048e+001 -3.5394e+001 47226 86875,86927,86901
 3.2000e+000 87071  2.0344e+001 -9.9787e+001 -3.4354e+001 47226 86927,86875,87045
 3.2000e+000 87094  4.3140e+000 -1.0421e+002 -3.9946e+001 47226 86927,87045,86797
 3.2000e+000 87244 -2.4376e+000 -1.6542e+002  6.2632e+001 46814 87267,87169,87143
 3.2000e+000 87221 -8.7766e+001 -1.5591e+002 -2.5464e-002 46814 87267,87143,87117
 3.2000e+000 87293 -1.8439e+001 -1.6350e+002 -1.2453e+001 46814 87339,87267,87195
 3.2000e+000 87316  2.3731e+001 -1.0722e+002 -3.7543e+001 46814 87469,87267,87117
 3.2000e+000 87365 -2.9516e+001 -1.3795e+002  6.2985e+001 46814 87169,87267,87339
 3.2000e+000 87495  2.0812e+001  4.4547e+001 -3.9538e+001 46814 87195,87267,87469
 3.2000e+000 88001 -5.9375e+001 -1.4914e+002  2.9599e+001 46310 88024,87834,87808
 3.2000e+000 87978 -7.0443e+001 -1.5166e+002  1.8311e+001 46310 88024,87808,87756
 3.2000e+000 87955 -3.4987e+001 -1.9085e+002  7.0393e+000 46310 88096,87730,87860
 3.2000e+000 87932 -5.2216e+001 -1.8631e+002  1.9584e+001 46310 87756,87808,87782
 3.2000e+000 87909 -4.3327e+001 -2.4109e+002  1.0121e+001 46310 87678,87860,87730
 3.2000e+000 87886 -6.4035e+001 -3.6638e+002 -1.7710e+001 46310 87678,87730,87704
 3.2000e+000 88050 -5.0856e+001 -1.3043e+002  1.8969e+001 46310 87860,87834,88024
 3.2000e+000 88073 -3.6797e+001 -1.4291e+002  2.3085e+001 46310 88096,87860,88024
 3.2000e+000 88122 -4.7803e+001 -2.1365e+002 -8.8096e+000 46310 87756,87730,88096
 3.2000e+000 88145 -7.9659e+001 -1.9454e+002  1.6585e-001 46310 87756,88096,88024
 3.2000e+000 88572 -3.8134e+001 -1.6495e+002  4.1235e+000 45856 88249,88405,88275
 3.2000e+000 88549 -2.8561e+001 -5.4816e+001 -3.8327e+001 45856 88249,88431,88405
 3.2000e+000 88526 -8.6365e+001 -2.3762e+002 -2.9728e+001 45856 88327,88405,88353
 3.2000e+000 88503 -4.1234e+001 -1.8727e+002 -1.0771e+001 45856 88275,88405,88327
 3.2000e+000 88480 -6.8426e+001 -1.9980e+002 -3.5722e+001 45856 88353,88405,88379
 3.2000e+000 88457 -1.7531e+002 -4.7668e+002  4.2495e+001 45856 88275,88327,88301
 3.2000e+000 88950 -3.5722e+001 -1.1012e+002 -4.4741e+000 45658 88973,88754,88728
 3.2000e+000 88927 -3.2761e+001 -1.1643e+002 -4.7222e+000 45658 88973,88728,88676
 3.2000e+000 88904 -3.6028e+001 -1.4158e+002  4.2745e+001 45658 88676,88832,88806
 3.2000e+000 88881 -5.5184e+001 -1.5775e+002  1.4163e+001 45658 88676,88728,88702
 3.2000e+000 88858 -4.4265e+001 -9.9325e+001 -2.0484e+001 45658 88754,88806,88780
 3.2000e+000 88999 -3.9045e+001 -1.1486e+002 -3.0176e+000 45658 88806,88754,88973
 3.2000e+000 89022 -3.4389e+001 -1.1862e+002 -3.9970e+000 45658 88806,88973,88676
 3.2000e+000 89351 -4.4832e+001 -1.6327e+002 -9.2427e+000 45254 89152,89230,89204
 3.2000e+000 89328 -3.8075e+001 -1.6023e+002 -8.5550e+000 45254 89152,89256,89230
 3.2000e+000 89305 -3.9792e+000 -1.6845e+002 -2.1711e+001 45254 89126,89256,89152
 3.2000e+000 89282  1.8122e+001 -1.6532e+002 -3.6058e+001 45254 89152,89204,89178
 3.2000e+000 89523 -2.9630e+001 -1.5404e+002 -5.2749e-002 45006 89422,89474,89448
 3.2000e+000 89500 -2.1597e+001 -1.5062e+002  6.3716e+000 45006 89396,89474,89422
 3.2000e+000 89673 -1.3614e+002 -2.3840e+002  2.0701e+001 44495 89572,89624,89598
 3.2000e+000 89650 -1.3854e+002 -2.3464e+002  1.1914e+001 44495 89546,89624,89572
 3.2000e+000 90104 -1.0169e+001 -1.9357e+002 -8.7614e+000 44005 90199,90127,89937
 3.2000e+000 90081 -3.0273e+001 -1.8729e+002  1.2757e-002 44005 90271,90127,89859
 3.2000e+000 90058 -1.0895e+000 -1.9726e+002 -9.0070e+000 44005 90199,89937,89885
 3.2000e+000 90035 -4.5566e+001 -1.7676e+002  8.7315e+000 44005 90271,89859,89807
 3.2000e+000 90012 -2.5705e+001 -2.1365e+002 -2.4228e+001 44005 89885,89937,89911
 3.2000e+000 89989 -1.2272e+001 -1.8852e+002  2.7991e+001 44005 89807,89859,89833
 3.2000e+000 90153 -3.1061e+001 -2.0189e+002 -7.7481e+000 44005 89963,89937,90127
 3.2000e+000 90176 -3.1676e+001 -2.0745e+002 -1.5949e+000 44005 89963,90127,89781
 3.2000e+000 90225 -3.3526e+001 -1.9123e+002 -3.3972e+000 44005 89859,90127,90199
 3.2000e+000 90248 -1.3207e+001 -1.8726e+002  6.3695e-001 44005 89859,90199,89885
 3.2000e+000 90297 -5.0719e+001 -2.0004e+002 -5.5300e+000 44005 89781,90127,90271
 3.2000e+000 90320 -5.9581e+001 -1.8617e+002  4.5717e+000 44005 89781,90271,89807
 3.2000e+000 90470 -3.4441e+001 -2.1227e+002 -1.0038e+001 43601 90493,90369,90343
 3.2000e+000 90447 -5.6153e+001 -1.7623e+002  8.1125e+000 43601 90493,90343,90421
 3.2000e+000 90519 -6.7672e+001 -2.7800e+002 -3.3153e+001 43601 90395,90369,90493
 3.2000e+000 90542 -5.5989e+001 -2.0235e+002 -9.8360e+000 43601 90395,90493,90421
 3.2000e+000 90922 -7.4219e+001 -2.2674e+002  1.5393e+001 43154 90945,90700,90674
 3.2000e+000 90899 -7.1196e+001 -2.3214e+002 -1.8582e+001 43154 90945,90674,90648
 3.2000e+000 90876 -7.9940e+001 -1.8251e+002 -1.4653e+001 43154 90648,90778,90752
 3.2000e+000 90853 -4.1881e+001 -3.5471e+002  9.6626e+000 43154 90700,90752,90726
 3.2000e+000 90830 -5.1220e+001 -1.8606e+002 -2.9325e+000 43154 90648,90804,90778
 3.2000e+000 90971 -8.4854e+001 -2.5628e+002  1.8803e+001 43154 90752,90700,90945
 3.2000e+000 90994 -7.8360e+001 -2.4954e+002 -1.4179e+001 43154 90752,90945,90648
 3.2000e+000 91451 -2.0034e+001 -1.5773e+002 -3.3510e+001 42650 91203,91255,91229
 3.2000e+000 91428 -6.0643e-001 -1.4896e+002 -1.3711e+001 42650 91203,91333,91255
 3.2000e+000 91405  4.8551e+000 -2.5010e+002 -3.9513e+001 42650 91177,91333,91203
 3.2000e+000 91382 -6.6546e+001 -2.5909e+002  1.3931e+001 42650 91255,91333,91281
 3.2000e+000 91359  4.4724e+001 -2.1088e+002  2.6522e+000 42650 91281,91333,91307
 3.2000e+000 91721 -1.0024e+002 -2.3660e+002  1.6165e+001 42288 91496,91600,91522
 3.2000e+000 91698 -4.8536e+001 -1.2863e+002 -5.0346e+000 42288 91496,91626,91600
 3.2000e+000 91675 -6.2841e+001 -2.1148e+002  1.7305e+001 42288 91522,91574,91548
 3.2000e+000 91652 -5.0847e+001 -2.1768e+002  1.6480e+001 42288 91522,91600,91574
 3.2000e+000 92199 -1.5238e+002 -2.5981e+002 -6.9726e+000 41898 92222,91983,91879
 3.2000e+000 92176 -1.5795e+002 -2.8062e+002 -1.5298e+001 41898 92294,92222,91879
 3.2000e+000 92153 -1.6788e+002 -2.7551e+002 -2.2793e+001 41898 92294,91879,91853
 3.2000e+000 92130 -1.3334e+002 -1.6079e+002  1.5145e+001 41898 91879,91957,91931
 3.2000e+000 92107 -1.3805e+002 -2.5427e+002 -2.0458e+000 41898 91879,91983,91957
 3.2000e+000 92084 -1.4404e+002 -1.4977e+002  2.8426e+001 41898 91879,91931,91905
 3.2000e+000 92061 -1.4274e+002 -2.4577e+002 -1.8397e+001 41898 91827,92035,91853
 3.2000e+000 92248 -1.4970e+002 -2.8462e+002 -1.9065e+000 41898 92009,91983,92222
 3.2000e+000 92271 -1.4674e+002 -2.8946e+002 -2.0182e+001 41898 92009,92222,92035
 3.2000e+000 92320 -1.4098e+002 -2.7289e+002 -1.7401e+001 41898 92035,92222,92294
 3.2000e+000 92343 -1.4841e+002 -2.6680e+002 -2.4524e+001 41898 92035,92294,91853
 3.2000e+000 92770 -5.2957e+001 -2.4214e+002 -1.9288e+001 41437 92865,92793,92525
 3.2000e+000 92747 -7.3635e+001 -2.7708e+002 -2.4778e+001 41437 92793,92473,92629
 3.2000e+000 92724 -2.7014e+001 -2.4891e+002 -3.3288e+001 41437 92865,92525,92499
 3.2000e+000 92701 -8.0361e+001 -2.1837e+002 -4.0648e+001 41437 92525,92603,92577
 3.2000e+000 92678 -1.8631e+000 -2.6256e+002 -1.9459e+001 41437 92447,92629,92473
 3.2000e+000 92655 -1.3108e+002 -1.9958e+002 -2.6770e+001 41437 92525,92577,92551
 3.2000e+000 92819 -5.8997e+001 -2.5589e+002 -4.0103e+001 41437 92603,92525,92793
 3.2000e+000 92842 -1.1284e+002 -2.7484e+002 -6.7919e+001 41437 92603,92793,92629
 3.2000e+000 92891 -1.9700e+000 -2.6082e+002 -2.3605e+001 41437 92473,92793,92865
 3.2000e+000 92914  3.5375e+001 -2.5219e+002 -4.3954e+001 41437 92473,92865,92499
 3.2000e+000 93243 -4.1089e+001 -3.5808e+002  1.2800e+002 41097 93044,93096,93070
 3.2000e+000 93220 -6.9718e+001 -3.0796e+002  6.5189e+001 41097 93044,93122,93096
 3.2000e+000 93197  3.4400e+001 -2.1437e+002  2.5723e+001 41097 93044,93148,93122
 3.2000e+000 93174 -3.9774e+001 -1.4322e+002  7.4944e+001 41097 93018,93148,93044
 3.2000e+000 93393 -2.5632e+000 -2.5980e+002  1.8113e+001 40643 93416,93292,93344
 3.2000e+000 93370 -1.2214e+001 -2.2930e+002  2.1423e+001 40643 93266,93344,93292
 3.2000e+000 93442 -7.3804e+000 -2.5978e+002  2.0921e+001 40643 93318,93292,93416
 3.2000e+000 93901 -7.9847e+001 -2.5038e+002 -1.7432e+001 40132 93924,93731,93705
 3.2000e+000 93878 -8.5301e+001 -2.5485e+002 -1.9576e+001 40132 93996,93924,93705
 3.2000e+000 93855 -1.0032e+002 -2.9144e+002 -8.8514e+000 40132 93996,93705,93653
 3.2000e+000 93832 -5.0919e+001 -2.8297e+002 -1.6762e+001 40132 93653,93705,93679
 3.2000e+000 93809 -7.9074e+001 -2.3751e+002 -1.2442e+000 40132 93627,93783,93757
 3.2000e+000 93950 -7.5776e+001 -2.6213e+002 -2.0870e+001 40132 93757,93731,93924
 3.2000e+000 93973 -8.6049e+001 -2.3173e+002 -5.0725e+000 40132 93757,93924,93627
 3.2000e+000 94022 -1.1018e+002 -2.7709e+002  7.0131e+000 40132 93627,93924,93996
 3.2000e+000 94045 -1.0365e+002 -2.9005e+002  1.4775e+001 40132 93627,93996,93653
 3.2000e+000 94423 -4.6317e+000 -2.6483e+002 -4.1939e+001 39514 94149,94227,94175
 3.2000e+000 94400 -1.9968e+001 -2.5434e+002  3.0285e+001 39514 94149,94305,94227
 3.2000e+000 94377  1.4630e+001 -3.1947e+002 -3.8545e+001 39514 94175,94227,94201
 3.2000e+000 94354 -7.6937e+001 -2.3512e+002  1.2039e+001 39514 94227,94305,94279
 3.2000e+000 94331 -2.6605e+001 -2.1193e+002  2.2510e+001 39514 94227,94279,94253
 3.2000e+000 94573 -2.5139e+001 -1.5737e+002 -4.0068e+001 38822 94596,94498,94472
 3.2000e+000 94550  2.4797e+001 -1.7467e+002  2.8028e+001 38822 94596,94472,94446
 3.2000e+000 94622 -8.2933e+001 -1.8253e+002 -3.3950e+001 38822 94524,94498,94596
 3.2000e+000 94645 -7.5526e+001 -2.2190e+002  4.1234e+001 38822 94524,94596,94446
 3.2000e+000 95025 -1.5952e+001 -2.1069e+002 -1.6423e+001 38418 95048,94829,94777
 3.2000e+000 95002 -2.1963e+001 -2.2157e+002 -2.6781e+001 38418 95120,95048,94777
 3.2000e+000 94979 -1.6542e+001 -2.2007e+002 -2.5084e+001 38418 95120,94777,94751
 3.2000e+000 94956 -1.1887e+001 -1.9802e+002 -2.8641e+001 38418 95192,94881,94855
 3.2000e+000 94933 -6.5129e+001 -1.8366e+002 -1.1536e+001 38418 94777,94829,94803
 3.2000e+000 95074 -3.7472e+001 -2.7629e+002 -6.4851e+000 38418 94855,94829,95048
 3.2000e+000 95097 -1.7333e+001 -2.1992e+002 -3.1134e+001 38418 95192,94855,95048
 3.2000e+000 95146 -3.8830e+001 -2.1260e+002 -2.1771e+001 38418 94907,95048,95120
 3.2000e+000 95169 -2.4673e+001 -2.0387e+002 -1.7070e+001 38418 94907,95120,94751
 3.2000e+000 95218 -1.8211e+001 -1.5747e+002 -2.5543e+001 38418 94907,94881,95192
 3.2000e+000 95241 -3.1268e+001 -1.9259e+002 -2.2302e+001 38418 94907,95192,95048
 3.2000e+000 95511 -7.5561e+001 -2.3610e+002  9.6060e+000 38049 95312,95390,95364
 3.2000e+000 95488 -5.6851e+001 -2.2869e+002  1.0847e+001 38049 95312,95416,95390
 3.2000e+000 95465 -2.7065e+001 -2.2543e+002 -1.5470e+001 38049 95312,95364,95338
 3.2000e+000 95442 -2.1532e+001 -2.1323e+002  2.1027e+001 38049 95286,95416,95312
 3.2000e+000 95808 -6.7272e+001 -2.6324e+002 -6.4042e+000 37437 95831,95586,95560
 3.2000e+000 95785  2.3949e+001 -2.7583e+002 -1.1502e+001 37437 95831,95560,95534
 3.2000e+000 95762 -1.3323e+002 -2.4736e+002  5.6597e+000 37437 95586,95664,95638
 3.2000e+000 95739 -2.1273e+001 -1.2766e+002 -6.6370e+001 37437 95534,95690,95664
 3.2000e+000 95716 -1.2292e+002 -1.7562e+002  5.5226e+000 37437 95586,95638,95612
 3.2000e+000 95857 -1.2621e+002 -2.5523e+002  3.0590e+001 37437 95664,95586,95831
 3.2000e+000 95880 -2.9569e+001 -2.6514e+002  2.6786e+001 37437 95664,95831,95534
 3.2000e+000 96390 -8.4668e+001 -1.8867e+002 -1.2807e+001 36883 96413,96145,96093
 3.2000e+000 96367 -6.7394e+001 -1.8001e+002 -7.5836e+000 36883 96413,96093,96067
 3.2000e+000 96344 -4.7085e+001 -2.2018e+002  4.2700e-001 36883 96067,96249,96171
 3.2000e+000 96321 -7.4132e+001 -2.1581e+002 -6.1735e+000 36883 96093,96145,96119
 3.2000e+000 96298 -1.0439e+002 -3.6564e+002  3.4752e+001 36883 96171,96249,96197
 3.2000e+000 96275 -2.6325e+001 -2.9029e+002 -5.4656e+000 36883 96197,96249,96223
 3.2000e+000 96439 -7.9615e+001 -1.8193e+002  2.6423e+000 36883 96171,96145,96413
 3.2000e+000 96462 -6.5413e+001 -1.7848e+002  6.4775e+000 36883 96171,96413,96067
 3.2000e+000 96781 -7.1218e+001 -2.1634e+002 -3.2128e+001 36215 96559,96663,96637
 3.2000e+000 96758 -8.8052e+001 -2.3668e+002 -4.0558e+001 36215 96507,96663,96559
 3.2000e+000 96735 -8.7047e+001 -1.6059e+002  1.7082e+001 36215 96585,96637,96611
 3.2000e+000 96712 -1.8470e+002 -2.5182e+002 -2.7482e+001 36215 96559,96637,96585
 3.2000e+000 96689 -3.3558e+001 -2.7225e+002 -9.0951e+000 36215 96507,96559,96533
 3.2000e+000 97161  4.2431e+000 -1.1846e+002 -7.0235e+000 35818 97184,96965,96939
 3.2000e+000 97138 -1.4146e+001 -1.4193e+002 -1.6192e+001 35818 97184,96939,96887
 3.2000e+000 97115 -1.2383e+000 -1.4761e+002  2.9103e+001 35818 96965,97043,97017
 3.2000e+000 97092 -9.1394e+000 -1.3279e+002 -1.8170e+001 35818 96887,96939,96913
 3.2000e+000 97069 -7.5422e+001 -1.5533e+002  1.7234e+001 35818 96965,97017,96991
 3.2000e+000 97210  2.4191e+001 -1.3871e+002  6.4297e+000 35818 97043,96965,97184
 3.2000e+000 97233  9.4103e+000 -1.5518e+002 -9.8333e-001 35818 97043,97184,96887
 3.2000e+000 97739 -8.3262e+001 -2.3931e+002 -5.5736e+001 35214 97416,97468,97442
 3.2000e+000 97716 -9.4583e+001 -1.6987e+002 -1.9303e+001 35214 97416,97598,97468
 3.2000e+000 97693 -8.2303e+001 -1.6075e+002 -8.5143e+000 35214 97762,97520,97468
 3.2000e+000 97670 -8.4911e+001 -1.6468e+002 -1.4710e+001 35214 97762,97468,97598
 3.2000e+000 97647 -6.4458e+001 -1.5870e+002 -2.2577e+001 35214 97546,97598,97572
 3.2000e+000 97624 -5.6399e+001 -1.6657e+002 -1.0397e+001 35214 97468,97520,97494
 3.2000e+000 97788 -8.4704e+001 -1.6800e+002 -1.1505e+001 35214 97546,97520,97762
 3.2000e+000 97811 -8.5506e+001 -1.7105e+002 -1.7275e+001 35214 97546,97762,97598
 3.2000e+000 98189 -1.6619e+001 -1.2953e+002 -1.1678e+001 34760 98356,98212,97967
 3.2000e+000 98166 -3.4724e+001 -1.5718e+002 -2.3403e+001 34760 98284,98212,97941
 3.2000e+000 98143 -6.1230e+001 -1.4264e+002 -1.1738e+001 34760 98284,97941,97915
 3.2000e+000 98120 -1.8780e+001 -1.7316e+002 -5.7612e+000 34760 98484,97993,97967
 3.2000e+000 98097 -1.4991e+001 -1.4531e+002 -6.2774e+000 34760 98556,98045,98019
 3.2000e+000 98238 -2.7978e+001 -1.6285e+002 -6.4391e+000 34760 98484,97967,98212
 3.2000e+000 98261 -3.5592e+000 -1.5266e+002 -1.2276e+001 34760 98556,98019,98212
 3.2000e+000 98310 -1.1420e+001 -1.3116e+002 -3.4517e+001 34760 98071,98212,98284
 3.2000e+000 98333 -2.9551e+001 -9.5391e+001 -2.8332e+001 34760 98071,98284,97915
 3.2000e+000 98382 -8.3289e+001 -1.7348e+002 -3.1660e+001 34760 97941,98212,98356
 3.2000e+000 98510 -3.3824e+000 -1.6504e+002 -1.0787e+001 34760 98019,97993,98484
 3.2000e+000 98533 -1.8469e+001 -1.5948e+002 -1.0540e+001 34760 98019,98484,98212
 3.2000e+000 98582 -6.7140e-001 -1.3634e+002 -2.4446e+000 34760 98071,98045,98556
 3.2000e+000 98605  3.8878e+000 -1.4767e+002 -1.0044e+001 34760 98071,98556,98212
 3.2000e+000 99032 -8.5134e+001 -2.0005e+002  2.7517e+001 34156 98735,98891,98839
 3.2000e+000 99009 -7.1869e+001 -2.0560e+002  1.3064e+001 34156 98709,98891,98735
 3.2000e+000 98986 -2.3468e+001 -1.8062e+002  2.6788e+001 34156 98735,98813,98787
 3.2000e+000 98963 -2.8422e+001 -1.9715e+002  2.2170e+001 34156 98735,98839,98813
 3.2000e+000 98940  1.2685e+001 -2.7175e+002  2.9980e+001 34156 98735,98787,98761
 3.2000e+000 98917 -7.5778e+001 -1.7594e+002  1.5360e+001 34156 98839,98891,98865
 3.2000e+000 99231 -2.6491e+001 -1.0959e+002  9.3952e+000 33766 99055,99133,99107
 3.2000e+000 99208 -4.4259e+001 -1.4215e+002  1.8307e+001 33766 99055,99159,99133
 3.2000e+000 99185 -1.4315e+001 -1.3112e+002  2.4413e+001 33766 99055,99107,99081
 3.2000e+000 99818 -5.6272e+001 -1.5912e+002  2.8611e+000 33248 99521,99651,99573
 3.2000e+000 99795 -5.5741e+001 -1.5183e+002  1.5250e+001 33248 99521,99677,99651
 3.2000e+000 99772 -8.4647e+001 -1.9525e+002 -1.0991e+001 33248 99573,99651,99599
 3.2000e+000 99749 -5.7471e+001 -1.8820e+002  1.6920e+001 33248 99495,99677,99521
 3.2000e+000 99726 -4.0673e+001 -1.6475e+002 -3.9263e+001 33248 99599,99651,99625
 3.2000e+000 99703 -7.1935e+001 -1.9326e+002  1.1377e+001 33248 99521,99573,99547
 3.2000e+000 100196 -5.9221e+001 -1.7238e+002 -3.3578e+001 32794 100219,99948,99922
 3.2000e+000 100173 -6.8299e+001 -1.9130e+002 -1.5777e+001 32794 100219,99922,100052
 3.2000e+000 100150 -9.0517e+001 -1.7438e+002  9.1891e+000 32794 99974,100052,100026
 3.2000e+000 100127 -8.1337e+001 -1.5749e+002 -2.5031e+001 32794 99922,100078,100052
 3.2000e+000 100104 -9.5946e+001 -2.1252e+002  3.9099e+001 32794 99974,100026,100000
 3.2000e+000 100245 -7.9396e+001 -1.7003e+002 -1.5338e+001 32794 99974,99948,100219
 3.2000e+000 100268 -8.4279e+001 -1.9490e+002  2.6819e+000 32794 99974,100219,100052
 3.2000e+000 100418 -9.0272e+000 -1.5189e+002 -1.6923e+001 32504 100571,100343,100317
 3.2000e+000 100395 -5.9742e+001 -1.7491e+002  1.5653e+001 32504 100571,100317,100441
 3.2000e+000 100467  4.6958e+001 -8.2555e+001 -4.5759e+001 32504 100291,100369,100441
 3.2000e+000 100597  1.3611e+001 -1.2692e+002 -5.6526e+001 32504 100369,100343,100571
 3.2000e+000 100620 -9.1540e+000 -1.1814e+002 -2.8382e+001 32504 100369,100571,100441
 3.2000e+000 101020 -2.7682e+001 -1.4179e+002  6.3608e+000 32142 100772,100902,100876
 3.2000e+000 100997 -1.8473e+001 -1.3050e+002  1.0515e+001 32142 100746,100902,100772
 3.2000e+000 100974 -8.9357e+000 -1.6087e+002  1.6243e+001 32142 101043,100824,100798
 3.2000e+000 100951 -2.9848e+001 -1.6918e+002  1.2892e+001 32142 101043,100798,100772
 3.2000e+000 100928 -9.2540e+001 -1.9592e+002 -4.6655e+001 32142 101115,100876,100850
 3.2000e+000 101069  1.9888e+001 -1.7168e+002 -1.7520e+001 32142 100850,100824,101043
 3.2000e+000 101092 -4.9531e+001 -2.0120e+002 -2.2560e+001 32142 101115,100850,101043
 3.2000e+000 101141 -3.9611e+001 -1.6643e+002 -1.7172e+001 32142 100772,100876,101115
 3.2000e+000 101164 -6.4340e+000 -1.7012e+002  9.1667e+000 32142 100772,101115,101043
 3.2000e+000 101719 -8.7431e+001 -2.0766e+002  2.6077e+001 31538 101742,101477,101399
 3.2000e+000 101696 -1.0924e+002 -2.5323e+002  4.3875e+000 31538 101814,101742,101399
 3.2000e+000 101673 -1.2656e+002 -2.1739e+002 -2.0976e+001 31538 101814,101399,101373
 3.2000e+000 101650 -8.7765e+001 -1.5007e+002  1.7519e+001 31538 101425,101477,101451
 3.2000e+000 101627 -8.3101e+001 -1.7627e+002  3.5926e+000 31538 101399,101477,101425
 3.2000e+000 101604 -5.2258e+001 -2.4805e+002  5.0493e+001 31538 101477,101529,101503
 3.2000e+000 101581 -3.2999e+001 -1.4677e+002 -1.7081e+001 31538 101347,101555,101373
 3.2000e+000 101768 -1.0022e+002 -2.5541e+002  2.5751e+001 31538 101529,101477,101742
 3.2000e+000 101791 -8.5251e+001 -2.6115e+002 -9.9258e+000 31538 101529,101742,101555
 3.2000e+000 101840 -6.6294e+001 -2.1705e+002 -1.2005e+001 31538 101555,101742,101814
 3.2000e+000 101863 -9.0910e+001 -1.8772e+002 -3.5189e+001 31538 101555,101814,101373
 3.2000e+000 102111 -1.2863e+002 -3.2958e+002  4.3558e+001 31112 101886,101990,101912
 3.2000e+000 102088 -4.6140e+001 -1.9400e+002  3.2493e+000 31112 101886,102016,101990
 3.2000e+000 102065 -5.7612e+001 -3.1736e+002  6.3866e+001 31112 101912,101990,101964
 3.2000e+000 102042 -9.1826e+001 -3.9472e+002  7.5689e+001 31112 101912,101964,101938
 3.2000e+000 102408 -3.9045e+001 -2.0508e+002  1.5193e+001 30658 102431,102186,102160
 3.2000e+000 102385 -7.2566e+001 -2.0203e+002 -9.5662e-001 30658 102431,102160,102264
 3.2000e+000 102362 -6.7850e+001 -2.2150e+002  2.7435e+000 30658 102186,102238,102212
 3.2000e+000 102339 -7.9418e+001 -2.1511e+002 -1.4324e+001 30658 102134,102264,102160
 3.2000e+000 102316 -5.4159e+001 -1.8010e+002 -5.9854e+001 30658 102134,102290,102264
 3.2000e+000 102457 -6.6553e+001 -2.1669e+002  7.7771e+000 30658 102238,102186,102431
 3.2000e+000 102480 -1.0248e+002 -2.1704e+002 -9.7803e+000 30658 102238,102431,102264
 3.2000e+000 102681 -3.0258e+001 -2.4658e+002  3.5143e+001 30004 102704,102557,102505
 3.2000e+000 102658 -3.4613e+001 -2.5126e+002  3.7191e+001 30004 102704,102505,102609
 3.2000e+000 102635 -6.0941e-001 -2.1343e+002  8.7715e+000 30004 102505,102557,102531
 3.2000e+000 102730 -3.4881e+001 -2.3812e+002  3.1682e+001 30004 102583,102557,102704
 3.2000e+000 102753 -4.5538e+001 -2.4571e+002  3.5527e+001 30004 102583,102704,102609
 3.2000e+000 103003 -2.9780e+001 -1.9779e+002 -1.7368e+001 29564 103026,102804,102778
 3.2000e+000 102980 -3.6621e+001 -2.3449e+002 -2.6493e+001 29564 103026,102778,102908
 3.2000e+000 102957 -3.4306e+001 -1.9768e+002 -4.1224e+000 29564 102856,102908,102882
 3.2000e+000 102934 -5.0289e+001 -1.7957e+002  1.0238e+001 29564 102804,102856,102830
 3.2000e+000 103052 -2.5635e+001 -1.7918e+002  7.4583e+000 29564 102856,102804,103026
 3.2000e+000 103075 -3.6028e+001 -2.0933e+002 -5.1238e+000 29564 102856,103026,102908
 3.2000e+000 103634 -9.7559e+001 -2.3162e+002 -2.6013e+001 29160 103657,103418,103392
 3.2000e+000 103611 -9.2757e+001 -2.2250e+002 -1.2712e+001 29160 103657,103392,103314
 3.2000e+000 103588 -6.8973e+001 -1.9523e+002 -2.2775e+001 29160 103314,103392,103366
 3.2000e+000 103565 -5.9688e+001 -2.0629e+002 -2.6917e+001 29160 103314,103366,103340
 3.2000e+000 103542 -1.1370e+002 -2.1914e+002 -2.5633e+001 29160 103262,103444,103314
 3.2000e+000 103519 -1.3356e+002 -2.5718e+002 -3.7514e+001 29160 103262,103314,103288
 3.2000e+000 103496 -8.6659e+001 -2.3665e+002 -1.2128e+001 29160 103262,103470,103444
 3.2000e+000 103683 -1.1839e+002 -2.4867e+002 -4.2777e+001 29160 103444,103418,103657
 3.2000e+000 103706 -1.0040e+002 -2.2066e+002 -2.7295e+001 29160 103444,103657,103314
 3.2000e+000 104035 -5.8276e+001 -2.0864e+002  1.8573e+001 28770 103836,103914,103862
 3.2000e+000 104012 -5.5341e+001 -2.0076e+002  2.3783e+001 28770 103810,103914,103836
 3.2000e+000 103989  1.6834e+001 -1.8209e+002  3.1198e+001 28770 103810,103940,103914
 3.2000e+000 103966 -1.1216e+001 -1.6955e+002  3.9712e+001 28770 103862,103914,103888
 3.2000e+000 104185 -3.0021e+001 -2.0995e+002  3.5857e+001 28366 104208,104110,104084
 3.2000e+000 104162 -2.2023e+001 -1.7623e+002  3.2211e+001 28366 104280,104208,104084
 3.2000e+000 104234  2.7920e+001 -2.0601e+002  2.1345e+001 28366 104610,104208,104136
 3.2000e+000 104257 -4.5710e+001 -1.9929e+002  2.2279e+001 28366 104538,104410,104208
 3.2000e+000 104306 -6.9035e+001 -2.0123e+002  2.1642e+001 28366 104538,104208,104280
 3.2000e+000 104436 -2.1816e+001 -2.0961e+002  2.1542e+000 28366 104136,104208,104410
 3.2000e+000 104564 -7.0098e+001 -1.9865e+002  9.9416e+000 28366 104058,104410,104538
 3.2000e+000 104587 -8.4544e+001 -1.9525e+002  7.7376e+000 28366 104058,104538,104280
 3.2000e+000 104636  1.3118e+001 -2.1065e+002  2.9088e+001 28366 104110,104208,104610
 3.2000e+000 105349 -4.8471e+001 -1.7744e+002 -1.8425e+001 27976 105516,105372,105107
 3.2000e+000 105326 -7.5670e+001 -1.7830e+002  4.6706e+000 27976 105588,105372,105055
 3.2000e+000 105303 -8.0832e+001 -1.7327e+002 -1.8612e+001 27976 105444,105159,105133
 3.2000e+000 105280 -2.8276e+001 -1.8428e+002 -1.1085e+001 27976 105516,105107,105081
 3.2000e+000 105257 -7.0466e+001 -1.9667e+002  1.6544e+001 27976 105588,105055,105029
 3.2000e+000 105234 -3.8270e+001 -1.5011e+002  1.8356e+000 27976 105003,105185,105159
 3.2000e+000 105211 -5.2682e+001 -1.2129e+002  2.1946e+001 27976 104977,105185,105003
 3.2000e+000 105398 -3.9229e+001 -1.7877e+002 -2.3446e+001 27976 105133,105107,105372
 3.2000e+000 105421 -6.4951e+001 -1.8606e+002 -1.1171e+001 27976 105444,105133,105372
 3.2000e+000 105470 -6.6168e+001 -1.5170e+002 -1.0228e+001 27976 105003,105159,105444
 3.2000e+000 105493 -5.4766e+001 -1.6626e+002 -6.6216e+000 27976 105003,105444,105372
 3.2000e+000 105542 -3.4907e+001 -1.7550e+002 -1.5815e+000 27976 105055,105372,105516
 3.2000e+000 105565 -4.6708e+000 -1.7838e+002  3.6758e+000 27976 105055,105516,105081
 3.2000e+000 105614 -8.6568e+001 -1.9641e+002  1.3466e+001 27976 105003,105372,105588
 3.2000e+000 105637 -8.4216e+001 -2.1449e+002  2.6426e+001 27976 105003,105588,105029
 3.2000e+000 106143 -9.1216e+001 -2.7782e+002  1.6928e+001 27664 106166,105846,105820
 3.2000e+000 106120 -6.5443e+001 -2.1794e+002  7.3528e+000 27664 106310,106166,105820
 3.2000e+000 106097 -3.0038e+001 -2.5338e+002 -4.8497e+001 27664 106382,106238,105950
 3.2000e+000 106074 -4.3914e+001 -2.1344e+002  7.6371e+000 27664 106310,105820,106002
 3.2000e+000 106051  2.1399e+001 -2.2379e+002 -3.5602e+001 27664 106382,105950,105924
 3.2000e+000 106028 -2.8611e+001 -3.9003e+002 -1.1717e+001 27664 105846,105898,105872
 3.2000e+000 106192 -8.5057e+001 -3.0833e+002 -3.6626e+001 27664 105898,105846,106166
 3.2000e+000 106215 -5.5609e+001 -2.6039e+002 -1.1129e+001 27664 106238,105898,106166
 3.2000e+000 106264 -1.4605e+002 -2.8360e+002 -6.5626e+001 27664 105976,105950,106238
 3.2000e+000 106287 -4.8809e+001 -2.5877e+002 -1.2331e+001 27664 105976,106238,106166
 3.2000e+000 106336 -4.3761e+001 -2.3054e+002  2.7284e+001 27664 105976,106166,106310
 3.2000e+000 106359 -1.8986e+001 -2.2431e+002  2.6727e+001 27664 105976,106310,106002
 3.2000e+000 106408 -5.1710e+001 -2.0579e+002  9.3215e+000 27664 105898,106238,106382
 3.2000e+000 106431 -2.1243e+001 -1.9045e+002  1.7596e+001 27664 105898,106382,105924
 3.2000e+000 106728 -2.8592e+001 -1.4938e+002  2.8624e+001 27153 106751,106506,106454
 3.2000e+000 106705 -2.6550e+001 -1.5096e+002  2.1647e+001 27153 106751,106454,106610
 3.2000e+000 106682 -4.3080e+001 -1.1494e+002  7.0284e+000 27153 106454,106506,106480
 3.2000e+000 106659 -3.6928e+001 -1.4570e+002  1.2790e+001 27153 106532,106610,106584
 3.2000e+000 106636 -5.9481e+001 -8.7909e+001  2.8196e+001 27153 106532,106584,106558
 3.2000e+000 106777 -1.9153e+001 -1.4906e+002  2.9724e+001 27153 106532,106506,106751
 3.2000e+000 106800 -1.8559e+001 -1.5009e+002  2.1400e+001 27153 106532,106751,106610
 3.2000e+000 107180 -3.8348e+001 -1.8075e+002  1.2444e+001 26642 107203,106984,106958
 3.2000e+000 107157 -9.4452e+001 -2.0706e+002  2.4704e+000 26642 107203,106958,106932
 3.2000e+000 107134 -1.1279e+002 -2.2838e+002 -2.8873e+001 26642 107275,107036,107010
 3.2000e+000 107111 -7.1646e+001 -2.2518e+002 -3.8342e+001 26642 106932,107062,107036
 3.2000e+000 107088 -2.9637e+000 -1.7658e+002  2.0974e+001 26642 106906,107062,106932
 3.2000e+000 107229 -1.0414e+001 -1.7138e+002 -4.9061e+001 26642 107010,106984,107203
 3.2000e+000 107252 -9.9528e+001 -2.1029e+002 -3.5918e+001 26642 107275,107010,107203
 3.2000e+000 107301 -9.6951e+001 -2.2605e+002 -3.8737e+001 26642 106932,107036,107275
 3.2000e+000 107324 -9.2623e+001 -2.2633e+002 -4.0881e+001 26642 106932,107275,107203
 3.2000e+000 107675 -4.6279e+001 -1.3080e+002  1.4278e+001 26045 107450,107554,107476
 3.2000e+000 107652 -3.6955e+001 -1.1384e+002  4.6386e+000 26045 107450,107580,107554
 3.2000e+000 107629 -1.5577e+001 -1.1262e+002  4.1585e+000 26045 107476,107528,107502
 3.2000e+000 107606 -1.2178e+001 -1.2335e+002  7.8833e+000 26045 107476,107554,107528
 3.2000e+000 107874 -3.3008e+001 -1.9947e+002  4.9690e+001 25641 107750,107802,107776
 3.2000e+000 107851 -4.2760e+001 -1.4014e+002  2.5746e+001 25641 107724,107802,107750
 3.2000e+000 107828 -4.3622e+001 -1.4334e+002  2.2051e+001 25641 107698,107802,107724
 3.2000e+000 108431 -1.8314e+001 -2.1370e+002  3.7090e+001 25023 108526,108267,108241
 3.2000e+000 108408 -3.7425e-001 -2.0284e+002  7.3019e+000 25023 108059,108267,108085
 3.2000e+000 108385 -3.2427e+001 -2.1902e+002  3.5861e+001 25023 108454,108163,108111
 3.2000e+000 108362 -9.8272e+001 -2.2038e+002  6.1306e+001 25023 108454,108111,108085
 3.2000e+000 108339 -7.7671e+001 -2.8221e+002  6.2543e+001 25023 108111,108163,108137
 3.2000e+000 108316 -5.4433e+001 -1.6040e+002 -1.0636e+001 25023 108163,108241,108215
 3.2000e+000 108293  1.8612e+001 -1.2753e+002 -1.1140e+000 25023 108163,108215,108189
 3.2000e+000 108480 -1.0045e+001 -1.9577e+002  2.4027e+000 25023 108241,108163,108454
 3.2000e+000 108503 -3.3261e+001 -2.0763e+002  3.5681e+001 25023 108526,108241,108454
 3.2000e+000 108552 -3.5942e+001 -2.1574e+002  2.8798e+001 25023 108085,108267,108526
 3.2000e+000 108575 -5.1781e+001 -2.1071e+002  2.7008e+001 25023 108085,108526,108454
 3.2000e+000 108823 -1.0737e+001 -1.6028e+002  2.3838e+001 24461 108624,108728,108650
 3.2000e+000 108800 -2.9530e+001 -3.2984e+002 -2.0629e+001 24461 108598,108728,108624
 3.2000e+000 108777 -3.3233e+000 -2.1213e+002  2.0614e+001 24461 108650,108728,108676
 3.2000e+000 108754 -9.6713e+001 -5.9136e+002  5.2246e+001 24461 108676,108728,108702
 3.2000e+000 109022 -5.6930e+001 -1.6317e+002  1.8685e+001 24121 108872,108924,108898
 3.2000e+000 108999 -4.3441e+001 -1.6094e+002  2.1098e+001 24121 108846,108924,108872
 3.2000e+000 108976 -6.3630e+001 -1.7062e+002  2.4473e+001 24121 108846,108950,108924
 3.2000e+000 109483 -6.8198e+001 -2.2313e+002 -2.2121e+001 23717 109209,109339,109235
 3.2000e+000 109460 -2.7608e+001 -2.5297e+002 -5.1546e+001 23717 109209,109365,109339
 3.2000e+000 109437 -7.1959e+000 -2.8022e+002 -1.5103e+001 23717 109287,109339,109313
 3.2000e+000 109414 -1.2906e+002 -2.8289e+002  1.4865e+001 23717 109235,109339,109287
 3.2000e+000 109391 -8.7899e+000 -3.2951e+002  1.1083e+002 23717 109235,109287,109261
 3.2000e+000 109910 -8.7746e+001 -2.5796e+002 -2.5678e+001 23305 109613,109743,109717
 3.2000e+000 109887 -8.9156e+001 -2.6034e+002 -1.5683e+001 23305 109613,109769,109743
 3.2000e+000 109864 -1.0741e+002 -2.5271e+002 -2.0918e+001 23305 109613,109717,109639
 3.2000e+000 109841 -6.9014e+001 -2.3988e+002 -5.8589e+000 23305 109587,109769,109613
 3.2000e+000 109818  1.7493e+001 -1.9938e+002  2.9288e+001 23305 109639,109717,109691
 3.2000e+000 109795 -2.5657e+001 -1.6109e+002 -3.3261e+001 23305 109639,109691,109665
 3.2000e+000 110180 -6.7192e+000 -7.6697e+001 -1.5895e+001 22851 110007,110059,110033
 3.2000e+000 110157 -5.2759e+001 -2.0165e+002  8.4300e+000 22851 109981,110059,110007
 3.2000e+000 110134 -7.3233e+001 -2.1736e+002  9.2283e-001 22851 109955,110059,109981
 3.2000e+000 110111 -2.9934e+001 -2.3810e+002 -1.8667e+001 22851 109955,110085,110059
 3.2000e+000 110737 -4.8139e+001 -2.3783e+002 -5.6180e+001 22333 110760,110469,110391
 3.2000e+000 110714 -1.8732e+001 -2.6336e+002 -4.6134e+001 22333 110760,110391,110365
 3.2000e+000 110691 -2.6282e+001 -2.2782e+002 -4.7743e+001 22333 110832,110521,110469
 3.2000e+000 110668 -5.2427e+000 -3.8801e+002  4.6902e+000 22333 110417,110469,110443
 3.2000e+000 110645 -1.1460e+002 -3.5780e+002 -7.0803e-002 22333 110391,110469,110417
 3.2000e+000 110622 -3.3370e+000 -2.2525e+002 -2.8132e+001 22333 110469,110521,110495
 3.2000e+000 110599 -2.6894e+001 -1.5537e+002  1.8033e+001 22333 110365,110573,110547
 3.2000e+000 110786 -2.7332e+001 -2.2931e+002 -4.8739e+001 22333 110832,110469,110760
 3.2000e+000 110809  3.9389e+000 -2.3855e+002 -3.4365e+001 22333 110547,110760,110365
 3.2000e+000 110858 -1.7125e+001 -2.3232e+002 -5.0059e+001 22333 110547,110521,110832
 3.2000e+000 110881 -2.5085e+001 -2.3852e+002 -5.2955e+001 22333 110547,110832,110760
 3.2000e+000 111308 -1.2327e+002 -2.8431e+002  1.4424e+001 21829 111331,111063,111011
 3.2000e+000 111285 -1.1236e+002 -2.6600e+002 -4.9821e+000 21829 111331,111011,111167
 3.2000e+000 111262 -1.2623e+002 -2.8294e+002  1.5232e+001 21829 111403,111089,111063
 3.2000e+000 111239 -1.5781e+002 -3.0928e+002  3.8863e+001 21829 111011,111063,111037
 3.2000e+000 111216 -7.5359e+001 -1.9626e+002  1.0205e+001 21829 110985,111167,111011
 3.2000e+000 111193 -1.4124e+002 -4.5070e+002  9.5248e+001 21829 111089,111141,111115
 3.2000e+000 111357 -1.2301e+002 -2.8571e+002  1.5175e+001 21829 111403,111063,111331
 3.2000e+000 111380 -1.2628e+002 -2.9558e+002 -1.1854e+000 21829 111141,111331,111167
 3.2000e+000 111429 -1.3140e+002 -2.8684e+002  1.7859e+001 21829 111141,111089,111403
 3.2000e+000 111452 -1.2654e+002 -2.9035e+002  1.6861e+001 21829 111141,111403,111331
 3.2000e+000 112056  7.2200e+001 -2.1723e+002  3.3629e+000 21489 111687,111765,111739
 3.2000e+000 112033  1.1955e+001 -2.5033e+002  2.4792e+001 21489 112151,112079,111687
 3.2000e+000 112010 -5.6196e+000 -3.8814e+002  2.8449e+001 21489 111791,111843,111817
 3.2000e+000 111987 -7.3831e+001 -3.0851e+002 -2.1245e+001 21489 112079,111843,111791
 3.2000e+000 111964  4.8541e+001 -2.3347e+002  4.6557e+001 21489 112151,111687,111661
 3.2000e+000 111941 -2.6165e+001 -1.7111e+002  4.1333e+001 21489 111661,111869,111843
 3.2000e+000 111918  7.7466e+001 -2.3379e+002  3.2408e+001 21489 111687,111739,111713
 3.2000e+000 111895  8.7687e+000 -9.0037e+001  1.5723e+001 21489 111635,111869,111661
 3.2000e+000 112105 -4.5211e+001 -2.6999e+002  1.4567e+001 21489 111765,111687,112079
 3.2000e+000 112128 -4.4744e+001 -2.5872e+002  1.5731e+001 21489 111765,112079,111791
 3.2000e+000 112177 -5.0055e+001 -2.4737e+002 -5.4307e+000 21489 111843,112079,112151
 3.2000e+000 112200 -1.6371e+001 -2.4101e+002  1.2309e+001 21489 111843,112151,111661
 3.2000e+000 112578 -6.0423e+001 -3.1373e+002  1.3520e+001 21177 112382,112434,112408
 3.2000e+000 112555 -7.3596e+001 -3.1065e+002  7.6332e-001 21177 112330,112434,112382
 3.2000e+000 112532 -5.9702e+001 -2.6794e+002  4.5759e+001 21177 112304,112434,112330
 3.2000e+000 112509 -7.2773e+001 -2.9970e+002  0.0000e+000 21177 112330,112382,112356
 3.2000e+000 112486 -1.8033e+001 -1.7657e+002  1.0375e+001 21177 112304,112460,112434
 3.2000e+000 112679 -3.5962e+000 -2.1082e+002 -3.6356e+001 20666 112601,112653,112627
 3.2000e+000 112927 -8.7815e+001 -2.9753e+002  9.6332e+000 19762 112702,112754,112728
 3.2000e+000 112904 -3.4033e+001 -2.8073e+002 -4.0390e+000 19762 112702,112832,112754
 3.2000e+000 112881 -7.4653e+001 -2.9917e+002  4.7620e+001 19762 112754,112832,112806
 3.2000e+000 112858 -1.0441e+002 -3.7325e+002  4.5710e+001 19762 112754,112806,112780
 3.2000e+000 113297 -8.1275e+001 -3.4685e+002  2.1694e+001 19308 112974,113052,113026
 3.2000e+000 113274 -5.5241e+001 -2.9222e+002  7.0811e+000 19308 112974,113156,113052
 3.2000e+000 113251 -3.0801e+001 -3.8448e+002 -4.5720e+001 19308 113052,113130,113104
 3.2000e+000 113228 -5.8808e+001 -2.9007e+002  2.0420e-001 19308 113052,113156,113130
 3.2000e+000 113205 -5.6914e+001 -3.3564e+002  0.0000e+000 19308 113052,113104,113078
 3.2000e+000 113182 -1.1239e+002 -3.5755e+002 -8.6455e-001 19308 112974,113026,113000
 3.2000e+000 113547 -1.8854e+001 -3.2162e+002 -1.9891e+001 18711 113570,113374,113348
 3.2000e+000 113524 -3.0519e+001 -2.9499e+002 -1.1223e+001 18711 113570,113348,113452
 3.2000e+000 113501 -2.3029e+001 -2.2467e+002 -6.2898e+001 18711 113322,113452,113348
 3.2000e+000 113478 -3.9717e+001 -2.8684e+002 -9.9203e+001 18711 113374,113426,113400
 3.2000e+000 113596 -1.4324e+001 -2.9261e+002 -2.7070e+001 18711 113426,113374,113570
 3.2000e+000 113619 -2.9210e+001 -2.7107e+002 -1.2970e+001 18711 113426,113570,113452
 3.2000e+000 113771 -1.5813e+002 -3.9709e+002 -2.1449e+001 18307 113670,113722,113696
 3.2000e+000 113748 -1.2533e+002 -3.7074e+002 -9.7967e+000 18307 113644,113722,113670
 3.2000e+000 113972 -6.6345e+001 -3.2555e+002  4.7023e+000 17945 113822,113874,113848
 3.2000e+000 113949 -6.8434e+001 -3.2243e+002  7.1146e+000 17945 113822,113900,113874
 3.2000e+000 113926 -9.8660e+001 -2.4777e+002  1.5276e+002 17945 113796,113900,113822
 3.2000e+000 114075 -4.6266e+001 -4.8397e+002  5.2500e+001 17482 113997,114049,114023
 3.2000e+000 114479 -2.2996e+001 -2.6989e+002 -4.0923e+001 17042 114257,114361,114335
 3.2000e+000 114456 -6.5615e+001 -2.6006e+002 -7.9175e+000 17042 114205,114361,114257
 3.2000e+000 114433 -7.9783e+001 -3.0038e+002  9.9747e+000 17042 114205,114257,114231
 3.2000e+000 114410  5.6697e+001 -3.9632e+002 -2.5967e+001 17042 114283,114335,114309
 3.2000e+000 114387 -8.0453e+000 -3.4516e+002 -1.7488e+001 17042 114257,114335,114283
 3.2000e+000 114879 -1.4162e+002 -3.0079e+002 -4.1912e+000 16638 114631,114683,114657
 3.2000e+000 114856 -4.3298e+000 -2.4209e+002 -5.2439e+000 16638 114605,114683,114631
 3.2000e+000 114833  3.1858e+001 -1.5253e+002 -1.1205e+001 16638 114605,114761,114683
 3.2000e+000 114810 -2.3603e+001 -3.1184e+002 -1.7170e+001 16638 114683,114735,114709
 3.2000e+000 114787 -4.7759e+001 -3.3462e+002 -2.8926e+001 16638 114683,114761,114735
 3.2000e+000 115078 -1.2973e+002 -3.0327e+002  4.9670e+000 16232 114954,115006,114980
 3.2000e+000 115055 -1.3866e+002 -3.3916e+002  1.4444e+001 16232 114928,115006,114954
 3.2000e+000 115032 -6.6010e+001 -4.2506e+002  2.8498e+001 16232 114902,115006,114928
 3.2000e+000 115228 -9.8749e+001 -3.1454e+002  7.8297e+000 15482 115101,115153,115127
 3.2000e+000 115205 -7.6937e+001 -2.9627e+002 -2.9452e+000 15482 115101,115179,115153
 3.2000e+000 115331 -7.5265e+001 -2.9930e+002 -3.5466e+001 15163 115253,115305,115279
 3.2000e+000 115434 -9.0129e+001 -3.1186e+002  4.0584e+001 421 115356,115408,115382
 3.3000e+000 68213 -3.3107e+001 -1.9605e+002 -1.6622e+001 67888 68112,68164,68138
 3.3000e+000 68190 -2.1357e+002 -2.5122e+002 -2.5923e+001 67888 68086,68164,68112
 3.3000e+000 68314 -2.0189e+001 -2.5193e+002  2.5028e+001 67576 68236,68288,68262
 3.3000e+000 68584 -8.1832e+001 -4.1198e+002  1.6102e+001 67378 68385,68489,68463
 3.3000e+000 68561  7.9033e+001 -3.4435e+002  1.1780e+001 67378 68359,68489,68385
 3.3000e+000 68538 -7.2735e+001 -3.5918e+002  1.9835e+001 67378 68385,68463,68411
 3.3000e+000 68515 -4.3925e+001 -2.4304e+002  9.5702e+000 67378 68411,68463,68437
 3.3000e+000 68964 -8.6269e+001 -3.7848e+002  5.7792e+001 67130 68690,68820,68716
 3.3000e+000 68941  9.0673e+001 -3.8885e+002  1.0969e+002 67130 68690,68846,68820
 3.3000e+000 68918 -7.7683e+001 -2.5001e+002  6.5774e+000 67130 68742,68820,68794
 3.3000e+000 68895 -9.4462e+000 -2.4808e+002  2.3241e+001 67130 68716,68820,68742
 3.3000e+000 68872 -4.9223e+001 -2.1003e+002 -2.4954e+001 67130 68742,68794,68768
 3.3000e+000 69065 -5.4913e+001 -2.4558e+002 -5.6056e-002 66926 68987,69039,69013
 3.3000e+000 69445 -2.3097e+001 -2.2246e+002 -1.6073e+001 66614 69223,69301,69275
 3.3000e+000 69422 -4.6580e+001 -2.3894e+002 -4.6578e+000 66614 69171,69301,69223
 3.3000e+000 69399 -5.9434e+001 -2.4832e+002  1.2972e+000 66614 69171,69327,69301
 3.3000e+000 69376  1.0147e+001 -7.6642e+001  3.8995e+000 66614 69223,69275,69249
 3.3000e+000 69353 -4.4408e+001 -2.5987e+002 -7.3046e+000 66614 69171,69223,69197
 3.3000e+000 69546 -5.9968e+001 -3.4450e+002  1.9804e+001 66416 69468,69520,69494
 3.3000e+000 69997 -5.1165e+001 -3.5323e+002 -3.3128e+001 66104 69700,69830,69726
 3.3000e+000 69974 -6.5624e+001 -4.4590e+002 -6.6962e+001 66104 69700,69856,69830
 3.3000e+000 69951 -5.9750e+001 -2.6948e+002 -2.0669e+001 66104 69726,69804,69778
 3.3000e+000 69928 -4.5213e+001 -3.2731e+002 -2.8425e+001 66104 69726,69830,69804
 3.3000e+000 69905 -6.5366e+001 -2.5754e+002 -1.0827e+001 66104 69726,69778,69752
 3.3000e+000 69882 -1.7055e+001 -6.5182e+002 -1.1308e+002 66104 69674,69856,69700
 3.3000e+000 70326 -6.2846e+001 -1.5831e+002 -2.0147e+001 65814 70349,70153,70127
 3.3000e+000 70303 -4.3569e+000 -1.6091e+002 -1.7124e+000 65814 70349,70127,70101
 3.3000e+000 70280  3.5579e+001 -9.4143e+001  8.6779e+001 65814 70101,70231,70205
 3.3000e+000 70257  5.6088e+001 -1.6929e+002  2.0084e+001 65814 70153,70205,70179
 3.3000e+000 70375 -3.4229e+001 -1.6303e+002  2.0936e+001 65814 70205,70153,70349
 3.3000e+000 70398  4.9146e+001 -1.5605e+002  3.4035e+001 65814 70205,70349,70101
 3.3000e+000 70904 -1.9484e+001 -8.0644e+001 -2.6636e+001 65502 70607,70737,70685
 3.3000e+000 70881 -2.6237e+001 -6.3278e+001 -3.5322e+001 65502 70581,70737,70607
 3.3000e+000 70858 -2.5597e+001 -9.2544e+000 -4.9548e+000 65502 70581,70763,70737
 3.3000e+000 70835 -3.7998e+001 -9.1328e+001 -3.7387e+001 65502 70685,70737,70711
 3.3000e+000 70812 -1.2482e+002 -1.0596e+002 -4.7633e+000 65502 70607,70659,70633
 3.3000e+000 70789 -3.6046e+001 -1.1139e+002 -1.9665e+000 65502 70607,70685,70659
 3.3000e+000 71103 -3.7075e+001 -3.1186e+002 -7.7223e+000 65304 71126,70979,70953
 3.3000e+000 71080 -6.7739e+001 -3.1369e+002 -2.2723e+000 65304 71126,70953,70927
 3.3000e+000 71057 -9.8504e+001 -3.1932e+002  2.0131e+001 65304 70927,71031,71005
 3.3000e+000 71152 -6.8410e+001 -2.9170e+002 -1.6424e+001 65304 71005,70979,71126
 3.3000e+000 71175 -1.0485e+002 -3.0055e+002 -3.7287e+000 65304 71005,71126,70927
 3.3000e+000 71374 -2.3467e+001 -2.9811e+002  1.3493e+001 65106 71198,71276,71224
 3.3000e+000 71351 -8.8567e+001 -3.1859e+002  6.1779e+000 65106 71198,71302,71276
 3.3000e+000 71328 -2.8765e+000 -2.4470e+002  3.6284e+001 65106 71224,71276,71250
 3.3000e+000 71756 -3.6369e+001 -2.1317e+002 -1.6229e+001 64652 71508,71638,71534
 3.3000e+000 71733  3.1999e-001 -1.9701e+002  3.0863e+000 64652 71482,71638,71508
 3.3000e+000 71710 -6.8618e+001 -1.9068e+002 -1.3655e+001 64652 71534,71586,71560
 3.3000e+000 71687 -4.8347e+001 -2.0892e+002 -4.0800e+001 64652 71534,71612,71586
 3.3000e+000 71664 -9.9895e+001 -2.2854e+002 -3.8844e+001 64652 71534,71638,71612
 3.3000e+000 72085 -8.4240e+001 -2.2787e+002 -2.6552e+001 64248 71886,71964,71912
 3.3000e+000 72062 -7.8545e+001 -2.2485e+002 -2.7674e+001 64248 71860,71964,71886
 3.3000e+000 72039 -3.4155e+001 -2.3367e+002 -1.6139e+001 64248 71912,71964,71938
 3.3000e+000 72016 -5.9908e+001 -2.1893e+002 -3.4246e+001 64248 71860,71990,71964
 3.3000e+000 72235 -4.6708e+000 -1.3879e+002 -1.8089e+001 63858 72588,72258,72134
 3.3000e+000 72212 -8.6077e+000 -7.7133e+001  2.4470e+001 63858 72330,72258,72108
 3.3000e+000 72284 -5.6222e+000 -8.9202e+001 -7.6367e+000 63858 72160,72134,72258
 3.3000e+000 72307 -6.6475e+001 -1.2758e+002 -1.3287e+001 63858 72460,72258,72186
 3.3000e+000 72356 -5.4601e+001 -1.1691e+002 -6.2666e+000 63858 72186,72258,72330
 3.3000e+000 72486 -1.5942e+001 -1.1841e+002 -1.1476e+001 63858 72160,72258,72460
 3.3000e+000 72614  1.7719e+001 -1.4353e+002  2.0644e+001 63858 72108,72258,72588
 3.3000e+000 73248 -3.0540e+001 -2.0659e+002  6.6141e+001 63404 72902,72954,72928
 3.3000e+000 73225 -1.0296e+002 -2.3653e+002  3.3917e+001 63404 73271,72954,72902
 3.3000e+000 73202 -8.3956e+001 -1.8686e+002  2.7407e+001 63404 73271,72902,73032
 3.3000e+000 73179 -5.0445e+001 -1.6041e+002  1.1687e+001 63404 72902,73058,73032
 3.3000e+000 73156 -6.0916e+001 -1.9172e+002  5.9505e+000 63404 72980,73032,73006
 3.3000e+000 73133 -4.9110e+001 -1.6395e+002  1.0228e+001 63404 72876,73058,72902
 3.3000e+000 73110 -2.0680e+001 -7.7074e+001 -3.9363e+001 63404 72876,73084,73058
 3.3000e+000 73297 -7.9768e+001 -2.4187e+002  2.2660e+000 63404 72980,72954,73271
 3.3000e+000 73320 -7.3990e+001 -2.1617e+002  7.5181e-001 63404 72980,73271,73032
 3.3000e+000 73470 -8.4873e+001 -5.7093e+002  5.9616e+001 63014 73343,73395,73369
 3.3000e+000 73447 -2.6747e+002 -7.0364e+002 -1.4101e+001 63014 73343,73421,73395
 3.3000e+000 73929  2.0892e+001 -2.6131e+002  2.4427e+001 62702 73759,73811,73785
 3.3000e+000 73906  4.1498e+001 -2.5484e+002  1.8785e+001 62702 73655,73811,73759
 3.3000e+000 73883 -3.6605e+000 -2.9986e+002 -1.6478e+000 62702 73655,73759,73681
 3.3000e+000 73860  3.8445e+001 -2.1543e+002 -5.4542e+001 62702 73681,73759,73707
 3.3000e+000 73837 -1.0203e+002 -2.5464e+002  1.8566e+000 62702 73707,73759,73733
 3.3000e+000 74209 -1.5144e+002 -2.6280e+002  2.5778e+000 62404 74059,74137,74085
 3.3000e+000 74186 -1.8419e+002 -3.4621e+002  4.2335e+001 62404 74033,74137,74059
 3.3000e+000 74163 -1.6460e+002 -2.4233e+002  2.1293e-001 62404 74085,74137,74111
 3.3000e+000 74408  1.6643e+000 -2.2222e+002  1.6201e+001 62000 74258,74336,74284
 3.3000e+000 74385 -6.1774e+000 -2.2127e+002  2.7618e+001 62000 74232,74336,74258
 3.3000e+000 74362 -5.1897e+001 -2.1471e+002 -1.8136e+000 62000 74284,74336,74310
 3.3000e+000 74509 -1.7124e+001 -2.8342e+002  9.5069e+000 61802 74431,74483,74457
 3.3000e+000 74759 -7.5587e+001 -2.3910e+002  5.0797e-001 61554 74782,74586,74560
 3.3000e+000 74736 -3.9986e+001 -2.2010e+002  7.6421e+000 61554 74782,74560,74664
 3.3000e+000 74713 -6.4532e+001 -1.7252e+002  5.8792e+001 61554 74854,74612,74586
 3.3000e+000 74690 -5.5890e+001 -2.4763e+002  8.8024e-001 61554 74534,74664,74560
 3.3000e+000 74808 -9.3344e+001 -2.1655e+002  1.6016e+001 61554 74854,74586,74782
 3.3000e+000 74831 -5.3322e+001 -2.7460e+002  1.5217e+001 61554 74638,74782,74664
 3.3000e+000 74880 -8.6748e+000 -2.1865e+002  6.5230e+001 61554 74638,74612,74854
 3.3000e+000 74903 -1.0458e+001 -2.1688e+002  3.3914e+001 61554 74638,74854,74782
 3.3000e+000 75285 -2.6227e+001 -2.5767e+002  5.6331e+000 61356 75063,75167,75115
 3.3000e+000 75262 -4.3675e+001 -2.7806e+002 -1.8963e+001 61356 75037,75167,75063
 3.3000e+000 75239  6.5260e+001 -2.6989e+002 -2.5489e+000 61356 75115,75167,75141
 3.3000e+000 75216  3.2656e+001 -2.2529e+002  1.8291e+001 61356 75063,75115,75089
 3.3000e+000 75193 -1.2099e+002 -2.1211e+002  1.8247e+001 61356 75011,75167,75037
 3.3000e+000 75631 -1.2999e+000 -1.9795e+002  2.4820e+000 60952 75654,75412,75360
 3.3000e+000 75608 -3.3667e+001 -2.3356e+002 -1.2192e+001 60952 75654,75360,75334
 3.3000e+000 75585 -1.6791e+001 -3.0143e+002  1.1242e+001 60952 75726,75438,75412
 3.3000e+000 75562 -3.9343e+001 -2.5421e+002 -4.4061e+001 60952 75308,75490,75334
 3.3000e+000 75539 -7.0274e+000 -1.9859e+002 -1.8572e+000 60952 75360,75412,75386
 3.3000e+000 75516 -4.1339e+001 -3.7498e+002 -8.8166e+000 60952 75438,75490,75464
 3.3000e+000 75680  5.7189e+000 -2.5268e+002  3.1226e-001 60952 75726,75412,75654
 3.3000e+000 75703  6.2944e-001 -2.4119e+002 -1.7180e+001 60952 75490,75654,75334
 3.3000e+000 75752  7.1188e+000 -2.4442e+002 -5.7723e+000 60952 75490,75438,75726
 3.3000e+000 75775  5.9324e+000 -2.3992e+002 -1.5426e+001 60952 75490,75726,75654
 3.3000e+000 76155 -2.9601e+001 -2.2258e+002 -1.0405e+000 60754 75933,75985,75959
 3.3000e+000 76132 -4.9025e+001 -2.3570e+002  2.5497e+001 60754 75933,76037,75985
 3.3000e+000 76109  8.3724e+000 -2.3620e+002  1.1774e+001 60754 75985,76037,76011
 3.3000e+000 76086 -7.8398e+001 -1.9957e+002  8.9421e+000 60754 75881,76037,75933
 3.3000e+000 76063 -1.1555e+002 -1.7103e+002  5.6857e+001 60754 75881,75933,75907
 3.3000e+000 76612 -3.6194e+001 -1.8215e+002  2.4957e+000 60350 76635,76442,76390
 3.3000e+000 76589  2.2083e+000 -2.0642e+002  1.1290e+001 60350 76635,76390,76364
 3.3000e+000 76566 -8.7942e+000 -2.6184e+002 -1.9573e+001 60350 76364,76494,76468
 3.3000e+000 76543 -2.7023e+000 -1.6406e+002  1.6038e+001 60350 76390,76442,76416
 3.3000e+000 76520 -9.3546e+001 -1.6923e+002 -4.4106e+001 60350 76338,76494,76364
 3.3000e+000 76661 -5.7706e+001 -1.9839e+002  9.6026e+000 60350 76468,76442,76635
 3.3000e+000 76684 -2.9880e+001 -2.2727e+002  2.0675e+001 60350 76468,76635,76364
 3.3000e+000 76932 -7.7458e+001 -2.6096e+002  8.0048e+000 59946 76955,76733,76707
 3.3000e+000 76909 -7.5344e+001 -2.5543e+002  1.0497e+001 59946 77027,76955,76707
 3.3000e+000 76886 -6.8459e+001 -2.5498e+002  8.0353e+000 59946 77027,76707,76837
 3.3000e+000 76863 -2.5407e+001 -2.8822e+002 -2.1563e+001 59946 76733,76785,76759
 3.3000e+000 76981 -8.3147e+001 -2.5884e+002  1.4428e+000 59946 76785,76733,76955
 3.3000e+000 77004 -7.7195e+001 -2.5606e+002  7.3355e+000 59946 76785,76955,76811
 3.3000e+000 77053 -6.5551e+001 -2.5607e+002  8.1110e+000 59946 76811,76955,77027
 3.3000e+000 77076 -5.9675e+001 -2.5462e+002  4.4660e+000 59946 76811,77027,76837
 3.3000e+000 77226 -8.6457e+001 -2.2033e+002  5.8588e+000 59542 77099,77151,77125
 3.3000e+000 77203 -1.0620e+002 -2.6589e+002  9.2865e+000 59542 77099,77177,77151
 3.3000e+000 77427 -1.2715e+002 -2.5420e+002 -2.1360e+001 59030 77450,77277,77251
 3.3000e+000 77404 -7.0072e+001 -1.9218e+002 -8.1605e+001 59030 77450,77251,77355
 3.3000e+000 77381  2.4490e-001 -3.0169e+002 -1.2639e+001 59030 77277,77329,77303
 3.3000e+000 77476 -5.9337e+001 -2.6747e+002 -5.8303e+001 59030 77329,77277,77450
 3.3000e+000 77499  3.1057e-001 -2.3766e+002 -1.0549e+002 59030 77329,77450,77355
 3.3000e+000 77749 -1.1383e+002 -3.2210e+002  2.9902e+001 58426 77772,77628,77602
 3.3000e+000 77726 -7.2829e+001 -3.8250e+002  1.0635e+002 58426 77524,77654,77628
 3.3000e+000 77703 -8.3075e+001 -3.2807e+002  1.9047e+001 58426 77772,77602,77550
 3.3000e+000 77680 -4.0551e+001 -3.0432e+002 -1.8570e+001 58426 77550,77602,77576
 3.3000e+000 77798 -7.9732e+001 -3.1094e+002  3.5065e+001 58426 77524,77628,77772
 3.3000e+000 77821 -6.7372e+001 -3.2859e+002  1.9070e+001 58426 77524,77772,77550
 3.3000e+000 78071 -1.4254e+002 -3.0417e+002  3.1598e+001 57922 78094,77924,77898
 3.3000e+000 78048 -1.6742e+002 -3.1875e+002  5.5346e+000 57922 78094,77898,77872
 3.3000e+000 78025 -1.3591e+002 -2.9425e+002  3.1101e+001 57922 78166,77846,77950
 3.3000e+000 78002 -7.1011e+001 -2.8768e+002  3.5988e+001 57922 77846,77976,77950
 3.3000e+000 78120 -1.2522e+002 -3.1388e+002  2.4358e+001 57922 77950,77924,78094
 3.3000e+000 78143 -1.3877e+002 -2.9855e+002  2.4886e+001 57922 78166,77950,78094
 3.3000e+000 78192 -1.2940e+002 -3.0531e+002  2.3489e+001 57922 77872,77846,78166
 3.3000e+000 78215 -1.3838e+002 -3.1681e+002  1.6569e+001 57922 77872,78166,78094
 3.3000e+000 78416  3.2348e+001 -2.5500e+002 -1.4388e+001 57468 78439,78292,78240
 3.3000e+000 78393 -1.1849e+001 -2.4256e+002  1.1670e-001 57468 78439,78240,78344
 3.3000e+000 78370  1.4163e+001 -3.4980e+002 -1.0347e+001 57468 78240,78292,78266
 3.3000e+000 78465 -1.1013e+001 -2.7598e+002 -2.1556e+001 57468 78318,78292,78439
 3.3000e+000 78488 -2.9146e+001 -2.5196e+002 -3.4772e+000 57468 78318,78439,78344
 3.3000e+000 78689  4.6694e+001 -3.1426e+002 -3.9106e+001 57014 78712,78539,78513
 3.3000e+000 78666 -5.3285e+000 -3.1107e+002 -5.3424e+000 57014 78712,78513,78617
 3.3000e+000 78643 -6.8970e+001 -3.2305e+002  3.2848e+001 57014 78565,78617,78591
 3.3000e+000 78738 -2.0315e+001 -2.5914e+002 -3.9813e+001 57014 78565,78539,78712
 3.3000e+000 78761 -9.7272e+001 -3.0220e+002  1.5099e+001 57014 78565,78712,78617
 3.3000e+000 79241 -9.7949e+001 -2.6606e+002  1.9152e+001 56652 79264,78895,78869
 3.3000e+000 79218 -4.2121e+001 -3.5047e+002 -2.5067e+001 56652 79264,78869,79051
 3.3000e+000 79195 -6.6163e+001 -3.0878e+002 -7.3874e+001 56652 78869,79077,79051
 3.3000e+000 79172 -6.5820e+001 -1.6997e+002 -4.3996e+001 56652 78895,78973,78947
 3.3000e+000 79149 -1.2168e+002 -5.1303e+002 -4.7510e+001 56652 78973,79051,78999
 3.3000e+000 79126 -6.6283e+001 -1.4965e+002 -4.5981e+001 56652 78895,78947,78921
 3.3000e+000 79103 -9.9302e+001 -3.4280e+002  8.2273e+001 56652 78999,79051,79025
 3.3000e+000 79290 -5.5579e+001 -2.1327e+002  4.7891e+001 56652 78973,78895,79264
 3.3000e+000 79313  4.4655e+000 -3.0304e+002  6.4523e+000 56652 78973,79264,79051
 3.3000e+000 79512 -3.3330e+001 -3.9428e+002  3.3718e+001 56062 79388,79440,79414
 3.3000e+000 79489 -1.5561e+002 -2.0302e+002  5.3656e+001 56062 79336,79440,79388
 3.3000e+000 79466 -6.6307e+001 -2.1448e+002  7.3272e+001 56062 79336,79388,79362
 3.3000e+000 79941 -4.4021e+001 -2.3290e+002  3.5215e+001 55658 79964,79670,79644
 3.3000e+000 79918 -6.9136e+001 -2.3754e+002  4.0237e+001 55658 79964,79644,79800
 3.3000e+000 79895 -6.3709e+001 -2.5147e+002  1.6661e+001 55658 80036,79696,79670
 3.3000e+000 79872 -7.3993e+001 -2.1038e+002 -7.4562e+000 55658 80108,79722,79696
 3.3000e+000 79849 -1.1224e+002 -2.1736e+002  4.6990e+000 55658 79722,79774,79748
 3.3000e+000 79826 -2.6138e-001 -2.1299e+002  1.1653e+001 55658 79618,79800,79644
 3.3000e+000 79990 -7.1884e+001 -2.5325e+002  2.5624e+001 55658 80036,79670,79964
 3.3000e+000 80013 -6.2916e+001 -2.1929e+002  4.2337e+001 55658 79774,79964,79800
 3.3000e+000 80062 -5.2631e+001 -2.2716e+002  1.3134e+001 55658 80108,79696,80036
 3.3000e+000 80085 -6.9106e+001 -2.2091e+002  3.5512e+001 55658 79774,80036,79964
 3.3000e+000 80134 -1.1594e+002 -2.2860e+002  2.2083e+000 55658 79774,79722,80108
 3.3000e+000 80157 -1.0380e+002 -2.5058e+002  2.2790e+001 55658 79774,80108,80036
 3.3000e+000 80307 -1.1306e+002 -2.1980e+002  3.2318e+001 55254 80402,80330,80206
 3.3000e+000 80284 -1.0926e+002 -2.9971e+002  3.5654e+001 55254 80330,80180,80258
 3.3000e+000 80356 -1.3360e+002 -2.6648e+002  6.0831e+001 55254 80232,80206,80330
 3.3000e+000 80379 -3.0283e+001 -2.1962e+002  8.7974e+001 55254 80232,80330,80258
 3.3000e+000 80428 -1.5682e+002 -2.6745e+002  1.2775e+001 55254 80180,80330,80402
 3.3000e+000 80659  8.6768e+000 -2.8259e+002 -2.9687e+001 54850 80558,80610,80584
 3.3000e+000 80636  2.3042e+001 -2.7093e+002 -2.2613e+001 54850 80532,80610,80558
 3.3000e+000 80760 -2.1837e+001 -2.4660e+002 -2.3965e+001 54652 80682,80734,80708
 3.3000e+000 81164 -1.3492e+001 -2.5789e+002 -6.9450e+000 54248 81187,80942,80890
 3.3000e+000 81141 -1.7670e+001 -2.6715e+002 -4.8720e+000 54248 81187,80890,81046
 3.3000e+000 81118 -2.2192e+001 -2.6588e+002  5.2610e+001 54248 80942,81020,80994
 3.3000e+000 81095 -1.2676e+001 -2.6956e+002  3.0069e+000 54248 80890,80942,80916
 3.3000e+000 81072 -2.4872e+001 -1.4250e+002  3.1642e+000 54248 80942,80994,80968
 3.3000e+000 81213 -1.9747e+001 -2.5099e+002 -5.4111e+000 54248 81020,80942,81187
 3.3000e+000 81236 -2.1516e+001 -2.5713e+002 -4.1163e+000 54248 81020,81187,81046
 3.3000e+000 81663 -1.2698e+002 -2.3210e+002  2.8026e+001 53594 81340,81444,81366
 3.3000e+000 81640 -1.1457e+002 -3.3984e+002  1.3253e+001 53594 81340,81470,81444
 3.3000e+000 81617 -4.2041e+001 -2.9746e+002 -1.6400e+001 53594 81340,81522,81470
 3.3000e+000 81594 -6.2839e+001 -1.6751e+002 -1.2431e+001 53594 81392,81444,81418
 3.3000e+000 81571 -8.1916e+001 -1.9555e+002 -2.1570e+001 53594 81366,81444,81392
 3.3000e+000 81548  1.3724e+001 -4.6542e+002  9.8489e+001 53594 81470,81522,81496
 3.3000e+000 81943 -2.7180e+001 -1.6343e+002 -1.8908e+001 53104 81966,81845,81819
 3.3000e+000 81920 -4.3637e+001 -1.3367e+002 -2.3902e+001 53104 81966,81819,81767
 3.3000e+000 81897 -4.5477e+001 -1.3483e+002 -2.8039e+001 53104 81767,81819,81793
 3.3000e+000 81992 -1.6006e+001 -1.4415e+002 -2.3457e+001 53104 81871,81845,81966
 3.3000e+000 82015 -2.4216e+001 -1.0237e+002 -3.2384e+001 53104 81871,81966,81767
 3.3000e+000 82491 -2.0840e+001 -1.5814e+002 -1.7194e+001 52650 82145,82249,82171
 3.3000e+000 82468 -1.3700e+002 -1.9420e+002 -2.1607e+001 52650 82145,82301,82249
 3.3000e+000 82445 -1.4005e+002 -3.0370e+002 -5.6065e+001 52650 82249,82301,82275
 3.3000e+000 82422 -5.0965e+001 -3.7693e+002 -6.5961e+001 52650 82119,82301,82145
 3.3000e+000 82399 -3.7309e+001 -1.2125e+002  1.7746e+001 52650 82171,82249,82223
 3.3000e+000 82376  2.7154e+001 -3.4538e+002 -5.5515e+001 52650 82119,82327,82301
 3.3000e+000 82353 -1.0394e+001 -5.8604e+001 -2.5184e+001 52650 82171,82223,82197
 3.3000e+000 82739 -3.8842e+001 -1.4947e+002  4.7582e+000 52246 82762,82540,82514
 3.3000e+000 82716 -2.3952e+001 -5.4424e+001 -1.0487e+001 52246 82762,82514,82644
 3.3000e+000 82693 -7.2349e+001 -1.7220e+002  4.0591e+001 52246 82540,82618,82592
 3.3000e+000 82670 -8.6838e+001 -1.6940e+002  3.6642e+001 52246 82540,82592,82566
 3.3000e+000 82788 -2.3514e+001 -1.9415e+002  1.3927e+001 52246 82618,82540,82762
 3.3000e+000 82811 -4.9061e+001 -1.6414e+002 -1.3243e+001 52246 82618,82762,82644
 3.3000e+000 83059 -2.3020e+001 -2.1711e+002  2.1215e+001 51578 82860,82964,82938
 3.3000e+000 83036  9.9973e-001 -1.4280e+002 -4.7460e+001 51578 82834,82964,82860
 3.3000e+000 83013 -1.0627e+001 -1.6436e+002  4.6895e+001 51578 82860,82938,82886
 3.3000e+000 82990 -7.5056e+000 -9.7221e+001  7.2151e+000 51578 82886,82938,82912
 3.3000e+000 83309 -4.2565e+001 -1.2837e+002  3.3752e+001 51138 83332,83162,83136
 3.3000e+000 83286 -1.2607e+001 -1.6316e+002  1.1263e+001 51138 83332,83136,83110
 3.3000e+000 83263 -5.9678e+001 -1.6619e+002 -6.5100e+000 51138 83404,83214,83188
 3.3000e+000 83240 -1.3022e+000 -9.9092e+001  1.0537e+001 51138 83084,83214,83110
 3.3000e+000 83358 -7.0282e+001 -1.7374e+002  4.9726e+001 51138 83188,83162,83332
 3.3000e+000 83381 -4.1819e+001 -1.8566e+002  1.1340e+001 51138 83404,83188,83332
 3.3000e+000 83430 -3.6848e+001 -1.1702e+002 -4.3387e-001 51138 83110,83214,83404
 3.3000e+000 83453 -2.3313e+001 -1.4744e+002  1.6965e+001 51138 83110,83404,83332
 3.3000e+000 83835 -3.7210e+001 -2.0281e+002 -1.6119e+001 50734 83613,83717,83691
 3.3000e+000 83812 -4.6251e+001 -2.2804e+002 -4.3701e+001 50734 83561,83717,83613
 3.3000e+000 83789 -2.1305e+001 -9.5938e+001 -6.8008e+001 50734 83561,83613,83587
 3.3000e+000 83766 -5.0104e+001 -1.3969e+002 -8.7760e+000 50734 83613,83691,83639
 3.3000e+000 83743 -5.6792e+001 -1.4156e+002  3.1929e+001 50734 83639,83691,83665
 3.3000e+000 84034 -5.1760e+001 -1.3262e+002  7.0207e+000 50230 84057,83884,83858
 3.3000e+000 84011 -5.1241e+001 -1.4199e+002 -1.0722e+001 50230 84129,84057,83858
 3.3000e+000 83988 -1.7614e+001 -1.4881e+002 -1.9476e+001 50230 84129,83858,83962
 3.3000e+000 84083 -2.1440e+001 -1.2179e+002  1.1620e+001 50230 83910,83884,84057
 3.3000e+000 84106 -3.3938e+001 -1.4598e+002  6.9373e+000 50230 83910,84057,83936
 3.3000e+000 84155 -6.8133e+000 -1.2537e+002 -2.0982e+000 50230 83936,84057,84129
 3.3000e+000 84178  6.2584e+000 -1.4688e+002 -1.5163e+001 50230 83936,84129,83962
 3.3000e+000 84558 -5.0701e+001 -1.6330e+002 -2.8039e+001 49768 84581,84388,84362
 3.3000e+000 84535 -1.1131e+002 -1.6554e+002 -1.0909e+001 49768 84581,84362,84310
 3.3000e+000 84512  9.9054e+000 -1.7862e+002 -3.0004e+001 49768 84653,84440,84414
 3.3000e+000 84489 -8.2298e+001 -1.7893e+002  1.6305e+001 49768 84310,84362,84336
 3.3000e+000 84466 -1.3433e-001 -1.2527e+002  2.6546e+001 49768 84284,84440,84310
 3.3000e+000 84607 -8.3757e+000 -1.3599e+002 -4.7622e+001 49768 84414,84388,84581
 3.3000e+000 84630 -1.4329e+001 -1.6759e+002 -2.1266e+001 49768 84653,84414,84581
 3.3000e+000 84679 -2.2646e+001 -1.6784e+002 -4.0950e+001 49768 84310,84440,84653
 3.3000e+000 84702 -5.7125e+001 -1.6827e+002 -4.1559e+001 49768 84310,84653,84581
 3.3000e+000 85159 -9.4997e+001 -2.5590e+002 -7.3633e+001 49192 84885,84937,84911
 3.3000e+000 85136 -9.7866e+001 -2.1386e+002 -5.4417e+001 49192 84885,85041,84937
 3.3000e+000 85113 -7.1103e+001 -1.8037e+002 -2.4136e+001 49192 84963,85041,84989
 3.3000e+000 85090 -6.3855e+001 -1.7062e+002 -3.9218e+001 49192 84937,85041,84963
 3.3000e+000 85067 -6.0196e+001 -1.8645e+002 -1.5668e+001 49192 84989,85041,85015
 3.3000e+000 85714 -9.0483e+001 -1.6109e+002  6.0174e-001 48638 85368,85498,85394
 3.3000e+000 85691 -1.2024e+002 -1.8181e+002  1.3860e+001 48638 85368,85524,85498
 3.3000e+000 85668 -1.0483e+002 -1.5546e+002  4.0256e+001 48638 85737,85420,85394
 3.3000e+000 85645 -8.9366e+001 -1.7669e+002  2.1813e+001 48638 85737,85394,85498
 3.3000e+000 85622 -7.1669e+001 -1.7981e+002  3.5955e+001 48638 85446,85498,85472
 3.3000e+000 85599 -3.0079e+001 -1.4557e+002  1.6831e+001 48638 85342,85524,85368
 3.3000e+000 85576 -1.1280e+002 -1.6454e+002  1.6451e+001 48638 85342,85550,85524
 3.3000e+000 85763 -7.6546e+001 -1.4001e+002  5.3614e+001 48638 85446,85420,85737
 3.3000e+000 85786 -7.7740e+001 -1.6047e+002  3.2216e+001 48638 85446,85737,85498
 3.3000e+000 86371 -7.8422e+001 -1.1678e+002 -1.0727e+001 48084 86100,86230,86178
 3.3000e+000 86348 -1.0353e+002 -1.5176e+002 -2.2295e+001 48084 86048,86230,86100
 3.3000e+000 86325 -7.7276e+001 -1.0804e+002  2.5232e+001 48084 86100,86178,86126
 3.3000e+000 86302 -5.1140e+001 -2.8918e+001 -3.0344e+001 48084 86048,86100,86074
 3.3000e+000 86279 -9.2523e+001 -1.8100e+002 -1.0808e+001 48084 86178,86230,86204
 3.3000e+000 86256 -6.7336e+001 -1.2514e+002  2.4347e+001 48084 86126,86178,86152
 3.3000e+000 86619 -6.5914e+001 -1.4722e+002  1.0720e+001 47630 86642,86446,86420
 3.3000e+000 86596 -7.8195e+001 -1.6238e+002 -1.8003e+001 47630 86642,86420,86394
 3.3000e+000 86573 -9.7037e+001 -1.8520e+002 -2.6324e+001 47630 86394,86524,86498
 3.3000e+000 86550 -4.0225e+001 -1.6687e+002  1.0369e+001 47630 86446,86498,86472
 3.3000e+000 86668 -8.0643e+001 -1.8000e+002 -2.6248e-001 47630 86498,86446,86642
 3.3000e+000 86691 -8.7045e+001 -1.8513e+002 -2.8406e+001 47630 86498,86642,86394
 3.3000e+000 87022  4.3001e+000 -9.8083e+001 -3.2100e+001 47226 87045,86875,86849
 3.3000e+000 86999 -1.6189e+001 -1.0129e+002 -4.2705e+001 47226 87045,86849,86797
 3.3000e+000 86976 -8.3777e+000 -5.7345e+001 -2.3731e+001 47226 86797,86849,86823
 3.3000e+000 86953  4.0100e+001 -7.6342e+001 -3.6922e+001 47226 86875,86927,86901
 3.3000e+000 87071  2.5134e+001 -1.1084e+002 -3.9286e+001 47226 86927,86875,87045
 3.3000e+000 87094  5.0756e+000 -1.1198e+002 -4.5929e+001 47226 86927,87045,86797
 3.3000e+000 87244 -8.2824e+000 -1.8150e+002  5.7797e+001 46814 87267,87169,87143
 3.3000e+000 87221 -9.0182e+001 -1.6494e+002 -4.1670e+000 46814 87267,87143,87117
 3.3000e+000 87293 -9.8600e+000 -1.4505e+002  3.3616e+001 46814 87339,87267,87195
 3.3000e+000 87316 -8.0751e+000 -1.2986e+002  7.1009e+000 46814 87469,87267,87117
 3.3000e+000 87365  1.6579e+001 -1.3033e+002  4.2719e+001 46814 87169,87267,87339
 3.3000e+000 87495 -2.6894e-001 -1.6345e+001  6.3169e-001 46814 87195,87267,87469
 3.3000e+000 88001 -6.1127e+001 -1.5402e+002  3.0912e+001 46310 88024,87834,87808
 3.3000e+000 87978 -7.3556e+001 -1.5695e+002  1.8909e+001 46310 88024,87808,87756
 3.3000e+000 87955 -3.6839e+001 -1.9881e+002  6.6383e+000 46310 88096,87730,87860
 3.3000e+000 87932 -5.3820e+001 -1.9934e+002  1.9659e+001 46310 87756,87808,87782
 3.3000e+000 87909 -4.6722e+001 -2.5005e+002  8.7853e+000 46310 87678,87860,87730
 3.3000e+000 87886 -7.1388e+001 -3.8900e+002 -2.0091e+001 46310 87678,87730,87704
 3.3000e+000 88050 -5.1662e+001 -1.3325e+002  1.8499e+001 46310 87860,87834,88024
 3.3000e+000 88073 -3.8422e+001 -1.4779e+002  2.3419e+001 46310 88096,87860,88024
 3.3000e+000 88122 -4.9821e+001 -2.2311e+002 -1.0435e+001 46310 87756,87730,88096
 3.3000e+000 88145 -8.3213e+001 -2.0280e+002 -1.0240e+000 46310 87756,88096,88024
 3.3000e+000 88572 -3.8359e+001 -1.7590e+002  4.4715e+000 45856 88249,88405,88275
 3.3000e+000 88549 -2.9551e+001 -5.7925e+001 -4.0963e+001 45856 88249,88431,88405
 3.3000e+000 88526 -9.1934e+001 -2.5361e+002 -3.2626e+001 45856 88327,88405,88353
 3.3000e+000 88503 -4.3700e+001 -2.0190e+002 -1.2579e+001 45856 88275,88405,88327
 3.3000e+000 88480 -7.2547e+001 -2.1078e+002 -3.6963e+001 45856 88353,88405,88379
 3.3000e+000 88457 -1.8648e+002 -5.0105e+002  4.4646e+001 45856 88275,88327,88301
 3.3000e+000 88950 -3.4878e+001 -1.1545e+002 -4.9802e+000 45658 88973,88754,88728
 3.3000e+000 88927 -3.2089e+001 -1.2136e+002 -5.2193e+000 45658 88973,88728,88676
 3.3000e+000 88904 -3.3699e+001 -1.4575e+002  4.2021e+001 45658 88676,88832,88806
 3.3000e+000 88881 -5.4293e+001 -1.6316e+002  1.2231e+001 45658 88676,88728,88702
 3.3000e+000 88858 -4.3961e+001 -1.0728e+002 -2.0289e+001 45658 88754,88806,88780
 3.3000e+000 88999 -3.8023e+001 -1.1985e+002 -3.5959e+000 45658 88806,88754,88973
 3.3000e+000 89022 -3.3663e+001 -1.2339e+002 -4.5284e+000 45658 88806,88973,88676
 3.3000e+000 89351 -4.7023e+001 -1.7048e+002 -9.3421e+000 45254 89152,89230,89204
 3.3000e+000 89328 -4.1083e+001 -1.6783e+002 -8.8227e+000 45254 89152,89256,89230
 3.3000e+000 89305 -4.4946e+000 -1.7624e+002 -2.2632e+001 45254 89126,89256,89152
 3.3000e+000 89282  1.7987e+001 -1.7282e+002 -3.7025e+001 45254 89152,89204,89178
 3.3000e+000 89523 -3.1154e+001 -1.5947e+002 -1.0665e+000 45006 89422,89474,89448
 3.3000e+000 89500 -2.3739e+001 -1.5631e+002  4.8644e+000 45006 89396,89474,89422
 3.3000e+000 89673 -1.4141e+002 -2.4767e+002  2.1620e+001 44495 89572,89624,89598
 3.3000e+000 89650 -1.4380e+002 -2.4404e+002  1.2991e+001 44495 89546,89624,89572
 3.3000e+000 90104 -1.4368e+001 -2.0067e+002 -7.4119e+000 44005 90199,90127,89937
 3.3000e+000 90081 -3.7639e+001 -1.9566e+002  3.5872e+000 44005 90271,90127,89859
 3.3000e+000 90058 -4.8366e+000 -2.0399e+002 -7.4875e+000 44005 90199,89937,89885
 3.3000e+000 90035 -5.3537e+001 -1.8548e+002  1.2598e+001 44005 90271,89859,89807
 3.3000e+000 90012 -3.0422e+001 -2.1763e+002 -2.4016e+001 44005 89885,89937,89911
 3.3000e+000 89989 -1.6533e+001 -1.9802e+002  3.3555e+001 44005 89807,89859,89833
 3.3000e+000 90153 -3.9052e+001 -2.1008e+002 -5.0657e+000 44005 89963,89937,90127
 3.3000e+000 90176 -4.0328e+001 -2.1910e+002  3.9935e+000 44005 89963,90127,89781
 3.3000e+000 90225 -4.0589e+001 -1.9672e+002 -1.6128e+000 44005 89859,90127,90199
 3.3000e+000 90248 -1.7929e+001 -1.9075e+002  3.2828e+000 44005 89859,90199,89885
 3.3000e+000 90297 -5.9143e+001 -2.0823e+002 -1.5797e+000 44005 89781,90127,90271
 3.3000e+000 90320 -6.8411e+001 -1.9455e+002  8.7928e+000 44005 89781,90271,89807
 3.3000e+000 90470 -3.6415e+001 -2.2334e+002 -1.0658e+001 43601 90493,90369,90343
 3.3000e+000 90447 -5.9300e+001 -1.8471e+002  8.5670e+000 43601 90493,90343,90421
 3.3000e+000 90519 -7.1457e+001 -2.9433e+002 -3.5531e+001 43601 90395,90369,90493
 3.3000e+000 90542 -5.8482e+001 -2.1288e+002 -1.0920e+001 43601 90395,90493,90421
 3.3000e+000 90922 -7.8130e+001 -2.3773e+002  1.5452e+001 43154 90945,90700,90674
 3.3000e+000 90899 -7.3396e+001 -2.4295e+002 -2.1383e+001 43154 90945,90674,90648
 3.3000e+000 90876 -8.3676e+001 -1.9310e+002 -1.5817e+001 43154 90648,90778,90752
 3.3000e+000 90853 -4.3307e+001 -3.7451e+002  1.0299e+001 43154 90700,90752,90726
 3.3000e+000 90830 -5.1857e+001 -1.9418e+002 -5.4990e+000 43154 90648,90804,90778
 3.3000e+000 90971 -8.9264e+001 -2.6976e+002  2.0053e+001 43154 90752,90700,90945
 3.3000e+000 90994 -8.1162e+001 -2.6195e+002 -1.5743e+001 43154 90752,90945,90648
 3.3000e+000 91451 -2.1685e+001 -1.6233e+002 -3.6120e+001 42650 91203,91255,91229
 3.3000e+000 91428  5.8113e-001 -1.5226e+002 -1.5075e+001 42650 91203,91333,91255
 3.3000e+000 91405  3.3003e+000 -2.5701e+002 -4.2092e+001 42650 91177,91333,91203
 3.3000e+000 91382 -6.8761e+001 -2.6758e+002  1.4086e+001 42650 91255,91333,91281
 3.3000e+000 91359  5.2055e+001 -2.1071e+002 -2.5901e+000 42650 91281,91333,91307
 3.3000e+000 91721 -1.0539e+002 -2.4728e+002  1.7081e+001 42288 91496,91600,91522
 3.3000e+000 91698 -5.1742e+001 -1.3566e+002 -5.4692e+000 42288 91496,91626,91600
 3.3000e+000 91675 -6.5917e+001 -2.2182e+002  1.8437e+001 42288 91522,91574,91548
 3.3000e+000 91652 -5.3712e+001 -2.2746e+002  1.7450e+001 42288 91522,91600,91574
 3.3000e+000 92199 -1.6051e+002 -2.7182e+002 -7.8642e+000 41898 92222,91983,91879
 3.3000e+000 92176 -1.6734e+002 -2.9440e+002 -1.6922e+001 41898 92294,92222,91879
 3.3000e+000 92153 -1.7897e+002 -2.8863e+002 -2.5670e+001 41898 92294,91879,91853
 3.3000e+000 92130 -1.4191e+002 -1.6941e+002  1.6023e+001 41898 91879,91957,91931
 3.3000e+000 92107 -1.4611e+002 -2.6632e+002 -2.3183e+000 41898 91879,91983,91957
 3.3000e+000 92084 -1.5252e+002 -1.5618e+002  2.9892e+001 41898 91879,91931,91905
 3.3000e+000 92061 -1.4978e+002 -2.5777e+002 -2.1352e+001 41898 91827,92035,91853
 3.3000e+000 92248 -1.5769e+002 -2.9853e+002 -2.3947e+000 41898 92009,91983,92222
 3.3000e+000 92271 -1.5390e+002 -3.0343e+002 -2.1843e+001 41898 92009,92222,92035
 3.3000e+000 92320 -1.4753e+002 -2.8553e+002 -1.9229e+001 41898 92035,92222,92294
 3.3000e+000 92343 -1.5621e+002 -2.7854e+002 -2.7526e+001 41898 92035,92294,91853
 3.3000e+000 92770 -5.8403e+001 -2.5567e+002 -1.7905e+001 41437 92865,92793,92525
 3.3000e+000 92747 -8.0115e+001 -2.9556e+002 -2.4160e+001 41437 92793,92473,92629
 3.3000e+000 92724 -3.1661e+001 -2.6146e+002 -3.2274e+001 41437 92865,92525,92499
 3.3000e+000 92701 -8.8755e+001 -2.3161e+002 -3.9621e+001 41437 92525,92603,92577
 3.3000e+000 92678 -2.8614e+000 -2.8272e+002 -1.9778e+001 41437 92447,92629,92473
 3.3000e+000 92655 -1.3775e+002 -2.1084e+002 -2.4805e+001 41437 92525,92577,92551
 3.3000e+000 92819 -6.5910e+001 -2.7280e+002 -3.9187e+001 41437 92603,92525,92793
 3.3000e+000 92842 -1.2035e+002 -2.9171e+002 -6.8925e+001 41437 92603,92793,92629
 3.3000e+000 92891 -5.1132e+000 -2.7788e+002 -2.3439e+001 41437 92473,92793,92865
 3.3000e+000 92914  3.4091e+001 -2.6661e+002 -4.4636e+001 41437 92473,92865,92499
 3.3000e+000 93243 -4.2379e+001 -3.7406e+002  1.3216e+002 41097 93044,93096,93070
 3.3000e+000 93220 -7.0486e+001 -3.2038e+002  6.8194e+001 41097 93044,93122,93096
 3.3000e+000 93197  3.9278e+001 -2.2313e+002  2.7057e+001 41097 93044,93148,93122
 3.3000e+000 93174 -3.9143e+001 -1.4625e+002  7.9895e+001 41097 93018,93148,93044
 3.3000e+000 93393 -2.3556e+000 -2.7132e+002  1.9215e+001 40643 93416,93292,93344
 3.3000e+000 93370 -1.3423e+001 -2.3644e+002  2.2987e+001 40643 93266,93344,93292
 3.3000e+000 93442 -7.5222e+000 -2.7122e+002  2.2358e+001 40643 93318,93292,93416
 3.3000e+000 93901 -8.7122e+001 -2.5952e+002 -1.6863e+001 40132 93924,93731,93705
 3.3000e+000 93878 -9.2312e+001 -2.6594e+002 -1.9106e+001 40132 93996,93924,93705
 3.3000e+000 93855 -1.0812e+002 -3.0454e+002 -7.4921e+000 40132 93996,93705,93653
 3.3000e+000 93832 -5.4150e+001 -2.9647e+002 -1.5788e+001 40132 93653,93705,93679
 3.3000e+000 93809 -8.5697e+001 -2.5565e+002  3.5922e+000 40132 93627,93783,93757
 3.3000e+000 93950 -8.3353e+001 -2.7352e+002 -2.0337e+001 40132 93757,93731,93924
 3.3000e+000 93973 -9.3880e+001 -2.4276e+002 -4.3508e+000 40132 93757,93924,93627
 3.3000e+000 94022 -1.1916e+002 -2.8962e+002  8.8701e+000 40132 93627,93924,93996
 3.3000e+000 94045 -1.1190e+002 -3.0321e+002  1.7322e+001 40132 93627,93996,93653
 3.3000e+000 94423 -5.6300e+000 -2.7793e+002 -4.3621e+001 39514 94149,94227,94175
 3.3000e+000 94400 -2.1388e+001 -2.6643e+002  3.1761e+001 39514 94149,94305,94227
 3.3000e+000 94377  1.4671e+001 -3.3462e+002 -4.0165e+001 39514 94175,94227,94201
 3.3000e+000 94354 -8.0709e+001 -2.4622e+002  1.2789e+001 39514 94227,94305,94279
 3.3000e+000 94331 -2.8311e+001 -2.2212e+002  2.3472e+001 39514 94227,94279,94253
 3.3000e+000 94573 -3.0021e+001 -1.7384e+002 -3.5375e+001 38822 94596,94498,94472
 3.3000e+000 94550  2.3352e+001 -1.8996e+002  3.6190e+001 38822 94596,94472,94446
 3.3000e+000 94622 -9.1824e+001 -2.0055e+002 -3.1678e+001 38822 94524,94498,94596
 3.3000e+000 94645 -8.2280e+001 -2.3823e+002  4.7352e+001 38822 94524,94596,94446
 3.3000e+000 95025 -1.9886e+001 -2.2133e+002 -1.7109e+001 38418 95048,94829,94777
 3.3000e+000 95002 -2.5092e+001 -2.3137e+002 -2.6812e+001 38418 95120,95048,94777
 3.3000e+000 94979 -1.9427e+001 -2.2941e+002 -2.4990e+001 38418 95120,94777,94751
 3.3000e+000 94956 -1.3950e+001 -2.0681e+002 -2.9493e+001 38418 95192,94881,94855
 3.3000e+000 94933 -7.0200e+001 -1.9745e+002 -1.1378e+001 38418 94777,94829,94803
 3.3000e+000 95074 -4.1282e+001 -2.8802e+002 -6.0495e+000 38418 94855,94829,95048
 3.3000e+000 95097 -1.9998e+001 -2.2949e+002 -3.1629e+001 38418 95192,94855,95048
 3.3000e+000 95146 -4.3405e+001 -2.2109e+002 -2.1413e+001 38418 94907,95048,95120
 3.3000e+000 95169 -2.8150e+001 -2.1117e+002 -1.6256e+001 38418 94907,95120,94751
 3.3000e+000 95218 -2.1418e+001 -1.6369e+002 -2.6404e+001 38418 94907,94881,95192
 3.3000e+000 95241 -3.6011e+001 -2.0077e+002 -2.2426e+001 38418 94907,95192,95048
 3.3000e+000 95511 -7.8961e+001 -2.4766e+002  1.0238e+001 38049 95312,95390,95364
 3.3000e+000 95488 -5.9014e+001 -2.3978e+002  1.1615e+001 38049 95312,95416,95390
 3.3000e+000 95465 -2.7924e+001 -2.3603e+002 -1.6126e+001 38049 95312,95364,95338
 3.3000e+000 95442 -2.3011e+001 -2.2446e+002  2.1902e+001 38049 95286,95416,95312
 3.3000e+000 95808 -6.9469e+001 -2.7245e+002 -6.7572e+000 37437 95831,95586,95560
 3.3000e+000 95785  2.6240e+001 -2.8689e+002 -1.2651e+001 37437 95831,95560,95534
 3.3000e+000 95762 -1.3966e+002 -2.5907e+002  5.1376e+000 37437 95586,95664,95638
 3.3000e+000 95739 -2.1179e+001 -1.3213e+002 -7.0497e+001 37437 95534,95690,95664
 3.3000e+000 95716 -1.2726e+002 -1.8436e+002  5.9194e+000 37437 95586,95638,95612
 3.3000e+000 95857 -1.3116e+002 -2.6513e+002  3.1845e+001 37437 95664,95586,95831
 3.3000e+000 95880 -2.9737e+001 -2.7676e+002  2.7283e+001 37437 95664,95831,95534
 3.3000e+000 96390 -8.9252e+001 -1.9807e+002 -1.3230e+001 36883 96413,96145,96093
 3.3000e+000 96367 -7.1283e+001 -1.8911e+002 -7.9715e+000 36883 96413,96093,96067
 3.3000e+000 96344 -5.0032e+001 -2.3138e+002  3.4062e-001 36883 96067,96249,96171
 3.3000e+000 96321 -7.9210e+001 -2.2778e+002 -5.7845e+000 36883 96093,96145,96119
 3.3000e+000 96298 -1.0986e+002 -3.8323e+002  3.6305e+001 36883 96171,96249,96197
 3.3000e+000 96275 -2.7470e+001 -3.0381e+002 -6.0559e+000 36883 96197,96249,96223
 3.3000e+000 96439 -8.4117e+001 -1.9134e+002  2.8655e+000 36883 96171,96145,96413
 3.3000e+000 96462 -6.9271e+001 -1.8762e+002  6.6809e+000 36883 96171,96413,96067
 3.3000e+000 96781 -7.4393e+001 -2.2686e+002 -3.3449e+001 36215 96559,96663,96637
 3.3000e+000 96758 -9.2419e+001 -2.4865e+002 -4.2478e+001 36215 96507,96663,96559
 3.3000e+000 96735 -9.0791e+001 -1.6897e+002  1.7990e+001 36215 96585,96637,96611
 3.3000e+000 96712 -1.9277e+002 -2.6393e+002 -2.8561e+001 36215 96559,96637,96585
 3.3000e+000 96689 -3.4617e+001 -2.8714e+002 -9.0689e+000 36215 96507,96559,96533
 3.3000e+000 97161  5.2748e+000 -1.2481e+002 -7.1389e+000 35818 97184,96965,96939
 3.3000e+000 97138 -1.4247e+001 -1.4963e+002 -1.6891e+001 35818 97184,96939,96887
 3.3000e+000 97115 -4.2706e-001 -1.5460e+002  3.1388e+001 35818 96965,97043,97017
 3.3000e+000 97092 -9.9291e+000 -1.4168e+002 -1.8588e+001 35818 96887,96939,96913
 3.3000e+000 97069 -7.9127e+001 -1.6302e+002  1.8731e+001 35818 96965,97017,96991
 3.3000e+000 97210  2.6441e+001 -1.4622e+002  7.0952e+000 35818 97043,96965,97184
 3.3000e+000 97233  1.0740e+001 -1.6363e+002 -7.9474e-001 35818 97043,97184,96887
 3.3000e+000 97739 -8.7831e+001 -2.4937e+002 -5.6675e+001 35214 97416,97468,97442
 3.3000e+000 97716 -1.0049e+002 -1.7913e+002 -1.8564e+001 35214 97416,97598,97468
 3.3000e+000 97693 -8.8393e+001 -1.6969e+002 -6.6936e+000 35214 97762,97520,97468
 3.3000e+000 97670 -9.1329e+001 -1.7437e+002 -1.4207e+001 35214 97762,97468,97598
 3.3000e+000 97647 -7.0608e+001 -1.6930e+002 -2.2618e+001 35214 97546,97598,97572
 3.3000e+000 97624 -5.9230e+001 -1.7636e+002 -8.7773e+000 35214 97468,97520,97494
 3.3000e+000 97788 -9.1320e+001 -1.7842e+002 -1.0118e+001 35214 97546,97520,97762
 3.3000e+000 97811 -9.2184e+001 -1.8208e+002 -1.7125e+001 35214 97546,97762,97598
 3.3000e+000 98189 -1.8230e+001 -1.3701e+002 -1.0509e+001 34760 98356,98212,97967
 3.3000e+000 98166 -3.7170e+001 -1.6657e+002 -2.2956e+001 34760 98284,98212,97941
 3.3000e+000 98143 -6.4810e+001 -1.5139e+002 -1.0787e+001 34760 98284,97941,97915
 3.3000e+000 98120 -2.0673e+001 -1.8156e+002 -5.1037e+000 34760 98484,97993,97967
 3.3000e+000 98097 -1.9958e+001 -1.5489e+002 -4.6875e+000 34760 98556,98045,98019
 3.3000e+000 98238 -3.0116e+001 -1.7104e+002 -5.8094e+000 34760 98484,97967,98212
 3.3000e+000 98261 -6.7809e+000 -1.6153e+002 -1.1524e+001 34760 98556,98019,98212
 3.3000e+000 98310 -1.3082e+001 -1.3938e+002 -3.4412e+001 34760 98071,98212,98284
 3.3000e+000 98333 -3.1878e+001 -1.0200e+002 -2.7927e+001 34760 98071,98284,97915
 3.3000e+000 98382 -8.7653e+001 -1.8350e+002 -3.1554e+001 34760 97941,98212,98356
 3.3000e+000 98510 -4.8359e+000 -1.7334e+002 -1.0253e+001 34760 98019,97993,98484
 3.3000e+000 98533 -2.0340e+001 -1.6771e+002 -1.0025e+001 34760 98019,98484,98212
 3.3000e+000 98582 -3.3778e+000 -1.4611e+002 -1.0981e+000 34760 98071,98045,98556
 3.3000e+000 98605  2.0612e+000 -1.5741e+002 -9.5090e+000 34760 98071,98556,98212
 3.3000e+000 99032 -8.9235e+001 -2.0949e+002  2.8950e+001 34156 98735,98891,98839
 3.3000e+000 99009 -7.5267e+001 -2.1577e+002  1.3115e+001 34156 98709,98891,98735
 3.3000e+000 98986 -2.3841e+001 -1.8912e+002  2.7890e+001 34156 98735,98813,98787
 3.3000e+000 98963 -2.9150e+001 -2.0648e+002  2.3318e+001 34156 98735,98839,98813
 3.3000e+000 98940  1.4271e+001 -2.8413e+002  3.1368e+001 34156 98735,98787,98761
 3.3000e+000 98917 -7.9608e+001 -1.8473e+002  1.6667e+001 34156 98839,98891,98865
 3.3000e+000 99231 -2.6805e+001 -1.1519e+002  9.1627e+000 33766 99055,99133,99107
 3.3000e+000 99208 -4.7708e+001 -1.5055e+002  1.9311e+001 33766 99055,99159,99133
 3.3000e+000 99185 -1.5535e+001 -1.3877e+002  2.3931e+001 33766 99055,99107,99081
 3.3000e+000 99818 -6.0626e+001 -1.6824e+002  3.5884e+000 33248 99521,99651,99573
 3.3000e+000 99795 -6.0008e+001 -1.6086e+002  1.6081e+001 33248 99521,99677,99651
 3.3000e+000 99772 -8.9027e+001 -2.0307e+002 -1.0518e+001 33248 99573,99651,99599
 3.3000e+000 99749 -6.1155e+001 -1.9928e+002  1.8210e+001 33248 99495,99677,99521
 3.3000e+000 99726 -4.4794e+001 -1.7287e+002 -3.9058e+001 33248 99599,99651,99625
 3.3000e+000 99703 -7.7337e+001 -2.0268e+002  1.2441e+001 33248 99521,99573,99547
 3.3000e+000 100196 -6.3207e+001 -1.8168e+002 -3.4008e+001 32794 100219,99948,99922
 3.3000e+000 100173 -7.2732e+001 -2.0165e+002 -1.6284e+001 32794 100219,99922,100052
 3.3000e+000 100150 -9.4889e+001 -1.8432e+002  9.8636e+000 32794 99974,100052,100026
 3.3000e+000 100127 -8.6898e+001 -1.6629e+002 -2.5910e+001 32794 99922,100078,100052
 3.3000e+000 100104 -1.0128e+002 -2.2398e+002  4.0817e+001 32794 99974,100026,100000
 3.3000e+000 100245 -8.3258e+001 -1.7864e+002 -1.4649e+001 32794 99974,99948,100219
 3.3000e+000 100268 -8.8863e+001 -2.0512e+002  3.2513e+000 32794 99974,100219,100052
 3.3000e+000 100418 -1.0228e+001 -1.5965e+002 -1.7600e+001 32504 100571,100343,100317
 3.3000e+000 100395 -6.2969e+001 -1.8359e+002  1.6218e+001 32504 100571,100317,100441
 3.3000e+000 100467  4.8817e+001 -8.7279e+001 -4.7727e+001 32504 100291,100369,100441
 3.3000e+000 100597  1.3272e+001 -1.3378e+002 -5.8772e+001 32504 100369,100343,100571
 3.3000e+000 100620 -1.0397e+001 -1.2467e+002 -2.9563e+001 32504 100369,100571,100441
 3.3000e+000 101020 -3.0675e+001 -1.5168e+002  7.0003e+000 32142 100772,100902,100876
 3.3000e+000 100997 -2.0806e+001 -1.4062e+002  1.1517e+001 32142 100746,100902,100772
 3.3000e+000 100974 -1.1853e+001 -1.7046e+002  1.7173e+001 32142 101043,100824,100798
 3.3000e+000 100951 -3.2663e+001 -1.7964e+002  1.3401e+001 32142 101043,100798,100772
 3.3000e+000 100928 -9.8791e+001 -2.0774e+002 -4.8196e+001 32142 101115,100876,100850
 3.3000e+000 101069  1.7759e+001 -1.8217e+002 -1.7715e+001 32142 100850,100824,101043
 3.3000e+000 101092 -5.3918e+001 -2.1299e+002 -2.3350e+001 32142 101115,100850,101043
 3.3000e+000 101141 -4.3617e+001 -1.7744e+002 -1.7411e+001 32142 100772,100876,101115
 3.3000e+000 101164 -9.1188e+000 -1.8116e+002  9.7870e+000 32142 100772,101115,101043
 3.3000e+000 101719 -9.1601e+001 -2.1823e+002  2.7817e+001 31538 101742,101477,101399
 3.3000e+000 101696 -1.1415e+002 -2.6546e+002  5.3413e+000 31538 101814,101742,101399
 3.3000e+000 101673 -1.3222e+002 -2.2747e+002 -2.1313e+001 31538 101814,101399,101373
 3.3000e+000 101650 -9.1931e+001 -1.5868e+002  1.8110e+001 31538 101425,101477,101451
 3.3000e+000 101627 -8.7173e+001 -1.8511e+002  4.0568e+000 31538 101399,101477,101425
 3.3000e+000 101604 -5.5213e+001 -2.5956e+002  5.3269e+001 31538 101477,101529,101503
 3.3000e+000 101581 -3.4429e+001 -1.5327e+002 -1.7644e+001 31538 101347,101555,101373
 3.3000e+000 101768 -1.0498e+002 -2.6761e+002  2.7608e+001 31538 101529,101477,101742
 3.3000e+000 101791 -8.9269e+001 -2.7363e+002 -9.7721e+000 31538 101529,101742,101555
 3.3000e+000 101840 -6.9156e+001 -2.2700e+002 -1.2127e+001 31538 101555,101742,101814
 3.3000e+000 101863 -9.4952e+001 -1.9595e+002 -3.6496e+001 31538 101555,101814,101373
 3.3000e+000 102111 -1.3463e+002 -3.4492e+002  4.5454e+001 31112 101886,101990,101912
 3.3000e+000 102088 -4.8854e+001 -2.0339e+002  3.7745e+000 31112 101886,102016,101990
 3.3000e+000 102065 -6.0383e+001 -3.3283e+002  6.7643e+001 31112 101912,101990,101964
 3.3000e+000 102042 -9.6540e+001 -4.1603e+002  7.9973e+001 31112 101912,101964,101938
 3.3000e+000 102408 -3.9663e+001 -2.1598e+002  1.5776e+001 30658 102431,102186,102160
 3.3000e+000 102385 -7.5112e+001 -2.1297e+002 -1.0734e+000 30658 102431,102160,102264
 3.3000e+000 102362 -7.0563e+001 -2.3292e+002  2.9386e+000 30658 102186,102238,102212
 3.3000e+000 102339 -8.2275e+001 -2.2597e+002 -1.4213e+001 30658 102134,102264,102160
 3.3000e+000 102316 -5.5188e+001 -1.8876e+002 -6.2388e+001 30658 102134,102290,102264
 3.3000e+000 102457 -6.8853e+001 -2.2794e+002  7.9858e+000 30658 102238,102186,102431
 3.3000e+000 102480 -1.0683e+002 -2.2849e+002 -1.0346e+001 30658 102238,102431,102264
 3.3000e+000 102681 -3.3590e+001 -2.5901e+002  3.6240e+001 30004 102704,102557,102505
 3.3000e+000 102658 -3.7599e+001 -2.6275e+002  3.7877e+001 30004 102704,102505,102609
 3.3000e+000 102635 -1.5320e+000 -2.2194e+002  8.5097e+000 30004 102505,102557,102531
 3.3000e+000 102730 -3.7628e+001 -2.5194e+002  3.3246e+001 30004 102583,102557,102704
 3.3000e+000 102753 -4.7188e+001 -2.5836e+002  3.6337e+001 30004 102583,102704,102609
 3.3000e+000 103003 -3.1432e+001 -2.0863e+002 -1.7822e+001 29564 103026,102804,102778
 3.3000e+000 102980 -3.8498e+001 -2.4667e+002 -2.7302e+001 29564 103026,102778,102908
 3.3000e+000 102957 -3.6538e+001 -2.0801e+002 -4.2858e+000 29564 102856,102908,102882
 3.3000e+000 102934 -5.2833e+001 -1.8942e+002  1.0701e+001 29564 102804,102856,102830
 3.3000e+000 103052 -2.7140e+001 -1.8934e+002  7.9026e+000 29564 102856,102804,103026
 3.3000e+000 103075 -3.7898e+001 -2.2058e+002 -5.1632e+000 29564 102856,103026,102908
 3.3000e+000 103634 -1.0187e+002 -2.4175e+002 -2.7502e+001 29160 103657,103418,103392
 3.3000e+000 103611 -9.6892e+001 -2.3234e+002 -1.3375e+001 29160 103657,103392,103314
 3.3000e+000 103588 -7.1537e+001 -2.0463e+002 -2.3939e+001 29160 103314,103392,103366
 3.3000e+000 103565 -6.2970e+001 -2.1715e+002 -2.7765e+001 29160 103314,103366,103340
 3.3000e+000 103542 -1.1883e+002 -2.2872e+002 -2.6512e+001 29160 103262,103444,103314
 3.3000e+000 103519 -1.4053e+002 -2.7201e+002 -3.7332e+001 29160 103262,103314,103288
 3.3000e+000 103496 -9.2281e+001 -2.4869e+002 -1.1573e+001 29160 103262,103470,103444
 3.3000e+000 103683 -1.2384e+002 -2.5954e+002 -4.4794e+001 29160 103444,103418,103657
 3.3000e+000 103706 -1.0507e+002 -2.3058e+002 -2.8383e+001 29160 103444,103657,103314
 3.3000e+000 104035 -6.1344e+001 -2.2023e+002  1.9433e+001 28770 103836,103914,103862
 3.3000e+000 104012 -5.8495e+001 -2.1102e+002  2.5635e+001 28770 103810,103914,103836
 3.3000e+000 103989  1.7571e+001 -1.9117e+002  3.3283e+001 28770 103810,103940,103914
 3.3000e+000 103966 -1.1630e+001 -1.7812e+002  4.1746e+001 28770 103862,103914,103888
 3.3000e+000 104185 -3.2549e+001 -2.1967e+002  3.6972e+001 28366 104208,104110,104084
 3.3000e+000 104162 -2.3565e+001 -1.8469e+002  3.3914e+001 28366 104280,104208,104084
 3.3000e+000 104234  2.6647e+001 -2.1617e+002  2.1686e+001 28366 104610,104208,104136
 3.3000e+000 104257 -4.9540e+001 -2.0900e+002  2.3098e+001 28366 104538,104410,104208
 3.3000e+000 104306 -7.3458e+001 -2.1129e+002  2.2609e+001 28366 104538,104208,104280
 3.3000e+000 104436 -2.4524e+001 -2.2027e+002  1.9280e+000 28366 104136,104208,104410
 3.3000e+000 104564 -7.4593e+001 -2.0783e+002  1.0405e+001 28366 104058,104410,104538
 3.3000e+000 104587 -8.9313e+001 -2.0457e+002  8.2622e+000 28366 104058,104538,104280
 3.3000e+000 104636  1.1743e+001 -2.2070e+002  3.0096e+001 28366 104110,104208,104610
 3.3000e+000 105349 -5.0527e+001 -1.8607e+002 -1.9277e+001 27976 105516,105372,105107
 3.3000e+000 105326 -7.8784e+001 -1.8682e+002  4.9077e+000 27976 105588,105372,105055
 3.3000e+000 105303 -8.3979e+001 -1.8164e+002 -1.8675e+001 27976 105444,105159,105133
 3.3000e+000 105280 -2.9445e+001 -1.9317e+002 -1.1639e+001 27976 105516,105107,105081
 3.3000e+000 105257 -7.3325e+001 -2.0657e+002  1.7531e+001 27976 105588,105055,105029
 3.3000e+000 105234 -3.9801e+001 -1.5799e+002  2.2131e+000 27976 105003,105185,105159
 3.3000e+000 105211 -5.5204e+001 -1.2810e+002  2.3108e+001 27976 104977,105185,105003
 3.3000e+000 105398 -4.0717e+001 -1.8704e+002 -2.4578e+001 27976 105133,105107,105372
 3.3000e+000 105421 -6.7615e+001 -1.9450e+002 -1.1163e+001 27976 105444,105133,105372
 3.3000e+000 105470 -6.8762e+001 -1.5976e+002 -1.0147e+001 27976 105003,105159,105444
 3.3000e+000 105493 -5.7123e+001 -1.7455e+002 -6.4858e+000 27976 105003,105444,105372
 3.3000e+000 105542 -3.6412e+001 -1.8409e+002 -1.7342e+000 27976 105055,105372,105516
 3.3000e+000 105565 -4.8744e+000 -1.8706e+002  3.7305e+000 27976 105055,105516,105081
 3.3000e+000 105614 -9.0307e+001 -2.0631e+002  1.4387e+001 27976 105003,105372,105588
 3.3000e+000 105637 -8.7867e+001 -2.2572e+002  2.8181e+001 27976 105003,105588,105029
 3.3000e+000 106143 -9.6666e+001 -2.9074e+002  1.7932e+001 27664 106166,105846,105820
 3.3000e+000 106120 -6.9512e+001 -2.2848e+002  7.7787e+000 27664 106310,106166,105820
 3.3000e+000 106097 -3.2389e+001 -2.6428e+002 -5.0532e+001 27664 106382,106238,105950
 3.3000e+000 106074 -4.6582e+001 -2.2402e+002  8.3048e+000 27664 106310,105820,106002
 3.3000e+000 106051  2.1255e+001 -2.3391e+002 -3.7634e+001 27664 106382,105950,105924
 3.3000e+000 106028 -3.2245e+001 -4.0617e+002 -1.2455e+001 27664 105846,105898,105872
 3.3000e+000 106192 -8.9887e+001 -3.2246e+002 -3.7982e+001 27664 105898,105846,106166
 3.3000e+000 106215 -5.9119e+001 -2.7232e+002 -1.1428e+001 27664 106238,105898,106166
 3.3000e+000 106264 -1.5322e+002 -2.9609e+002 -6.7946e+001 27664 105976,105950,106238
 3.3000e+000 106287 -5.2243e+001 -2.7099e+002 -1.2550e+001 27664 105976,106238,106166
 3.3000e+000 106336 -4.6479e+001 -2.4133e+002  2.8836e+001 27664 105976,106166,106310
 3.3000e+000 106359 -2.0148e+001 -2.3507e+002  2.8477e+001 27664 105976,106310,106002
 3.3000e+000 106408 -5.5432e+001 -2.1590e+002  9.6998e+000 27664 105898,106238,106382
 3.3000e+000 106431 -2.3414e+001 -1.9998e+002  1.7764e+001 27664 105898,106382,105924
 3.3000e+000 106728 -2.9519e+001 -1.5681e+002  2.9511e+001 27153 106751,106506,106454
 3.3000e+000 106705 -2.7379e+001 -1.5798e+002  2.2721e+001 27153 106751,106454,106610
 3.3000e+000 106682 -4.5288e+001 -1.2039e+002  6.2644e+000 27153 106454,106506,106480
 3.3000e+000 106659 -3.7860e+001 -1.5210e+002  1.3517e+001 27153 106532,106610,106584
 3.3000e+000 106636 -6.2314e+001 -9.3264e+001  2.9035e+001 27153 106532,106584,106558
 3.3000e+000 106777 -2.0201e+001 -1.5723e+002  3.0374e+001 27153 106532,106506,106751
 3.3000e+000 106800 -1.9310e+001 -1.5752e+002  2.2234e+001 27153 106532,106751,106610
 3.3000e+000 107180 -4.0072e+001 -1.8943e+002  1.2685e+001 26642 107203,106984,106958
 3.3000e+000 107157 -9.9312e+001 -2.1687e+002  3.4336e+000 26642 107203,106958,106932
 3.3000e+000 107134 -1.1713e+002 -2.3800e+002 -3.0366e+001 26642 107275,107036,107010
 3.3000e+000 107111 -7.4610e+001 -2.3599e+002 -3.9051e+001 26642 106932,107062,107036
 3.3000e+000 107088 -2.7748e+000 -1.8518e+002  2.2585e+001 26642 106906,107062,106932
 3.3000e+000 107229 -1.0178e+001 -1.7836e+002 -5.1912e+001 26642 107010,106984,107203
 3.3000e+000 107252 -1.0392e+002 -2.2029e+002 -3.7469e+001 26642 107275,107010,107203
 3.3000e+000 107301 -1.0127e+002 -2.3562e+002 -4.0103e+001 26642 106932,107036,107275
 3.3000e+000 107324 -9.6839e+001 -2.3601e+002 -4.2301e+001 26642 106932,107275,107203
 3.3000e+000 107675 -4.9045e+001 -1.3770e+002  1.4900e+001 26045 107450,107554,107476
 3.3000e+000 107652 -3.8704e+001 -1.1955e+002  4.6347e+000 26045 107450,107580,107554
 3.3000e+000 107629 -1.6709e+001 -1.2133e+002  5.1117e+000 26045 107476,107528,107502
 3.3000e+000 107606 -1.3430e+001 -1.3002e+002  8.0981e+000 26045 107476,107554,107528
 3.3000e+000 107874 -3.4126e+001 -2.1010e+002  5.1779e+001 25641 107750,107802,107776
 3.3000e+000 107851 -4.4592e+001 -1.4681e+002  2.6192e+001 25641 107724,107802,107750
 3.3000e+000 107828 -4.4920e+001 -1.4947e+002  2.2940e+001 25641 107698,107802,107724
 3.3000e+000 108431 -1.9246e+001 -2.2420e+002  3.8814e+001 25023 108526,108267,108241
 3.3000e+000 108408 -2.8536e-001 -2.1300e+002  7.4464e+000 25023 108059,108267,108085
 3.3000e+000 108385 -3.3471e+001 -2.2925e+002  3.7978e+001 25023 108454,108163,108111
 3.3000e+000 108362 -1.0277e+002 -2.3103e+002  6.4433e+001 25023 108454,108111,108085
 3.3000e+000 108339 -8.1472e+001 -2.9676e+002  6.6460e+001 25023 108111,108163,108137
 3.3000e+000 108316 -5.6554e+001 -1.6807e+002 -1.1067e+001 25023 108163,108241,108215
 3.3000e+000 108293  2.0112e+001 -1.3362e+002 -1.2790e+000 25023 108163,108215,108189
 3.3000e+000 108480 -1.0054e+001 -2.0520e+002  2.5683e+000 25023 108241,108163,108454
 3.3000e+000 108503 -3.4747e+001 -2.1780e+002  3.7316e+001 25023 108526,108241,108454
 3.3000e+000 108552 -3.7521e+001 -2.2649e+002  3.0225e+001 25023 108085,108267,108526
 3.3000e+000 108575 -5.3954e+001 -2.2117e+002  2.8330e+001 25023 108085,108526,108454
 3.3000e+000 108823 -1.2603e+001 -1.6711e+002  2.4635e+001 24461 108624,108728,108650
 3.3000e+000 108800 -3.1805e+001 -3.4264e+002 -2.1321e+001 24461 108598,108728,108624
 3.3000e+000 108777 -3.8116e+000 -2.2088e+002  2.1643e+001 24461 108650,108728,108676
 3.3000e+000 108754 -1.0166e+002 -6.1571e+002  5.3963e+001 24461 108676,108728,108702
 3.3000e+000 109022 -5.9974e+001 -1.7018e+002  1.9500e+001 24121 108872,108924,108898
 3.3000e+000 108999 -4.5209e+001 -1.6833e+002  2.1978e+001 24121 108846,108924,108872
 3.3000e+000 108976 -6.6489e+001 -1.7889e+002  2.6388e+001 24121 108846,108950,108924
 3.3000e+000 109483 -7.1294e+001 -2.3347e+002 -2.3006e+001 23717 109209,109339,109235
 3.3000e+000 109460 -2.8691e+001 -2.6418e+002 -5.3766e+001 23717 109209,109365,109339
 3.3000e+000 109437 -7.1034e+000 -2.9240e+002 -1.6116e+001 23717 109287,109339,109313
 3.3000e+000 109414 -1.3489e+002 -2.9535e+002  1.5149e+001 23717 109235,109339,109287
 3.3000e+000 109391 -9.2651e+000 -3.4358e+002  1.1532e+002 23717 109235,109287,109261
 3.3000e+000 109910 -9.1670e+001 -2.7031e+002 -2.7359e+001 23305 109613,109743,109717
 3.3000e+000 109887 -9.3038e+001 -2.7283e+002 -1.6417e+001 23305 109613,109769,109743
 3.3000e+000 109864 -1.1166e+002 -2.6491e+002 -2.2533e+001 23305 109613,109717,109639
 3.3000e+000 109841 -7.1664e+001 -2.5018e+002 -6.0883e+000 23305 109587,109769,109613
 3.3000e+000 109818  1.8534e+001 -2.0928e+002  3.0728e+001 23305 109639,109717,109691
 3.3000e+000 109795 -2.6500e+001 -1.6823e+002 -3.5897e+001 23305 109639,109691,109665
 3.3000e+000 110180 -6.3737e+000 -7.9351e+001 -1.6880e+001 22851 110007,110059,110033
 3.3000e+000 110157 -5.4676e+001 -2.1060e+002  8.8975e+000 22851 109981,110059,110007
 3.3000e+000 110134 -7.6210e+001 -2.2705e+002  1.0574e+000 22851 109955,110059,109981
 3.3000e+000 110111 -3.0913e+001 -2.4868e+002 -1.9437e+001 22851 109955,110085,110059
 3.3000e+000 110737 -5.0349e+001 -2.4781e+002 -5.8628e+001 22333 110760,110469,110391
 3.3000e+000 110714 -1.9863e+001 -2.7379e+002 -4.8391e+001 22333 110760,110391,110365
 3.3000e+000 110691 -2.7591e+001 -2.3751e+002 -4.9898e+001 22333 110832,110521,110469
 3.3000e+000 110668 -5.9757e+000 -4.0282e+002  4.5897e+000 22333 110417,110469,110443
 3.3000e+000 110645 -1.1927e+002 -3.7200e+002 -1.9771e-001 22333 110391,110469,110417
 3.3000e+000 110622 -3.3266e+000 -2.3502e+002 -2.8484e+001 22333 110469,110521,110495
 3.3000e+000 110599 -2.7796e+001 -1.6160e+002  1.7453e+001 22333 110365,110573,110547
 3.3000e+000 110786 -2.8719e+001 -2.3903e+002 -5.0894e+001 22333 110832,110469,110760
 3.3000e+000 110809  3.3509e+000 -2.4863e+002 -3.6291e+001 22333 110547,110760,110365
 3.3000e+000 110858 -1.8020e+001 -2.4221e+002 -5.2315e+001 22333 110547,110521,110832
 3.3000e+000 110881 -2.6358e+001 -2.4863e+002 -5.5300e+001 22333 110547,110832,110760
 3.3000e+000 111308 -1.2926e+002 -2.9743e+002  1.5054e+001 21829 111331,111063,111011
 3.3000e+000 111285 -1.1794e+002 -2.7799e+002 -5.7058e+000 21829 111331,111011,111167
 3.3000e+000 111262 -1.3244e+002 -2.9640e+002  1.5775e+001 21829 111403,111089,111063
 3.3000e+000 111239 -1.6470e+002 -3.2169e+002  4.0514e+001 21829 111011,111063,111037
 3.3000e+000 111216 -7.9074e+001 -2.0596e+002  1.0322e+001 21829 110985,111167,111011
 3.3000e+000 111193 -1.4852e+002 -4.7134e+002  9.8313e+001 21829 111089,111141,111115
 3.3000e+000 111357 -1.2916e+002 -2.9911e+002  1.5743e+001 21829 111403,111063,111331
 3.3000e+000 111380 -1.3271e+002 -3.0963e+002 -1.8176e+000 21829 111141,111331,111167
 3.3000e+000 111429 -1.3761e+002 -3.0036e+002  1.8494e+001 21829 111141,111089,111403
 3.3000e+000 111452 -1.3273e+002 -3.0392e+002  1.7479e+001 21829 111141,111403,111331
 3.3000e+000 112056  7.4746e+001 -2.2741e+002  2.3762e+000 21489 111687,111765,111739
 3.3000e+000 112033  1.1259e+001 -2.6175e+002  2.5919e+001 21489 112151,112079,111687
 3.3000e+000 112010 -6.4958e+000 -4.0417e+002  2.9297e+001 21489 111791,111843,111817
 3.3000e+000 111987 -7.7907e+001 -3.2193e+002 -2.2112e+001 21489 112079,111843,111791
 3.3000e+000 111964  4.9298e+001 -2.4407e+002  4.8524e+001 21489 112151,111687,111661
 3.3000e+000 111941 -2.8527e+001 -1.7913e+002  4.2939e+001 21489 111661,111869,111843
 3.3000e+000 111918  7.9049e+001 -2.4626e+002  3.4411e+001 21489 111687,111739,111713
 3.3000e+000 111895  7.6158e+000 -9.5234e+001  1.6919e+001 21489 111635,111869,111661
 3.3000e+000 112105 -4.8050e+001 -2.8296e+002  1.5007e+001 21489 111765,111687,112079
 3.3000e+000 112128 -4.7125e+001 -2.7030e+002  1.6064e+001 21489 111765,112079,111791
 3.3000e+000 112177 -5.3243e+001 -2.5852e+002 -5.6724e+000 21489 111843,112079,112151
 3.3000e+000 112200 -1.8239e+001 -2.5181e+002  1.2743e+001 21489 111843,112151,111661
 3.3000e+000 112578 -6.4088e+001 -3.2704e+002  1.4179e+001 21177 112382,112434,112408
 3.3000e+000 112555 -7.7700e+001 -3.2380e+002  9.7968e-001 21177 112330,112434,112382
 3.3000e+000 112532 -6.3215e+001 -2.7976e+002  4.7285e+001 21177 112304,112434,112330
 3.3000e+000 112509 -7.6473e+001 -3.1134e+002  0.0000e+000 21177 112330,112382,112356
 3.3000e+000 112486 -1.8516e+001 -1.8551e+002  1.0673e+001 21177 112304,112460,112434
 3.3000e+000 112679 -5.1093e+000 -2.2392e+002 -3.7602e+001 20666 112601,112653,112627
 3.3000e+000 112927 -9.2131e+001 -3.1196e+002  9.9420e+000 19762 112702,112754,112728
 3.3000e+000 112904 -3.5727e+001 -2.9451e+002 -4.3586e+000 19762 112702,112832,112754
 3.3000e+000 112881 -7.8589e+001 -3.1433e+002  4.9933e+001 19762 112754,112832,112806
 3.3000e+000 112858 -1.0962e+002 -3.9120e+002  4.7718e+001 19762 112754,112806,112780
 3.3000e+000 113297 -8.5087e+001 -3.6390e+002  2.2807e+001 19308 112974,113052,113026
 3.3000e+000 113274 -5.7617e+001 -3.0656e+002  7.4292e+000 19308 112974,113156,113052
 3.3000e+000 113251 -3.1505e+001 -4.0352e+002 -4.8097e+001 19308 113052,113130,113104
 3.3000e+000 113228 -6.1409e+001 -3.0436e+002  1.6816e-001 19308 113052,113156,113130
 3.3000e+000 113205 -5.9050e+001 -3.5219e+002  0.0000e+000 19308 113052,113104,113078
 3.3000e+000 113182 -1.1792e+002 -3.7579e+002 -8.7334e-001 19308 112974,113026,113000
 3.3000e+000 113547 -1.9340e+001 -3.3675e+002 -2.1017e+001 18711 113570,113374,113348
 3.3000e+000 113524 -3.2148e+001 -3.0807e+002 -1.1695e+001 18711 113570,113348,113452
 3.3000e+000 113501 -2.4721e+001 -2.3527e+002 -6.6080e+001 18711 113322,113452,113348
 3.3000e+000 113478 -4.0853e+001 -2.9997e+002 -1.0470e+002 18711 113374,113426,113400
 3.3000e+000 113596 -1.3980e+001 -3.0565e+002 -2.8801e+001 18711 113426,113374,113570
 3.3000e+000 113619 -3.0471e+001 -2.8261e+002 -1.3658e+001 18711 113426,113570,113452
 3.3000e+000 113771 -1.6589e+002 -4.1517e+002 -2.2305e+001 18307 113670,113722,113696
 3.3000e+000 113748 -1.3100e+002 -3.8850e+002 -1.0228e+001 18307 113644,113722,113670
 3.3000e+000 113972 -6.9370e+001 -3.4173e+002  4.8853e+000 17945 113822,113874,113848
 3.3000e+000 113949 -7.1700e+001 -3.3797e+002  7.7634e+000 17945 113822,113900,113874
 3.3000e+000 113926 -1.0293e+002 -2.5926e+002  1.6014e+002 17945 113796,113900,113822
 3.3000e+000 114075 -4.9235e+001 -5.0893e+002  5.5001e+001 17482 113997,114049,114023
 3.3000e+000 114479 -2.3678e+001 -2.8298e+002 -4.3222e+001 17042 114257,114361,114335
 3.3000e+000 114456 -6.8886e+001 -2.7295e+002 -8.2964e+000 17042 114205,114361,114257
 3.3000e+000 114433 -8.3975e+001 -3.1528e+002  1.0487e+001 17042 114205,114257,114231
 3.3000e+000 114410  6.0198e+001 -4.1607e+002 -2.7293e+001 17042 114283,114335,114309
 3.3000e+000 114387 -7.7700e+000 -3.6238e+002 -1.8396e+001 17042 114257,114335,114283
 3.3000e+000 114879 -1.4797e+002 -3.1234e+002 -6.4835e+000 16638 114631,114683,114657
 3.3000e+000 114856 -4.8658e+000 -2.5162e+002 -5.4315e+000 16638 114605,114683,114631
 3.3000e+000 114833  3.2450e+001 -1.5953e+002 -1.1671e+001 16638 114605,114761,114683
 3.3000e+000 114810 -2.4718e+001 -3.2489e+002 -1.7862e+001 16638 114683,114735,114709
 3.3000e+000 114787 -5.0054e+001 -3.4844e+002 -2.9958e+001 16638 114683,114761,114735
 3.3000e+000 115078 -1.3501e+002 -3.1511e+002  5.0679e+000 16232 114954,115006,114980
 3.3000e+000 115055 -1.4458e+002 -3.5270e+002  1.5034e+001 16232 114928,115006,114954
 3.3000e+000 115032 -6.8805e+001 -4.4193e+002  2.9708e+001 16232 114902,115006,114928
 3.3000e+000 115228 -1.0430e+002 -3.2939e+002  8.2222e+000 15482 115101,115153,115127
 3.3000e+000 115205 -8.0514e+001 -3.1011e+002 -2.9029e+000 15482 115101,115179,115153
 3.3000e+000 115331 -7.8902e+001 -3.1233e+002 -3.7109e+001 15163 115253,115305,115279
 3.3000e+000 115434 -9.5087e+001 -3.2645e+002  4.1250e+001 421 115356,115408,115382
 3.4000e+000 68213 -3.4262e+001 -2.0755e+002 -1.7295e+001 67888 68112,68164,68138
 3.4000e+000 68190 -2.2108e+002 -2.6258e+002 -2.9179e+001 67888 68086,68164,68112
 3.4000e+000 68314 -1.9697e+001 -2.6391e+002  2.3721e+001 67576 68236,68288,68262
 3.4000e+000 68584 -8.7179e+001 -4.3006e+002  1.6495e+001 67378 68385,68489,68463
 3.4000e+000 68561  8.1741e+001 -3.5955e+002  1.3085e+001 67378 68359,68489,68385
 3.4000e+000 68538 -7.7749e+001 -3.7484e+002  2.0361e+001 67378 68385,68463,68411
 3.4000e+000 68515 -4.7433e+001 -2.5255e+002  9.5662e+000 67378 68411,68463,68437
 3.4000e+000 68964 -8.9826e+001 -3.9499e+002  5.9885e+001 67130 68690,68820,68716
 3.4000e+000 68941  9.4555e+001 -4.0501e+002  1.1405e+002 67130 68690,68846,68820
 3.4000e+000 68918 -8.0351e+001 -2.6114e+002  6.2726e+000 67130 68742,68820,68794
 3.4000e+000 68895 -1.0597e+001 -2.6021e+002  2.4235e+001 67130 68716,68820,68742
 3.4000e+000 68872 -5.1184e+001 -2.2047e+002 -2.6378e+001 67130 68742,68794,68768
 3.4000e+000 69065 -5.2637e+001 -2.5511e+002 -7.1664e-001 66926 68987,69039,69013
 3.4000e+000 69445 -2.1796e+001 -2.3151e+002 -1.5799e+001 66614 69223,69301,69275
 3.4000e+000 69422 -4.4980e+001 -2.4812e+002 -4.0015e+000 66614 69171,69301,69223
 3.4000e+000 69399 -6.0060e+001 -2.6184e+002  2.8772e+000 66614 69171,69327,69301
 3.4000e+000 69376  1.1898e+001 -8.1961e+001  5.1464e+000 66614 69223,69275,69249
 3.4000e+000 69353 -4.3903e+001 -2.7126e+002 -7.2565e+000 66614 69171,69223,69197
 3.4000e+000 69546 -6.3380e+001 -3.6042e+002  2.0491e+001 66416 69468,69520,69494
 3.4000e+000 69997 -5.4559e+001 -3.6827e+002 -3.4592e+001 66104 69700,69830,69726
 3.4000e+000 69974 -7.0181e+001 -4.6399e+002 -6.9603e+001 66104 69700,69856,69830
 3.4000e+000 69951 -6.2768e+001 -2.8129e+002 -2.1522e+001 66104 69726,69804,69778
 3.4000e+000 69928 -4.8474e+001 -3.4195e+002 -2.9869e+001 66104 69726,69830,69804
 3.4000e+000 69905 -6.8644e+001 -2.6924e+002 -1.1555e+001 66104 69726,69778,69752
 3.4000e+000 69882 -1.8149e+001 -6.8069e+002 -1.1861e+002 66104 69674,69856,69700
 3.4000e+000 70326 -6.4647e+001 -1.6491e+002 -2.0587e+001 65814 70349,70153,70127
 3.4000e+000 70303 -4.4385e+000 -1.6713e+002 -2.0064e+000 65814 70349,70127,70101
 3.4000e+000 70280  3.7337e+001 -9.6628e+001  8.9678e+001 65814 70101,70231,70205
 3.4000e+000 70257  5.8852e+001 -1.7715e+002  2.0931e+001 65814 70153,70205,70179
 3.4000e+000 70375 -3.5298e+001 -1.7045e+002  2.1906e+001 65814 70205,70153,70349
 3.4000e+000 70398  5.0713e+001 -1.6265e+002  3.4937e+001 65814 70205,70349,70101
 3.4000e+000 70904 -2.1396e+001 -8.5613e+001 -2.7559e+001 65502 70607,70737,70685
 3.4000e+000 70881 -2.7648e+001 -6.7326e+001 -3.6683e+001 65502 70581,70737,70607
 3.4000e+000 70858 -2.6394e+001 -1.1532e+001 -6.2411e+000 65502 70581,70763,70737
 3.4000e+000 70835 -4.0173e+001 -9.6615e+001 -3.9064e+001 65502 70685,70737,70711
 3.4000e+000 70812 -1.3014e+002 -1.1110e+002 -4.8475e+000 65502 70607,70659,70633
 3.4000e+000 70789 -3.8574e+001 -1.1757e+002 -2.2547e+000 65502 70607,70685,70659
 3.4000e+000 71103 -3.7377e+001 -3.2553e+002 -7.8547e+000 65304 71126,70979,70953
 3.4000e+000 71080 -7.0277e+001 -3.2696e+002 -2.1365e+000 65304 71126,70953,70927
 3.4000e+000 71057 -1.0345e+002 -3.3427e+002  2.1187e+001 65304 70927,71031,71005
 3.4000e+000 71152 -7.0803e+001 -3.0483e+002 -1.7215e+001 65304 71005,70979,71126
 3.4000e+000 71175 -1.0960e+002 -3.1340e+002 -3.7794e+000 65304 71005,71126,70927
 3.4000e+000 71374 -2.3303e+001 -3.1245e+002  1.4370e+001 65106 71198,71276,71224
 3.4000e+000 71351 -9.3655e+001 -3.3416e+002  6.6786e+000 65106 71198,71302,71276
 3.4000e+000 71328 -1.2892e+000 -2.5550e+002  3.8247e+001 65106 71224,71276,71250
 3.4000e+000 71756 -3.7594e+001 -2.2293e+002 -1.7171e+001 64652 71508,71638,71534
 3.4000e+000 71733 -1.9090e+000 -2.0713e+002  4.2070e+000 64652 71482,71638,71508
 3.4000e+000 71710 -6.9295e+001 -1.9755e+002 -1.6191e+001 64652 71534,71586,71560
 3.4000e+000 71687 -4.9779e+001 -2.1669e+002 -4.2850e+001 64652 71534,71612,71586
 3.4000e+000 71664 -1.0358e+002 -2.3741e+002 -4.0557e+001 64652 71534,71638,71612
 3.4000e+000 72085 -8.8856e+001 -2.3707e+002 -2.7603e+001 64248 71886,71964,71912
 3.4000e+000 72062 -8.1200e+001 -2.3247e+002 -2.9622e+001 64248 71860,71964,71886
 3.4000e+000 72039 -3.5354e+001 -2.4585e+002 -1.6919e+001 64248 71912,71964,71938
 3.4000e+000 72016 -6.2618e+001 -2.2630e+002 -3.6194e+001 64248 71860,71990,71964
 3.4000e+000 72235 -4.7433e+000 -1.4449e+002 -1.8580e+001 63858 72588,72258,72134
 3.4000e+000 72212 -9.0079e+000 -8.1079e+001  2.5187e+001 63858 72330,72258,72108
 3.4000e+000 72284 -6.1512e+000 -9.3904e+001 -7.9929e+000 63858 72160,72134,72258
 3.4000e+000 72307 -6.9087e+001 -1.3293e+002 -1.3726e+001 63858 72460,72258,72186
 3.4000e+000 72356 -5.6415e+001 -1.2184e+002 -6.5512e+000 63858 72186,72258,72330
 3.4000e+000 72486 -1.6553e+001 -1.2336e+002 -1.1877e+001 63858 72160,72258,72460
 3.4000e+000 72614  1.8846e+001 -1.4904e+002  2.0954e+001 63858 72108,72258,72588
 3.4000e+000 73248 -3.2804e+001 -2.1266e+002  6.9098e+001 63404 72902,72954,72928
 3.4000e+000 73225 -1.0703e+002 -2.4643e+002  3.6104e+001 63404 73271,72954,72902
 3.4000e+000 73202 -8.6679e+001 -1.9498e+002  2.8996e+001 63404 73271,72902,73032
 3.4000e+000 73179 -5.2110e+001 -1.6746e+002  1.2540e+001 63404 72902,73058,73032
 3.4000e+000 73156 -6.1413e+001 -1.9809e+002  6.9090e+000 63404 72980,73032,73006
 3.4000e+000 73133 -5.0577e+001 -1.7228e+002  1.0546e+001 63404 72876,73058,72902
 3.4000e+000 73110 -2.1531e+001 -8.1143e+001 -4.1500e+001 63404 72876,73084,73058
 3.4000e+000 73297 -8.2398e+001 -2.5177e+002  3.1472e+000 63404 72980,72954,73271
 3.4000e+000 73320 -7.5842e+001 -2.2530e+002  1.2784e+000 63404 72980,73271,73032
 3.4000e+000 73470 -8.8803e+001 -5.9470e+002  6.2032e+001 63014 73343,73395,73369
 3.4000e+000 73447 -2.7902e+002 -7.3316e+002 -1.4753e+001 63014 73343,73421,73395
 3.4000e+000 73929  2.1977e+001 -2.7049e+002  2.8790e+001 62702 73759,73811,73785
 3.4000e+000 73906  4.5533e+001 -2.6438e+002  1.9074e+001 62702 73655,73811,73759
 3.4000e+000 73883  4.2045e-001 -3.1084e+002 -1.2839e+000 62702 73655,73759,73681
 3.4000e+000 73860  4.4039e+001 -2.2374e+002 -5.7167e+001 62702 73681,73759,73707
 3.4000e+000 73837 -1.0309e+002 -2.6558e+002  1.8976e+000 62702 73707,73759,73733
 3.4000e+000 74209 -1.5460e+002 -2.7390e+002  3.2983e+000 62404 74059,74137,74085
 3.4000e+000 74186 -1.9074e+002 -3.6169e+002  4.5097e+001 62404 74033,74137,74059
 3.4000e+000 74163 -1.6928e+002 -2.5470e+002  3.2837e-001 62404 74085,74137,74111
 3.4000e+000 74408  4.0735e+000 -2.3031e+002  1.7187e+001 62000 74258,74336,74284
 3.4000e+000 74385 -6.5228e+000 -2.3054e+002  2.8507e+001 62000 74232,74336,74258
 3.4000e+000 74362 -5.3028e+001 -2.2246e+002 -2.0435e+000 62000 74284,74336,74310
 3.4000e+000 74509 -1.4445e+001 -2.9815e+002  1.0348e+001 61802 74431,74483,74457
 3.4000e+000 74759 -7.7913e+001 -2.5007e+002  8.5592e-001 61554 74782,74586,74560
 3.4000e+000 74736 -4.0681e+001 -2.3017e+002  8.3415e+000 61554 74782,74560,74664
 3.4000e+000 74713 -6.6481e+001 -1.8064e+002  6.0859e+001 61554 74854,74612,74586
 3.4000e+000 74690 -5.5580e+001 -2.5342e+002  1.1196e+000 61554 74534,74664,74560
 3.4000e+000 74808 -9.6246e+001 -2.2627e+002  1.6946e+001 61554 74854,74586,74782
 3.4000e+000 74831 -5.5034e+001 -2.8642e+002  1.6383e+001 61554 74638,74782,74664
 3.4000e+000 74880 -9.2434e+000 -2.2867e+002  6.7667e+001 61554 74638,74612,74854
 3.4000e+000 74903 -1.1076e+001 -2.2689e+002  3.5566e+001 61554 74638,74854,74782
 3.4000e+000 75285 -2.7531e+001 -2.6854e+002  5.3948e+000 61356 75063,75167,75115
 3.4000e+000 75262 -4.6652e+001 -2.9206e+002 -2.0193e+001 61356 75037,75167,75063
 3.4000e+000 75239  6.5546e+001 -2.8274e+002 -2.4491e+000 61356 75115,75167,75141
 3.4000e+000 75216  3.1969e+001 -2.3480e+002  1.8903e+001 61356 75063,75115,75089
 3.4000e+000 75193 -1.2405e+002 -2.1974e+002  2.0222e+001 61356 75011,75167,75037
 3.4000e+000 75631 -3.1813e+000 -2.0484e+002  2.5643e+000 60952 75654,75412,75360
 3.4000e+000 75608 -3.6416e+001 -2.4309e+002 -1.3101e+001 60952 75654,75360,75334
 3.4000e+000 75585 -1.9448e+001 -3.1361e+002  1.2716e+001 60952 75726,75438,75412
 3.4000e+000 75562 -4.1755e+001 -2.6625e+002 -4.4849e+001 60952 75308,75490,75334
 3.4000e+000 75539 -9.3345e+000 -2.0531e+002 -2.6495e+000 60952 75360,75412,75386
 3.4000e+000 75516 -4.2768e+001 -3.8858e+002 -8.9938e+000 60952 75438,75490,75464
 3.4000e+000 75680  4.0870e+000 -2.6301e+002  3.5902e-001 60952 75726,75412,75654
 3.4000e+000 75703 -4.8118e-001 -2.5264e+002 -1.7994e+001 60952 75490,75654,75334
 3.4000e+000 75752  6.6369e+000 -2.5425e+002 -5.2141e+000 60952 75490,75438,75726
 3.4000e+000 75775  5.2381e+000 -2.4948e+002 -1.5920e+001 60952 75490,75726,75654
 3.4000e+000 76155 -2.9590e+001 -2.3350e+002 -1.5878e+000 60754 75933,75985,75959
 3.4000e+000 76132 -5.0427e+001 -2.4764e+002  2.7185e+001 60754 75933,76037,75985
 3.4000e+000 76109  1.1729e+001 -2.4821e+002  1.2331e+001 60754 75985,76037,76011
 3.4000e+000 76086 -8.0882e+001 -2.0724e+002  9.8772e+000 60754 75881,76037,75933
 3.4000e+000 76063 -1.2032e+002 -1.7816e+002  6.0329e+001 60754 75881,75933,75907
 3.4000e+000 76612 -3.7695e+001 -1.9022e+002  2.3159e+000 60350 76635,76442,76390
 3.4000e+000 76589  2.1967e+000 -2.1538e+002  1.1451e+001 60350 76635,76390,76364
 3.4000e+000 76566 -1.1187e+001 -2.7361e+002 -2.0712e+001 60350 76364,76494,76468
 3.4000e+000 76543 -2.8896e+000 -1.7136e+002  1.6600e+001 60350 76390,76442,76416
 3.4000e+000 76520 -9.8559e+001 -1.7812e+002 -4.5975e+001 60350 76338,76494,76364
 3.4000e+000 76661 -6.0093e+001 -2.0706e+002  9.6823e+000 60350 76468,76442,76635
 3.4000e+000 76684 -3.1196e+001 -2.3703e+002  2.1176e+001 60350 76468,76635,76364
 3.4000e+000 76932 -7.8422e+001 -2.6943e+002  8.1549e+000 59946 76955,76733,76707
 3.4000e+000 76909 -7.6386e+001 -2.6382e+002  1.1710e+001 59946 77027,76955,76707
 3.4000e+000 76886 -6.7828e+001 -2.6323e+002  8.6478e+000 59946 77027,76707,76837
 3.4000e+000 76863 -2.6354e+001 -3.0096e+002 -2.1808e+001 59946 76733,76785,76759
 3.4000e+000 76981 -8.5125e+001 -2.6766e+002  1.5102e+000 59946 76785,76733,76955
 3.4000e+000 77004 -7.8592e+001 -2.6678e+002  8.9141e+000 59946 76785,76955,76811
 3.4000e+000 77053 -6.4222e+001 -2.6465e+002  8.7273e+000 59946 76811,76955,77027
 3.4000e+000 77076 -5.6910e+001 -2.6280e+002  4.1977e+000 59946 76811,77027,76837
 3.4000e+000 77226 -9.1494e+001 -2.3021e+002  6.1274e+000 59542 77099,77151,77125
 3.4000e+000 77203 -1.1187e+002 -2.7732e+002  9.6072e+000 59542 77099,77177,77151
 3.4000e+000 77427 -1.3205e+002 -2.6398e+002 -2.2708e+001 59030 77450,77277,77251
 3.4000e+000 77404 -7.2806e+001 -1.9894e+002 -8.4632e+001 59030 77450,77251,77355
 3.4000e+000 77381  1.8224e+000 -3.1405e+002 -1.2567e+001 59030 77277,77329,77303
 3.4000e+000 77476 -6.1872e+001 -2.7788e+002 -6.1085e+001 59030 77329,77277,77450
 3.4000e+000 77499 -3.5822e-001 -2.4652e+002 -1.0954e+002 59030 77329,77450,77355
 3.4000e+000 77749 -1.1883e+002 -3.3528e+002  3.0385e+001 58426 77772,77628,77602
 3.4000e+000 77726 -7.6248e+001 -4.0193e+002  1.1418e+002 58426 77524,77654,77628
 3.4000e+000 77703 -8.6748e+001 -3.4186e+002  1.9066e+001 58426 77772,77602,77550
 3.4000e+000 77680 -4.1236e+001 -3.1666e+002 -1.9641e+001 58426 77550,77602,77576
 3.4000e+000 77798 -8.3161e+001 -3.2319e+002  3.5948e+001 58426 77524,77628,77772
 3.4000e+000 77821 -7.0391e+001 -3.4210e+002  1.9218e+001 58426 77524,77772,77550
 3.4000e+000 78071 -1.4753e+002 -3.1613e+002  3.4156e+001 57922 78094,77924,77898
 3.4000e+000 78048 -1.7293e+002 -3.3030e+002  7.2123e+000 57922 78094,77898,77872
 3.4000e+000 78025 -1.4138e+002 -3.0496e+002  3.3621e+001 57922 78166,77846,77950
 3.4000e+000 78002 -7.3901e+001 -2.9855e+002  3.8984e+001 57922 77846,77976,77950
 3.4000e+000 78120 -1.2855e+002 -3.2550e+002  2.6199e+001 57922 77950,77924,78094
 3.4000e+000 78143 -1.4341e+002 -3.0930e+002  2.6656e+001 57922 78166,77950,78094
 3.4000e+000 78192 -1.3557e+002 -3.1670e+002  2.6408e+001 57922 77872,77846,78166
 3.4000e+000 78215 -1.4393e+002 -3.2886e+002  1.8855e+001 57922 77872,78166,78094
 3.4000e+000 78416  3.5905e+001 -2.6718e+002 -1.5713e+001 57468 78439,78292,78240
 3.4000e+000 78393 -1.0806e+001 -2.5251e+002 -5.1817e-001 57468 78439,78240,78344
 3.4000e+000 78370  1.6246e+001 -3.6908e+002 -1.1410e+001 57468 78240,78292,78266
 3.4000e+000 78465 -9.6286e+000 -2.8972e+002 -2.4321e+001 57468 78318,78292,78439
 3.4000e+000 78488 -2.8798e+001 -2.6326e+002 -5.0318e+000 57468 78318,78439,78344
 3.4000e+000 78689  5.3543e+001 -3.2875e+002 -4.2209e+001 57014 78712,78539,78513
 3.4000e+000 78666 -1.7414e+000 -3.2650e+002 -6.4844e+000 57014 78712,78513,78617
 3.4000e+000 78643 -7.1814e+001 -3.4290e+002  3.4616e+001 57014 78565,78617,78591
 3.4000e+000 78738 -1.7695e+001 -2.6750e+002 -4.2449e+001 57014 78565,78539,78712
 3.4000e+000 78761 -1.0062e+002 -3.1610e+002  1.6056e+001 57014 78565,78712,78617
 3.4000e+000 79241 -1.0065e+002 -2.7648e+002  1.8597e+001 56652 79264,78895,78869
 3.4000e+000 79218 -4.3089e+001 -3.6528e+002 -2.7094e+001 56652 79264,78869,79051
 3.4000e+000 79195 -6.9116e+001 -3.2263e+002 -7.7618e+001 56652 78869,79077,79051
 3.4000e+000 79172 -6.8606e+001 -1.7634e+002 -4.6256e+001 56652 78895,78973,78947
 3.4000e+000 79149 -1.2813e+002 -5.3622e+002 -5.0372e+001 56652 78973,79051,78999
 3.4000e+000 79126 -6.8384e+001 -1.5429e+002 -4.8632e+001 56652 78895,78947,78921
 3.4000e+000 79103 -1.0503e+002 -3.5794e+002  8.5917e+001 56652 78999,79051,79025
 3.4000e+000 79290 -5.7250e+001 -2.2085e+002  4.9040e+001 56652 78973,78895,79264
 3.4000e+000 79313  4.5363e+000 -3.1548e+002  6.3559e+000 56652 78973,79264,79051
 3.4000e+000 79512 -3.4719e+001 -4.1043e+002  3.5360e+001 56062 79388,79440,79414
 3.4000e+000 79489 -1.6303e+002 -2.1155e+002  5.5827e+001 56062 79336,79440,79388
 3.4000e+000 79466 -7.0736e+001 -2.1807e+002  7.7014e+001 56062 79336,79388,79362
 3.4000e+000 79941 -4.4480e+001 -2.4425e+002  3.7466e+001 55658 79964,79670,79644
 3.4000e+000 79918 -7.2567e+001 -2.5023e+002  4.3287e+001 55658 79964,79644,79800
 3.4000e+000 79895 -6.7626e+001 -2.6301e+002  1.7814e+001 55658 80036,79696,79670
 3.4000e+000 79872 -7.8236e+001 -2.2029e+002 -6.7685e+000 55658 80108,79722,79696
 3.4000e+000 79849 -1.1667e+002 -2.2553e+002  5.2319e+000 55658 79722,79774,79748
 3.4000e+000 79826 -9.2543e-001 -2.2474e+002  1.2802e+001 55658 79618,79800,79644
 3.4000e+000 79990 -7.5657e+001 -2.6466e+002  2.7227e+001 55658 80036,79670,79964
 3.4000e+000 80013 -6.7132e+001 -2.2950e+002  4.4811e+001 55658 79774,79964,79800
 3.4000e+000 80062 -5.6161e+001 -2.3768e+002  1.4489e+001 55658 80108,79696,80036
 3.4000e+000 80085 -7.2889e+001 -2.3089e+002  3.7734e+001 55658 79774,80036,79964
 3.4000e+000 80134 -1.2152e+002 -2.3911e+002  3.2178e+000 55658 79774,79722,80108
 3.4000e+000 80157 -1.0896e+002 -2.6187e+002  2.4474e+001 55658 79774,80108,80036
 3.4000e+000 80307 -1.1806e+002 -2.3023e+002  3.4851e+001 55254 80402,80330,80206
 3.4000e+000 80284 -1.1407e+002 -3.1616e+002  3.9664e+001 55254 80330,80180,80258
 3.4000e+000 80356 -1.3931e+002 -2.7860e+002  6.4550e+001 55254 80232,80206,80330
 3.4000e+000 80379 -2.9789e+001 -2.2881e+002  9.4852e+001 55254 80232,80330,80258
 3.4000e+000 80428 -1.6397e+002 -2.8007e+002  1.4397e+001 55254 80180,80330,80402
 3.4000e+000 80659  9.5448e+000 -2.9450e+002 -3.1392e+001 54850 80558,80610,80584
 3.4000e+000 80636  2.4926e+001 -2.8248e+002 -2.4306e+001 54850 80532,80610,80558
 3.4000e+000 80760 -2.3365e+001 -2.5642e+002 -2.6473e+001 54652 80682,80734,80708
 3.4000e+000 81164 -1.4933e+001 -2.6760e+002 -7.6589e+000 54248 81187,80942,80890
 3.4000e+000 81141 -1.7861e+001 -2.7455e+002 -6.1754e+000 54248 81187,80890,81046
 3.4000e+000 81118 -2.3223e+001 -2.7865e+002  5.4815e+001 54248 80942,81020,80994
 3.4000e+000 81095 -1.5625e+001 -2.8162e+002  1.2785e+000 54248 80890,80942,80916
 3.4000e+000 81072 -2.8272e+001 -1.5178e+002  4.0180e+000 54248 80942,80994,80968
 3.4000e+000 81213 -1.9433e+001 -2.6242e+002 -6.4892e+000 54248 81020,80942,81187
 3.4000e+000 81236 -2.0567e+001 -2.6704e+002 -5.5684e+000 54248 81020,81187,81046
 3.4000e+000 81663 -1.3207e+002 -2.4212e+002  2.9064e+001 53594 81340,81444,81366
 3.4000e+000 81640 -1.1875e+002 -3.5331e+002  1.3555e+001 53594 81340,81470,81444
 3.4000e+000 81617 -4.2836e+001 -3.0973e+002 -1.5683e+001 53594 81340,81522,81470
 3.4000e+000 81594 -6.4676e+001 -1.7509e+002 -1.2752e+001 53594 81392,81444,81418
 3.4000e+000 81571 -8.4567e+001 -2.0394e+002 -2.2218e+001 53594 81366,81444,81392
 3.4000e+000 81548  1.6071e+001 -4.9141e+002  1.0882e+002 53594 81470,81522,81496
 3.4000e+000 81943 -2.7848e+001 -1.6996e+002 -2.0165e+001 53104 81966,81845,81819
 3.4000e+000 81920 -4.4561e+001 -1.3855e+002 -2.5176e+001 53104 81966,81819,81767
 3.4000e+000 81897 -4.5657e+001 -1.3894e+002 -2.8014e+001 53104 81767,81819,81793
 3.4000e+000 81992 -1.6375e+001 -1.4966e+002 -2.4755e+001 53104 81871,81845,81966
 3.4000e+000 82015 -2.4479e+001 -1.0566e+002 -3.3824e+001 53104 81871,81966,81767
 3.4000e+000 82491 -2.0247e+001 -1.6383e+002 -1.7281e+001 52650 82145,82249,82171
 3.4000e+000 82468 -1.4288e+002 -2.0075e+002 -2.3093e+001 52650 82145,82301,82249
 3.4000e+000 82445 -1.4630e+002 -3.1606e+002 -5.9310e+001 52650 82249,82301,82275
 3.4000e+000 82422 -5.0453e+001 -3.9294e+002 -6.9938e+001 52650 82119,82301,82145
 3.4000e+000 82399 -3.8892e+001 -1.2629e+002  1.8807e+001 52650 82171,82249,82223
 3.4000e+000 82376  2.9748e+001 -3.6069e+002 -5.8726e+001 52650 82119,82327,82301
 3.4000e+000 82353 -1.0915e+001 -6.1027e+001 -2.5865e+001 52650 82171,82223,82197
 3.4000e+000 82739 -3.7655e+001 -1.5608e+002  4.9234e+000 52246 82762,82540,82514
 3.4000e+000 82716 -2.2717e+001 -5.4005e+001 -1.1090e+001 52246 82762,82514,82644
 3.4000e+000 82693 -7.5519e+001 -1.8175e+002  4.1861e+001 52246 82540,82618,82592
 3.4000e+000 82670 -9.0422e+001 -1.7965e+002  3.8312e+001 52246 82540,82592,82566
 3.4000e+000 82788 -2.2105e+001 -2.0361e+002  1.4267e+001 52246 82618,82540,82762
 3.4000e+000 82811 -5.0903e+001 -1.7164e+002 -1.4888e+001 52246 82618,82762,82644
 3.4000e+000 83059 -2.2850e+001 -2.2742e+002  2.2284e+001 51578 82860,82964,82938
 3.4000e+000 83036  4.3512e+000 -1.4424e+002 -4.9630e+001 51578 82834,82964,82860
 3.4000e+000 83013 -1.0956e+001 -1.6872e+002  5.1030e+001 51578 82860,82938,82886
 3.4000e+000 82990 -6.9551e+000 -9.2707e+001  7.0592e+000 51578 82886,82938,82912
 3.4000e+000 83309 -4.4379e+001 -1.3518e+002  3.3988e+001 51138 83332,83162,83136
 3.4000e+000 83286 -1.3397e+001 -1.7042e+002  1.1158e+001 51138 83332,83136,83110
 3.4000e+000 83263 -6.2481e+001 -1.7323e+002 -7.6509e+000 51138 83404,83214,83188
 3.4000e+000 83240 -1.4607e+000 -1.0278e+002  9.8690e+000 51138 83084,83214,83110
 3.4000e+000 83358 -7.2839e+001 -1.8149e+002  5.0554e+001 51138 83188,83162,83332
 3.4000e+000 83381 -4.3746e+001 -1.9378e+002  1.1154e+001 51138 83404,83188,83332
 3.4000e+000 83430 -3.8445e+001 -1.2137e+002 -1.3403e+000 51138 83110,83214,83404
 3.4000e+000 83453 -2.4302e+001 -1.5346e+002  1.6997e+001 51138 83110,83404,83332
 3.4000e+000 83835 -3.7585e+001 -2.1132e+002 -1.7300e+001 50734 83613,83717,83691
 3.4000e+000 83812 -4.6792e+001 -2.3706e+002 -4.6175e+001 50734 83561,83717,83613
 3.4000e+000 83789 -2.1524e+001 -9.8866e+001 -7.1337e+001 50734 83561,83613,83587
 3.4000e+000 83766 -5.1526e+001 -1.4494e+002 -9.6465e+000 50734 83613,83691,83639
 3.4000e+000 83743 -5.8830e+001 -1.4759e+002  3.3248e+001 50734 83639,83691,83665
 3.4000e+000 84034 -5.4555e+001 -1.3898e+002  7.6025e+000 50230 84057,83884,83858
 3.4000e+000 84011 -5.4257e+001 -1.4976e+002 -1.1653e+001 50230 84129,84057,83858
 3.4000e+000 83988 -1.8611e+001 -1.5763e+002 -2.0853e+001 50230 84129,83858,83962
 3.4000e+000 84083 -2.1795e+001 -1.2744e+002  1.3006e+001 50230 83910,83884,84057
 3.4000e+000 84106 -3.5490e+001 -1.5295e+002  7.3378e+000 50230 83910,84057,83936
 3.4000e+000 84155 -7.3864e+000 -1.3122e+002 -2.2001e+000 50230 83936,84057,84129
 3.4000e+000 84178  6.3962e+000 -1.5469e+002 -1.6114e+001 50230 83936,84129,83962
 3.4000e+000 84558 -5.3700e+001 -1.7035e+002 -2.9061e+001 49768 84581,84388,84362
 3.4000e+000 84535 -1.1641e+002 -1.7277e+002 -1.1434e+001 49768 84581,84362,84310
 3.4000e+000 84512  9.3959e+000 -1.8655e+002 -3.1043e+001 49768 84653,84440,84414
 3.4000e+000 84489 -8.6408e+001 -1.8644e+002  1.6648e+001 49768 84310,84362,84336
 3.4000e+000 84466 -4.2485e-002 -1.3125e+002  2.6931e+001 49768 84284,84440,84310
 3.4000e+000 84607 -1.0231e+001 -1.4232e+002 -4.9178e+001 49768 84414,84388,84581
 3.4000e+000 84630 -1.5790e+001 -1.7475e+002 -2.1979e+001 49768 84653,84414,84581
 3.4000e+000 84679 -2.4409e+001 -1.7556e+002 -4.2432e+001 49768 84310,84440,84653
 3.4000e+000 84702 -6.0409e+001 -1.7590e+002 -4.3128e+001 49768 84310,84653,84581
 3.4000e+000 85159 -9.7062e+001 -2.6493e+002 -7.6250e+001 49192 84885,84937,84911
 3.4000e+000 85136 -1.0058e+002 -2.2323e+002 -5.6412e+001 49192 84885,85041,84937
 3.4000e+000 85113 -7.3833e+001 -1.8863e+002 -2.5870e+001 49192 84963,85041,84989
 3.4000e+000 85090 -6.5751e+001 -1.7689e+002 -4.0975e+001 49192 84937,85041,84963
 3.4000e+000 85067 -6.0890e+001 -1.9449e+002 -1.7033e+001 49192 84989,85041,85015
 3.4000e+000 85714 -9.4310e+001 -1.6798e+002  2.9770e-001 48638 85368,85498,85394
 3.4000e+000 85691 -1.2498e+002 -1.8964e+002  1.3961e+001 48638 85368,85524,85498
 3.4000e+000 85668 -1.0901e+002 -1.6188e+002  4.1390e+001 48638 85737,85420,85394
 3.4000e+000 85645 -9.3435e+001 -1.8443e+002  2.2509e+001 48638 85737,85394,85498
 3.4000e+000 85622 -7.4539e+001 -1.8795e+002  3.7823e+001 48638 85446,85498,85472
 3.4000e+000 85599 -3.1238e+001 -1.5210e+002  1.7393e+001 48638 85342,85524,85368
 3.4000e+000 85576 -1.1664e+002 -1.7148e+002  1.6869e+001 48638 85342,85550,85524
 3.4000e+000 85763 -8.0216e+001 -1.4599e+002  5.5578e+001 48638 85446,85420,85737
 3.4000e+000 85786 -8.1567e+001 -1.6734e+002  3.3564e+001 48638 85446,85737,85498
 3.4000e+000 86371 -8.1299e+001 -1.2174e+002 -1.1454e+001 48084 86100,86230,86178
 3.4000e+000 86348 -1.0666e+002 -1.5839e+002 -2.3332e+001 48084 86048,86230,86100
 3.4000e+000 86325 -8.1000e+001 -1.1297e+002  2.6283e+001 48084 86100,86178,86126
 3.4000e+000 86302 -5.1387e+001 -2.8759e+001 -3.2080e+001 48084 86048,86100,86074
 3.4000e+000 86279 -9.5827e+001 -1.8827e+002 -1.1600e+001 48084 86178,86230,86204
 3.4000e+000 86256 -7.0415e+001 -1.3145e+002  2.5288e+001 48084 86126,86178,86152
 3.4000e+000 86619 -6.9227e+001 -1.5338e+002  1.2270e+001 47630 86642,86446,86420
 3.4000e+000 86596 -8.2655e+001 -1.6962e+002 -1.8219e+001 47630 86642,86420,86394
 3.4000e+000 86573 -1.0118e+002 -1.9591e+002 -2.7315e+001 47630 86394,86524,86498
 3.4000e+000 86550 -4.2393e+001 -1.7535e+002  1.1221e+001 47630 86446,86498,86472
 3.4000e+000 86668 -8.4887e+001 -1.8818e+002  2.4257e-001 47630 86498,86446,86642
 3.4000e+000 86691 -9.2023e+001 -1.9376e+002 -2.9623e+001 47630 86498,86642,86394
 3.4000e+000 87022  3.9916e+000 -1.0573e+002 -3.3676e+001 47226 87045,86875,86849
 3.4000e+000 86999 -1.7078e+001 -1.0739e+002 -4.4696e+001 47226 87045,86849,86797
 3.4000e+000 86976 -8.9039e+000 -6.1071e+001 -2.4633e+001 47226 86797,86849,86823
 3.4000e+000 86953  4.1794e+001 -8.0561e+001 -3.8749e+001 47226 86875,86927,86901
 3.4000e+000 87071  2.5779e+001 -1.1749e+002 -4.1252e+001 47226 86927,86875,87045
 3.4000e+000 87094  4.7544e+000 -1.1754e+002 -4.8129e+001 47226 86927,87045,86797
 3.4000e+000 87244 -8.5329e+000 -1.8911e+002  5.9121e+001 46814 87267,87169,87143
 3.4000e+000 87221 -9.2773e+001 -1.7037e+002 -4.8293e+000 46814 87267,87143,87117
 3.4000e+000 87293 -9.9917e+000 -1.4951e+002  3.4903e+001 46814 87339,87267,87195
 3.4000e+000 87316 -8.8069e+000 -1.3452e+002  7.4231e+000 46814 87469,87267,87117
 3.4000e+000 87365  1.8185e+001 -1.3451e+002  4.3010e+001 46814 87169,87267,87339
 3.4000e+000 87495 -5.3479e-001 -1.7182e+001  6.8077e-001 46814 87195,87267,87469
 3.4000e+000 88001 -6.4276e+001 -1.6174e+002  3.3005e+001 46310 88024,87834,87808
 3.4000e+000 87978 -7.7279e+001 -1.6481e+002  2.0552e+001 46310 88024,87808,87756
 3.4000e+000 87955 -3.7841e+001 -2.0911e+002  7.3237e+000 46310 88096,87730,87860
 3.4000e+000 87932 -5.5996e+001 -2.0724e+002  2.1700e+001 46310 87756,87808,87782
 3.4000e+000 87909 -4.7130e+001 -2.6079e+002  9.9656e+000 46310 87678,87860,87730
 3.4000e+000 87886 -7.3530e+001 -4.0678e+002 -1.9848e+001 46310 87678,87730,87704
 3.4000e+000 88050 -5.4256e+001 -1.3968e+002  2.0114e+001 46310 87860,87834,88024
 3.4000e+000 88073 -3.9657e+001 -1.5504e+002  2.5267e+001 46310 88096,87860,88024
 3.4000e+000 88122 -5.1866e+001 -2.3475e+002 -1.0619e+001 46310 87756,87730,88096
 3.4000e+000 88145 -8.7458e+001 -2.1314e+002 -5.6175e-001 46310 87756,88096,88024
 3.4000e+000 88572 -3.8888e+001 -1.8340e+002  3.5403e+000 45856 88249,88405,88275
 3.4000e+000 88549 -3.1534e+001 -6.1341e+001 -4.3401e+001 45856 88249,88431,88405
 3.4000e+000 88526 -9.5496e+001 -2.6426e+002 -3.4570e+001 45856 88327,88405,88353
 3.4000e+000 88503 -4.5647e+001 -2.1015e+002 -1.3782e+001 45856 88275,88405,88327
 3.4000e+000 88480 -7.5261e+001 -2.1937e+002 -3.8878e+001 45856 88353,88405,88379
 3.4000e+000 88457 -1.9362e+002 -5.1922e+002  4.5601e+001 45856 88275,88327,88301
 3.4000e+000 88950 -3.6993e+001 -1.2192e+002 -3.1592e+000 45658 88973,88754,88728
 3.4000e+000 88927 -3.4796e+001 -1.2783e+002 -3.5486e+000 45658 88973,88728,88676
 3.4000e+000 88904 -3.6308e+001 -1.5303e+002  4.4216e+001 45658 88676,88832,88806
 3.4000e+000 88881 -5.7669e+001 -1.7110e+002  1.4196e+001 45658 88676,88728,88702
 3.4000e+000 88858 -4.6293e+001 -1.1276e+002 -2.0455e+001 45658 88754,88806,88780
 3.4000e+000 88999 -3.9695e+001 -1.2662e+002 -2.0305e+000 45658 88806,88754,88973
 3.4000e+000 89022 -3.5853e+001 -1.3011e+002 -2.9869e+000 45658 88806,88973,88676
 3.4000e+000 89351 -4.9780e+001 -1.7816e+002 -9.6028e+000 45254 89152,89230,89204
 3.4000e+000 89328 -4.3513e+001 -1.7540e+002 -9.1682e+000 45254 89152,89256,89230
 3.4000e+000 89305 -5.8462e+000 -1.8422e+002 -2.3512e+001 45254 89126,89256,89152
 3.4000e+000 89282  1.7726e+001 -1.8128e+002 -3.8329e+001 45254 89152,89204,89178
 3.4000e+000 89523 -3.2170e+001 -1.6513e+002  1.2824e-001 45006 89422,89474,89448
 3.4000e+000 89500 -2.5650e+001 -1.6236e+002  5.3408e+000 45006 89396,89474,89422
 3.4000e+000 89673 -1.4766e+002 -2.5851e+002  2.3249e+001 44495 89572,89624,89598
 3.4000e+000 89650 -1.5007e+002 -2.5432e+002  1.4078e+001 44495 89546,89624,89572
 3.4000e+000 90104 -1.5315e+001 -2.0875e+002 -8.1863e+000 44005 90199,90127,89937
 3.4000e+000 90081 -3.9346e+001 -2.0364e+002  3.1008e+000 44005 90271,90127,89859
 3.4000e+000 90058 -5.2764e+000 -2.1240e+002 -8.3121e+000 44005 90199,89937,89885
 3.4000e+000 90035 -5.5815e+001 -1.9310e+002  1.2432e+001 44005 90271,89859,89807
 3.4000e+000 90012 -3.0957e+001 -2.2640e+002 -2.4848e+001 44005 89885,89937,89911
 3.4000e+000 89989 -1.6346e+001 -2.0620e+002  3.4564e+001 44005 89807,89859,89833
 3.4000e+000 90153 -4.0604e+001 -2.1833e+002 -5.6115e+000 44005 89963,89937,90127
 3.4000e+000 90176 -4.2117e+001 -2.2796e+002  3.5320e+000 44005 89963,90127,89781
 3.4000e+000 90225 -4.2443e+001 -2.0503e+002 -2.1355e+000 44005 89859,90127,90199
 3.4000e+000 90248 -1.8959e+001 -1.9924e+002  2.8364e+000 44005 89859,90199,89885
 3.4000e+000 90297 -6.1565e+001 -2.1665e+002 -2.2623e+000 44005 89781,90127,90271
 3.4000e+000 90320 -7.1170e+001 -2.0249e+002  8.4808e+000 44005 89781,90271,89807
 3.4000e+000 90470 -3.8136e+001 -2.3316e+002 -1.0404e+001 43601 90493,90369,90343
 3.4000e+000 90447 -6.2220e+001 -1.9210e+002  9.8977e+000 43601 90493,90343,90421
 3.4000e+000 90519 -7.5175e+001 -3.0836e+002 -3.6752e+001 43601 90395,90369,90493
 3.4000e+000 90542 -6.1266e+001 -2.2190e+002 -1.0752e+001 43601 90395,90493,90421
 3.4000e+000 90922 -8.1885e+001 -2.4828e+002  1.7372e+001 43154 90945,90700,90674
 3.4000e+000 90899 -7.6988e+001 -2.5384e+002 -2.1815e+001 43154 90945,90674,90648
 3.4000e+000 90876 -8.8481e+001 -2.0139e+002 -1.5713e+001 43154 90648,90778,90752
 3.4000e+000 90853 -4.6244e+001 -3.9389e+002  1.1409e+001 43154 90700,90752,90726
 3.4000e+000 90830 -5.3932e+001 -2.0304e+002 -4.1176e+000 43154 90648,90804,90778
 3.4000e+000 90971 -9.3791e+001 -2.8240e+002  2.2162e+001 43154 90752,90700,90945
 3.4000e+000 90994 -8.5260e+001 -2.7409e+002 -1.5918e+001 43154 90752,90945,90648
 3.4000e+000 91451 -2.2403e+001 -1.6862e+002 -3.7178e+001 42650 91203,91255,91229
 3.4000e+000 91428 -1.6076e-003 -1.5846e+002 -1.5943e+001 42650 91203,91333,91255
 3.4000e+000 91405  2.9805e+000 -2.6694e+002 -4.3867e+001 42650 91177,91333,91203
 3.4000e+000 91382 -7.1748e+001 -2.7810e+002  1.4155e+001 42650 91255,91333,91281
 3.4000e+000 91359  5.2717e+001 -2.1941e+002 -3.1203e+000 42650 91281,91333,91307
 3.4000e+000 91721 -1.1091e+002 -2.5842e+002  1.7725e+001 42288 91496,91600,91522
 3.4000e+000 91698 -5.5063e+001 -1.4200e+002 -5.4127e+000 42288 91496,91626,91600
 3.4000e+000 91675 -6.9531e+001 -2.3320e+002  1.9482e+001 42288 91522,91574,91548
 3.4000e+000 91652 -5.6733e+001 -2.3763e+002  1.8123e+001 42288 91522,91600,91574
 3.4000e+000 92199 -1.6787e+002 -2.8414e+002 -8.2443e+000 41898 92222,91983,91879
 3.4000e+000 92176 -1.7473e+002 -3.0734e+002 -1.7539e+001 41898 92294,92222,91879
 3.4000e+000 92153 -1.8652e+002 -3.0085e+002 -2.6513e+001 41898 92294,91879,91853
 3.4000e+000 92130 -1.4838e+002 -1.7824e+002  1.6492e+001 41898 91879,91957,91931
 3.4000e+000 92107 -1.5254e+002 -2.7826e+002 -2.5543e+000 41898 91879,91983,91957
 3.4000e+000 92084 -1.5835e+002 -1.6353e+002  3.0192e+001 41898 91879,91931,91905
 3.4000e+000 92061 -1.5709e+002 -2.6848e+002 -2.2596e+001 41898 91827,92035,91853
 3.4000e+000 92248 -1.6493e+002 -3.1152e+002 -2.6374e+000 41898 92009,91983,92222
 3.4000e+000 92271 -1.6130e+002 -3.1685e+002 -2.3156e+001 41898 92009,92222,92035
 3.4000e+000 92320 -1.5446e+002 -2.9772e+002 -2.0423e+001 41898 92035,92222,92294
 3.4000e+000 92343 -1.6334e+002 -2.9024e+002 -2.8986e+001 41898 92035,92294,91853
 3.4000e+000 92770 -6.0395e+001 -2.6539e+002 -1.7857e+001 41437 92865,92793,92525
 3.4000e+000 92747 -8.3709e+001 -3.0814e+002 -2.4775e+001 41437 92793,92473,92629
 3.4000e+000 92724 -3.2895e+001 -2.7079e+002 -3.2609e+001 41437 92865,92525,92499
 3.4000e+000 92701 -9.2038e+001 -2.3994e+002 -4.0676e+001 41437 92525,92603,92577
 3.4000e+000 92678 -2.7168e+000 -2.9622e+002 -2.0941e+001 41437 92447,92629,92473
 3.4000e+000 92655 -1.4246e+002 -2.1893e+002 -2.5648e+001 41437 92525,92577,92551
 3.4000e+000 92819 -6.8533e+001 -2.8396e+002 -4.0450e+001 41437 92603,92525,92793
 3.4000e+000 92842 -1.2600e+002 -3.0390e+002 -7.1836e+001 41437 92603,92793,92629
 3.4000e+000 92891 -5.2616e+000 -2.8962e+002 -2.4070e+001 41437 92473,92793,92865
 3.4000e+000 92914  3.5376e+001 -2.7692e+002 -4.5974e+001 41437 92473,92865,92499
 3.4000e+000 93243 -4.4340e+001 -3.8872e+002  1.3838e+002 41097 93044,93096,93070
 3.4000e+000 93220 -7.4430e+001 -3.3359e+002  7.1020e+001 41097 93044,93122,93096
 3.4000e+000 93197  3.9180e+001 -2.3240e+002  2.8266e+001 41097 93044,93148,93122
 3.4000e+000 93174 -4.3410e+001 -1.5454e+002  8.1998e+001 41097 93018,93148,93044
 3.4000e+000 93393 -2.9129e+000 -2.8339e+002  1.9900e+001 40643 93416,93292,93344
 3.4000e+000 93370 -1.4107e+001 -2.4680e+002  2.3936e+001 40643 93266,93344,93292
 3.4000e+000 93442 -8.3681e+000 -2.8348e+002  2.2913e+001 40643 93318,93292,93416
 3.4000e+000 93901 -9.1837e+001 -2.7009e+002 -1.8139e+001 40132 93924,93731,93705
 3.4000e+000 93878 -9.6991e+001 -2.7788e+002 -2.0497e+001 40132 93996,93924,93705
 3.4000e+000 93855 -1.1362e+002 -3.1849e+002 -8.2033e+000 40132 93996,93705,93653
 3.4000e+000 93832 -5.6523e+001 -3.0963e+002 -1.7074e+001 40132 93653,93705,93679
 3.4000e+000 93809 -8.8680e+001 -2.6766e+002  3.3029e+000 40132 93627,93783,93757
 3.4000e+000 93950 -8.8348e+001 -2.8577e+002 -2.1606e+001 40132 93757,93731,93924
 3.4000e+000 93973 -9.8981e+001 -2.5414e+002 -5.1862e+000 40132 93757,93924,93627
 3.4000e+000 94022 -1.2537e+002 -3.0278e+002  8.8241e+000 40132 93627,93924,93996
 3.4000e+000 94045 -1.1767e+002 -3.1713e+002  1.7774e+001 40132 93627,93996,93653
 3.4000e+000 94423 -6.7543e+000 -2.9008e+002 -4.5067e+001 39514 94149,94227,94175
 3.4000e+000 94400 -2.2828e+001 -2.7770e+002  3.2827e+001 39514 94149,94305,94227
 3.4000e+000 94377  1.5120e+001 -3.4888e+002 -4.1669e+001 39514 94175,94227,94201
 3.4000e+000 94354 -8.4111e+001 -2.5711e+002  1.3215e+001 39514 94227,94305,94279
 3.4000e+000 94331 -3.0647e+001 -2.3246e+002  2.4450e+001 39514 94227,94279,94253
 3.4000e+000 94573 -3.1096e+001 -1.8186e+002 -3.6585e+001 38822 94596,94498,94472
 3.4000e+000 94550  2.5638e+001 -1.9863e+002  3.9264e+001 38822 94596,94472,94446
 3.4000e+000 94622 -9.6847e+001 -2.1024e+002 -3.3194e+001 38822 94524,94498,94596
 3.4000e+000 94645 -8.6402e+001 -2.4956e+002  5.0599e+001 38822 94524,94596,94446
 3.4000e+000 95025 -2.0822e+001 -2.3017e+002 -1.8030e+001 38418 95048,94829,94777
 3.4000e+000 95002 -2.6477e+001 -2.4081e+002 -2.8241e+001 38418 95120,95048,94777
 3.4000e+000 94979 -2.0543e+001 -2.3878e+002 -2.6333e+001 38418 95120,94777,94751
 3.4000e+000 94956 -1.4826e+001 -2.1487e+002 -3.0832e+001 38418 95192,94881,94855
 3.4000e+000 94933 -7.2594e+001 -2.0522e+002 -1.2217e+001 38418 94777,94829,94803
 3.4000e+000 95074 -4.3354e+001 -3.0028e+002 -6.4729e+000 38418 94855,94829,95048
 3.4000e+000 95097 -2.1075e+001 -2.3893e+002 -3.3285e+001 38418 95192,94855,95048
 3.4000e+000 95146 -4.5478e+001 -2.3021e+002 -2.2638e+001 38418 94907,95048,95120
 3.4000e+000 95169 -2.9606e+001 -2.1992e+002 -1.7279e+001 38418 94907,95120,94751
 3.4000e+000 95218 -2.2358e+001 -1.6937e+002 -2.7471e+001 38418 94907,94881,95192
 3.4000e+000 95241 -3.7436e+001 -2.0849e+002 -2.3492e+001 38418 94907,95192,95048
 3.4000e+000 95511 -8.3557e+001 -2.6104e+002  1.0815e+001 38049 95312,95390,95364
 3.4000e+000 95488 -6.2323e+001 -2.5268e+002  1.2351e+001 38049 95312,95416,95390
 3.4000e+000 95465 -3.0027e+001 -2.4833e+002 -1.6801e+001 38049 95312,95364,95338
 3.4000e+000 95442 -2.4346e+001 -2.3711e+002  2.3082e+001 38049 95286,95416,95312
 3.4000e+000 95808 -7.3128e+001 -2.8343e+002 -7.0685e+000 37437 95831,95586,95560
 3.4000e+000 95785  2.6198e+001 -2.9889e+002 -1.3409e+001 37437 95831,95560,95534
 3.4000e+000 95762 -1.4548e+002 -2.6931e+002  5.4786e+000 37437 95586,95664,95638
 3.4000e+000 95739 -2.2454e+001 -1.3837e+002 -7.3531e+001 37437 95534,95690,95664
 3.4000e+000 95716 -1.3276e+002 -1.9311e+002  6.3232e+000 37437 95586,95638,95612
 3.4000e+000 95857 -1.3706e+002 -2.7632e+002  3.2900e+001 37437 95664,95586,95831
 3.4000e+000 95880 -3.1774e+001 -2.8885e+002  2.7926e+001 37437 95664,95831,95534
 3.4000e+000 96390 -9.3107e+001 -2.0678e+002 -1.3948e+001 36883 96413,96145,96093
 3.4000e+000 96367 -7.4087e+001 -1.9737e+002 -8.6564e+000 36883 96413,96093,96067
 3.4000e+000 96344 -5.2160e+001 -2.4147e+002  3.8762e-001 36883 96067,96249,96171
 3.4000e+000 96321 -8.2499e+001 -2.3811e+002 -6.0831e+000 36883 96093,96145,96119
 3.4000e+000 96298 -1.1474e+002 -4.0016e+002  3.7738e+001 36883 96171,96249,96197
 3.4000e+000 96275 -2.9470e+001 -3.1690e+002 -6.8838e+000 36883 96197,96249,96223
 3.4000e+000 96439 -8.7860e+001 -2.0009e+002  3.1436e+000 36883 96171,96145,96413
 3.4000e+000 96462 -7.2031e+001 -1.9595e+002  6.9079e+000 36883 96171,96413,96067
 3.4000e+000 96781 -7.7212e+001 -2.3659e+002 -3.5042e+001 36215 96559,96663,96637
 3.4000e+000 96758 -9.5590e+001 -2.5881e+002 -4.4248e+001 36215 96507,96663,96559
 3.4000e+000 96735 -9.4816e+001 -1.7710e+002  1.8431e+001 36215 96585,96637,96611
 3.4000e+000 96712 -2.0059e+002 -2.7536e+002 -2.9863e+001 36215 96559,96637,96585
 3.4000e+000 96689 -3.7183e+001 -3.0290e+002 -1.0143e+001 36215 96507,96559,96533
 3.4000e+000 97161  5.2819e+000 -1.3040e+002 -7.5477e+000 35818 97184,96965,96939
 3.4000e+000 97138 -1.5009e+001 -1.5645e+002 -1.7633e+001 35818 97184,96939,96887
 3.4000e+000 97115 -1.3348e-001 -1.6060e+002  3.2489e+001 35818 96965,97043,97017
 3.4000e+000 97092 -1.0203e+001 -1.4821e+002 -1.9608e+001 35818 96887,96939,96913
 3.4000e+000 97069 -8.2514e+001 -1.6984e+002  1.9114e+001 35818 96965,97017,96991
 3.4000e+000 97210  2.7321e+001 -1.5288e+002  7.3885e+000 35818 97043,96965,97184
 3.4000e+000 97233  1.1049e+001 -1.7116e+002 -7.5296e-001 35818 97043,97184,96887
 3.4000e+000 97739 -9.1872e+001 -2.5827e+002 -5.8397e+001 35214 97416,97468,97442
 3.4000e+000 97716 -1.0535e+002 -1.8750e+002 -1.9257e+001 35214 97416,97598,97468
 3.4000e+000 97693 -9.3130e+001 -1.7749e+002 -7.4959e+000 35214 97762,97520,97468
 3.4000e+000 97670 -9.6281e+001 -1.8224e+002 -1.4970e+001 35214 97762,97468,97598
 3.4000e+000 97647 -7.4119e+001 -1.7602e+002 -2.4008e+001 35214 97546,97598,97572
 3.4000e+000 97624 -6.2075e+001 -1.8413e+002 -9.8383e+000 35214 97468,97520,97494
 3.4000e+000 97788 -9.6010e+001 -1.8619e+002 -1.1077e+001 35214 97546,97520,97762
 3.4000e+000 97811 -9.7002e+001 -1.8988e+002 -1.8040e+001 35214 97546,97762,97598
 3.4000e+000 98189 -1.9668e+001 -1.4499e+002 -9.8229e+000 34760 98356,98212,97967
 3.4000e+000 98166 -4.0375e+001 -1.7697e+002 -2.3310e+001 34760 98284,98212,97941
 3.4000e+000 98143 -6.9700e+001 -1.6082e+002 -1.0379e+001 34760 98284,97941,97915
 3.4000e+000 98120 -2.2913e+001 -1.9304e+002 -4.2737e+000 34760 98484,97993,97967
 3.4000e+000 98097 -2.1527e+001 -1.6409e+002 -4.7406e+000 34760 98556,98045,98019
 3.4000e+000 98238 -3.2766e+001 -1.8210e+002 -5.0127e+000 34760 98484,97967,98212
 3.4000e+000 98261 -7.9564e+000 -1.7165e+002 -1.1817e+001 34760 98556,98019,98212
 3.4000e+000 98310 -1.4780e+001 -1.4815e+002 -3.5490e+001 34760 98071,98212,98284
 3.4000e+000 98333 -3.4722e+001 -1.0844e+002 -2.8606e+001 34760 98071,98284,97915
 3.4000e+000 98382 -9.2328e+001 -1.9442e+002 -3.2104e+001 34760 97941,98212,98356
 3.4000e+000 98510 -6.4009e+000 -1.8445e+002 -9.6469e+000 34760 98019,97993,98484
 3.4000e+000 98533 -2.2567e+001 -1.7859e+002 -9.4122e+000 34760 98019,98484,98212
 3.4000e+000 98582 -4.4783e+000 -1.5449e+002 -7.4286e-001 34760 98071,98045,98556
 3.4000e+000 98605  1.0428e+000 -1.6682e+002 -9.5433e+000 34760 98071,98556,98212
 3.4000e+000 99032 -9.3414e+001 -2.1909e+002  3.0108e+001 34156 98735,98891,98839
 3.4000e+000 99009 -7.7999e+001 -2.2523e+002  1.3738e+001 34156 98709,98891,98735
 3.4000e+000 98986 -2.5681e+001 -1.9830e+002  2.9257e+001 34156 98735,98813,98787
 3.4000e+000 98963 -3.0865e+001 -2.1582e+002  2.4217e+001 34156 98735,98839,98813
 3.4000e+000 98940  1.3646e+001 -2.9648e+002  3.2852e+001 34156 98735,98787,98761
 3.4000e+000 98917 -8.3176e+001 -1.9284e+002  1.7392e+001 34156 98839,98891,98865
 3.4000e+000 99231 -2.8501e+001 -1.2167e+002  9.4959e+000 33766 99055,99133,99107
 3.4000e+000 99208 -5.0230e+001 -1.5684e+002  1.9862e+001 33766 99055,99159,99133
 3.4000e+000 99185 -1.6459e+001 -1.4551e+002  2.4952e+001 33766 99055,99107,99081
 3.4000e+000 99818 -6.3706e+001 -1.7408e+002  3.4675e+000 33248 99521,99651,99573
 3.4000e+000 99795 -6.2845e+001 -1.6665e+002  1.5876e+001 33248 99521,99677,99651
 3.4000e+000 99772 -9.2992e+001 -2.1094e+002 -1.0909e+001 33248 99573,99651,99599
 3.4000e+000 99749 -6.3510e+001 -2.0832e+002  1.8493e+001 33248 99495,99677,99521
 3.4000e+000 99726 -4.6697e+001 -1.8067e+002 -4.1075e+001 33248 99599,99651,99625
 3.4000e+000 99703 -8.1992e+001 -2.1112e+002  1.3079e+001 33248 99521,99573,99547
 3.4000e+000 100196 -6.6203e+001 -1.8872e+002 -3.5948e+001 32794 100219,99948,99922
 3.4000e+000 100173 -7.6221e+001 -2.0974e+002 -1.7372e+001 32794 100219,99922,100052
 3.4000e+000 100150 -9.9446e+001 -1.9175e+002  1.0074e+001 32794 99974,100052,100026
 3.4000e+000 100127 -9.0793e+001 -1.7316e+002 -2.7327e+001 32794 99922,100078,100052
 3.4000e+000 100104 -1.0582e+002 -2.3424e+002  4.3371e+001 32794 99974,100026,100000
 3.4000e+000 100245 -8.7260e+001 -1.8550e+002 -1.5569e+001 32794 99974,99948,100219
 3.4000e+000 100268 -9.3199e+001 -2.1340e+002  3.1927e+000 32794 99974,100219,100052
 3.4000e+000 100418 -1.0879e+001 -1.6736e+002 -1.8775e+001 32504 100571,100343,100317
 3.4000e+000 100395 -6.5930e+001 -1.9235e+002  1.6634e+001 32504 100571,100317,100441
 3.4000e+000 100467  5.1597e+001 -9.1172e+001 -5.0266e+001 32504 100291,100369,100441
 3.4000e+000 100597  1.3678e+001 -1.4026e+002 -6.1682e+001 32504 100369,100343,100571
 3.4000e+000 100620 -1.0981e+001 -1.3065e+002 -3.1102e+001 32504 100369,100571,100441
 3.4000e+000 101020 -3.3444e+001 -1.6082e+002  7.4779e+000 32142 100772,100902,100876
 3.4000e+000 100997 -2.2422e+001 -1.4892e+002  1.2551e+001 32142 100746,100902,100772
 3.4000e+000 100974 -1.4254e+001 -1.8111e+002  1.7195e+001 32142 101043,100824,100798
 3.4000e+000 100951 -3.4246e+001 -1.8976e+002  1.3655e+001 32142 101043,100798,100772
 3.4000e+000 100928 -1.0521e+002 -2.1902e+002 -5.0383e+001 32142 101115,100876,100850
 3.4000e+000 101069  1.6767e+001 -1.9216e+002 -1.8919e+001 32142 100850,100824,101043
 3.4000e+000 101092 -5.8072e+001 -2.2422e+002 -2.4643e+001 32142 101115,100850,101043
 3.4000e+000 101141 -4.7332e+001 -1.8785e+002 -1.8018e+001 32142 100772,100876,101115
 3.4000e+000 101164 -1.1244e+001 -1.9162e+002  1.0210e+001 32142 100772,101115,101043
 3.4000e+000 101719 -9.5930e+001 -2.2839e+002  2.8995e+001 31538 101742,101477,101399
 3.4000e+000 101696 -1.1948e+002 -2.7802e+002  5.3835e+000 31538 101814,101742,101399
 3.4000e+000 101673 -1.3838e+002 -2.3845e+002 -2.2470e+001 31538 101814,101399,101373
 3.4000e+000 101650 -9.6505e+001 -1.6516e+002  1.9120e+001 31538 101425,101477,101451
 3.4000e+000 101627 -9.0947e+001 -1.9352e+002  4.0271e+000 31538 101399,101477,101425
 3.4000e+000 101604 -5.7418e+001 -2.6983e+002  5.6036e+001 31538 101477,101529,101503
 3.4000e+000 101581 -3.5985e+001 -1.6086e+002 -1.8436e+001 31538 101347,101555,101373
 3.4000e+000 101768 -1.1017e+002 -2.8027e+002  2.8934e+001 31538 101529,101477,101742
 3.4000e+000 101791 -9.3336e+001 -2.8642e+002 -1.0183e+001 31538 101529,101742,101555
 3.4000e+000 101840 -7.2382e+001 -2.3800e+002 -1.2777e+001 31538 101555,101742,101814
 3.4000e+000 101863 -9.9332e+001 -2.0566e+002 -3.8236e+001 31538 101555,101814,101373
 3.4000e+000 102111 -1.4015e+002 -3.6036e+002  4.6911e+001 31112 101886,101990,101912
 3.4000e+000 102088 -5.0805e+001 -2.1268e+002  3.6087e+000 31112 101886,102016,101990
 3.4000e+000 102065 -6.3532e+001 -3.4897e+002  7.1326e+001 31112 101912,101990,101964
 3.4000e+000 102042 -1.0195e+002 -4.3740e+002  8.4435e+001 31112 101912,101964,101938
 3.4000e+000 102408 -4.1870e+001 -2.2534e+002  1.6661e+001 30658 102431,102186,102160
 3.4000e+000 102385 -7.8494e+001 -2.2218e+002 -8.0090e-001 30658 102431,102160,102264
 3.4000e+000 102362 -7.3235e+001 -2.4347e+002  2.4244e+000 30658 102186,102238,102212
 3.4000e+000 102339 -8.4969e+001 -2.3599e+002 -1.5283e+001 30658 102134,102264,102160
 3.4000e+000 102316 -5.7691e+001 -1.9755e+002 -6.5491e+001 30658 102134,102290,102264
 3.4000e+000 102457 -7.2083e+001 -2.3771e+002  8.5989e+000 30658 102238,102186,102431
 3.4000e+000 102480 -1.1132e+002 -2.3825e+002 -1.0398e+001 30658 102238,102431,102264
 3.4000e+000 102681 -3.6225e+001 -2.7066e+002  3.7480e+001 30004 102704,102557,102505
 3.4000e+000 102658 -4.0015e+001 -2.7471e+002  3.9250e+001 30004 102704,102505,102609
 3.4000e+000 102635 -3.4797e+000 -2.3360e+002  8.6715e+000 30004 102505,102557,102531
 3.4000e+000 102730 -4.0167e+001 -2.6341e+002  3.4524e+001 30004 102583,102557,102704
 3.4000e+000 102753 -4.9354e+001 -2.6994e+002  3.7828e+001 30004 102583,102704,102609
 3.4000e+000 103003 -3.2533e+001 -2.1770e+002 -1.9090e+001 29564 103026,102804,102778
 3.4000e+000 102980 -4.0059e+001 -2.5766e+002 -2.8906e+001 29564 103026,102778,102908
 3.4000e+000 102957 -3.8145e+001 -2.1820e+002 -4.7260e+000 29564 102856,102908,102882
 3.4000e+000 102934 -5.4267e+001 -1.9854e+002  1.1118e+001 29564 102804,102856,102830
 3.4000e+000 103052 -2.8228e+001 -1.9747e+002  7.9907e+000 29564 102856,102804,103026
 3.4000e+000 103075 -3.9506e+001 -2.3019e+002 -5.5866e+000 29564 102856,103026,102908
 3.4000e+000 103634 -1.0608e+002 -2.5206e+002 -2.9234e+001 29160 103657,103418,103392
 3.4000e+000 103611 -1.0134e+002 -2.4328e+002 -1.4492e+001 29160 103657,103392,103314
 3.4000e+000 103588 -7.4613e+001 -2.1433e+002 -2.5597e+001 29160 103314,103392,103366
 3.4000e+000 103565 -6.6937e+001 -2.2828e+002 -2.9031e+001 29160 103314,103366,103340
 3.4000e+000 103542 -1.2502e+002 -2.3985e+002 -2.6666e+001 29160 103262,103444,103314
 3.4000e+000 103519 -1.4686e+002 -2.8445e+002 -3.6261e+001 29160 103262,103314,103288
 3.4000e+000 103496 -9.7060e+001 -2.6221e+002 -1.0103e+001 29160 103262,103470,103444
 3.4000e+000 103683 -1.2863e+002 -2.6972e+002 -4.5806e+001 29160 103444,103418,103657
 3.4000e+000 103706 -1.1014e+002 -2.4203e+002 -2.8778e+001 29160 103444,103657,103314
 3.4000e+000 104035 -6.4509e+001 -2.3032e+002  2.0366e+001 28770 103836,103914,103862
 3.4000e+000 104012 -6.1361e+001 -2.2112e+002  2.6503e+001 28770 103810,103914,103836
 3.4000e+000 103989  1.8477e+001 -2.0040e+002  3.4667e+001 28770 103810,103940,103914
 3.4000e+000 103966 -1.2183e+001 -1.8665e+002  4.3867e+001 28770 103862,103914,103888
 3.4000e+000 104185 -3.5129e+001 -2.3108e+002  3.7803e+001 28366 104208,104110,104084
 3.4000e+000 104162 -2.5039e+001 -1.9470e+002  3.5400e+001 28366 104280,104208,104084
 3.4000e+000 104234  2.5794e+001 -2.2616e+002  2.3428e+001 28366 104610,104208,104136
 3.4000e+000 104257 -5.3000e+001 -2.2063e+002  2.4870e+001 28366 104538,104410,104208
 3.4000e+000 104306 -7.8123e+001 -2.2254e+002  2.4087e+001 28366 104538,104208,104280
 3.4000e+000 104436 -2.6960e+001 -2.3152e+002  3.0083e+000 28366 104136,104208,104410
 3.4000e+000 104564 -7.9235e+001 -2.2010e+002  1.1609e+001 28366 104058,104410,104538
 3.4000e+000 104587 -9.4835e+001 -2.1627e+002  9.1542e+000 28366 104058,104538,104280
 3.4000e+000 104636  9.8574e+000 -2.3139e+002  3.0638e+001 28366 104110,104208,104610
 3.4000e+000 105349 -5.2966e+001 -1.9517e+002 -2.0382e+001 27976 105516,105372,105107
 3.4000e+000 105326 -8.2267e+001 -1.9542e+002  4.9911e+000 27976 105588,105372,105055
 3.4000e+000 105303 -8.7515e+001 -1.8991e+002 -1.9271e+001 27976 105444,105159,105133
 3.4000e+000 105280 -3.0764e+001 -2.0281e+002 -1.2226e+001 27976 105516,105107,105081
 3.4000e+000 105257 -7.6578e+001 -2.1615e+002  1.8196e+001 27976 105588,105055,105029
 3.4000e+000 105234 -4.1549e+001 -1.6520e+002  2.0763e+000 27976 105003,105185,105159
 3.4000e+000 105211 -5.7527e+001 -1.3364e+002  2.4082e+001 27976 104977,105185,105003
 3.4000e+000 105398 -4.2734e+001 -1.9557e+002 -2.5868e+001 27976 105133,105107,105372
 3.4000e+000 105421 -7.0617e+001 -2.0317e+002 -1.1516e+001 27976 105444,105133,105372
 3.4000e+000 105470 -7.1814e+001 -1.6733e+002 -1.0474e+001 27976 105003,105159,105444
 3.4000e+000 105493 -5.9795e+001 -1.8260e+002 -6.6928e+000 27976 105003,105444,105372
 3.4000e+000 105542 -3.8075e+001 -1.9273e+002 -2.0481e+000 27976 105055,105372,105516
 3.4000e+000 105565 -4.9991e+000 -1.9612e+002  3.8533e+000 27976 105055,105516,105081
 3.4000e+000 105614 -9.4317e+001 -2.1589e+002  1.4946e+001 27976 105003,105372,105588
 3.4000e+000 105637 -9.1787e+001 -2.3624e+002  2.9380e+001 27976 105003,105588,105029
 3.4000e+000 106143 -1.0232e+002 -3.0445e+002  1.8090e+001 27664 106166,105846,105820
 3.4000e+000 106120 -7.4906e+001 -2.4129e+002  7.8624e+000 27664 106310,106166,105820
 3.4000e+000 106097 -3.6383e+001 -2.7731e+002 -5.2205e+001 27664 106382,106238,105950
 3.4000e+000 106074 -5.0126e+001 -2.3772e+002  9.2764e+000 27664 106310,105820,106002
 3.4000e+000 106051  1.9171e+001 -2.4569e+002 -3.8674e+001 27664 106382,105950,105924
 3.4000e+000 106028 -3.6406e+001 -4.2280e+002 -1.3442e+001 27664 105846,105898,105872
 3.4000e+000 106192 -9.5842e+001 -3.3730e+002 -3.9478e+001 27664 105898,105846,106166
 3.4000e+000 106215 -6.3920e+001 -2.8544e+002 -1.1781e+001 27664 106238,105898,106166
 3.4000e+000 106264 -1.6167e+002 -3.1020e+002 -7.0396e+001 27664 105976,105950,106238
 3.4000e+000 106287 -5.6911e+001 -2.8399e+002 -1.2957e+001 27664 105976,106238,106166
 3.4000e+000 106336 -5.0133e+001 -2.5290e+002  3.0020e+001 27664 105976,106166,106310
 3.4000e+000 106359 -2.1865e+001 -2.4754e+002  3.0523e+001 27664 105976,106310,106002
 3.4000e+000 106408 -6.0126e+001 -2.2691e+002  1.0149e+001 27664 105898,106238,106382
 3.4000e+000 106431 -2.7027e+001 -2.1039e+002  1.8673e+001 27664 105898,106382,105924
 3.4000e+000 106728 -3.1176e+001 -1.6528e+002  3.0623e+001 27153 106751,106506,106454
 3.4000e+000 106705 -2.9116e+001 -1.6713e+002  2.3316e+001 27153 106751,106454,106610
 3.4000e+000 106682 -4.7656e+001 -1.2615e+002  6.0412e+000 27153 106454,106506,106480
 3.4000e+000 106659 -4.0573e+001 -1.6038e+002  1.3900e+001 27153 106532,106610,106584
 3.4000e+000 106636 -6.7079e+001 -9.8745e+001  3.0039e+001 27153 106532,106584,106558
 3.4000e+000 106777 -2.1316e+001 -1.6460e+002  3.1876e+001 27153 106532,106506,106751
 3.4000e+000 106800 -2.0845e+001 -1.6604e+002  2.3172e+001 27153 106532,106751,106610
 3.4000e+000 107180 -4.2234e+001 -1.9813e+002  1.3336e+001 26642 107203,106984,106958
 3.4000e+000 107157 -1.0411e+002 -2.2682e+002  3.5689e+000 26642 107203,106958,106932
 3.4000e+000 107134 -1.2254e+002 -2.4926e+002 -3.1763e+001 26642 107275,107036,107010
 3.4000e+000 107111 -7.8214e+001 -2.4736e+002 -4.0911e+001 26642 106932,107062,107036
 3.4000e+000 107088 -2.7332e+000 -1.9402e+002  2.3379e+001 26642 106906,107062,106932
 3.4000e+000 107229 -1.0948e+001 -1.8657e+002 -5.4130e+001 26642 107010,106984,107203
 3.4000e+000 107252 -1.0873e+002 -2.3035e+002 -3.9062e+001 26642 107275,107010,107203
 3.4000e+000 107301 -1.0607e+002 -2.4689e+002 -4.2062e+001 26642 106932,107036,107275
 3.4000e+000 107324 -1.0163e+002 -2.4716e+002 -4.4256e+001 26642 106932,107275,107203
 3.4000e+000 107675 -5.0906e+001 -1.4394e+002  1.5156e+001 26045 107450,107554,107476
 3.4000e+000 107652 -3.9686e+001 -1.2451e+002  4.1859e+000 26045 107450,107580,107554
 3.4000e+000 107629 -1.6796e+001 -1.2916e+002  5.4771e+000 26045 107476,107528,107502
 3.4000e+000 107606 -1.3761e+001 -1.3610e+002  7.8437e+000 26045 107476,107554,107528
 3.4000e+000 107874 -3.5503e+001 -2.1946e+002  5.4305e+001 25641 107750,107802,107776
 3.4000e+000 107851 -4.6778e+001 -1.5371e+002  2.7362e+001 25641 107724,107802,107750
 3.4000e+000 107828 -4.6043e+001 -1.5644e+002  2.3522e+001 25641 107698,107802,107724
 3.4000e+000 108431 -2.0327e+001 -2.3507e+002  4.0658e+001 25023 108526,108267,108241
 3.4000e+000 108408 -2.2482e-001 -2.2327e+002  7.6433e+000 25023 108059,108267,108085
 3.4000e+000 108385 -3.5116e+001 -2.4061e+002  3.9560e+001 25023 108454,108163,108111
 3.4000e+000 108362 -1.0731e+002 -2.4230e+002  6.7340e+001 25023 108454,108111,108085
 3.4000e+000 108339 -8.5773e+001 -3.1168e+002  6.9532e+001 25023 108111,108163,108137
 3.4000e+000 108316 -5.9169e+001 -1.7608e+002 -1.1495e+001 25023 108163,108241,108215
 3.4000e+000 108293  2.1920e+001 -1.3981e+002 -2.0336e+000 25023 108163,108215,108189
 3.4000e+000 108480 -1.0631e+001 -2.1523e+002  2.7003e+000 25023 108241,108163,108454
 3.4000e+000 108503 -3.6467e+001 -2.2843e+002  3.9109e+001 25023 108526,108241,108454
 3.4000e+000 108552 -3.9354e+001 -2.3743e+002  3.1714e+001 25023 108085,108267,108526
 3.4000e+000 108575 -5.6467e+001 -2.3192e+002  2.9751e+001 25023 108085,108526,108454
 3.4000e+000 108823 -1.4885e+001 -1.7357e+002  2.5721e+001 24461 108624,108728,108650
 3.4000e+000 108800 -3.4065e+001 -3.5585e+002 -2.1840e+001 24461 108598,108728,108624
 3.4000e+000 108777 -4.1741e+000 -2.3009e+002  2.3041e+001 24461 108650,108728,108676
 3.4000e+000 108754 -1.0619e+002 -6.4041e+002  5.6288e+001 24461 108676,108728,108702
 3.4000e+000 109022 -6.3255e+001 -1.7966e+002  2.0527e+001 24121 108872,108924,108898
 3.4000e+000 108999 -4.7814e+001 -1.7609e+002  2.3563e+001 24121 108846,108924,108872
 3.4000e+000 108976 -6.9624e+001 -1.8663e+002  2.7408e+001 24121 108846,108950,108924
 3.4000e+000 109483 -7.4739e+001 -2.4394e+002 -2.3386e+001 23717 109209,109339,109235
 3.4000e+000 109460 -2.9618e+001 -2.7664e+002 -5.5920e+001 23717 109209,109365,109339
 3.4000e+000 109437 -7.2741e+000 -3.0579e+002 -1.6897e+001 23717 109287,109339,109313
 3.4000e+000 109414 -1.4167e+002 -3.0849e+002  1.6279e+001 23717 109235,109339,109287
 3.4000e+000 109391 -1.1259e+001 -3.5965e+002  1.2052e+002 23717 109235,109287,109261
 3.4000e+000 109910 -9.5902e+001 -2.8251e+002 -2.9048e+001 23305 109613,109743,109717
 3.4000e+000 109887 -9.7078e+001 -2.8523e+002 -1.6453e+001 23305 109613,109769,109743
 3.4000e+000 109864 -1.1687e+002 -2.7726e+002 -2.3943e+001 23305 109613,109717,109639
 3.4000e+000 109841 -7.5698e+001 -2.6100e+002 -6.2858e+000 23305 109587,109769,109613
 3.4000e+000 109818  2.0324e+001 -2.1856e+002  3.2984e+001 23305 109639,109717,109691
 3.4000e+000 109795 -2.7388e+001 -1.7557e+002 -3.7148e+001 23305 109639,109691,109665
 3.4000e+000 110180 -6.3148e+000 -8.2903e+001 -1.7803e+001 22851 110007,110059,110033
 3.4000e+000 110157 -5.6954e+001 -2.2054e+002  9.2729e+000 22851 109981,110059,110007
 3.4000e+000 110134 -7.9478e+001 -2.3760e+002  1.1706e+000 22851 109955,110059,109981
 3.4000e+000 110111 -3.2115e+001 -2.5981e+002 -2.0254e+001 22851 109955,110085,110059
 3.4000e+000 110737 -5.3972e+001 -2.5933e+002 -6.0109e+001 22333 110760,110469,110391
 3.4000e+000 110714 -2.1990e+001 -2.8595e+002 -4.9617e+001 22333 110760,110391,110365
 3.4000e+000 110691 -2.9357e+001 -2.4938e+002 -5.1520e+001 22333 110832,110521,110469
 3.4000e+000 110668 -8.1080e+000 -4.2173e+002  4.8879e+000 22333 110417,110469,110443
 3.4000e+000 110645 -1.2543e+002 -3.8870e+002 -5.2605e-001 22333 110391,110469,110417
 3.4000e+000 110622 -3.5935e+000 -2.4622e+002 -3.0186e+001 22333 110469,110521,110495
 3.4000e+000 110599 -2.9401e+001 -1.7043e+002  1.7241e+001 22333 110365,110573,110547
 3.4000e+000 110786 -3.1300e+001 -2.5057e+002 -5.2038e+001 22333 110832,110469,110760
 3.4000e+000 110809  1.7579e+000 -2.6018e+002 -3.7236e+001 22333 110547,110760,110365
 3.4000e+000 110858 -1.8355e+001 -2.5354e+002 -5.4424e+001 22333 110547,110521,110832
 3.4000e+000 110881 -2.8046e+001 -2.5973e+002 -5.7083e+001 22333 110547,110832,110760
 3.4000e+000 111308 -1.3573e+002 -3.0944e+002  1.5453e+001 21829 111331,111063,111011
 3.4000e+000 111285 -1.2390e+002 -2.8968e+002 -5.4923e+000 21829 111331,111011,111167
 3.4000e+000 111262 -1.3886e+002 -3.0774e+002  1.6267e+001 21829 111403,111089,111063
 3.4000e+000 111239 -1.7299e+002 -3.3426e+002  4.2419e+001 21829 111011,111063,111037
 3.4000e+000 111216 -8.3421e+001 -2.1520e+002  1.1227e+001 21829 110985,111167,111011
 3.4000e+000 111193 -1.5505e+002 -4.8942e+002  1.0213e+002 21829 111089,111141,111115
 3.4000e+000 111357 -1.3538e+002 -3.1063e+002  1.6230e+001 21829 111403,111063,111331
 3.4000e+000 111380 -1.3896e+002 -3.2207e+002 -1.5855e+000 21829 111141,111331,111167
 3.4000e+000 111429 -1.4357e+002 -3.1188e+002  1.9446e+001 21829 111141,111089,111403
 3.4000e+000 111452 -1.3892e+002 -3.1620e+002  1.8146e+001 21829 111141,111403,111331
 3.4000e+000 112056  7.5817e+001 -2.3735e+002  5.1173e+000 21489 111687,111765,111739
 3.4000e+000 112033  9.2975e+000 -2.7284e+002  2.6844e+001 21489 112151,112079,111687
 3.4000e+000 112010 -8.6506e+000 -4.2134e+002  3.0464e+001 21489 111791,111843,111817
 3.4000e+000 111987 -8.3238e+001 -3.3566e+002 -2.3132e+001 21489 112079,111843,111791
 3.4000e+000 111964  4.8586e+001 -2.5464e+002  5.0192e+001 21489 112151,111687,111661
 3.4000e+000 111941 -3.1942e+001 -1.8671e+002  4.4757e+001 21489 111661,111869,111843
 3.4000e+000 111918  7.9927e+001 -2.5472e+002  3.4786e+001 21489 111687,111739,111713
 3.4000e+000 111895  6.0892e+000 -9.8407e+001  1.8242e+001 21489 111635,111869,111661
 3.4000e+000 112105 -5.2206e+001 -2.9422e+002  1.5752e+001 21489 111765,111687,112079
 3.4000e+000 112128 -5.1249e+001 -2.8177e+002  1.6761e+001 21489 111765,112079,111791
 3.4000e+000 112177 -5.7526e+001 -2.6952e+002 -5.8305e+000 21489 111843,112079,112151
 3.4000e+000 112200 -2.1367e+001 -2.6265e+002  1.3182e+001 21489 111843,112151,111661
 3.4000e+000 112578 -6.8481e+001 -3.4013e+002  1.4626e+001 21177 112382,112434,112408
 3.4000e+000 112555 -8.2936e+001 -3.3819e+002  1.0363e+000 21177 112330,112434,112382
 3.4000e+000 112532 -6.8207e+001 -2.9288e+002  4.8741e+001 21177 112304,112434,112330
 3.4000e+000 112509 -8.1517e+001 -3.2613e+002  0.0000e+000 21177 112330,112382,112356
 3.4000e+000 112486 -2.0251e+001 -1.9789e+002  1.1666e+001 21177 112304,112460,112434
 3.4000e+000 112679 -6.5716e+000 -2.4229e+002 -3.8797e+001 20666 112601,112653,112627
 3.4000e+000 112927 -9.6228e+001 -3.2646e+002  1.0566e+001 19762 112702,112754,112728
 3.4000e+000 112904 -3.7482e+001 -3.0816e+002 -4.3510e+000 19762 112702,112832,112754
 3.4000e+000 112881 -8.2451e+001 -3.2935e+002  5.2383e+001 19762 112754,112832,112806
 3.4000e+000 112858 -1.1461e+002 -4.0852e+002  4.9799e+001 19762 112754,112806,112780
 3.4000e+000 113297 -8.9443e+001 -3.8115e+002  2.3786e+001 19308 112974,113052,113026
 3.4000e+000 113274 -6.0390e+001 -3.2131e+002  7.6369e+000 19308 112974,113156,113052
 3.4000e+000 113251 -3.2723e+001 -4.2291e+002 -5.0456e+001 19308 113052,113130,113104
 3.4000e+000 113228 -6.4306e+001 -3.1904e+002  1.3356e-001 19308 113052,113156,113130
 3.4000e+000 113205 -6.1703e+001 -3.6913e+002  0.0000e+000 19308 113052,113104,113078
 3.4000e+000 113182 -1.2339e+002 -3.9312e+002 -7.7840e-001 19308 112974,113026,113000
 3.4000e+000 113547 -2.0717e+001 -3.5197e+002 -2.2046e+001 18711 113570,113374,113348
 3.4000e+000 113524 -3.4418e+001 -3.2210e+002 -1.2358e+001 18711 113570,113348,113452
 3.4000e+000 113501 -2.7030e+001 -2.4734e+002 -6.8859e+001 18711 113322,113452,113348
 3.4000e+000 113478 -4.2195e+001 -3.1234e+002 -1.1001e+002 18711 113374,113426,113400
 3.4000e+000 113596 -1.4527e+001 -3.1964e+002 -3.0245e+001 18711 113426,113374,113570
 3.4000e+000 113619 -3.2320e+001 -2.9584e+002 -1.4519e+001 18711 113426,113570,113452
 3.4000e+000 113771 -1.7354e+002 -4.3448e+002 -2.3343e+001 18307 113670,113722,113696
 3.4000e+000 113748 -1.3694e+002 -4.0628e+002 -1.0621e+001 18307 113644,113722,113670
 3.4000e+000 113972 -7.2240e+001 -3.5792e+002  5.0158e+000 17945 113822,113874,113848
 3.4000e+000 113949 -7.4955e+001 -3.5398e+002  8.0715e+000 17945 113822,113900,113874
 3.4000e+000 113926 -1.0731e+002 -2.7132e+002  1.6750e+002 17945 113796,113900,113822
 3.4000e+000 114075 -5.2088e+001 -5.3418e+002  5.7524e+001 17482 113997,114049,114023
 3.4000e+000 114479 -2.4795e+001 -2.9632e+002 -4.5181e+001 17042 114257,114361,114335
 3.4000e+000 114456 -7.2135e+001 -2.8595e+002 -8.6422e+000 17042 114205,114361,114257
 3.4000e+000 114433 -8.8111e+001 -3.3015e+002  1.0969e+001 17042 114205,114257,114231
 3.4000e+000 114410  6.4222e+001 -4.3447e+002 -2.8893e+001 17042 114283,114335,114309
 3.4000e+000 114387 -8.0574e+000 -3.7924e+002 -1.9161e+001 17042 114257,114335,114283
 3.4000e+000 114879 -1.5625e+002 -3.2734e+002 -3.2665e+000 16638 114631,114683,114657
 3.4000e+000 114856 -7.7619e+000 -2.6362e+002 -5.4230e+000 16638 114605,114683,114631
 3.4000e+000 114833  3.0983e+001 -1.6823e+002 -1.1981e+001 16638 114605,114761,114683
 3.4000e+000 114810 -2.6479e+001 -3.3962e+002 -1.8817e+001 16638 114683,114735,114709
 3.4000e+000 114787 -5.4845e+001 -3.6428e+002 -3.1183e+001 16638 114683,114761,114735
 3.4000e+000 115078 -1.4164e+002 -3.2855e+002  5.5222e+000 16232 114954,115006,114980
 3.4000e+000 115055 -1.5123e+002 -3.6756e+002  1.5805e+001 16232 114928,115006,114954
 3.4000e+000 115032 -7.1932e+001 -4.6172e+002  3.1057e+001 16232 114902,115006,114928
 3.4000e+000 115228 -1.0962e+002 -3.4196e+002  8.5258e+000 15482 115101,115153,115127
 3.4000e+000 115205 -8.3838e+001 -3.2132e+002 -3.2806e+000 15482 115101,115179,115153
 3.4000e+000 115331 -8.4009e+001 -3.2480e+002 -3.8259e+001 15163 115253,115305,115279
 3.4000e+000 115434 -1.0050e+002 -3.4027e+002  4.6028e+001 421 115356,115408,115382
 3.5000e+000 68213 -3.3568e+001 -2.1329e+002 -1.8628e+001 67888 68112,68164,68138
 3.5000e+000 68190 -2.3578e+002 -2.7467e+002 -2.9473e+001 67888 68086,68164,68112
 3.5000e+000 68314 -2.4278e+001 -2.7713e+002  2.6938e+001 67576 68236,68288,68262
 3.5000e+000 68584 -8.7539e+001 -4.4721e+002  1.6711e+001 67378 68385,68489,68463
 3.5000e+000 68561  8.3401e+001 -3.7558e+002  1.2651e+001 67378 68359,68489,68385
 3.5000e+000 68538 -7.7711e+001 -3.9069e+002  2.0745e+001 67378 68385,68463,68411
 3.5000e+000 68515 -4.7246e+001 -2.6178e+002  1.0093e+001 67378 68411,68463,68437
 3.5000e+000 68964 -9.3461e+001 -4.1111e+002  6.2266e+001 67130 68690,68820,68716
 3.5000e+000 68941  9.7443e+001 -4.2159e+002  1.1834e+002 67130 68690,68846,68820
 3.5000e+000 68918 -8.4167e+001 -2.7227e+002  6.7289e+000 67130 68742,68820,68794
 3.5000e+000 68895 -1.1510e+001 -2.7121e+002  2.5366e+001 67130 68716,68820,68742
 3.5000e+000 68872 -5.3720e+001 -2.2981e+002 -2.7332e+001 67130 68742,68794,68768
 3.5000e+000 69065 -5.5870e+001 -2.6644e+002 -5.0452e-001 66926 68987,69039,69013
 3.5000e+000 69445 -2.5286e+001 -2.4401e+002 -1.5199e+001 66614 69223,69301,69275
 3.5000e+000 69422 -4.8318e+001 -2.6002e+002 -4.2442e+000 66614 69171,69301,69223
 3.5000e+000 69399 -6.0927e+001 -2.7054e+002  1.5451e+000 66614 69171,69327,69301
 3.5000e+000 69376  1.1175e+001 -8.5736e+001  6.0995e+000 66614 69223,69275,69249
 3.5000e+000 69353 -4.7295e+001 -2.8106e+002 -7.1950e+000 66614 69171,69223,69197
 3.5000e+000 69546 -6.5762e+001 -3.7499e+002  2.1006e+001 66416 69468,69520,69494
 3.5000e+000 69997 -5.6840e+001 -3.8387e+002 -3.5754e+001 66104 69700,69830,69726
 3.5000e+000 69974 -7.4714e+001 -4.8355e+002 -7.2334e+001 66104 69700,69856,69830
 3.5000e+000 69951 -6.4026e+001 -2.9251e+002 -2.2123e+001 66104 69726,69804,69778
 3.5000e+000 69928 -5.0248e+001 -3.5661e+002 -3.1229e+001 66104 69726,69830,69804
 3.5000e+000 69905 -7.0102e+001 -2.8006e+002 -1.1820e+001 66104 69726,69778,69752
 3.5000e+000 69882 -2.1679e+001 -7.0648e+002 -1.2250e+002 66104 69674,69856,69700
 3.5000e+000 70326 -6.7680e+001 -1.7124e+002 -2.2104e+001 65814 70349,70153,70127
 3.5000e+000 70303 -4.7334e+000 -1.7367e+002 -2.5463e+000 65814 70349,70127,70101
 3.5000e+000 70280  3.9335e+001 -1.0058e+002  9.2319e+001 65814 70101,70231,70205
 3.5000e+000 70257  6.2100e+001 -1.8415e+002  2.1172e+001 65814 70153,70205,70179
 3.5000e+000 70375 -3.6941e+001 -1.7686e+002  2.2322e+001 65814 70205,70153,70349
 3.5000e+000 70398  5.2911e+001 -1.6887e+002  3.6080e+001 65814 70205,70349,70101
 3.5000e+000 70904 -2.2711e+001 -8.9923e+001 -2.8741e+001 65502 70607,70737,70685
 3.5000e+000 70881 -2.8971e+001 -7.0809e+001 -3.8276e+001 65502 70581,70737,70607
 3.5000e+000 70858 -2.7938e+001 -1.3329e+001 -6.5453e+000 65502 70581,70763,70737
 3.5000e+000 70835 -4.1745e+001 -1.0113e+002 -4.0587e+001 65502 70685,70737,70711
 3.5000e+000 70812 -1.3454e+002 -1.1729e+002 -5.0790e+000 65502 70607,70659,70633
 3.5000e+000 70789 -4.0674e+001 -1.2327e+002 -2.1670e+000 65502 70607,70685,70659
 3.5000e+000 71103 -4.0253e+001 -3.3890e+002 -8.2664e+000 65304 71126,70979,70953
 3.5000e+000 71080 -7.3236e+001 -3.4075e+002 -2.4358e+000 65304 71126,70953,70927
 3.5000e+000 71057 -1.0607e+002 -3.4758e+002  2.2292e+001 65304 70927,71031,71005
 3.5000e+000 71152 -7.3925e+001 -3.1754e+002 -1.7652e+001 65304 71005,70979,71126
 3.5000e+000 71175 -1.1305e+002 -3.2682e+002 -4.0473e+000 65304 71005,71126,70927
 3.5000e+000 71374 -2.2534e+001 -3.2543e+002  1.4374e+001 65106 71198,71276,71224
 3.5000e+000 71351 -9.7244e+001 -3.4851e+002  6.1946e+000 65106 71198,71302,71276
 3.5000e+000 71328  3.3880e-001 -2.6621e+002  3.9677e+001 65106 71224,71276,71250
 3.5000e+000 71756 -3.8803e+001 -2.3113e+002 -1.7229e+001 64652 71508,71638,71534
 3.5000e+000 71733 -1.6653e+000 -2.1474e+002  3.5917e+000 64652 71482,71638,71508
 3.5000e+000 71710 -7.3590e+001 -2.0704e+002 -1.5909e+001 64652 71534,71586,71560
 3.5000e+000 71687 -5.1736e+001 -2.2500e+002 -4.4536e+001 64652 71534,71612,71586
 3.5000e+000 71664 -1.0869e+002 -2.4700e+002 -4.2045e+001 64652 71534,71638,71612
 3.5000e+000 72085 -9.1779e+001 -2.4786e+002 -2.8541e+001 64248 71886,71964,71912
 3.5000e+000 72062 -8.5189e+001 -2.4350e+002 -3.0660e+001 64248 71860,71964,71886
 3.5000e+000 72039 -3.6860e+001 -2.5560e+002 -1.7351e+001 64248 71912,71964,71938
 3.5000e+000 72016 -6.3850e+001 -2.3685e+002 -3.8168e+001 64248 71860,71990,71964
 3.5000e+000 72235 -4.4088e+000 -1.5112e+002 -1.9381e+001 63858 72588,72258,72134
 3.5000e+000 72212 -8.8698e+000 -8.4167e+001  2.6802e+001 63858 72330,72258,72108
 3.5000e+000 72284 -6.5622e+000 -9.9554e+001 -8.7166e+000 63858 72160,72134,72258
 3.5000e+000 72307 -7.0849e+001 -1.3889e+002 -1.4089e+001 63858 72460,72258,72186
 3.5000e+000 72356 -5.8924e+001 -1.2771e+002 -6.5477e+000 63858 72186,72258,72330
 3.5000e+000 72486 -1.6911e+001 -1.2871e+002 -1.2438e+001 63858 72160,72258,72460
 3.5000e+000 72614  2.0212e+001 -1.5607e+002  2.2449e+001 63858 72108,72258,72588
 3.5000e+000 73248 -3.4215e+001 -2.1855e+002  7.2103e+001 63404 72902,72954,72928
 3.5000e+000 73225 -1.1196e+002 -2.5651e+002  3.7579e+001 63404 73271,72954,72902
 3.5000e+000 73202 -9.0603e+001 -2.0389e+002  3.0009e+001 63404 73271,72902,73032
 3.5000e+000 73179 -5.4547e+001 -1.7517e+002  1.2833e+001 63404 72902,73058,73032
 3.5000e+000 73156 -6.3467e+001 -2.0540e+002  7.5624e+000 63404 72980,73032,73006
 3.5000e+000 73133 -5.2919e+001 -1.8011e+002  1.0785e+001 63404 72876,73058,72902
 3.5000e+000 73110 -2.2763e+001 -8.4895e+001 -4.3563e+001 63404 72876,73084,73058
 3.5000e+000 73297 -8.6145e+001 -2.6176e+002  3.7320e+000 63404 72980,72954,73271
 3.5000e+000 73320 -7.8986e+001 -2.3481e+002  1.5815e+000 63404 72980,73271,73032
 3.5000e+000 73470 -9.2650e+001 -6.1826e+002  6.4458e+001 63014 73343,73395,73369
 3.5000e+000 73447 -2.9009e+002 -7.6149e+002 -1.5196e+001 63014 73343,73421,73395
 3.5000e+000 73929  2.4994e+001 -2.8212e+002  3.0012e+001 62702 73759,73811,73785
 3.5000e+000 73906  4.7733e+001 -2.7652e+002  1.9846e+001 62702 73655,73811,73759
 3.5000e+000 73883 -3.9540e-001 -3.2618e+002 -1.8662e+000 62702 73655,73759,73681
 3.5000e+000 73860  4.5961e+001 -2.3330e+002 -6.0000e+001 62702 73681,73759,73707
 3.5000e+000 73837 -1.0936e+002 -2.7721e+002  2.3511e+000 62702 73707,73759,73733
 3.5000e+000 74209 -1.6259e+002 -2.8550e+002  2.7827e+000 62404 74059,74137,74085
 3.5000e+000 74186 -1.9916e+002 -3.7718e+002  4.6481e+001 62404 74033,74137,74059
 3.5000e+000 74163 -1.7867e+002 -2.6492e+002 -5.1507e-001 62404 74085,74137,74111
 3.5000e+000 74408  3.0697e+000 -2.4139e+002  1.7730e+001 62000 74258,74336,74284
 3.5000e+000 74385 -8.0431e+000 -2.4171e+002  2.9432e+001 62000 74232,74336,74258
 3.5000e+000 74362 -5.5075e+001 -2.3284e+002 -1.8060e+000 62000 74284,74336,74310
 3.5000e+000 74509 -1.7115e+001 -3.0611e+002  1.1317e+001 61802 74431,74483,74457
 3.5000e+000 74759 -7.9836e+001 -2.6038e+002  1.2679e-001 61554 74782,74586,74560
 3.5000e+000 74736 -4.0227e+001 -2.3964e+002  7.7439e+000 61554 74782,74560,74664
 3.5000e+000 74713 -6.8075e+001 -1.8804e+002  6.2863e+001 61554 74854,74612,74586
 3.5000e+000 74690 -5.5622e+001 -2.6624e+002  1.1849e+000 61554 74534,74664,74560
 3.5000e+000 74808 -9.9160e+001 -2.3563e+002  1.7041e+001 61554 74854,74586,74782
 3.5000e+000 74831 -5.5815e+001 -2.9907e+002  1.6396e+001 61554 74638,74782,74664
 3.5000e+000 74880 -8.0553e+000 -2.3805e+002  6.9877e+001 61554 74638,74612,74854
 3.5000e+000 74903 -9.9459e+000 -2.3614e+002  3.6435e+001 61554 74638,74854,74782
 3.5000e+000 75285 -2.8614e+001 -2.7967e+002  5.8088e+000 61356 75063,75167,75115
 3.5000e+000 75262 -4.7776e+001 -3.0280e+002 -2.0318e+001 61356 75037,75167,75063
 3.5000e+000 75239  6.6313e+001 -2.9431e+002 -2.1481e+000 61356 75115,75167,75141
 3.5000e+000 75216  3.2120e+001 -2.4550e+002  1.9408e+001 61356 75063,75115,75089
 3.5000e+000 75193 -1.2735e+002 -2.3032e+002  2.0281e+001 61356 75011,75167,75037
 3.5000e+000 75631 -1.4717e+000 -2.1427e+002  3.0421e+000 60952 75654,75412,75360
 3.5000e+000 75608 -3.6941e+001 -2.5300e+002 -1.2929e+001 60952 75654,75360,75334
 3.5000e+000 75585 -1.9315e+001 -3.2902e+002  1.3078e+001 60952 75726,75438,75412
 3.5000e+000 75562 -4.3191e+001 -2.7472e+002 -4.7462e+001 60952 75308,75490,75334
 3.5000e+000 75539 -8.0046e+000 -2.1501e+002 -1.9018e+000 60952 75360,75412,75386
 3.5000e+000 75516 -4.4998e+001 -4.0539e+002 -8.8249e+000 60952 75438,75490,75464
 3.5000e+000 75680  6.0112e+000 -2.7420e+002  7.6882e-001 60952 75726,75412,75654
 3.5000e+000 75703  5.9939e-001 -2.6036e+002 -1.8589e+001 60952 75490,75654,75334
 3.5000e+000 75752  7.3578e+000 -2.6507e+002 -5.9872e+000 60952 75490,75438,75726
 3.5000e+000 75775  6.0267e+000 -2.5997e+002 -1.6887e+001 60952 75490,75726,75654
 3.5000e+000 76155 -3.2423e+001 -2.4412e+002 -6.4790e-001 60754 75933,75985,75959
 3.5000e+000 76132 -5.2890e+001 -2.5814e+002  2.8163e+001 60754 75933,76037,75985
 3.5000e+000 76109  1.1144e+001 -2.5975e+002  1.3010e+001 60754 75985,76037,76011
 3.5000e+000 76086 -8.3935e+001 -2.1768e+002  1.0579e+001 60754 75881,76037,75933
 3.5000e+000 76063 -1.2525e+002 -1.8634e+002  6.3822e+001 60754 75881,75933,75907
 3.5000e+000 76612 -3.9091e+001 -1.9862e+002  2.0733e+000 60350 76635,76442,76390
 3.5000e+000 76589  2.7470e+000 -2.2418e+002  1.1744e+001 60350 76635,76390,76364
 3.5000e+000 76566 -1.0683e+001 -2.8374e+002 -2.1692e+001 60350 76364,76494,76468
 3.5000e+000 76543 -3.4020e+000 -1.7909e+002  1.7376e+001 60350 76390,76442,76416
 3.5000e+000 76520 -1.0079e+002 -1.8520e+002 -4.7709e+001 60350 76338,76494,76364
 3.5000e+000 76661 -6.2746e+001 -2.1564e+002  9.4994e+000 60350 76468,76442,76635
 3.5000e+000 76684 -3.2516e+001 -2.4643e+002  2.1528e+001 60350 76468,76635,76364
 3.5000e+000 76932 -8.3138e+001 -2.8368e+002  1.0227e+001 59946 76955,76733,76707
 3.5000e+000 76909 -7.9898e+001 -2.7551e+002  1.2736e+001 59946 77027,76955,76707
 3.5000e+000 76886 -7.1816e+001 -2.7434e+002  9.8065e+000 59946 77027,76707,76837
 3.5000e+000 76863 -2.8807e+001 -3.1160e+002 -2.2117e+001 59946 76733,76785,76759
 3.5000e+000 76981 -8.8940e+001 -2.8040e+002  1.8204e+000 59946 76785,76733,76955
 3.5000e+000 77004 -8.2309e+001 -2.7753e+002  8.4832e+000 59946 76785,76955,76811
 3.5000e+000 77053 -6.8255e+001 -2.7718e+002  9.2244e+000 59946 76811,76955,77027
 3.5000e+000 77076 -6.1015e+001 -2.7432e+002  4.8869e+000 59946 76811,77027,76837
 3.5000e+000 77226 -9.5130e+001 -2.4041e+002  6.3957e+000 59542 77099,77151,77125
 3.5000e+000 77203 -1.1546e+002 -2.8780e+002  9.6550e+000 59542 77099,77177,77151
 3.5000e+000 77427 -1.3896e+002 -2.7576e+002 -2.3422e+001 59030 77450,77277,77251
 3.5000e+000 77404 -7.6472e+001 -2.0716e+002 -8.8569e+001 59030 77450,77251,77355
 3.5000e+000 77381 -3.2640e-001 -3.2948e+002 -1.2583e+001 59030 77277,77329,77303
 3.5000e+000 77476 -6.4969e+001 -2.9045e+002 -6.3885e+001 59030 77329,77277,77450
 3.5000e+000 77499 -2.7422e-001 -2.5747e+002 -1.1482e+002 59030 77329,77450,77355
 3.5000e+000 77749 -1.2361e+002 -3.4862e+002  3.1510e+001 58426 77772,77628,77602
 3.5000e+000 77726 -7.9806e+001 -4.2140e+002  1.2183e+002 58426 77524,77654,77628
 3.5000e+000 77703 -9.0130e+001 -3.5545e+002  1.9687e+001 58426 77772,77602,77550
 3.5000e+000 77680 -4.3042e+001 -3.2941e+002 -1.9972e+001 58426 77550,77602,77576
 3.5000e+000 77798 -8.6388e+001 -3.3605e+002  3.7288e+001 58426 77524,77628,77772
 3.5000e+000 77821 -7.3062e+001 -3.5573e+002  1.9826e+001 58426 77524,77772,77550
 3.5000e+000 78071 -1.5520e+002 -3.3297e+002  3.5691e+001 57922 78094,77924,77898
 3.5000e+000 78048 -1.8119e+002 -3.4690e+002  7.8494e+000 57922 78094,77898,77872
 3.5000e+000 78025 -1.4781e+002 -3.2016e+002  3.5200e+001 57922 78166,77846,77950
 3.5000e+000 78002 -7.7661e+001 -3.1302e+002  4.0453e+001 57922 77846,77976,77950
 3.5000e+000 78120 -1.3638e+002 -3.4168e+002  2.7789e+001 57922 77950,77924,78094
 3.5000e+000 78143 -1.5096e+002 -3.2485e+002  2.8437e+001 57922 78166,77950,78094
 3.5000e+000 78192 -1.4081e+002 -3.3230e+002  2.6951e+001 57922 77872,77846,78166
 3.5000e+000 78215 -1.5061e+002 -3.4483e+002  1.9416e+001 57922 77872,78166,78094
 3.5000e+000 78416  3.6449e+001 -2.7858e+002 -1.5977e+001 57468 78439,78292,78240
 3.5000e+000 78393 -1.2253e+001 -2.6381e+002 -1.0490e-001 57468 78439,78240,78344
 3.5000e+000 78370  1.5131e+001 -3.8394e+002 -1.2227e+001 57468 78240,78292,78266
 3.5000e+000 78465 -1.1048e+001 -3.0197e+002 -2.4675e+001 57468 78318,78292,78439
 3.5000e+000 78488 -3.1074e+001 -2.7480e+002 -4.6260e+000 57468 78318,78439,78344
 3.5000e+000 78689  5.4662e+001 -3.4177e+002 -4.3494e+001 57014 78712,78539,78513
 3.5000e+000 78666 -2.7708e+000 -3.3900e+002 -6.3106e+000 57014 78712,78513,78617
 3.5000e+000 78643 -7.5848e+001 -3.5487e+002  3.5562e+001 57014 78565,78617,78591
 3.5000e+000 78738 -1.9482e+001 -2.7939e+002 -4.4049e+001 57014 78565,78539,78712
 3.5000e+000 78761 -1.0529e+002 -3.2877e+002  1.6707e+001 57014 78565,78712,78617
 3.5000e+000 79241 -1.0661e+002 -2.8937e+002  2.0219e+001 56652 79264,78895,78869
 3.5000e+000 79218 -4.5505e+001 -3.8187e+002 -2.8014e+001 56652 79264,78869,79051
 3.5000e+000 79195 -7.2459e+001 -3.3775e+002 -8.0367e+001 56652 78869,79077,79051
 3.5000e+000 79172 -7.1731e+001 -1.8417e+002 -4.8747e+001 56652 78895,78973,78947
 3.5000e+000 79149 -1.3379e+002 -5.5799e+002 -5.2914e+001 56652 78973,79051,78999
 3.5000e+000 79126 -7.1925e+001 -1.6061e+002 -5.1142e+001 56652 78895,78947,78921
 3.5000e+000 79103 -1.1127e+002 -3.7456e+002  9.0294e+001 56652 78999,79051,79025
 3.5000e+000 79290 -6.0499e+001 -2.3148e+002  5.1762e+001 56652 78973,78895,79264
 3.5000e+000 79313  5.2415e+000 -3.2976e+002  6.6276e+000 56652 78973,79264,79051
 3.5000e+000 79512 -3.6947e+001 -4.2700e+002  3.7839e+001 56062 79388,79440,79414
 3.5000e+000 79489 -1.7205e+002 -2.2164e+002  5.8472e+001 56062 79336,79440,79388
 3.5000e+000 79466 -7.5598e+001 -2.2217e+002  8.1671e+001 56062 79336,79388,79362
 3.5000e+000 79941 -4.7385e+001 -2.5391e+002  3.9102e+001 55658 79964,79670,79644
 3.5000e+000 79918 -7.5724e+001 -2.6027e+002  4.5058e+001 55658 79964,79644,79800
 3.5000e+000 79895 -6.9701e+001 -2.7371e+002  1.8836e+001 55658 80036,79696,79670
 3.5000e+000 79872 -8.1288e+001 -2.3042e+002 -7.3537e+000 55658 80108,79722,79696
 3.5000e+000 79849 -1.2174e+002 -2.3508e+002  4.9479e+000 55658 79722,79774,79748
 3.5000e+000 79826  1.3926e-002 -2.3339e+002  1.2434e+001 55658 79618,79800,79644
 3.5000e+000 79990 -7.9106e+001 -2.7591e+002  2.8428e+001 55658 80036,79670,79964
 3.5000e+000 80013 -6.9206e+001 -2.3832e+002  4.7077e+001 55658 79774,79964,79800
 3.5000e+000 80062 -5.7997e+001 -2.4811e+002  1.4936e+001 55658 80108,79696,80036
 3.5000e+000 80085 -7.5647e+001 -2.3986e+002  3.9067e+001 55658 79774,80036,79964
 3.5000e+000 80134 -1.2679e+002 -2.4923e+002  2.8307e+000 55658 79774,79722,80108
 3.5000e+000 80157 -1.1356e+002 -2.7275e+002  2.5054e+001 55658 79774,80108,80036
 3.5000e+000 80307 -1.2416e+002 -2.4158e+002  3.5613e+001 55254 80402,80330,80206
 3.5000e+000 80284 -1.1916e+002 -3.2710e+002  4.0241e+001 55254 80330,80180,80258
 3.5000e+000 80356 -1.4586e+002 -2.9092e+002  6.7021e+001 55254 80232,80206,80330
 3.5000e+000 80379 -3.2816e+001 -2.3963e+002  9.7447e+001 55254 80232,80330,80258
 3.5000e+000 80428 -1.7060e+002 -2.9148e+002  1.5101e+001 55254 80180,80330,80402
 3.5000e+000 80659  1.0391e+001 -3.0663e+002 -3.3047e+001 54850 80558,80610,80584
 3.5000e+000 80636  2.6402e+001 -2.9401e+002 -2.5555e+001 54850 80532,80610,80558
 3.5000e+000 80760 -2.1229e+001 -2.6649e+002 -2.6272e+001 54652 80682,80734,80708
 3.5000e+000 81164 -1.3736e+001 -2.8084e+002 -7.6786e+000 54248 81187,80942,80890
 3.5000e+000 81141 -1.8594e+001 -2.8941e+002 -5.4132e+000 54248 81187,80890,81046
 3.5000e+000 81118 -2.3639e+001 -2.9052e+002  5.7404e+001 54248 80942,81020,80994
 3.5000e+000 81095 -1.2727e+001 -2.9192e+002  2.2135e+000 54248 80890,80942,80916
 3.5000e+000 81072 -3.0680e+001 -1.5791e+002  4.3173e+000 54248 80942,80994,80968
 3.5000e+000 81213 -2.0743e+001 -2.7416e+002 -6.2885e+000 54248 81020,80942,81187
 3.5000e+000 81236 -2.3216e+001 -2.7967e+002 -4.8863e+000 54248 81020,81187,81046
 3.5000e+000 81663 -1.3757e+002 -2.5216e+002  2.9712e+001 53594 81340,81444,81366
 3.5000e+000 81640 -1.2417e+002 -3.6705e+002  1.3913e+001 53594 81340,81470,81444
 3.5000e+000 81617 -4.4193e+001 -3.2172e+002 -1.5592e+001 53594 81340,81522,81470
 3.5000e+000 81594 -6.8139e+001 -1.8271e+002 -1.3480e+001 53594 81392,81444,81418
 3.5000e+000 81571 -8.8689e+001 -2.1279e+002 -2.3306e+001 53594 81366,81444,81392
 3.5000e+000 81548  1.7654e+001 -5.1830e+002  1.1936e+002 53594 81470,81522,81496
 3.5000e+000 81943 -2.9836e+001 -1.7683e+002 -2.0436e+001 53104 81966,81845,81819
 3.5000e+000 81920 -4.7694e+001 -1.4599e+002 -2.5898e+001 53104 81966,81819,81767
 3.5000e+000 81897 -4.9177e+001 -1.4656e+002 -2.9683e+001 53104 81767,81819,81793
 3.5000e+000 81992 -1.7719e+001 -1.5740e+002 -2.5611e+001 53104 81871,81845,81966
 3.5000e+000 82015 -2.6987e+001 -1.1407e+002 -3.5290e+001 53104 81871,81966,81767
 3.5000e+000 82491 -2.0767e+001 -1.7024e+002 -1.7299e+001 52650 82145,82249,82171
 3.5000e+000 82468 -1.4901e+002 -2.0800e+002 -2.4218e+001 52650 82145,82301,82249
 3.5000e+000 82445 -1.5283e+002 -3.2948e+002 -6.2287e+001 52650 82249,82301,82275
 3.5000e+000 82422 -5.0898e+001 -4.0967e+002 -7.3627e+001 52650 82119,82301,82145
 3.5000e+000 82399 -4.0099e+001 -1.3198e+002  1.9623e+001 52650 82171,82249,82223
 3.5000e+000 82376  3.1898e+001 -3.7650e+002 -6.1690e+001 52650 82119,82327,82301
 3.5000e+000 82353 -1.1066e+001 -6.4214e+001 -2.6703e+001 52650 82171,82223,82197
 3.5000e+000 82739 -3.9310e+001 -1.6334e+002  5.5411e+000 52246 82762,82540,82514
 3.5000e+000 82716 -2.3438e+001 -5.5237e+001 -1.1403e+001 52246 82762,82514,82644
 3.5000e+000 82693 -7.9210e+001 -1.9163e+002  4.4037e+001 52246 82540,82618,82592
 3.5000e+000 82670 -9.4246e+001 -1.8854e+002  3.9834e+001 52246 82540,82592,82566
 3.5000e+000 82788 -2.2712e+001 -2.1387e+002  1.5482e+001 52246 82618,82540,82762
 3.5000e+000 82811 -5.3130e+001 -1.7993e+002 -1.5369e+001 52246 82618,82762,82644
 3.5000e+000 83059 -2.4783e+001 -2.3602e+002  2.3299e+001 51578 82860,82964,82938
 3.5000e+000 83036  2.6631e+000 -1.5108e+002 -5.1416e+001 51578 82834,82964,82860
 3.5000e+000 83013 -1.2038e+001 -1.7667e+002  5.2407e+001 51578 82860,82938,82886
 3.5000e+000 82990 -8.7044e+000 -1.0018e+002  7.2468e+000 51578 82886,82938,82912
 3.5000e+000 83309 -4.5674e+001 -1.4031e+002  3.5562e+001 51138 83332,83162,83136
 3.5000e+000 83286 -1.3641e+001 -1.7727e+002  1.1657e+001 51138 83332,83136,83110
 3.5000e+000 83263 -6.4962e+001 -1.8052e+002 -8.0419e+000 51138 83404,83214,83188
 3.5000e+000 83240 -1.3825e+000 -1.0828e+002  1.0446e+001 51138 83084,83214,83110
 3.5000e+000 83358 -7.4892e+001 -1.8846e+002  5.2193e+001 51138 83188,83162,83332
 3.5000e+000 83381 -4.5450e+001 -2.0154e+002  1.1244e+001 51138 83404,83188,83332
 3.5000e+000 83430 -4.0164e+001 -1.2768e+002 -9.5387e-001 51138 83110,83214,83404
 3.5000e+000 83453 -2.5136e+001 -1.6042e+002  1.7784e+001 51138 83110,83404,83332
 3.5000e+000 83835 -3.9177e+001 -2.2033e+002 -1.7915e+001 50734 83613,83717,83691
 3.5000e+000 83812 -4.8641e+001 -2.4683e+002 -4.8193e+001 50734 83561,83717,83613
 3.5000e+000 83789 -2.1859e+001 -1.0331e+002 -7.4442e+001 50734 83561,83613,83587
 3.5000e+000 83766 -5.3469e+001 -1.5076e+002 -9.7974e+000 50734 83613,83691,83639
 3.5000e+000 83743 -6.0978e+001 -1.5371e+002  3.3795e+001 50734 83639,83691,83665
 3.5000e+000 84034 -5.6748e+001 -1.4496e+002  7.8152e+000 50230 84057,83884,83858
 3.5000e+000 84011 -5.6392e+001 -1.5588e+002 -1.1926e+001 50230 84129,84057,83858
 3.5000e+000 83988 -1.9048e+001 -1.6364e+002 -2.1624e+001 50230 84129,83858,83962
 3.5000e+000 84083 -2.2748e+001 -1.3301e+002  1.3473e+001 50230 83910,83884,84057
 3.5000e+000 84106 -3.7009e+001 -1.6043e+002  8.0328e+000 50230 83910,84057,83936
 3.5000e+000 84155 -7.1692e+000 -1.3706e+002 -2.2327e+000 50230 83936,84057,84129
 3.5000e+000 84178  7.3287e+000 -1.6112e+002 -1.6765e+001 50230 83936,84129,83962
 3.5000e+000 84558 -5.5711e+001 -1.7732e+002 -3.0227e+001 49768 84581,84388,84362
 3.5000e+000 84535 -1.2073e+002 -1.7978e+002 -1.1892e+001 49768 84581,84362,84310
 3.5000e+000 84512  9.4584e+000 -1.9420e+002 -3.2324e+001 49768 84653,84440,84414
 3.5000e+000 84489 -8.9641e+001 -1.9382e+002  1.7169e+001 49768 84310,84362,84336
 3.5000e+000 84466 -3.5366e-001 -1.3730e+002  2.7322e+001 49768 84284,84440,84310
 3.5000e+000 84607 -9.7202e+000 -1.4758e+002 -5.1513e+001 49768 84414,84388,84581
 3.5000e+000 84630 -1.6516e+001 -1.8190e+002 -2.2986e+001 49768 84653,84414,84581
 3.5000e+000 84679 -2.5379e+001 -1.8296e+002 -4.4075e+001 49768 84310,84440,84653
 3.5000e+000 84702 -6.2574e+001 -1.8327e+002 -4.4820e+001 49768 84310,84653,84581
 3.5000e+000 85159 -1.0160e+002 -2.7603e+002 -7.9821e+001 49192 84885,84937,84911
 3.5000e+000 85136 -1.0578e+002 -2.3325e+002 -5.8842e+001 49192 84885,85041,84937
 3.5000e+000 85113 -7.7548e+001 -1.9729e+002 -2.6702e+001 49192 84963,85041,84989
 3.5000e+000 85090 -6.9217e+001 -1.8532e+002 -4.2595e+001 49192 84937,85041,84963
 3.5000e+000 85067 -6.2341e+001 -2.0214e+002 -1.8149e+001 49192 84989,85041,85015
 3.5000e+000 85714 -9.8537e+001 -1.7551e+002  1.6369e-001 48638 85368,85498,85394
 3.5000e+000 85691 -1.3051e+002 -1.9807e+002  1.4411e+001 48638 85368,85524,85498
 3.5000e+000 85668 -1.1268e+002 -1.6862e+002  4.2531e+001 48638 85737,85420,85394
 3.5000e+000 85645 -9.6943e+001 -1.9233e+002  2.3214e+001 48638 85737,85394,85498
 3.5000e+000 85622 -7.8143e+001 -1.9658e+002  3.8971e+001 48638 85446,85498,85472
 3.5000e+000 85599 -3.2912e+001 -1.5903e+002  1.8083e+001 48638 85342,85524,85368
 3.5000e+000 85576 -1.2233e+002 -1.7934e+002  1.7567e+001 48638 85342,85550,85524
 3.5000e+000 85763 -8.3318e+001 -1.5230e+002  5.7438e+001 48638 85446,85420,85737
 3.5000e+000 85786 -8.4804e+001 -1.7446e+002  3.4834e+001 48638 85446,85737,85498
 3.5000e+000 86371 -8.5013e+001 -1.2722e+002 -1.1971e+001 48084 86100,86230,86178
 3.5000e+000 86348 -1.1082e+002 -1.6475e+002 -2.4097e+001 48084 86048,86230,86100
 3.5000e+000 86325 -8.4453e+001 -1.1801e+002  2.7253e+001 48084 86100,86178,86126
 3.5000e+000 86302 -5.3636e+001 -3.0602e+001 -3.3366e+001 48084 86048,86100,86074
 3.5000e+000 86279 -1.0106e+002 -1.9687e+002 -1.1581e+001 48084 86178,86230,86204
 3.5000e+000 86256 -7.3088e+001 -1.3839e+002  2.6082e+001 48084 86126,86178,86152
 3.5000e+000 86619 -7.1657e+001 -1.5969e+002  1.2751e+001 47630 86642,86446,86420
 3.5000e+000 86596 -8.6286e+001 -1.7666e+002 -1.8411e+001 47630 86642,86420,86394
 3.5000e+000 86573 -1.0565e+002 -2.0255e+002 -2.8540e+001 47630 86394,86524,86498
 3.5000e+000 86550 -4.4015e+001 -1.8080e+002  1.1250e+001 47630 86446,86498,86472
 3.5000e+000 86668 -8.7731e+001 -1.9531e+002 -3.0971e-001 47630 86498,86446,86642
 3.5000e+000 86691 -9.5806e+001 -2.0134e+002 -3.0812e+001 47630 86498,86642,86394
 3.5000e+000 87022  4.3088e+000 -1.0911e+002 -3.5229e+001 47226 87045,86875,86849
 3.5000e+000 86999 -1.7652e+001 -1.1161e+002 -4.6680e+001 47226 87045,86849,86797
 3.5000e+000 86976 -9.3517e+000 -6.3998e+001 -2.5919e+001 47226 86797,86849,86823
 3.5000e+000 86953  4.3357e+001 -8.4052e+001 -3.9834e+001 47226 86875,86927,86901
 3.5000e+000 87071  2.6823e+001 -1.2206e+002 -4.3002e+001 47226 86927,86875,87045
 3.5000e+000 87094  5.0927e+000 -1.2263e+002 -5.0165e+001 47226 86927,87045,86797
 3.5000e+000 87244 -8.6789e+000 -1.9673e+002  6.1478e+001 46814 87267,87169,87143
 3.5000e+000 87221 -9.6729e+001 -1.7793e+002 -5.1153e+000 46814 87267,87143,87117
 3.5000e+000 87293 -1.0342e+001 -1.5640e+002  3.6560e+001 46814 87339,87267,87195
 3.5000e+000 87316 -9.8104e+000 -1.4083e+002  8.2549e+000 46814 87469,87267,87117
 3.5000e+000 87365  2.0275e+001 -1.4044e+002  4.4597e+001 46814 87169,87267,87339
 3.5000e+000 87495 -6.9337e-001 -1.9385e+001  1.0826e+000 46814 87195,87267,87469
 3.5000e+000 88001 -6.7553e+001 -1.6800e+002  3.4443e+001 46310 88024,87834,87808
 3.5000e+000 87978 -8.0167e+001 -1.7068e+002  2.0974e+001 46310 88024,87808,87756
 3.5000e+000 87955 -4.0069e+001 -2.1740e+002  8.1655e+000 46310 88096,87730,87860
 3.5000e+000 87932 -5.9042e+001 -2.1541e+002  2.1774e+001 46310 87756,87808,87782
 3.5000e+000 87909 -5.0359e+001 -2.7140e+002  1.0498e+001 46310 87678,87860,87730
 3.5000e+000 87886 -7.7319e+001 -4.2315e+002 -2.1054e+001 46310 87678,87730,87704
 3.5000e+000 88050 -5.7217e+001 -1.4516e+002  2.1601e+001 46310 87860,87834,88024
 3.5000e+000 88073 -4.1721e+001 -1.6069e+002  2.6770e+001 46310 88096,87860,88024
 3.5000e+000 88122 -5.4441e+001 -2.4434e+002 -1.0789e+001 46310 87756,87730,88096
 3.5000e+000 88145 -9.1364e+001 -2.2167e+002 -3.5484e-001 46310 87756,88096,88024
 3.5000e+000 88572 -4.0277e+001 -1.9202e+002  3.1163e+000 45856 88249,88405,88275
 3.5000e+000 88549 -3.3637e+001 -6.5714e+001 -4.5442e+001 45856 88249,88431,88405
 3.5000e+000 88526 -9.9358e+001 -2.7561e+002 -3.6276e+001 45856 88327,88405,88353
 3.5000e+000 88503 -4.7199e+001 -2.1934e+002 -1.4560e+001 45856 88275,88405,88327
 3.5000e+000 88480 -7.8319e+001 -2.2786e+002 -3.9591e+001 45856 88353,88405,88379
 3.5000e+000 88457 -2.0223e+002 -5.4318e+002  4.7695e+001 45856 88275,88327,88301
 3.5000e+000 88950 -3.7782e+001 -1.2506e+002 -4.1785e+000 45658 88973,88754,88728
 3.5000e+000 88927 -3.5535e+001 -1.3197e+002 -4.7155e+000 45658 88973,88728,88676
 3.5000e+000 88904 -3.7590e+001 -1.5933e+002  4.6093e+001 45658 88676,88832,88806
 3.5000e+000 88881 -5.9626e+001 -1.7753e+002  1.4092e+001 45658 88676,88728,88702
 3.5000e+000 88858 -4.7065e+001 -1.1576e+002 -2.1631e+001 45658 88754,88806,88780
 3.5000e+000 88999 -4.0680e+001 -1.3056e+002 -2.9996e+000 45658 88806,88754,88973
 3.5000e+000 89022 -3.6493e+001 -1.3465e+002 -4.1425e+000 45658 88806,88973,88676
 3.5000e+000 89351 -5.2022e+001 -1.8601e+002 -9.9415e+000 45254 89152,89230,89204
 3.5000e+000 89328 -4.5564e+001 -1.8316e+002 -9.4854e+000 45254 89152,89256,89230
 3.5000e+000 89305 -6.3876e+000 -1.9241e+002 -2.4456e+001 45254 89126,89256,89152
 3.5000e+000 89282  1.8025e+001 -1.8951e+002 -3.9732e+001 45254 89152,89204,89178
 3.5000e+000 89523 -3.4203e+001 -1.7557e+002 -5.3117e-002 45006 89422,89474,89448
 3.5000e+000 89500 -2.7245e+001 -1.7262e+002  5.5098e+000 45006 89396,89474,89422
 3.5000e+000 89673 -1.5447e+002 -2.7016e+002  2.3911e+001 44495 89572,89624,89598
 3.5000e+000 89650 -1.5691e+002 -2.6582e+002  1.4528e+001 44495 89546,89624,89572
 3.5000e+000 90104 -1.5670e+001 -2.1750e+002 -8.2846e+000 44005 90199,90127,89937
 3.5000e+000 90081 -4.0976e+001 -2.1191e+002  3.3313e+000 44005 90271,90127,89859
 3.5000e+000 90058 -5.6228e+000 -2.2090e+002 -8.3331e+000 44005 90199,89937,89885
 3.5000e+000 90035 -5.7767e+001 -2.0092e+002  1.2859e+001 44005 90271,89859,89807
 3.5000e+000 90012 -3.3222e+001 -2.3604e+002 -2.6097e+001 44005 89885,89937,89911
 3.5000e+000 89989 -1.7246e+001 -2.1417e+002  3.5416e+001 44005 89807,89859,89833
 3.5000e+000 90153 -4.1864e+001 -2.2745e+002 -5.7229e+000 44005 89963,89937,90127
 3.5000e+000 90176 -4.3611e+001 -2.3798e+002  3.9653e+000 44005 89963,90127,89781
 3.5000e+000 90225 -4.4012e+001 -2.1295e+002 -2.0696e+000 44005 89859,90127,90199
 3.5000e+000 90248 -1.9660e+001 -2.0616e+002  3.2865e+000 44005 89859,90199,89885
 3.5000e+000 90297 -6.3574e+001 -2.2550e+002 -2.4003e+000 44005 89781,90127,90271
 3.5000e+000 90320 -7.3358e+001 -2.1084e+002  8.5942e+000 44005 89781,90271,89807
 3.5000e+000 90470 -3.9467e+001 -2.4320e+002 -1.0593e+001 43601 90493,90369,90343
 3.5000e+000 90447 -6.5088e+001 -1.9985e+002  1.0973e+001 43601 90493,90343,90421
 3.5000e+000 90519 -7.8821e+001 -3.2313e+002 -3.8598e+001 43601 90395,90369,90493
 3.5000e+000 90542 -6.4091e+001 -2.3153e+002 -1.1001e+001 43601 90395,90493,90421
 3.5000e+000 90922 -8.5824e+001 -2.5779e+002  1.7987e+001 43154 90945,90700,90674
 3.5000e+000 90899 -8.0160e+001 -2.6345e+002 -2.3491e+001 43154 90945,90674,90648
 3.5000e+000 90876 -9.2256e+001 -2.1057e+002 -1.6736e+001 43154 90648,90778,90752
 3.5000e+000 90853 -4.7724e+001 -4.1167e+002  1.1969e+001 43154 90700,90752,90726
 3.5000e+000 90830 -5.7053e+001 -2.1247e+002 -4.7506e+000 43154 90648,90804,90778
 3.5000e+000 90971 -9.8305e+001 -2.9390e+002  2.3318e+001 43154 90752,90700,90945
 3.5000e+000 90994 -8.8903e+001 -2.8491e+002 -1.7003e+001 43154 90752,90945,90648
 3.5000e+000 91451 -2.3451e+001 -1.7569e+002 -3.8540e+001 42650 91203,91255,91229
 3.5000e+000 91428 -1.6454e-001 -1.6510e+002 -1.6283e+001 42650 91203,91333,91255
 3.5000e+000 91405  2.2258e+000 -2.7877e+002 -4.5597e+001 42650 91177,91333,91203
 3.5000e+000 91382 -7.4514e+001 -2.8927e+002  1.4861e+001 42650 91255,91333,91281
 3.5000e+000 91359  5.4903e+001 -2.2818e+002 -3.1595e+000 42650 91281,91333,91307
 3.5000e+000 91721 -1.1500e+002 -2.6916e+002  1.8611e+001 42288 91496,91600,91522
 3.5000e+000 91698 -5.6987e+001 -1.4852e+002 -5.8612e+000 42288 91496,91626,91600
 3.5000e+000 91675 -7.2722e+001 -2.4309e+002  2.0487e+001 42288 91522,91574,91548
 3.5000e+000 91652 -5.9063e+001 -2.4770e+002  1.9009e+001 42288 91522,91600,91574
 3.5000e+000 92199 -1.7451e+002 -2.9575e+002 -8.6208e+000 41898 92222,91983,91879
 3.5000e+000 92176 -1.8158e+002 -3.1968e+002 -1.8204e+001 41898 92294,92222,91879
 3.5000e+000 92153 -1.9381e+002 -3.1284e+002 -2.7537e+001 41898 92294,91879,91853
 3.5000e+000 92130 -1.5504e+002 -1.8471e+002  1.7684e+001 41898 91879,91957,91931
 3.5000e+000 92107 -1.5912e+002 -2.8988e+002 -2.5709e+000 41898 91879,91983,91957
 3.5000e+000 92084 -1.6480e+002 -1.6948e+002  3.1359e+001 41898 91879,91931,91905
 3.5000e+000 92061 -1.6278e+002 -2.7951e+002 -2.3598e+001 41898 91827,92035,91853
 3.5000e+000 92248 -1.7162e+002 -3.2401e+002 -2.8024e+000 41898 92009,91983,92222
 3.5000e+000 92271 -1.6762e+002 -3.2944e+002 -2.4048e+001 41898 92009,92222,92035
 3.5000e+000 92320 -1.6049e+002 -3.0958e+002 -2.1299e+001 41898 92035,92222,92294
 3.5000e+000 92343 -1.6972e+002 -3.0176e+002 -3.0212e+001 41898 92035,92294,91853
 3.5000e+000 92770 -6.3450e+001 -2.7636e+002 -1.8601e+001 41437 92865,92793,92525
 3.5000e+000 92747 -8.7330e+001 -3.2156e+002 -2.6269e+001 41437 92793,92473,92629
 3.5000e+000 92724 -3.4531e+001 -2.8169e+002 -3.4097e+001 41437 92865,92525,92499
 3.5000e+000 92701 -9.5167e+001 -2.5223e+002 -4.1451e+001 41437 92525,92603,92577
 3.5000e+000 92678 -3.0512e+000 -3.0812e+002 -2.1830e+001 41437 92447,92629,92473
 3.5000e+000 92655 -1.4746e+002 -2.2953e+002 -2.5373e+001 41437 92525,92577,92551
 3.5000e+000 92819 -7.2460e+001 -2.9694e+002 -4.1539e+001 41437 92603,92525,92793
 3.5000e+000 92842 -1.3117e+002 -3.1709e+002 -7.5004e+001 41437 92603,92793,92629
 3.5000e+000 92891 -5.4015e+000 -3.0247e+002 -2.5389e+001 41437 92473,92793,92865
 3.5000e+000 92914  3.7442e+001 -2.8854e+002 -4.8453e+001 41437 92473,92865,92499
 3.5000e+000 93243 -4.6125e+001 -4.0440e+002  1.4378e+002 41097 93044,93096,93070
 3.5000e+000 93220 -7.7224e+001 -3.4740e+002  7.4126e+001 41097 93044,93122,93096
 3.5000e+000 93197  4.1488e+001 -2.4222e+002  2.9631e+001 41097 93044,93148,93122
 3.5000e+000 93174 -4.3998e+001 -1.6085e+002  8.5591e+001 41097 93018,93148,93044
 3.5000e+000 93393 -2.6197e+000 -2.9537e+002  2.0769e+001 40643 93416,93292,93344
 3.5000e+000 93370 -1.4446e+001 -2.5702e+002  2.4970e+001 40643 93266,93344,93292
 3.5000e+000 93442 -8.7051e+000 -2.9569e+002  2.3806e+001 40643 93318,93292,93416
 3.5000e+000 93901 -9.5239e+001 -2.8147e+002 -1.8506e+001 40132 93924,93731,93705
 3.5000e+000 93878 -1.0103e+002 -2.8949e+002 -2.1088e+001 40132 93996,93924,93705
 3.5000e+000 93855 -1.1822e+002 -3.3148e+002 -8.4171e+000 40132 93996,93705,93653
 3.5000e+000 93832 -5.8312e+001 -3.2137e+002 -1.7975e+001 40132 93653,93705,93679
 3.5000e+000 93809 -9.3529e+001 -2.7966e+002  3.5242e+000 40132 93627,93783,93757
 3.5000e+000 93950 -9.1035e+001 -2.9771e+002 -2.2439e+001 40132 93757,93731,93924
 3.5000e+000 93973 -1.0287e+002 -2.6510e+002 -5.4708e+000 40132 93757,93924,93627
 3.5000e+000 94022 -1.3025e+002 -3.1526e+002  9.3567e+000 40132 93627,93924,93996
 3.5000e+000 94045 -1.2230e+002 -3.3002e+002  1.8592e+001 40132 93627,93996,93653
 3.5000e+000 94423 -7.0261e+000 -3.0209e+002 -4.6879e+001 39514 94149,94227,94175
 3.5000e+000 94400 -2.3978e+001 -2.8959e+002  3.4535e+001 39514 94149,94305,94227
 3.5000e+000 94377  1.5921e+001 -3.6359e+002 -4.3329e+001 39514 94175,94227,94201
 3.5000e+000 94354 -8.7620e+001 -2.6787e+002  1.4214e+001 39514 94227,94305,94279
 3.5000e+000 94331 -3.1457e+001 -2.4204e+002  2.5638e+001 39514 94227,94279,94253
 3.5000e+000 94573 -3.0966e+001 -1.8851e+002 -3.8995e+001 38822 94596,94498,94472
 3.5000e+000 94550  2.8282e+001 -2.0623e+002  4.0206e+001 38822 94596,94472,94446
 3.5000e+000 94622 -9.9665e+001 -2.1818e+002 -3.5253e+001 38822 94524,94498,94596
 3.5000e+000 94645 -8.8820e+001 -2.5958e+002  5.2280e+001 38822 94524,94596,94446
 3.5000e+000 95025 -2.1282e+001 -2.3903e+002 -1.8626e+001 38418 95048,94829,94777
 3.5000e+000 95002 -2.7582e+001 -2.5037e+002 -2.9407e+001 38418 95120,95048,94777
 3.5000e+000 94979 -2.1515e+001 -2.4786e+002 -2.7403e+001 38418 95120,94777,94751
 3.5000e+000 94956 -1.4998e+001 -2.2298e+002 -3.2335e+001 38418 95192,94881,94855
 3.5000e+000 94933 -7.5120e+001 -2.1335e+002 -1.2522e+001 38418 94777,94829,94803
 3.5000e+000 95074 -4.5105e+001 -3.1292e+002 -6.5965e+000 38418 94855,94829,95048
 3.5000e+000 95097 -2.1617e+001 -2.4824e+002 -3.4853e+001 38418 95192,94855,95048
 3.5000e+000 95146 -4.7225e+001 -2.3886e+002 -2.3654e+001 38418 94907,95048,95120
 3.5000e+000 95169 -3.0773e+001 -2.2769e+002 -1.8008e+001 38418 94907,95120,94751
 3.5000e+000 95218 -2.2984e+001 -1.7524e+002 -2.8821e+001 38418 94907,94881,95192
 3.5000e+000 95241 -3.8907e+001 -2.1632e+002 -2.4584e+001 38418 94907,95192,95048
 3.5000e+000 95511 -8.6760e+001 -2.7085e+002  1.0901e+001 38049 95312,95390,95364
 3.5000e+000 95488 -6.4797e+001 -2.6234e+002  1.2941e+001 38049 95312,95416,95390
 3.5000e+000 95465 -3.1263e+001 -2.5823e+002 -1.7764e+001 38049 95312,95364,95338
 3.5000e+000 95442 -2.4275e+001 -2.4669e+002  2.4200e+001 38049 95286,95416,95312
 3.5000e+000 95808 -7.6570e+001 -2.9466e+002 -7.2481e+000 37437 95831,95586,95560
 3.5000e+000 95785  2.6989e+001 -3.1162e+002 -1.4255e+001 37437 95831,95560,95534
 3.5000e+000 95762 -1.5211e+002 -2.8090e+002  5.5414e+000 37437 95586,95664,95638
 3.5000e+000 95739 -2.4702e+001 -1.4519e+002 -7.6857e+001 37437 95534,95690,95664
 3.5000e+000 95716 -1.3808e+002 -2.0237e+002  6.9377e+000 37437 95586,95638,95612
 3.5000e+000 95857 -1.4319e+002 -2.8810e+002  3.4327e+001 37437 95664,95586,95831
 3.5000e+000 95880 -3.3369e+001 -3.0199e+002  2.8724e+001 37437 95664,95831,95534
 3.5000e+000 96390 -9.7357e+001 -2.1569e+002 -1.4500e+001 36883 96413,96145,96093
 3.5000e+000 96367 -7.7343e+001 -2.0585e+002 -9.2158e+000 36883 96413,96093,96067
 3.5000e+000 96344 -5.4700e+001 -2.5172e+002  5.0296e-001 36883 96067,96249,96171
 3.5000e+000 96321 -8.5702e+001 -2.4886e+002 -6.2060e+000 36883 96093,96145,96119
 3.5000e+000 96298 -1.1996e+002 -4.1729e+002  3.9863e+001 36883 96171,96249,96197
 3.5000e+000 96275 -3.1165e+001 -3.2991e+002 -7.0825e+000 36883 96197,96249,96223
 3.5000e+000 96439 -9.2036e+001 -2.0912e+002  3.5562e+000 36883 96171,96145,96413
 3.5000e+000 96462 -7.5261e+001 -2.0456e+002  7.2350e+000 36883 96171,96413,96067
 3.5000e+000 96781 -8.0742e+001 -2.4653e+002 -3.6181e+001 36215 96559,96663,96637
 3.5000e+000 96758 -9.9085e+001 -2.7042e+002 -4.6018e+001 36215 96507,96663,96559
 3.5000e+000 96735 -9.9146e+001 -1.8464e+002  1.9099e+001 36215 96585,96637,96611
 3.5000e+000 96712 -2.0862e+002 -2.8665e+002 -3.0869e+001 36215 96559,96637,96585
 3.5000e+000 96689 -3.8017e+001 -3.1720e+002 -1.0337e+001 36215 96507,96559,96533
 3.5000e+000 97161  5.2507e+000 -1.3626e+002 -7.8191e+000 35818 97184,96965,96939
 3.5000e+000 97138 -1.5887e+001 -1.6325e+002 -1.8357e+001 35818 97184,96939,96887
 3.5000e+000 97115 -3.9621e-001 -1.6804e+002  3.3713e+001 35818 96965,97043,97017
 3.5000e+000 97092 -1.0538e+001 -1.5469e+002 -2.0640e+001 35818 96887,96939,96913
 3.5000e+000 97069 -8.5593e+001 -1.7668e+002  2.0126e+001 35818 96965,97017,96991
 3.5000e+000 97210  2.8228e+001 -1.5958e+002  7.6807e+000 35818 97043,96965,97184
 3.5000e+000 97233  1.1263e+001 -1.7849e+002 -8.3145e-001 35818 97043,97184,96887
 3.5000e+000 97739 -9.5645e+001 -2.6841e+002 -5.9696e+001 35214 97416,97468,97442
 3.5000e+000 97716 -1.0939e+002 -1.9525e+002 -1.9421e+001 35214 97416,97598,97468
 3.5000e+000 97693 -9.6604e+001 -1.8533e+002 -6.7471e+000 35214 97762,97520,97468
 3.5000e+000 97670 -9.9805e+001 -1.9039e+002 -1.4861e+001 35214 97762,97468,97598
 3.5000e+000 97647 -7.7784e+001 -1.8469e+002 -2.4063e+001 35214 97546,97598,97572
 3.5000e+000 97624 -6.3389e+001 -1.9239e+002 -9.2635e+000 35214 97468,97520,97494
 3.5000e+000 97788 -9.9750e+001 -1.9473e+002 -1.0466e+001 35214 97546,97520,97762
 3.5000e+000 97811 -1.0070e+002 -1.9868e+002 -1.8033e+001 35214 97546,97762,97598
 3.5000e+000 98189 -2.0458e+001 -1.4867e+002 -1.0341e+001 34760 98356,98212,97967
 3.5000e+000 98166 -4.1924e+001 -1.8341e+002 -2.3878e+001 34760 98284,98212,97941
 3.5000e+000 98143 -7.2442e+001 -1.6687e+002 -1.0584e+001 34760 98284,97941,97915
 3.5000e+000 98120 -2.3564e+001 -1.9941e+002 -4.7384e+000 34760 98484,97993,97967
 3.5000e+000 98097 -2.2617e+001 -1.6980e+002 -4.2347e+000 34760 98556,98045,98019
 3.5000e+000 98238 -3.4215e+001 -1.8742e+002 -5.5090e+000 34760 98484,97967,98212
 3.5000e+000 98261 -8.0887e+000 -1.7668e+002 -1.1756e+001 34760 98556,98019,98212
 3.5000e+000 98310 -1.5031e+001 -1.5399e+002 -3.6768e+001 34760 98071,98212,98284
 3.5000e+000 98333 -3.6118e+001 -1.1333e+002 -2.9832e+001 34760 98071,98284,97915
 3.5000e+000 98382 -9.5609e+001 -2.0107e+002 -3.3806e+001 34760 97941,98212,98356
 3.5000e+000 98510 -5.7041e+000 -1.8997e+002 -1.0574e+001 34760 98019,97993,98484
 3.5000e+000 98533 -2.3179e+001 -1.8349e+002 -1.0271e+001 34760 98019,98484,98212
 3.5000e+000 98582 -4.2598e+000 -1.6059e+002 -5.2432e-001 34760 98071,98045,98556
 3.5000e+000 98605  1.7625e+000 -1.7264e+002 -9.7063e+000 34760 98071,98556,98212
 3.5000e+000 99032 -9.7211e+001 -2.2873e+002  3.1463e+001 34156 98735,98891,98839
 3.5000e+000 99009 -8.1411e+001 -2.3475e+002  1.5063e+001 34156 98709,98891,98735
 3.5000e+000 98986 -2.6422e+001 -2.0634e+002  3.0426e+001 34156 98735,98813,98787
 3.5000e+000 98963 -3.2225e+001 -2.2539e+002  2.5368e+001 34156 98735,98839,98813
 3.5000e+000 98940  1.4848e+001 -3.0929e+002  3.4210e+001 34156 98735,98787,98761
 3.5000e+000 98917 -8.5847e+001 -1.9973e+002  1.7960e+001 34156 98839,98891,98865
 3.5000e+000 99231 -2.9224e+001 -1.2589e+002  9.6931e+000 33766 99055,99133,99107
 3.5000e+000 99208 -5.2054e+001 -1.6343e+002  2.0650e+001 33766 99055,99159,99133
 3.5000e+000 99185 -1.6680e+001 -1.5001e+002  2.5605e+001 33766 99055,99107,99081
 3.5000e+000 99818 -6.7135e+001 -1.8410e+002  3.6905e+000 33248 99521,99651,99573
 3.5000e+000 99795 -6.7050e+001 -1.7625e+002  1.7379e+001 33248 99521,99677,99651
 3.5000e+000 99772 -9.8001e+001 -2.2185e+002 -1.1656e+001 33248 99573,99651,99599
 3.5000e+000 99749 -6.7803e+001 -2.1933e+002  2.0045e+001 33248 99495,99677,99521
 3.5000e+000 99726 -4.8836e+001 -1.8814e+002 -4.3344e+001 33248 99599,99651,99625
 3.5000e+000 99703 -8.5818e+001 -2.2070e+002  1.3363e+001 33248 99521,99573,99547
 3.5000e+000 100196 -6.9096e+001 -1.9698e+002 -3.7035e+001 32794 100219,99948,99922
 3.5000e+000 100173 -7.9676e+001 -2.1929e+002 -1.8120e+001 32794 100219,99922,100052
 3.5000e+000 100150 -1.0357e+002 -2.0053e+002  1.0874e+001 32794 99974,100052,100026
 3.5000e+000 100127 -9.5167e+001 -1.8110e+002 -2.8475e+001 32794 99922,100078,100052
 3.5000e+000 100104 -1.0972e+002 -2.4396e+002  4.5008e+001 32794 99974,100026,100000
 3.5000e+000 100245 -9.0499e+001 -1.9314e+002 -1.5316e+001 32794 99974,99948,100219
 3.5000e+000 100268 -9.7136e+001 -2.2292e+002  3.7552e+000 32794 99974,100219,100052
 3.5000e+000 100418 -1.1145e+001 -1.7452e+002 -1.9519e+001 32504 100571,100343,100317
 3.5000e+000 100395 -6.8266e+001 -2.0045e+002  1.7371e+001 32504 100571,100317,100441
 3.5000e+000 100467  5.3197e+001 -9.5267e+001 -5.2074e+001 32504 100291,100369,100441
 3.5000e+000 100597  1.4366e+001 -1.4623e+002 -6.3919e+001 32504 100369,100343,100571
 3.5000e+000 100620 -1.1186e+001 -1.3615e+002 -3.2062e+001 32504 100369,100571,100441
 3.5000e+000 101020 -3.5252e+001 -1.6870e+002  7.7604e+000 32142 100772,100902,100876
 3.5000e+000 100997 -2.3521e+001 -1.5626e+002  1.3174e+001 32142 100746,100902,100772
 3.5000e+000 100974 -1.4962e+001 -1.8910e+002  1.7674e+001 32142 101043,100824,100798
 3.5000e+000 100951 -3.5666e+001 -1.9773e+002  1.4163e+001 32142 101043,100798,100772
 3.5000e+000 100928 -1.1003e+002 -2.2819e+002 -5.2277e+001 32142 101115,100876,100850
 3.5000e+000 101069  1.7893e+001 -1.9991e+002 -2.0257e+001 32142 100850,100824,101043
 3.5000e+000 101092 -6.0701e+001 -2.3321e+002 -2.5814e+001 32142 101115,100850,101043
 3.5000e+000 101141 -4.9556e+001 -1.9640e+002 -1.8360e+001 32142 100772,100876,101115
 3.5000e+000 101164 -1.1977e+001 -2.0014e+002  1.0730e+001 32142 100772,101115,101043
 3.5000e+000 101719 -9.9895e+001 -2.3838e+002  3.0465e+001 31538 101742,101477,101399
 3.5000e+000 101696 -1.2445e+002 -2.9023e+002  5.8016e+000 31538 101814,101742,101399
 3.5000e+000 101673 -1.4416e+002 -2.4893e+002 -2.3283e+001 31538 101814,101399,101373
 3.5000e+000 101650 -1.0024e+002 -1.7231e+002  1.9963e+001 31538 101425,101477,101451
 3.5000e+000 101627 -9.5024e+001 -2.0188e+002  4.2597e+000 31538 101399,101477,101425
 3.5000e+000 101604 -6.0311e+001 -2.8033e+002  5.8461e+001 31538 101477,101529,101503
 3.5000e+000 101581 -3.7320e+001 -1.6816e+002 -1.9191e+001 31538 101347,101555,101373
 3.5000e+000 101768 -1.1489e+002 -2.9257e+002  3.0499e+001 31538 101529,101477,101742
 3.5000e+000 101791 -9.7176e+001 -2.9896e+002 -1.0368e+001 31538 101529,101742,101555
 3.5000e+000 101840 -7.5278e+001 -2.4845e+002 -1.3160e+001 31538 101555,101742,101814
 3.5000e+000 101863 -1.0340e+002 -2.1471e+002 -3.9741e+001 31538 101555,101814,101373
 3.5000e+000 102111 -1.4634e+002 -3.7525e+002  4.8616e+001 31112 101886,101990,101912
 3.5000e+000 102088 -5.3502e+001 -2.2155e+002  3.7171e+000 31112 101886,102016,101990
 3.5000e+000 102065 -6.6070e+001 -3.6390e+002  7.5010e+001 31112 101912,101990,101964
 3.5000e+000 102042 -1.0602e+002 -4.5806e+002  8.8392e+001 31112 101912,101964,101938
 3.5000e+000 102408 -4.2690e+001 -2.3485e+002  1.7510e+001 30658 102431,102186,102160
 3.5000e+000 102385 -8.1225e+001 -2.3151e+002 -8.7471e-001 30658 102431,102160,102264
 3.5000e+000 102362 -7.5510e+001 -2.5386e+002  2.6560e+000 30658 102186,102238,102212
 3.5000e+000 102339 -8.8248e+001 -2.4561e+002 -1.5488e+001 30658 102134,102264,102160
 3.5000e+000 102316 -6.0265e+001 -2.0581e+002 -6.7568e+001 30658 102134,102290,102264
 3.5000e+000 102457 -7.4418e+001 -2.4797e+002  9.0164e+000 30658 102238,102186,102431
 3.5000e+000 102480 -1.1573e+002 -2.4852e+002 -1.0984e+001 30658 102238,102431,102264
 3.5000e+000 102681 -3.7544e+001 -2.8243e+002  3.9615e+001 30004 102704,102557,102505
 3.5000e+000 102658 -4.1856e+001 -2.8574e+002  4.1059e+001 30004 102704,102505,102609
 3.5000e+000 102635 -3.4903e+000 -2.4433e+002  9.3917e+000 30004 102505,102557,102531
 3.5000e+000 102730 -4.1751e+001 -2.7556e+002  3.6542e+001 30004 102583,102557,102704
 3.5000e+000 102753 -5.1885e+001 -2.8182e+002  3.9336e+001 30004 102583,102704,102609
 3.5000e+000 103003 -3.3821e+001 -2.2710e+002 -1.9510e+001 29564 103026,102804,102778
 3.5000e+000 102980 -4.1358e+001 -2.6827e+002 -2.9907e+001 29564 103026,102778,102908
 3.5000e+000 102957 -3.9584e+001 -2.2788e+002 -5.1871e+000 29564 102856,102908,102882
 3.5000e+000 102934 -5.5765e+001 -2.0672e+002  1.1420e+001 29564 102804,102856,102830
 3.5000e+000 103052 -2.9019e+001 -2.0613e+002  8.3619e+000 29564 102856,102804,103026
 3.5000e+000 103075 -4.0622e+001 -2.3994e+002 -5.9176e+000 29564 102856,103026,102908
 3.5000e+000 103634 -1.1099e+002 -2.6211e+002 -3.0483e+001 29160 103657,103418,103392
 3.5000e+000 103611 -1.0601e+002 -2.5287e+002 -1.5122e+001 29160 103657,103392,103314
 3.5000e+000 103588 -7.7678e+001 -2.2388e+002 -2.6688e+001 29160 103314,103392,103366
 3.5000e+000 103565 -7.0063e+001 -2.3737e+002 -3.0092e+001 29160 103314,103366,103340
 3.5000e+000 103542 -1.3136e+002 -2.4990e+002 -2.8290e+001 29160 103262,103444,103314
 3.5000e+000 103519 -1.5377e+002 -2.9499e+002 -3.9002e+001 29160 103262,103314,103288
 3.5000e+000 103496 -1.0180e+002 -2.7242e+002 -1.1450e+001 29160 103262,103470,103444
 3.5000e+000 103683 -1.3452e+002 -2.8062e+002 -4.7929e+001 29160 103444,103418,103657
 3.5000e+000 103706 -1.1513e+002 -2.5149e+002 -3.0176e+001 29160 103444,103657,103314
 3.5000e+000 104035 -6.6463e+001 -2.3998e+002  2.1171e+001 28770 103836,103914,103862
 3.5000e+000 104012 -6.3329e+001 -2.3036e+002  2.7616e+001 28770 103810,103914,103836
 3.5000e+000 103989  1.9638e+001 -2.0902e+002  3.6317e+001 28770 103810,103940,103914
 3.5000e+000 103966 -1.2406e+001 -1.9445e+002  4.5439e+001 28770 103862,103914,103888
 3.5000e+000 104185 -3.7274e+001 -2.4145e+002  3.9622e+001 28366 104208,104110,104084
 3.5000e+000 104162 -2.6379e+001 -2.0305e+002  3.7352e+001 28366 104280,104208,104084
 3.5000e+000 104234  2.6423e+001 -2.3644e+002  2.4223e+001 28366 104610,104208,104136
 3.5000e+000 104257 -5.6000e+001 -2.3024e+002  2.5770e+001 28366 104538,104410,104208
 3.5000e+000 104306 -8.1681e+001 -2.3236e+002  2.5075e+001 28366 104538,104208,104280
 3.5000e+000 104436 -2.8944e+001 -2.4290e+002  2.7683e+000 28366 104136,104208,104410
 3.5000e+000 104564 -8.2800e+001 -2.2945e+002  1.2222e+001 28366 104058,104410,104538
 3.5000e+000 104587 -9.8723e+001 -2.2570e+002  9.7979e+000 28366 104058,104538,104280
 3.5000e+000 104636  9.8277e+000 -2.4181e+002  3.2122e+001 28366 104110,104208,104610
 3.5000e+000 105349 -5.5358e+001 -2.0372e+002 -2.1440e+001 27976 105516,105372,105107
 3.5000e+000 105326 -8.5506e+001 -2.0347e+002  5.1075e+000 27976 105588,105372,105055
 3.5000e+000 105303 -9.0799e+001 -1.9783e+002 -1.9777e+001 27976 105444,105159,105133
 3.5000e+000 105280 -3.2041e+001 -2.1190e+002 -1.2770e+001 27976 105516,105107,105081
 3.5000e+000 105257 -7.9358e+001 -2.2520e+002  1.9139e+001 27976 105588,105055,105029
 3.5000e+000 105234 -4.3267e+001 -1.7247e+002  1.9897e+000 27976 105003,105185,105159
 3.5000e+000 105211 -5.9800e+001 -1.3961e+002  2.4869e+001 27976 104977,105185,105003
 3.5000e+000 105398 -4.4622e+001 -2.0353e+002 -2.7155e+001 27976 105133,105107,105372
 3.5000e+000 105421 -7.3578e+001 -2.1131e+002 -1.1889e+001 27976 105444,105133,105372
 3.5000e+000 105470 -7.4775e+001 -1.7488e+002 -1.0830e+001 27976 105003,105159,105444
 3.5000e+000 105493 -6.2549e+001 -1.9042e+002 -6.9748e+000 27976 105003,105444,105372
 3.5000e+000 105542 -3.9713e+001 -2.0085e+002 -2.3222e+000 27976 105055,105372,105516
 3.5000e+000 105565 -5.1036e+000 -2.0466e+002  4.0097e+000 27976 105055,105516,105081
 3.5000e+000 105614 -9.8407e+001 -2.2491e+002  1.5520e+001 27976 105003,105372,105588
 3.5000e+000 105637 -9.5643e+001 -2.4631e+002  3.0840e+001 27976 105003,105588,105029
 3.5000e+000 106143 -1.0701e+002 -3.1743e+002  1.8689e+001 27664 106166,105846,105820
 3.5000e+000 106120 -7.8370e+001 -2.5219e+002  7.9474e+000 27664 106310,106166,105820
 3.5000e+000 106097 -3.8354e+001 -2.8850e+002 -5.4468e+001 27664 106382,106238,105950
 3.5000e+000 106074 -5.2476e+001 -2.4854e+002  9.4842e+000 27664 106310,105820,106002
 3.5000e+000 106051  1.9568e+001 -2.5577e+002 -4.0625e+001 27664 106382,105950,105924
 3.5000e+000 106028 -3.8550e+001 -4.3940e+002 -1.4217e+001 27664 105846,105898,105872
 3.5000e+000 106192 -1.0013e+002 -3.5140e+002 -4.0978e+001 27664 105898,105846,106166
 3.5000e+000 106215 -6.6934e+001 -2.9739e+002 -1.2316e+001 27664 106238,105898,106166
 3.5000e+000 106264 -1.6874e+002 -3.2299e+002 -7.3090e+001 27664 105976,105950,106238
 3.5000e+000 106287 -5.9862e+001 -2.9644e+002 -1.3346e+001 27664 105976,106238,106166
 3.5000e+000 106336 -5.2483e+001 -2.6420e+002  3.1069e+001 27664 105976,106166,106310
 3.5000e+000 106359 -2.2963e+001 -2.5869e+002  3.1655e+001 27664 105976,106310,106002
 3.5000e+000 106408 -6.3297e+001 -2.3656e+002  1.0477e+001 27664 105898,106238,106382
 3.5000e+000 106431 -2.8658e+001 -2.1937e+002  1.9088e+001 27664 105898,106382,105924
 3.5000e+000 106728 -3.2168e+001 -1.7282e+002  3.1878e+001 27153 106751,106506,106454
 3.5000e+000 106705 -2.9969e+001 -1.7414e+002  2.4776e+001 27153 106751,106454,106610
 3.5000e+000 106682 -4.9432e+001 -1.3143e+002  6.0129e+000 27153 106454,106506,106480
 3.5000e+000 106659 -4.2036e+001 -1.6813e+002  1.4817e+001 27153 106532,106610,106584
 3.5000e+000 106636 -7.0375e+001 -1.0395e+002  3.1540e+001 27153 106532,106584,106558
 3.5000e+000 106777 -2.2464e+001 -1.7291e+002  3.2882e+001 27153 106532,106506,106751
 3.5000e+000 106800 -2.1645e+001 -1.7347e+002  2.4388e+001 27153 106532,106751,106610
 3.5000e+000 107180 -4.4091e+001 -2.0699e+002  1.3457e+001 26642 107203,106984,106958
 3.5000e+000 107157 -1.0913e+002 -2.3693e+002  4.0046e+000 26642 107203,106958,106932
 3.5000e+000 107134 -1.2708e+002 -2.5899e+002 -3.3708e+001 26642 107275,107036,107010
 3.5000e+000 107111 -8.0899e+001 -2.5808e+002 -4.2032e+001 26642 106932,107062,107036
 3.5000e+000 107088 -3.0615e+000 -2.0265e+002  2.5198e+001 26642 106906,107062,106932
 3.5000e+000 107229 -1.1392e+001 -1.9485e+002 -5.6910e+001 26642 107010,106984,107203
 3.5000e+000 107252 -1.1337e+002 -2.4069e+002 -4.1087e+001 26642 107275,107010,107203
 3.5000e+000 107301 -1.1057e+002 -2.5652e+002 -4.3784e+001 26642 106932,107036,107275
 3.5000e+000 107324 -1.0597e+002 -2.5695e+002 -4.6061e+001 26642 106932,107275,107203
 3.5000e+000 107675 -5.3427e+001 -1.5015e+002  1.5481e+001 26045 107450,107554,107476
 3.5000e+000 107652 -4.1243e+001 -1.2962e+002  3.9355e+000 26045 107450,107580,107554
 3.5000e+000 107629 -1.7265e+001 -1.3650e+002  6.0564e+000 26045 107476,107528,107502
 3.5000e+000 107606 -1.4298e+001 -1.4184e+002  7.8451e+000 26045 107476,107554,107528
 3.5000e+000 107874 -3.6351e+001 -2.2865e+002  5.6630e+001 25641 107750,107802,107776
 3.5000e+000 107851 -4.8550e+001 -1.6040e+002  2.8250e+001 25641 107724,107802,107750
 3.5000e+000 107828 -4.7592e+001 -1.6280e+002  2.4721e+001 25641 107698,107802,107724
 3.5000e+000 108431 -2.1246e+001 -2.4512e+002  4.2181e+001 25023 108526,108267,108241
 3.5000e+000 108408 -1.8626e-001 -2.3313e+002  8.1177e+000 25023 108059,108267,108085
 3.5000e+000 108385 -3.6399e+001 -2.5020e+002  4.1376e+001 25023 108454,108163,108111
 3.5000e+000 108362 -1.1159e+002 -2.5232e+002  6.9956e+001 25023 108454,108111,108085
 3.5000e+000 108339 -8.9034e+001 -3.2447e+002  7.2674e+001 25023 108111,108163,108137
 3.5000e+000 108316 -6.1361e+001 -1.8315e+002 -1.1849e+001 25023 108163,108241,108215
 3.5000e+000 108293  2.3413e+001 -1.4532e+002 -2.3924e+000 25023 108163,108215,108189
 3.5000e+000 108480 -1.1047e+001 -2.2419e+002  2.8205e+000 25023 108241,108163,108454
 3.5000e+000 108503 -3.8040e+001 -2.3799e+002  4.0488e+001 25023 108526,108241,108454
 3.5000e+000 108552 -4.0961e+001 -2.4792e+002  3.2923e+001 25023 108085,108267,108526
 3.5000e+000 108575 -5.8780e+001 -2.4198e+002  3.0796e+001 25023 108085,108526,108454
 3.5000e+000 108823 -1.5564e+001 -1.8109e+002  2.6740e+001 24461 108624,108728,108650
 3.5000e+000 108800 -3.5475e+001 -3.7045e+002 -2.2617e+001 24461 108598,108728,108624
 3.5000e+000 108777 -4.2612e+000 -2.4011e+002  2.4003e+001 24461 108650,108728,108676
 3.5000e+000 108754 -1.1116e+002 -6.6869e+002  5.8397e+001 24461 108676,108728,108702
 3.5000e+000 109022 -6.5569e+001 -1.8768e+002  2.1265e+001 24121 108872,108924,108898
 3.5000e+000 108999 -4.9565e+001 -1.8360e+002  2.4509e+001 24121 108846,108924,108872
 3.5000e+000 108976 -7.3217e+001 -1.9507e+002  2.8753e+001 24121 108846,108950,108924
 3.5000e+000 109483 -7.7520e+001 -2.5453e+002 -2.4692e+001 23717 109209,109339,109235
 3.5000e+000 109460 -3.0985e+001 -2.8888e+002 -5.8298e+001 23717 109209,109365,109339
 3.5000e+000 109437 -7.9304e+000 -3.1861e+002 -1.6821e+001 23717 109287,109339,109313
 3.5000e+000 109414 -1.4781e+002 -3.2227e+002  1.6936e+001 23717 109235,109339,109287
 3.5000e+000 109391 -1.1990e+001 -3.7231e+002  1.2492e+002 23717 109235,109287,109261
 3.5000e+000 109910 -9.9588e+001 -2.9392e+002 -3.0455e+001 23305 109613,109743,109717
 3.5000e+000 109887 -1.0132e+002 -2.9694e+002 -1.7449e+001 23305 109613,109769,109743
 3.5000e+000 109864 -1.2195e+002 -2.9083e+002 -2.4692e+001 23305 109613,109717,109639
 3.5000e+000 109841 -7.8725e+001 -2.7228e+002 -6.5973e+000 23305 109587,109769,109613
 3.5000e+000 109818  2.1041e+001 -2.2961e+002  3.3131e+001 23305 109639,109717,109691
 3.5000e+000 109795 -2.8575e+001 -1.8536e+002 -3.9311e+001 23305 109639,109691,109665
 3.5000e+000 110180 -6.5052e+000 -8.6199e+001 -1.8626e+001 22851 110007,110059,110033
 3.5000e+000 110157 -5.9279e+001 -2.2971e+002  9.7124e+000 22851 109981,110059,110007
 3.5000e+000 110134 -8.2783e+001 -2.4754e+002  1.2413e+000 22851 109955,110059,109981
 3.5000e+000 110111 -3.3493e+001 -2.7085e+002 -2.1057e+001 22851 109955,110085,110059
 3.5000e+000 110737 -5.6099e+001 -2.6978e+002 -6.2513e+001 22333 110760,110469,110391
 3.5000e+000 110714 -2.3284e+001 -2.9812e+002 -5.1296e+001 22333 110760,110391,110365
 3.5000e+000 110691 -3.0621e+001 -2.5955e+002 -5.3992e+001 22333 110832,110521,110469
 3.5000e+000 110668 -9.0140e+000 -4.4075e+002  5.4791e+000 22333 110417,110469,110443
 3.5000e+000 110645 -1.3062e+002 -4.0489e+002 -7.5998e-001 22333 110391,110469,110417
 3.5000e+000 110622 -3.6553e+000 -2.5624e+002 -3.1626e+001 22333 110469,110521,110495
 3.5000e+000 110599 -3.0427e+001 -1.7633e+002  1.7523e+001 22333 110365,110573,110547
 3.5000e+000 110786 -3.3050e+001 -2.6061e+002 -5.4280e+001 22333 110832,110469,110760
 3.5000e+000 110809  1.2944e+000 -2.7044e+002 -3.8653e+001 22333 110547,110760,110365
 3.5000e+000 110858 -1.8800e+001 -2.6347e+002 -5.7167e+001 22333 110547,110521,110832
 3.5000e+000 110881 -2.9306e+001 -2.6961e+002 -5.9690e+001 22333 110547,110832,110760
 3.5000e+000 111308 -1.4199e+002 -3.2358e+002  1.5773e+001 21829 111331,111063,111011
 3.5000e+000 111285 -1.2940e+002 -3.0304e+002 -5.8372e+000 21829 111331,111011,111167
 3.5000e+000 111262 -1.4513e+002 -3.2101e+002  1.6605e+001 21829 111403,111089,111063
 3.5000e+000 111239 -1.8006e+002 -3.4775e+002  4.3656e+001 21829 111011,111063,111037
 3.5000e+000 111216 -8.7113e+001 -2.2560e+002  1.1647e+001 21829 110985,111167,111011
 3.5000e+000 111193 -1.5920e+002 -5.0650e+002  1.0693e+002 21829 111089,111141,111115
 3.5000e+000 111357 -1.4136e+002 -3.2405e+002  1.6585e+001 21829 111403,111063,111331
 3.5000e+000 111380 -1.4507e+002 -3.3723e+002 -2.0177e+000 21829 111141,111331,111167
 3.5000e+000 111429 -1.4885e+002 -3.2537e+002  2.0574e+001 21829 111141,111089,111403
 3.5000e+000 111452 -1.4477e+002 -3.3092e+002  1.8800e+001 21829 111141,111403,111331
 3.5000e+000 112056  7.8274e+001 -2.4733e+002  4.9489e+000 21489 111687,111765,111739
 3.5000e+000 112033  8.7913e+000 -2.8447e+002  2.7780e+001 21489 112151,112079,111687
 3.5000e+000 112010 -9.6713e+000 -4.3850e+002  3.1879e+001 21489 111791,111843,111817
 3.5000e+000 111987 -8.6933e+001 -3.4936e+002 -2.3877e+001 21489 112079,111843,111791
 3.5000e+000 111964  4.9499e+001 -2.6580e+002  5.1994e+001 21489 112151,111687,111661
 3.5000e+000 111941 -3.3841e+001 -1.9545e+002  4.6621e+001 21489 111661,111869,111843
 3.5000e+000 111918  8.1697e+001 -2.6615e+002  3.6467e+001 21489 111687,111739,111713
 3.5000e+000 111895  5.1126e+000 -1.0499e+002  1.9351e+001 21489 111635,111869,111661
 3.5000e+000 112105 -5.4781e+001 -3.0657e+002  1.6320e+001 21489 111765,111687,112079
 3.5000e+000 112128 -5.3667e+001 -2.9368e+002  1.7286e+001 21489 111765,112079,111791
 3.5000e+000 112177 -6.0452e+001 -2.8119e+002 -5.8644e+000 21489 111843,112079,112151
 3.5000e+000 112200 -2.2913e+001 -2.7416e+002  1.3867e+001 21489 111843,112151,111661
 3.5000e+000 112578 -7.1743e+001 -3.5411e+002  1.5156e+001 21177 112382,112434,112408
 3.5000e+000 112555 -8.6586e+001 -3.5171e+002  1.0868e+000 21177 112330,112434,112382
 3.5000e+000 112532 -7.1519e+001 -3.0482e+002  5.0503e+001 21177 112304,112434,112330
 3.5000e+000 112509 -8.5086e+001 -3.3917e+002  0.0000e+000 21177 112330,112382,112356
 3.5000e+000 112486 -2.1495e+001 -2.0647e+002  1.2086e+001 21177 112304,112460,112434
 3.5000e+000 112679 -6.4282e+000 -2.5205e+002 -4.0234e+001 20666 112601,112653,112627
 3.5000e+000 112927 -1.0103e+002 -3.4056e+002  1.0933e+001 19762 112702,112754,112728
 3.5000e+000 112904 -3.9115e+001 -3.2196e+002 -4.6416e+000 19762 112702,112832,112754
 3.5000e+000 112881 -8.6070e+001 -3.4372e+002  5.4809e+001 19762 112754,112832,112806
 3.5000e+000 112858 -1.1950e+002 -4.2528e+002  5.1695e+001 19762 112754,112806,112780
 3.5000e+000 113297 -9.3373e+001 -3.9763e+002  2.4842e+001 19308 112974,113052,113026
 3.5000e+000 113274 -6.2999e+001 -3.3529e+002  7.9871e+000 19308 112974,113156,113052
 3.5000e+000 113251 -3.3938e+001 -4.4130e+002 -5.2641e+001 19308 113052,113130,113104
 3.5000e+000 113228 -6.7098e+001 -3.3295e+002  1.5369e-001 19308 113052,113156,113130
 3.5000e+000 113205 -6.4236e+001 -3.8524e+002  0.0000e+000 19308 113052,113104,113078
 3.5000e+000 113182 -1.2871e+002 -4.1010e+002 -7.4264e-001 19308 112974,113026,113000
 3.5000e+000 113547 -2.1396e+001 -3.6758e+002 -2.3014e+001 18711 113570,113374,113348
 3.5000e+000 113524 -3.5810e+001 -3.3596e+002 -1.2750e+001 18711 113570,113348,113452
 3.5000e+000 113501 -2.8597e+001 -2.5949e+002 -7.1454e+001 18711 113322,113452,113348
 3.5000e+000 113478 -4.3653e+001 -3.2575e+002 -1.1420e+002 18711 113374,113426,113400
 3.5000e+000 113596 -1.5020e+001 -3.3332e+002 -3.1666e+001 18711 113426,113374,113570
 3.5000e+000 113619 -3.3699e+001 -3.0808e+002 -1.5001e+001 18711 113426,113570,113452
 3.5000e+000 113771 -1.8173e+002 -4.5359e+002 -2.4360e+001 18307 113670,113722,113696
 3.5000e+000 113748 -1.4345e+002 -4.2517e+002 -1.1307e+001 18307 113644,113722,113670
 3.5000e+000 113972 -7.5817e+001 -3.7312e+002  5.2769e+000 17945 113822,113874,113848
 3.5000e+000 113949 -7.8258e+001 -3.6879e+002  8.5521e+000 17945 113822,113900,113874
 3.5000e+000 113926 -1.1250e+002 -2.8425e+002  1.7479e+002 17945 113796,113900,113822
 3.5000e+000 114075 -5.4735e+001 -5.5781e+002  5.9968e+001 17482 113997,114049,114023
 3.5000e+000 114479 -2.5412e+001 -3.0813e+002 -4.6977e+001 17042 114257,114361,114335
 3.5000e+000 114456 -7.4881e+001 -2.9788e+002 -8.9153e+000 17042 114205,114361,114257
 3.5000e+000 114433 -9.1858e+001 -3.4381e+002  1.1462e+001 17042 114205,114257,114231
 3.5000e+000 114410  6.7602e+001 -4.5255e+002 -3.0216e+001 17042 114283,114335,114309
 3.5000e+000 114387 -8.2288e+000 -3.9509e+002 -1.9943e+001 17042 114257,114335,114283
 3.5000e+000 114879 -1.6295e+002 -3.4135e+002 -4.6816e+000 16638 114631,114683,114657
 3.5000e+000 114856 -8.4104e+000 -2.7531e+002 -5.7405e+000 16638 114605,114683,114631
 3.5000e+000 114833  3.1939e+001 -1.7622e+002 -1.2659e+001 16638 114605,114761,114683
 3.5000e+000 114810 -2.7651e+001 -3.5409e+002 -1.9621e+001 16638 114683,114735,114709
 3.5000e+000 114787 -5.7021e+001 -3.7968e+002 -3.2468e+001 16638 114683,114761,114735
 3.5000e+000 115078 -1.4875e+002 -3.4217e+002  6.0675e+000 16232 114954,115006,114980
 3.5000e+000 115055 -1.5725e+002 -3.8194e+002  1.6318e+001 16232 114928,115006,114954
 3.5000e+000 115032 -7.4959e+001 -4.7956e+002  3.2131e+001 16232 114902,115006,114928
 3.5000e+000 115228 -1.1358e+002 -3.5599e+002  9.0004e+000 15482 115101,115153,115127
 3.5000e+000 115205 -8.7242e+001 -3.3475e+002 -3.2220e+000 15482 115101,115179,115153
 3.5000e+000 115331 -8.7997e+001 -3.3811e+002 -3.9591e+001 15163 115253,115305,115279
 3.5000e+000 115434 -1.0536e+002 -3.5563e+002  4.6784e+001 421 115356,115408,115382
 3.6000e+000 68213 -3.4434e+001 -2.1991e+002 -1.9169e+001 67888 68112,68164,68138
 3.6000e+000 68190 -2.4260e+002 -2.8318e+002 -3.0249e+001 67888 68086,68164,68112
 3.6000e+000 68314 -2.3278e+001 -2.8681e+002  2.8427e+001 67576 68236,68288,68262
 3.6000e+000 68584 -9.4235e+001 -4.6559e+002  1.7535e+001 67378 68385,68489,68463
 3.6000e+000 68561  8.6337e+001 -3.8985e+002  1.3079e+001 67378 68359,68489,68385
 3.6000e+000 68538 -8.3811e+001 -4.0578e+002  2.1812e+001 67378 68385,68463,68411
 3.6000e+000 68515 -5.1613e+001 -2.7343e+002  1.0426e+001 67378 68411,68463,68437
 3.6000e+000 68964 -9.8936e+001 -4.2883e+002  6.4648e+001 67130 68690,68820,68716
 3.6000e+000 68941  9.9316e+001 -4.3963e+002  1.2290e+002 67130 68690,68846,68820
 3.6000e+000 68918 -8.8586e+001 -2.8434e+002  6.4720e+000 67130 68742,68820,68794
 3.6000e+000 68895 -1.3440e+001 -2.8371e+002  2.6176e+001 67130 68716,68820,68742
 3.6000e+000 68872 -5.7275e+001 -2.4037e+002 -2.8194e+001 67130 68742,68794,68768
 3.6000e+000 69065 -5.7458e+001 -2.7738e+002 -4.0277e-001 66926 68987,69039,69013
 3.6000e+000 69445 -2.5759e+001 -2.5395e+002 -1.7033e+001 66614 69223,69301,69275
 3.6000e+000 69422 -5.0141e+001 -2.7161e+002 -4.3352e+000 66614 69171,69301,69223
 3.6000e+000 69399 -6.3767e+001 -2.8153e+002  1.9781e+000 66614 69171,69327,69301
 3.6000e+000 69376  1.0698e+001 -9.3096e+001  5.3119e+000 66614 69223,69275,69249
 3.6000e+000 69353 -4.9441e+001 -2.9583e+002 -7.8520e+000 66614 69171,69223,69197
 3.6000e+000 69546 -6.9423e+001 -3.9178e+002  2.1759e+001 66416 69468,69520,69494
 3.6000e+000 69997 -5.9633e+001 -4.0008e+002 -3.7230e+001 66104 69700,69830,69726
 3.6000e+000 69974 -7.8071e+001 -5.0289e+002 -7.4979e+001 66104 69700,69856,69830
 3.6000e+000 69951 -6.7545e+001 -3.0587e+002 -2.3192e+001 66104 69726,69804,69778
 3.6000e+000 69928 -5.2926e+001 -3.7218e+002 -3.2539e+001 66104 69726,69830,69804
 3.6000e+000 69905 -7.3453e+001 -2.9303e+002 -1.2639e+001 66104 69726,69778,69752
 3.6000e+000 69882 -2.2664e+001 -7.3339e+002 -1.2717e+002 66104 69674,69856,69700
 3.6000e+000 70326 -7.0493e+001 -1.7992e+002 -2.2359e+001 65814 70349,70153,70127
 3.6000e+000 70303 -5.3169e+000 -1.8235e+002 -2.1752e+000 65814 70349,70127,70101
 3.6000e+000 70280  3.9428e+001 -1.0722e+002  9.6958e+001 65814 70101,70231,70205
 3.6000e+000 70257  6.2735e+001 -1.9394e+002  2.2093e+001 65814 70153,70205,70179
 3.6000e+000 70375 -3.8687e+001 -1.8576e+002  2.3596e+001 65814 70205,70153,70349
 3.6000e+000 70398  5.4285e+001 -1.7744e+002  3.7772e+001 65814 70205,70349,70101
 3.6000e+000 70904 -2.4245e+001 -9.4819e+001 -2.9701e+001 65502 70607,70737,70685
 3.6000e+000 70881 -3.0694e+001 -7.4963e+001 -3.9611e+001 65502 70581,70737,70607
 3.6000e+000 70858 -2.9784e+001 -1.6065e+001 -6.8946e+000 65502 70581,70763,70737
 3.6000e+000 70835 -4.3856e+001 -1.0639e+002 -4.1963e+001 65502 70685,70737,70711
 3.6000e+000 70812 -1.3933e+002 -1.2275e+002 -5.5288e+000 65502 70607,70659,70633
 3.6000e+000 70789 -4.2648e+001 -1.2896e+002 -2.5221e+000 65502 70607,70685,70659
 3.6000e+000 71103 -4.1768e+001 -3.5265e+002 -8.0187e+000 65304 71126,70979,70953
 3.6000e+000 71080 -7.6725e+001 -3.5401e+002 -1.9848e+000 65304 71126,70953,70927
 3.6000e+000 71057 -1.1032e+002 -3.6076e+002  2.4202e+001 65304 70927,71031,71005
 3.6000e+000 71152 -7.7168e+001 -3.3123e+002 -1.7986e+001 65304 71005,70979,71126
 3.6000e+000 71175 -1.1824e+002 -3.3996e+002 -3.7982e+000 65304 71005,71126,70927
 3.6000e+000 71374 -2.4474e+001 -3.3880e+002  1.5401e+001 65106 71198,71276,71224
 3.6000e+000 71351 -1.0106e+002 -3.6261e+002  6.9414e+000 65106 71198,71302,71276
 3.6000e+000 71328 -3.4802e-001 -2.7679e+002  3.9862e+001 65106 71224,71276,71250
 3.6000e+000 71756 -4.1383e+001 -2.4400e+002 -1.8260e+001 64652 71508,71638,71534
 3.6000e+000 71733 -1.4006e+000 -2.2638e+002  3.3816e+000 64652 71482,71638,71508
 3.6000e+000 71710 -7.5625e+001 -2.1410e+002 -1.6300e+001 64652 71534,71586,71560
 3.6000e+000 71687 -5.4551e+001 -2.3586e+002 -4.5427e+001 64652 71534,71612,71586
 3.6000e+000 71664 -1.1331e+002 -2.5786e+002 -4.3613e+001 64652 71534,71638,71612
 3.6000e+000 72085 -9.4716e+001 -2.5805e+002 -2.9499e+001 64248 71886,71964,71912
 3.6000e+000 72062 -8.7894e+001 -2.5338e+002 -3.1846e+001 64248 71860,71964,71886
 3.6000e+000 72039 -3.8161e+001 -2.6565e+002 -1.7913e+001 64248 71912,71964,71938
 3.6000e+000 72016 -6.7665e+001 -2.4680e+002 -3.8987e+001 64248 71860,71990,71964
 3.6000e+000 72235 -5.8455e+000 -1.5817e+002 -2.0063e+001 63858 72588,72258,72134
 3.6000e+000 72212 -9.7846e+000 -8.9220e+001  2.7728e+001 63858 72330,72258,72108
 3.6000e+000 72284 -7.1977e+000 -1.0550e+002 -9.0022e+000 63858 72160,72134,72258
 3.6000e+000 72307 -7.3890e+001 -1.4570e+002 -1.4864e+001 63858 72460,72258,72186
 3.6000e+000 72356 -6.1469e+001 -1.3386e+002 -6.7934e+000 63858 72186,72258,72330
 3.6000e+000 72486 -1.6945e+001 -1.3417e+002 -1.3660e+001 63858 72160,72258,72460
 3.6000e+000 72614  2.0160e+001 -1.6310e+002  2.3223e+001 63858 72108,72258,72588
 3.6000e+000 73248 -3.4613e+001 -2.2545e+002  7.5975e+001 63404 72902,72954,72928
 3.6000e+000 73225 -1.1701e+002 -2.6770e+002  3.9417e+001 63404 73271,72954,72902
 3.6000e+000 73202 -9.4725e+001 -2.1348e+002  3.1465e+001 63404 73271,72902,73032
 3.6000e+000 73179 -5.6899e+001 -1.8362e+002  1.3729e+001 63404 72902,73058,73032
 3.6000e+000 73156 -6.5624e+001 -2.1326e+002  8.5757e+000 63404 72980,73032,73006
 3.6000e+000 73133 -5.5044e+001 -1.9056e+002  1.0843e+001 63404 72876,73058,72902
 3.6000e+000 73110 -2.4015e+001 -8.9899e+001 -4.6626e+001 63404 72876,73084,73058
 3.6000e+000 73297 -9.0112e+001 -2.7301e+002  4.4397e+000 63404 72980,72954,73271
 3.6000e+000 73320 -8.2506e+001 -2.4533e+002  2.1052e+000 63404 72980,73271,73032
 3.6000e+000 73470 -9.6732e+001 -6.4388e+002  6.7258e+001 63014 73343,73395,73369
 3.6000e+000 73447 -3.0227e+002 -7.9206e+002 -1.5591e+001 63014 73343,73421,73395
 3.6000e+000 73929  2.9664e+001 -2.9298e+002  2.8946e+001 62702 73759,73811,73785
 3.6000e+000 73906  4.9904e+001 -2.8698e+002  2.2451e+001 62702 73655,73811,73759
 3.6000e+000 73883 -2.6402e+000 -3.4055e+002 -1.2767e+000 62702 73655,73759,73681
 3.6000e+000 73860  4.6034e+001 -2.4321e+002 -6.2649e+001 62702 73681,73759,73707
 3.6000e+000 73837 -1.1464e+002 -2.8852e+002  1.8019e+000 62702 73707,73759,73733
 3.6000e+000 74209 -1.6644e+002 -2.9688e+002  2.7727e+000 62404 74059,74137,74085
 3.6000e+000 74186 -2.0572e+002 -3.9264e+002  4.8387e+001 62404 74033,74137,74059
 3.6000e+000 74163 -1.8736e+002 -2.7336e+002 -1.8473e+000 62404 74085,74137,74111
 3.6000e+000 74408  3.9309e+000 -2.5126e+002  1.8576e+001 62000 74258,74336,74284
 3.6000e+000 74385 -7.6096e+000 -2.5147e+002  3.1051e+001 62000 74232,74336,74258
 3.6000e+000 74362 -5.7365e+001 -2.4310e+002 -2.0705e+000 62000 74284,74336,74310
 3.6000e+000 74509 -1.5048e+001 -3.1614e+002  1.0316e+001 61802 74431,74483,74457
 3.6000e+000 74759 -8.4530e+001 -2.7267e+002  3.7001e-002 61554 74782,74586,74560
 3.6000e+000 74736 -4.3572e+001 -2.5075e+002  8.2910e+000 61554 74782,74560,74664
 3.6000e+000 74713 -7.2283e+001 -1.9670e+002  6.6384e+001 61554 74854,74612,74586
 3.6000e+000 74690 -6.0637e+001 -2.7970e+002  8.3097e-001 61554 74534,74664,74560
 3.6000e+000 74808 -1.0499e+002 -2.4654e+002  1.7945e+001 61554 74854,74586,74782
 3.6000e+000 74831 -5.9359e+001 -3.1197e+002  1.7105e+001 61554 74638,74782,74664
 3.6000e+000 74880 -9.0532e+000 -2.4890e+002  7.3592e+001 61554 74638,74612,74854
 3.6000e+000 74903 -1.1054e+001 -2.4686e+002  3.8176e+001 61554 74638,74854,74782
 3.6000e+000 75285 -3.0779e+001 -2.9064e+002  6.1631e+000 61356 75063,75167,75115
 3.6000e+000 75262 -5.0783e+001 -3.1451e+002 -2.1396e+001 61356 75037,75167,75063
 3.6000e+000 75239  6.9417e+001 -3.0409e+002 -2.8123e+000 61356 75115,75167,75141
 3.6000e+000 75216  3.3572e+001 -2.5546e+002  1.9851e+001 61356 75063,75115,75089
 3.6000e+000 75193 -1.3441e+002 -2.4013e+002  2.0349e+001 61356 75011,75167,75037
 3.6000e+000 75631 -2.9584e+000 -2.2456e+002  2.3674e+000 60952 75654,75412,75360
 3.6000e+000 75608 -3.8460e+001 -2.6459e+002 -1.4071e+001 60952 75654,75360,75334
 3.6000e+000 75585 -2.1567e+001 -3.4133e+002  1.3956e+001 60952 75726,75438,75412
 3.6000e+000 75562 -4.4642e+001 -2.8783e+002 -4.9480e+001 60952 75308,75490,75334
 3.6000e+000 75539 -9.2529e+000 -2.2454e+002 -4.1991e+000 60952 75360,75412,75386
 3.6000e+000 75516 -4.6329e+001 -4.2164e+002 -9.3694e+000 60952 75438,75490,75464
 3.6000e+000 75680  4.1611e+000 -2.8609e+002  2.8473e-001 60952 75726,75412,75654
 3.6000e+000 75703 -3.5974e-001 -2.7340e+002 -1.9527e+001 60952 75490,75654,75334
 3.6000e+000 75752  7.2579e+000 -2.7661e+002 -5.6645e+000 60952 75490,75438,75726
 3.6000e+000 75775  5.7702e+000 -2.7125e+002 -1.7428e+001 60952 75490,75726,75654
 3.6000e+000 76155 -3.3022e+001 -2.5462e+002 -3.6122e-001 60754 75933,75985,75959
 3.6000e+000 76132 -5.3108e+001 -2.6869e+002  2.9444e+001 60754 75933,76037,75985
 3.6000e+000 76109  1.1114e+001 -2.7001e+002  1.4185e+001 60754 75985,76037,76011
 3.6000e+000 76086 -8.6809e+001 -2.2411e+002  1.0328e+001 60754 75881,76037,75933
 3.6000e+000 76063 -1.2999e+002 -1.9182e+002  6.5808e+001 60754 75881,75933,75907
 3.6000e+000 76612 -4.0923e+001 -2.0815e+002  1.9946e+000 60350 76635,76442,76390
 3.6000e+000 76589  2.6709e+000 -2.3430e+002  1.2119e+001 60350 76635,76390,76364
 3.6000e+000 76566 -1.2284e+001 -2.9607e+002 -2.2708e+001 60350 76364,76494,76468
 3.6000e+000 76543 -2.8288e+000 -1.8735e+002  1.8155e+001 60350 76390,76442,76416
 3.6000e+000 76520 -1.0583e+002 -1.9458e+002 -4.9736e+001 60350 76338,76494,76364
 3.6000e+000 76661 -6.5638e+001 -2.2550e+002  9.5546e+000 60350 76468,76442,76635
 3.6000e+000 76684 -3.4177e+001 -2.5721e+002  2.2072e+001 60350 76468,76635,76364
 3.6000e+000 76932 -8.5822e+001 -2.9260e+002  9.1687e+000 59946 76955,76733,76707
 3.6000e+000 76909 -8.3199e+001 -2.8549e+002  1.3250e+001 59946 77027,76955,76707
 3.6000e+000 76886 -7.4308e+001 -2.8457e+002  1.0051e+001 59946 77027,76707,76837
 3.6000e+000 76863 -3.0210e+001 -3.2492e+002 -2.4060e+001 59946 76733,76785,76759
 3.6000e+000 76981 -9.3672e+001 -2.9035e+002  1.1335e+000 59946 76785,76733,76955
 3.6000e+000 77004 -8.5992e+001 -2.8844e+002  9.4543e+000 59946 76785,76955,76811
 3.6000e+000 77053 -7.0423e+001 -2.8694e+002  9.6817e+000 59946 76811,76955,77027
 3.6000e+000 77076 -6.2621e+001 -2.8439e+002  4.9300e+000 59946 76811,77027,76837
 3.6000e+000 77226 -9.9240e+001 -2.5142e+002  6.8395e+000 59542 77099,77151,77125
 3.6000e+000 77203 -1.1992e+002 -2.9957e+002  1.0185e+001 59542 77099,77177,77151
 3.6000e+000 77427 -1.4371e+002 -2.8726e+002 -2.4950e+001 59030 77450,77277,77251
 3.6000e+000 77404 -7.9222e+001 -2.1566e+002 -9.1476e+001 59030 77450,77251,77355
 3.6000e+000 77381  3.8609e+000 -3.4208e+002 -1.3208e+001 59030 77277,77329,77303
 3.6000e+000 77476 -6.7651e+001 -3.0262e+002 -6.6778e+001 59030 77329,77277,77450
 3.6000e+000 77499 -1.3444e+000 -2.6809e+002 -1.1874e+002 59030 77329,77450,77355
 3.6000e+000 77749 -1.2851e+002 -3.6339e+002  3.2614e+001 58426 77772,77628,77602
 3.6000e+000 77726 -8.4459e+001 -4.4375e+002  1.3008e+002 58426 77524,77654,77628
 3.6000e+000 77703 -9.3721e+001 -3.7013e+002  2.0297e+001 58426 77772,77602,77550
 3.6000e+000 77680 -4.5767e+001 -3.4350e+002 -2.0592e+001 58426 77550,77602,77576
 3.6000e+000 77798 -8.9775e+001 -3.5067e+002  3.8471e+001 58426 77524,77628,77772
 3.6000e+000 77821 -7.5832e+001 -3.7065e+002  2.0345e+001 58426 77524,77772,77550
 3.6000e+000 78071 -1.6137e+002 -3.4517e+002  3.7848e+001 57922 78094,77924,77898
 3.6000e+000 78048 -1.8839e+002 -3.5862e+002  8.4328e+000 57922 78094,77898,77872
 3.6000e+000 78025 -1.5452e+002 -3.3192e+002  3.6221e+001 57922 78166,77846,77950
 3.6000e+000 78002 -7.9580e+001 -3.2515e+002  4.2404e+001 57922 77846,77976,77950
 3.6000e+000 78120 -1.3944e+002 -3.5397e+002  2.8619e+001 57922 77950,77924,78094
 3.6000e+000 78143 -1.5662e+002 -3.3646e+002  2.8907e+001 57922 78166,77950,78094
 3.6000e+000 78192 -1.4856e+002 -3.4428e+002  2.8750e+001 57922 77872,77846,78166
 3.6000e+000 78215 -1.5726e+002 -3.5702e+002  2.0828e+001 57922 77872,78166,78094
 3.6000e+000 78416  3.9220e+001 -2.8944e+002 -1.6628e+001 57468 78439,78292,78240
 3.6000e+000 78393 -1.2182e+001 -2.7463e+002  1.6152e-001 57468 78439,78240,78344
 3.6000e+000 78370  1.6618e+001 -3.9817e+002 -1.3168e+001 57468 78240,78292,78266
 3.6000e+000 78465 -1.1045e+001 -3.1393e+002 -2.5256e+001 57468 78318,78292,78439
 3.6000e+000 78488 -3.2181e+001 -2.8577e+002 -4.2139e+000 57468 78318,78439,78344
 3.6000e+000 78689  5.7315e+001 -3.5563e+002 -4.4839e+001 57014 78712,78539,78513
 3.6000e+000 78666 -1.9213e+000 -3.5380e+002 -6.6166e+000 57014 78712,78513,78617
 3.6000e+000 78643 -7.8524e+001 -3.7253e+002  3.7328e+001 57014 78565,78617,78591
 3.6000e+000 78738 -1.9078e+001 -2.8902e+002 -4.4934e+001 57014 78565,78539,78712
 3.6000e+000 78761 -1.0848e+002 -3.4239e+002  1.7832e+001 57014 78565,78712,78617
 3.6000e+000 79241 -1.1033e+002 -3.0124e+002  2.0876e+001 56652 79264,78895,78869
 3.6000e+000 79218 -4.7129e+001 -3.9781e+002 -2.9021e+001 56652 79264,78869,79051
 3.6000e+000 79195 -7.3621e+001 -3.5125e+002 -8.3725e+001 56652 78869,79077,79051
 3.6000e+000 79172 -7.4874e+001 -1.9177e+002 -5.0664e+001 56652 78895,78973,78947
 3.6000e+000 79149 -1.3860e+002 -5.8107e+002 -5.4332e+001 56652 78973,79051,78999
 3.6000e+000 79126 -7.3922e+001 -1.6866e+002 -5.3360e+001 56652 78895,78947,78921
 3.6000e+000 79103 -1.1669e+002 -3.9235e+002  9.6121e+001 56652 78999,79051,79025
 3.6000e+000 79290 -6.2543e+001 -2.4069e+002  5.3906e+001 56652 78973,78895,79264
 3.6000e+000 79313  5.4227e+000 -3.4335e+002  7.2809e+000 56652 78973,79264,79051
 3.6000e+000 79512 -3.9314e+001 -4.4426e+002  4.0120e+001 56062 79388,79440,79414
 3.6000e+000 79489 -1.8140e+002 -2.3207e+002  6.0945e+001 56062 79336,79440,79388
 3.6000e+000 79466 -8.0795e+001 -2.2642e+002  8.6188e+001 56062 79336,79388,79362
 3.6000e+000 79941 -5.0190e+001 -2.6468e+002  4.0496e+001 55658 79964,79670,79644
 3.6000e+000 79918 -7.9510e+001 -2.6985e+002  4.6310e+001 55658 79964,79644,79800
 3.6000e+000 79895 -7.3338e+001 -2.8650e+002  1.9132e+001 55658 80036,79696,79670
 3.6000e+000 79872 -8.5492e+001 -2.4114e+002 -7.8465e+000 55658 80108,79722,79696
 3.6000e+000 79849 -1.2787e+002 -2.4553e+002  5.7492e+000 55658 79722,79774,79748
 3.6000e+000 79826 -2.4011e+000 -2.4251e+002  1.2839e+001 55658 79618,79800,79644
 3.6000e+000 79990 -8.2779e+001 -2.8862e+002  2.9254e+001 55658 80036,79670,79964
 3.6000e+000 80013 -7.2424e+001 -2.4870e+002  4.8686e+001 55658 79774,79964,79800
 3.6000e+000 80062 -6.1092e+001 -2.5951e+002  1.5461e+001 55658 80108,79696,80036
 3.6000e+000 80085 -7.9290e+001 -2.5043e+002  4.0736e+001 55658 79774,80036,79964
 3.6000e+000 80134 -1.3299e+002 -2.6065e+002  2.7452e+000 55658 79774,79722,80108
 3.6000e+000 80157 -1.1911e+002 -2.8513e+002  2.5980e+001 55658 79774,80108,80036
 3.6000e+000 80307 -1.2881e+002 -2.5037e+002  3.7567e+001 55254 80402,80330,80206
 3.6000e+000 80284 -1.2377e+002 -3.4007e+002  4.2675e+001 55254 80330,80180,80258
 3.6000e+000 80356 -1.5121e+002 -3.0136e+002  6.9925e+001 55254 80232,80206,80330
 3.6000e+000 80379 -3.3874e+001 -2.4810e+002  1.0192e+002 55254 80232,80330,80258
 3.6000e+000 80428 -1.7699e+002 -3.0237e+002  1.6202e+001 55254 80180,80330,80402
 3.6000e+000 80659  9.9902e+000 -3.1953e+002 -3.4419e+001 54850 80558,80610,80584
 3.6000e+000 80636  2.8036e+001 -3.0626e+002 -2.6967e+001 54850 80532,80610,80558
 3.6000e+000 80760 -2.5411e+001 -2.7898e+002 -2.6979e+001 54652 80682,80734,80708
 3.6000e+000 81164 -1.6301e+001 -2.9110e+002 -7.9795e+000 54248 81187,80942,80890
 3.6000e+000 81141 -1.9912e+001 -3.0114e+002 -6.0520e+000 54248 81187,80890,81046
 3.6000e+000 81118 -2.5766e+001 -3.0072e+002  5.8994e+001 54248 80942,81020,80994
 3.6000e+000 81095 -1.6058e+001 -3.0406e+002  1.8877e+000 54248 80890,80942,80916
 3.6000e+000 81072 -3.2313e+001 -1.6448e+002  4.4189e+000 54248 80942,80994,80968
 3.6000e+000 81213 -2.2200e+001 -2.8373e+002 -6.2662e+000 54248 81020,80942,81187
 3.6000e+000 81236 -2.3274e+001 -2.9047e+002 -5.0783e+000 54248 81020,81187,81046
 3.6000e+000 81663 -1.4354e+002 -2.6328e+002  3.0868e+001 53594 81340,81444,81366
 3.6000e+000 81640 -1.3010e+002 -3.8175e+002  1.4816e+001 53594 81340,81470,81444
 3.6000e+000 81617 -4.5668e+001 -3.3451e+002 -1.4892e+001 53594 81340,81522,81470
 3.6000e+000 81594 -7.1134e+001 -1.9119e+002 -1.4167e+001 53594 81392,81444,81418
 3.6000e+000 81571 -9.2251e+001 -2.2215e+002 -2.4272e+001 53594 81366,81444,81392
 3.6000e+000 81548  1.9295e+001 -5.4724e+002  1.3140e+002 53594 81470,81522,81496
 3.6000e+000 81943 -3.0957e+001 -1.8375e+002 -2.1215e+001 53104 81966,81845,81819
 3.6000e+000 81920 -4.9382e+001 -1.5224e+002 -2.6848e+001 53104 81966,81819,81767
 3.6000e+000 81897 -5.0721e+001 -1.5208e+002 -3.1124e+001 53104 81767,81819,81793
 3.6000e+000 81992 -1.8290e+001 -1.6410e+002 -2.6734e+001 53104 81871,81845,81966
 3.6000e+000 82015 -2.7955e+001 -1.1984e+002 -3.6718e+001 53104 81871,81966,81767
 3.6000e+000 82491 -2.1776e+001 -1.7776e+002 -1.7715e+001 52650 82145,82249,82171
 3.6000e+000 82468 -1.5515e+002 -2.1685e+002 -2.5015e+001 52650 82145,82301,82249
 3.6000e+000 82445 -1.5955e+002 -3.4433e+002 -6.4718e+001 52650 82249,82301,82275
 3.6000e+000 82422 -5.2359e+001 -4.2491e+002 -7.6198e+001 52650 82119,82301,82145
 3.6000e+000 82399 -4.1719e+001 -1.3820e+002  2.0534e+001 52650 82171,82249,82223
 3.6000e+000 82376  3.3244e+001 -3.9027e+002 -6.6300e+001 52650 82119,82327,82301
 3.6000e+000 82353 -1.1409e+001 -6.6789e+001 -2.8256e+001 52650 82171,82223,82197
 3.6000e+000 82739 -4.0458e+001 -1.7005e+002  6.1111e+000 52246 82762,82540,82514
 3.6000e+000 82716 -2.3898e+001 -5.6977e+001 -1.1548e+001 52246 82762,82514,82644
 3.6000e+000 82693 -8.1857e+001 -2.0012e+002  4.5868e+001 52246 82540,82618,82592
 3.6000e+000 82670 -1.0111e+002 -1.9881e+002  4.2242e+001 52246 82540,82592,82566
 3.6000e+000 82788 -2.3220e+001 -2.2287e+002  1.6402e+001 52246 82618,82540,82762
 3.6000e+000 82811 -5.5042e+001 -1.8729e+002 -1.5834e+001 52246 82618,82762,82644
 3.6000e+000 83059 -2.5430e+001 -2.4617e+002  2.4092e+001 51578 82860,82964,82938
 3.6000e+000 83036  3.6148e+000 -1.5634e+002 -5.3038e+001 51578 82834,82964,82860
 3.6000e+000 83013 -1.1639e+001 -1.8242e+002  5.5427e+001 51578 82860,82938,82886
 3.6000e+000 82990 -8.7662e+000 -1.0077e+002  6.2106e+000 51578 82886,82938,82912
 3.6000e+000 83309 -4.7851e+001 -1.4686e+002  3.6436e+001 51138 83332,83162,83136
 3.6000e+000 83286 -1.3230e+001 -1.8529e+002  1.1442e+001 51138 83332,83136,83110
 3.6000e+000 83263 -6.8395e+001 -1.8884e+002 -9.0286e+000 51138 83404,83214,83188
 3.6000e+000 83240 -8.1841e-001 -1.1366e+002  1.1472e+001 51138 83084,83214,83110
 3.6000e+000 83358 -7.8180e+001 -1.9668e+002  5.3806e+001 51138 83188,83162,83332
 3.6000e+000 83381 -4.7740e+001 -2.1049e+002  1.0918e+001 51138 83404,83188,83332
 3.6000e+000 83430 -4.2558e+001 -1.3457e+002 -9.5003e-001 51138 83110,83214,83404
 3.6000e+000 83453 -2.6276e+001 -1.6824e+002  1.8340e+001 51138 83110,83404,83332
 3.6000e+000 83835 -4.1949e+001 -2.2984e+002 -1.8657e+001 50734 83613,83717,83691
 3.6000e+000 83812 -5.2101e+001 -2.5801e+002 -4.9763e+001 50734 83561,83717,83613
 3.6000e+000 83789 -2.3022e+001 -1.0862e+002 -7.7373e+001 50734 83561,83613,83587
 3.6000e+000 83766 -5.6297e+001 -1.5763e+002 -1.0092e+001 50734 83613,83691,83639
 3.6000e+000 83743 -6.4116e+001 -1.6044e+002  3.6410e+001 50734 83639,83691,83665
 3.6000e+000 84034 -5.8501e+001 -1.5024e+002  7.5603e+000 50230 84057,83884,83858
 3.6000e+000 84011 -5.8404e+001 -1.6228e+002 -1.3099e+001 50230 84129,84057,83858
 3.6000e+000 83988 -1.9563e+001 -1.7053e+002 -2.3173e+001 50230 84129,83858,83962
 3.6000e+000 84083 -2.2328e+001 -1.3782e+002  1.4356e+001 50230 83910,83884,84057
 3.6000e+000 84106 -3.8038e+001 -1.6787e+002  8.2784e+000 50230 83910,84057,83936
 3.6000e+000 84155 -7.2877e+000 -1.4243e+002 -2.9340e+000 50230 83936,84057,84129
 3.6000e+000 84178  7.7619e+000 -1.6766e+002 -1.8078e+001 50230 83936,84129,83962
 3.6000e+000 84558 -5.8245e+001 -1.8497e+002 -3.1054e+001 49768 84581,84388,84362
 3.6000e+000 84535 -1.2565e+002 -1.8755e+002 -1.2049e+001 49768 84581,84362,84310
 3.6000e+000 84512  9.2087e+000 -2.0272e+002 -3.3260e+001 49768 84653,84440,84414
 3.6000e+000 84489 -9.3948e+001 -2.0178e+002  1.7558e+001 49768 84310,84362,84336
 3.6000e+000 84466 -1.3304e+000 -1.4443e+002  2.7969e+001 49768 84284,84440,84310
 3.6000e+000 84607 -9.8699e+000 -1.5368e+002 -5.3448e+001 49768 84414,84388,84581
 3.6000e+000 84630 -1.7625e+001 -1.8976e+002 -2.3628e+001 49768 84653,84414,84581
 3.6000e+000 84679 -2.6772e+001 -1.9130e+002 -4.5416e+001 49768 84310,84440,84653
 3.6000e+000 84702 -6.5329e+001 -1.9154e+002 -4.6237e+001 49768 84310,84653,84581
 3.6000e+000 85159 -1.0700e+002 -2.8884e+002 -8.2024e+001 49192 84885,84937,84911
 3.6000e+000 85136 -1.0978e+002 -2.4205e+002 -6.1020e+001 49192 84885,85041,84937
 3.6000e+000 85113 -7.9799e+001 -2.0522e+002 -2.7935e+001 49192 84963,85041,84989
 3.6000e+000 85090 -7.1545e+001 -1.9345e+002 -4.3940e+001 49192 84937,85041,84963
 3.6000e+000 85067 -6.3960e+001 -2.1049e+002 -1.8854e+001 49192 84989,85041,85015
 3.6000e+000 85714 -1.0226e+002 -1.8289e+002 -2.2816e-001 48638 85368,85498,85394
 3.6000e+000 85691 -1.3461e+002 -2.0637e+002  1.4178e+001 48638 85368,85524,85498
 3.6000e+000 85668 -1.1704e+002 -1.7546e+002  4.3809e+001 48638 85737,85420,85394
 3.6000e+000 85645 -1.0088e+002 -2.0053e+002  2.3785e+001 48638 85737,85394,85498
 3.6000e+000 85622 -8.1223e+001 -2.0548e+002  4.0486e+001 48638 85446,85498,85472
 3.6000e+000 85599 -3.3192e+001 -1.6612e+002  1.8837e+001 48638 85342,85524,85368
 3.6000e+000 85576 -1.2513e+002 -1.8630e+002  1.7823e+001 48638 85342,85550,85524
 3.6000e+000 85763 -8.6714e+001 -1.5853e+002  5.9561e+001 48638 85446,85420,85737
 3.6000e+000 85786 -8.8328e+001 -1.8172e+002  3.6068e+001 48638 85446,85737,85498
 3.6000e+000 86371 -8.8262e+001 -1.3301e+002 -1.2351e+001 48084 86100,86230,86178
 3.6000e+000 86348 -1.1510e+002 -1.7143e+002 -2.4873e+001 48084 86048,86230,86100
 3.6000e+000 86325 -8.8643e+001 -1.2386e+002  2.8447e+001 48084 86100,86178,86126
 3.6000e+000 86302 -5.5727e+001 -3.2152e+001 -3.4375e+001 48084 86048,86100,86074
 3.6000e+000 86279 -1.0500e+002 -2.0539e+002 -1.1918e+001 48084 86178,86230,86204
 3.6000e+000 86256 -7.6747e+001 -1.4599e+002  2.7074e+001 48084 86126,86178,86152
 3.6000e+000 86619 -7.3991e+001 -1.6465e+002  1.3185e+001 47630 86642,86446,86420
 3.6000e+000 86596 -8.8872e+001 -1.8235e+002 -1.9812e+001 47630 86642,86420,86394
 3.6000e+000 86573 -1.1009e+002 -2.1131e+002 -2.9556e+001 47630 86394,86524,86498
 3.6000e+000 86550 -4.5467e+001 -1.8735e+002  1.1863e+001 47630 86446,86498,86472
 3.6000e+000 86668 -9.0916e+001 -2.0221e+002 -1.0853e-001 47630 86498,86446,86642
 3.6000e+000 86691 -9.8959e+001 -2.0838e+002 -3.2428e+001 47630 86498,86642,86394
 3.6000e+000 87022  4.0435e+000 -1.1477e+002 -3.7052e+001 47226 87045,86875,86849
 3.6000e+000 86999 -1.8863e+001 -1.1729e+002 -4.9014e+001 47226 87045,86849,86797
 3.6000e+000 86976 -1.0150e+001 -6.6623e+001 -2.6736e+001 47226 86797,86849,86823
 3.6000e+000 86953  4.5077e+001 -8.8065e+001 -4.2107e+001 47226 86875,86927,86901
 3.6000e+000 87071  2.7608e+001 -1.2829e+002 -4.5174e+001 47226 86927,86875,87045
 3.6000e+000 87094  4.9408e+000 -1.2880e+002 -5.2651e+001 47226 86927,87045,86797
 3.6000e+000 87244 -8.8227e+000 -2.0483e+002  6.3319e+001 46814 87267,87169,87143
 3.6000e+000 87221 -1.0068e+002 -1.8664e+002 -5.7463e+000 46814 87267,87143,87117
 3.6000e+000 87293 -1.0437e+001 -1.6335e+002  3.7848e+001 46814 87339,87267,87195
 3.6000e+000 87316 -1.0689e+001 -1.4825e+002  8.8595e+000 46814 87469,87267,87117
 3.6000e+000 87365  2.1101e+001 -1.4699e+002  4.5960e+001 46814 87169,87267,87339
 3.6000e+000 87495 -4.9151e-001 -2.1233e+001  1.1456e+000 46814 87195,87267,87469
 3.6000e+000 88001 -6.9270e+001 -1.7415e+002  3.5999e+001 46310 88024,87834,87808
 3.6000e+000 87978 -8.3679e+001 -1.7753e+002  2.2221e+001 46310 88024,87808,87756
 3.6000e+000 87955 -4.2304e+001 -2.2478e+002  8.1089e+000 46310 88096,87730,87860
 3.6000e+000 87932 -6.0829e+001 -2.2471e+002  2.3192e+001 46310 87756,87808,87782
 3.6000e+000 87909 -5.3813e+001 -2.8119e+002  9.9965e+000 46310 87678,87860,87730
 3.6000e+000 87886 -8.2272e+001 -4.4110e+002 -2.3176e+001 46310 87678,87730,87704
 3.6000e+000 88050 -5.8490e+001 -1.5043e+002  2.1495e+001 46310 87860,87834,88024
 3.6000e+000 88073 -4.3959e+001 -1.6694e+002  2.7071e+001 46310 88096,87860,88024
 3.6000e+000 88122 -5.6848e+001 -2.5237e+002 -1.1353e+001 46310 87756,87730,88096
 3.6000e+000 88145 -9.4517e+001 -2.2932e+002 -6.8953e-001 46310 87756,88096,88024
 3.6000e+000 88572 -4.2600e+001 -2.0057e+002  3.3157e+000 45856 88249,88405,88275
 3.6000e+000 88549 -3.3977e+001 -6.6720e+001 -4.8207e+001 45856 88249,88431,88405
 3.6000e+000 88526 -1.0407e+002 -2.8782e+002 -3.7608e+001 45856 88327,88405,88353
 3.6000e+000 88503 -5.0114e+001 -2.2911e+002 -1.5093e+001 45856 88275,88405,88327
 3.6000e+000 88480 -8.1820e+001 -2.3721e+002 -4.0990e+001 45856 88353,88405,88379
 3.6000e+000 88457 -2.1041e+002 -5.6472e+002  4.9255e+001 45856 88275,88327,88301
 3.6000e+000 88950 -3.8858e+001 -1.3080e+002 -4.2756e+000 45658 88973,88754,88728
 3.6000e+000 88927 -3.6311e+001 -1.3772e+002 -4.7456e+000 45658 88973,88728,88676
 3.6000e+000 88904 -3.8280e+001 -1.6579e+002  4.7897e+001 45658 88676,88832,88806
 3.6000e+000 88881 -6.2286e+001 -1.8777e+002  1.4111e+001 45658 88676,88728,88702
 3.6000e+000 88858 -4.9400e+001 -1.2277e+002 -2.2416e+001 45658 88754,88806,88780
 3.6000e+000 88999 -4.1934e+001 -1.3620e+002 -2.9946e+000 45658 88806,88754,88973
 3.6000e+000 89022 -3.7460e+001 -1.4029e+002 -4.1266e+000 45658 88806,88973,88676
 3.6000e+000 89351 -5.4304e+001 -1.9407e+002 -1.0118e+001 45254 89152,89230,89204
 3.6000e+000 89328 -4.7566e+001 -1.9105e+002 -9.4773e+000 45254 89152,89256,89230
 3.6000e+000 89305 -6.0872e+000 -2.0057e+002 -2.5126e+001 45254 89126,89256,89152
 3.6000e+000 89282  1.8294e+001 -1.9777e+002 -4.0982e+001 45254 89152,89204,89178
 3.6000e+000 89523 -3.6008e+001 -1.8040e+002  1.7503e-001 45006 89422,89474,89448
 3.6000e+000 89500 -2.9403e+001 -1.7759e+002  5.4553e+000 45006 89396,89474,89422
 3.6000e+000 89673 -1.6072e+002 -2.8071e+002  2.4677e+001 44495 89572,89624,89598
 3.6000e+000 89650 -1.6329e+002 -2.7651e+002  1.5152e+001 44495 89546,89624,89572
 3.6000e+000 90104 -1.6084e+001 -2.2595e+002 -8.3689e+000 44005 90199,90127,89937
 3.6000e+000 90081 -4.2295e+001 -2.1990e+002  3.6212e+000 44005 90271,90127,89859
 3.6000e+000 90058 -5.2676e+000 -2.2984e+002 -8.4888e+000 44005 90199,89937,89885
 3.6000e+000 90035 -6.0246e+001 -2.0831e+002  1.3799e+001 44005 90271,89859,89807
 3.6000e+000 90012 -3.3848e+001 -2.4507e+002 -2.6978e+001 44005 89885,89937,89911
 3.6000e+000 89989 -1.7723e+001 -2.2247e+002  3.7692e+001 44005 89807,89859,89833
 3.6000e+000 90153 -4.3504e+001 -2.3647e+002 -5.9446e+000 44005 89963,89937,90127
 3.6000e+000 90176 -4.4923e+001 -2.4621e+002  3.7411e+000 44005 89963,90127,89781
 3.6000e+000 90225 -4.5654e+001 -2.2171e+002 -1.8068e+000 44005 89859,90127,90199
 3.6000e+000 90248 -2.0109e+001 -2.1523e+002  3.6511e+000 44005 89859,90199,89885
 3.6000e+000 90297 -6.6496e+001 -2.3430e+002 -2.3942e+000 44005 89781,90127,90271
 3.6000e+000 90320 -7.6965e+001 -2.1877e+002  9.3382e+000 44005 89781,90271,89807
 3.6000e+000 90470 -4.1761e+001 -2.5193e+002 -1.0946e+001 43601 90493,90369,90343
 3.6000e+000 90447 -6.7693e+001 -2.0664e+002  1.1071e+001 43601 90493,90343,90421
 3.6000e+000 90519 -8.1716e+001 -3.3575e+002 -4.0177e+001 43601 90395,90369,90493
 3.6000e+000 90542 -6.5634e+001 -2.3980e+002 -1.2119e+001 43601 90395,90493,90421
 3.6000e+000 90922 -8.9131e+001 -2.6740e+002  1.8683e+001 43154 90945,90700,90674
 3.6000e+000 90899 -8.2876e+001 -2.7319e+002 -2.4887e+001 43154 90945,90674,90648
 3.6000e+000 90876 -9.6534e+001 -2.1823e+002 -1.7116e+001 43154 90648,90778,90752
 3.6000e+000 90853 -4.9441e+001 -4.2884e+002  1.2422e+001 43154 90700,90752,90726
 3.6000e+000 90830 -5.7762e+001 -2.1872e+002 -5.4248e+000 43154 90648,90804,90778
 3.6000e+000 90971 -1.0209e+002 -3.0522e+002  2.4498e+001 43154 90752,90700,90945
 3.6000e+000 90994 -9.2000e+001 -2.9564e+002 -1.7870e+001 43154 90752,90945,90648
 3.6000e+000 91451 -2.3886e+001 -1.8232e+002 -3.9868e+001 42650 91203,91255,91229
 3.6000e+000 91428 -6.6070e-002 -1.7146e+002 -1.7060e+001 42650 91203,91333,91255
 3.6000e+000 91405  3.9117e+000 -2.8925e+002 -4.7191e+001 42650 91177,91333,91203
 3.6000e+000 91382 -7.6842e+001 -3.0007e+002  1.5018e+001 42650 91255,91333,91281
 3.6000e+000 91359  5.7847e+001 -2.3666e+002 -3.5560e+000 42650 91281,91333,91307
 3.6000e+000 91721 -1.2003e+002 -2.8025e+002  1.9156e+001 42288 91496,91600,91522
 3.6000e+000 91698 -6.0091e+001 -1.5554e+002 -6.0389e+000 42288 91496,91626,91600
 3.6000e+000 91675 -7.5622e+001 -2.5312e+002  2.1197e+001 42288 91522,91574,91548
 3.6000e+000 91652 -6.1428e+001 -2.5773e+002  1.9618e+001 42288 91522,91600,91574
 3.6000e+000 92199 -1.8189e+002 -3.0844e+002 -8.8067e+000 41898 92222,91983,91879
 3.6000e+000 92176 -1.8908e+002 -3.3288e+002 -1.8589e+001 41898 92294,92222,91879
 3.6000e+000 92153 -2.0149e+002 -3.2541e+002 -2.8151e+001 41898 92294,91879,91853
 3.6000e+000 92130 -1.6142e+002 -1.9346e+002  1.7960e+001 41898 91879,91957,91931
 3.6000e+000 92107 -1.6605e+002 -3.0238e+002 -2.6821e+000 41898 91879,91983,91957
 3.6000e+000 92084 -1.7046e+002 -1.7544e+002  3.1800e+001 41898 91879,91931,91905
 3.6000e+000 92061 -1.7006e+002 -2.9191e+002 -2.4878e+001 41898 91827,92035,91853
 3.6000e+000 92248 -1.7874e+002 -3.3718e+002 -2.9190e+000 41898 92009,91983,92222
 3.6000e+000 92271 -1.7510e+002 -3.4309e+002 -2.5102e+001 41898 92009,92222,92035
 3.6000e+000 92320 -1.6755e+002 -3.2207e+002 -2.2228e+001 41898 92035,92222,92294
 3.6000e+000 92343 -1.7700e+002 -3.1384e+002 -3.1408e+001 41898 92035,92294,91853
 3.6000e+000 92770 -6.5883e+001 -2.8645e+002 -1.9140e+001 41437 92865,92793,92525
 3.6000e+000 92747 -9.1236e+001 -3.3453e+002 -2.7031e+001 41437 92793,92473,92629
 3.6000e+000 92724 -3.6130e+001 -2.9169e+002 -3.5074e+001 41437 92865,92525,92499
 3.6000e+000 92701 -9.9548e+001 -2.6267e+002 -4.3478e+001 41437 92525,92603,92577
 3.6000e+000 92678 -2.9345e+000 -3.2194e+002 -2.3121e+001 41437 92447,92629,92473
 3.6000e+000 92655 -1.5416e+002 -2.3949e+002 -2.6987e+001 41437 92525,92577,92551
 3.6000e+000 92819 -7.5393e+001 -3.0816e+002 -4.3285e+001 41437 92603,92525,92793
 3.6000e+000 92842 -1.3689e+002 -3.2932e+002 -7.7928e+001 41437 92603,92793,92629
 3.6000e+000 92891 -5.7919e+000 -3.1418e+002 -2.6449e+001 41437 92473,92793,92865
 3.6000e+000 92914  3.8503e+001 -2.9923e+002 -5.0267e+001 41437 92473,92865,92499
 3.6000e+000 93243 -4.7650e+001 -4.2029e+002  1.5006e+002 41097 93044,93096,93070
 3.6000e+000 93220 -8.0203e+001 -3.6006e+002  7.6865e+001 41097 93044,93122,93096
 3.6000e+000 93197  4.1744e+001 -2.5184e+002  3.1099e+001 41097 93044,93148,93122
 3.6000e+000 93174 -4.6805e+001 -1.6799e+002  8.8706e+001 41097 93018,93148,93044
 3.6000e+000 93393 -2.9206e+000 -3.0770e+002  2.1959e+001 40643 93416,93292,93344
 3.6000e+000 93370 -1.5649e+001 -2.6769e+002  2.6245e+001 40643 93266,93344,93292
 3.6000e+000 93442 -9.3403e+000 -3.0839e+002  2.4622e+001 40643 93318,93292,93416
 3.6000e+000 93901 -9.8861e+001 -2.9251e+002 -1.9240e+001 40132 93924,93731,93705
 3.6000e+000 93878 -1.0510e+002 -3.0125e+002 -2.2031e+001 40132 93996,93924,93705
 3.6000e+000 93855 -1.2343e+002 -3.4602e+002 -8.5886e+000 40132 93996,93705,93653
 3.6000e+000 93832 -5.9696e+001 -3.3475e+002 -1.8918e+001 40132 93653,93705,93679
 3.6000e+000 93809 -9.7428e+001 -2.8984e+002  3.5070e+000 40132 93627,93783,93757
 3.6000e+000 93950 -9.4302e+001 -3.0999e+002 -2.3498e+001 40132 93757,93731,93924
 3.6000e+000 93973 -1.0698e+002 -2.7536e+002 -5.4692e+000 40132 93757,93924,93627
 3.6000e+000 94022 -1.3618e+002 -3.2870e+002  1.0444e+001 40132 93627,93924,93996
 3.6000e+000 94045 -1.2778e+002 -3.4447e+002  2.0233e+001 40132 93627,93996,93653
 3.6000e+000 94423 -7.8599e+000 -3.1482e+002 -4.8772e+001 39514 94149,94227,94175
 3.6000e+000 94400 -2.5334e+001 -3.0122e+002  3.6314e+001 39514 94149,94305,94227
 3.6000e+000 94377  1.5892e+001 -3.7837e+002 -4.5096e+001 39514 94175,94227,94201
 3.6000e+000 94354 -9.1347e+001 -2.7901e+002  1.5233e+001 39514 94227,94305,94279
 3.6000e+000 94331 -3.2270e+001 -2.5194e+002  2.6653e+001 39514 94227,94279,94253
 3.6000e+000 94573 -3.3535e+001 -1.9705e+002 -3.9826e+001 38822 94596,94498,94472
 3.6000e+000 94550  2.8370e+001 -2.1553e+002  4.2841e+001 38822 94596,94472,94446
 3.6000e+000 94622 -1.0531e+002 -2.2805e+002 -3.5903e+001 38822 94524,94498,94596
 3.6000e+000 94645 -9.3934e+001 -2.7127e+002  5.5492e+001 38822 94524,94596,94446
 3.6000e+000 95025 -2.2100e+001 -2.4946e+002 -1.9331e+001 38418 95048,94829,94777
 3.6000e+000 95002 -2.8643e+001 -2.6157e+002 -3.0924e+001 38418 95120,95048,94777
 3.6000e+000 94979 -2.2389e+001 -2.5839e+002 -2.8782e+001 38418 95120,94777,94751
 3.6000e+000 94956 -1.6229e+001 -2.3240e+002 -3.3919e+001 38418 95192,94881,94855
 3.6000e+000 94933 -7.8912e+001 -2.2379e+002 -1.2608e+001 38418 94777,94829,94803
 3.6000e+000 95074 -4.7401e+001 -3.2780e+002 -6.6687e+000 38418 94855,94829,95048
 3.6000e+000 95097 -2.3077e+001 -2.5900e+002 -3.6714e+001 38418 95192,94855,95048
 3.6000e+000 95146 -4.9593e+001 -2.4866e+002 -2.4831e+001 38418 94907,95048,95120
 3.6000e+000 95169 -3.2143e+001 -2.3608e+002 -1.8715e+001 38418 94907,95120,94751
 3.6000e+000 95218 -2.4549e+001 -1.8226e+002 -3.0191e+001 38418 94907,94881,95192
 3.6000e+000 95241 -4.1074e+001 -2.2542e+002 -2.5884e+001 38418 94907,95192,95048
 3.6000e+000 95511 -8.9793e+001 -2.8078e+002  1.1217e+001 38049 95312,95390,95364
 3.6000e+000 95488 -6.6994e+001 -2.7204e+002  1.3572e+001 38049 95312,95416,95390
 3.6000e+000 95465 -3.2579e+001 -2.6872e+002 -1.8398e+001 38049 95312,95364,95338
 3.6000e+000 95442 -2.5610e+001 -2.5628e+002  2.5023e+001 38049 95286,95416,95312
 3.6000e+000 95808 -7.9268e+001 -3.0606e+002 -7.2854e+000 37437 95831,95586,95560
 3.6000e+000 95785  2.9506e+001 -3.2436e+002 -1.4923e+001 37437 95831,95560,95534
 3.6000e+000 95762 -1.5841e+002 -2.9103e+002  5.3035e+000 37437 95586,95664,95638
 3.6000e+000 95739 -2.4713e+001 -1.5025e+002 -8.0208e+001 37437 95534,95690,95664
 3.6000e+000 95716 -1.4357e+002 -2.0977e+002  6.9422e+000 37437 95586,95638,95612
 3.6000e+000 95857 -1.4912e+002 -2.9965e+002  3.6312e+001 37437 95664,95586,95831
 3.6000e+000 95880 -3.3694e+001 -3.1471e+002  3.0127e+001 37437 95664,95831,95534
 3.6000e+000 96390 -1.0120e+002 -2.2468e+002 -1.4620e+001 36883 96413,96145,96093
 3.6000e+000 96367 -8.0765e+001 -2.1463e+002 -9.2193e+000 36883 96413,96093,96067
 3.6000e+000 96344 -5.6955e+001 -2.6172e+002  4.8382e-001 36883 96067,96249,96171
 3.6000e+000 96321 -8.9562e+001 -2.5988e+002 -5.7201e+000 36883 96093,96145,96119
 3.6000e+000 96298 -1.2497e+002 -4.3440e+002  4.1965e+001 36883 96171,96249,96197
 3.6000e+000 96275 -3.4564e+001 -3.4353e+002 -7.1960e+000 36883 96197,96249,96223
 3.6000e+000 96439 -9.5749e+001 -2.1793e+002  3.8400e+000 36883 96171,96145,96413
 3.6000e+000 96462 -7.8630e+001 -2.1327e+002  7.6015e+000 36883 96171,96413,96067
 3.6000e+000 96781 -8.4207e+001 -2.5666e+002 -3.7551e+001 36215 96559,96663,96637
 3.6000e+000 96758 -1.0379e+002 -2.8280e+002 -4.8293e+001 36215 96507,96663,96559
 3.6000e+000 96735 -1.0327e+002 -1.9272e+002  1.9846e+001 36215 96585,96637,96611
 3.6000e+000 96712 -2.1686e+002 -2.9833e+002 -3.2008e+001 36215 96559,96637,96585
 3.6000e+000 96689 -3.9975e+001 -3.3242e+002 -1.0975e+001 36215 96507,96559,96533
 3.6000e+000 97161  5.6628e+000 -1.4146e+002 -8.4043e+000 35818 97184,96965,96939
 3.6000e+000 97138 -1.6548e+001 -1.7014e+002 -1.9410e+001 35818 97184,96939,96887
 3.6000e+000 97115 -1.4636e-001 -1.7474e+002  3.5263e+001 35818 96965,97043,97017
 3.6000e+000 97092 -1.0547e+001 -1.5989e+002 -2.1880e+001 35818 96887,96939,96913
 3.6000e+000 97069 -8.9387e+001 -1.8395e+002  2.0986e+001 35818 96965,97017,96991
 3.6000e+000 97210  2.9747e+001 -1.6616e+002  7.9915e+000 35818 97043,96965,97184
 3.6000e+000 97233  1.1962e+001 -1.8630e+002 -8.8376e-001 35818 97043,97184,96887
 3.6000e+000 97739 -9.9589e+001 -2.7922e+002 -6.1922e+001 35214 97416,97468,97442
 3.6000e+000 97716 -1.1386e+002 -2.0279e+002 -1.9927e+001 35214 97416,97598,97468
 3.6000e+000 97693 -1.0120e+002 -1.9316e+002 -6.7596e+000 35214 97762,97520,97468
 3.6000e+000 97670 -1.0435e+002 -1.9843e+002 -1.5389e+001 35214 97762,97468,97598
 3.6000e+000 97647 -8.1374e+001 -1.9344e+002 -2.4495e+001 35214 97546,97598,97572
 3.6000e+000 97624 -6.7115e+001 -2.0083e+002 -9.2325e+000 35214 97468,97520,97494
 3.6000e+000 97788 -1.0455e+002 -2.0307e+002 -1.0538e+001 35214 97546,97520,97762
 3.6000e+000 97811 -1.0541e+002 -2.0721e+002 -1.8597e+001 35214 97546,97762,97598
 3.6000e+000 98189 -2.1235e+001 -1.5494e+002 -1.0894e+001 34760 98356,98212,97967
 3.6000e+000 98166 -4.3025e+001 -1.8994e+002 -2.5286e+001 34760 98284,98212,97941
 3.6000e+000 98143 -7.4186e+001 -1.7303e+002 -1.1697e+001 34760 98284,97941,97915
 3.6000e+000 98120 -2.4410e+001 -2.0690e+002 -5.1523e+000 34760 98484,97993,97967
 3.6000e+000 98097 -2.3967e+001 -1.7693e+002 -4.5904e+000 34760 98556,98045,98019
 3.6000e+000 98238 -3.5334e+001 -1.9465e+002 -5.9487e+000 34760 98484,97967,98212
 3.6000e+000 98261 -8.8427e+000 -1.8362e+002 -1.2403e+001 34760 98556,98019,98212
 3.6000e+000 98310 -1.5586e+001 -1.5990e+002 -3.8434e+001 34760 98071,98212,98284
 3.6000e+000 98333 -3.7093e+001 -1.1833e+002 -3.1338e+001 34760 98071,98284,97915
 3.6000e+000 98382 -9.8959e+001 -2.0863e+002 -3.4993e+001 34760 97941,98212,98356
 3.6000e+000 98510 -6.2277e+000 -1.9719e+002 -1.1110e+001 34760 98019,97993,98484
 3.6000e+000 98533 -2.4104e+001 -1.9054e+002 -1.0795e+001 34760 98019,98484,98212
 3.6000e+000 98582 -4.7487e+000 -1.6778e+002 -9.6469e-001 34760 98071,98045,98556
 3.6000e+000 98605  1.5505e+000 -1.7989e+002 -1.0429e+001 34760 98071,98556,98212
 3.6000e+000 99032 -1.0167e+002 -2.3871e+002  3.2980e+001 34156 98735,98891,98839
 3.6000e+000 99009 -8.4775e+001 -2.4528e+002  1.5254e+001 34156 98709,98891,98735
 3.6000e+000 98986 -2.7366e+001 -2.1467e+002  3.1706e+001 34156 98735,98813,98787
 3.6000e+000 98963 -3.3260e+001 -2.3432e+002  2.6279e+001 34156 98735,98839,98813
 3.6000e+000 98940  1.5294e+001 -3.2187e+002  3.5548e+001 34156 98735,98787,98761
 3.6000e+000 98917 -8.9770e+001 -2.0836e+002  1.8884e+001 34156 98839,98891,98865
 3.6000e+000 99231 -3.0851e+001 -1.3105e+002  1.0524e+001 33766 99055,99133,99107
 3.6000e+000 99208 -5.4416e+001 -1.7128e+002  2.1998e+001 33766 99055,99159,99133
 3.6000e+000 99185 -1.8216e+001 -1.5598e+002  2.6671e+001 33766 99055,99107,99081
 3.6000e+000 99818 -6.9451e+001 -1.9091e+002  3.8956e+000 33248 99521,99651,99573
 3.6000e+000 99795 -6.8903e+001 -1.8263e+002  1.8027e+001 33248 99521,99677,99651
 3.6000e+000 99772 -1.0114e+002 -2.2955e+002 -1.1877e+001 33248 99573,99651,99599
 3.6000e+000 99749 -7.0144e+001 -2.2716e+002  2.0525e+001 33248 99495,99677,99521
 3.6000e+000 99726 -5.0535e+001 -1.9557e+002 -4.4665e+001 33248 99599,99651,99625
 3.6000e+000 99703 -8.8741e+001 -2.2878e+002  1.3889e+001 33248 99521,99573,99547
 3.6000e+000 100196 -7.2069e+001 -2.0494e+002 -3.8748e+001 32794 100219,99948,99922
 3.6000e+000 100173 -8.3137e+001 -2.2834e+002 -1.9238e+001 32794 100219,99922,100052
 3.6000e+000 100150 -1.0827e+002 -2.0922e+002  1.1041e+001 32794 99974,100052,100026
 3.6000e+000 100127 -9.8102e+001 -1.8884e+002 -3.0032e+001 32794 99922,100078,100052
 3.6000e+000 100104 -1.1506e+002 -2.5503e+002  4.6973e+001 32794 99974,100026,100000
 3.6000e+000 100245 -9.4170e+001 -2.0071e+002 -1.5856e+001 32794 99974,99948,100219
 3.6000e+000 100268 -1.0128e+002 -2.3208e+002  3.8018e+000 32794 99974,100219,100052
 3.6000e+000 100418 -1.2021e+001 -1.8246e+002 -2.0406e+001 32504 100571,100343,100317
 3.6000e+000 100395 -7.1374e+001 -2.0941e+002  1.8092e+001 32504 100571,100317,100441
 3.6000e+000 100467  5.4361e+001 -9.9827e+001 -5.4125e+001 32504 100291,100369,100441
 3.6000e+000 100597  1.4516e+001 -1.5289e+002 -6.6382e+001 32504 100369,100343,100571
 3.6000e+000 100620 -1.2007e+001 -1.4229e+002 -3.3140e+001 32504 100369,100571,100441
 3.6000e+000 101020 -3.6671e+001 -1.7493e+002  7.9465e+000 32142 100772,100902,100876
 3.6000e+000 100997 -2.4713e+001 -1.6258e+002  1.3487e+001 32142 100746,100902,100772
 3.6000e+000 100974 -1.5384e+001 -1.9659e+002  1.8165e+001 32142 101043,100824,100798
 3.6000e+000 100951 -3.7278e+001 -2.0539e+002  1.4607e+001 32142 101043,100798,100772
 3.6000e+000 100928 -1.1412e+002 -2.3691e+002 -5.4530e+001 32142 101115,100876,100850
 3.6000e+000 101069  1.8843e+001 -2.0773e+002 -2.1308e+001 32142 100850,100824,101043
 3.6000e+000 101092 -6.2913e+001 -2.4223e+002 -2.6920e+001 32142 101115,100850,101043
 3.6000e+000 101141 -5.1386e+001 -2.0381e+002 -1.9369e+001 32142 100772,100876,101115
 3.6000e+000 101164 -1.2359e+001 -2.0777e+002  1.0960e+001 32142 100772,101115,101043
 3.6000e+000 101719 -1.0418e+002 -2.4817e+002  3.1937e+001 31538 101742,101477,101399
 3.6000e+000 101696 -1.2961e+002 -3.0256e+002  6.0573e+000 31538 101814,101742,101399
 3.6000e+000 101673 -1.5010e+002 -2.5985e+002 -2.4121e+001 31538 101814,101399,101373
 3.6000e+000 101650 -1.0460e+002 -1.8011e+002  2.0554e+001 31538 101425,101477,101451
 3.6000e+000 101627 -9.9023e+001 -2.1011e+002  4.6138e+000 31538 101399,101477,101425
 3.6000e+000 101604 -6.3276e+001 -2.9123e+002  6.1109e+001 31538 101477,101529,101503
 3.6000e+000 101581 -3.9251e+001 -1.7602e+002 -1.9729e+001 31538 101347,101555,101373
 3.6000e+000 101768 -1.2006e+002 -3.0513e+002  3.2075e+001 31538 101529,101477,101742
 3.6000e+000 101791 -1.0125e+002 -3.1171e+002 -1.0667e+001 31538 101529,101742,101555
 3.6000e+000 101840 -7.8550e+001 -2.5933e+002 -1.3549e+001 31538 101555,101742,101814
 3.6000e+000 101863 -1.0774e+002 -2.2444e+002 -4.1125e+001 31538 101555,101814,101373
 3.6000e+000 102111 -1.5208e+002 -3.9063e+002  5.0457e+001 31112 101886,101990,101912
 3.6000e+000 102088 -5.5633e+001 -2.3082e+002  3.8663e+000 31112 101886,102016,101990
 3.6000e+000 102065 -6.9341e+001 -3.7987e+002  7.8968e+001 31112 101912,101990,101964
 3.6000e+000 102042 -1.1175e+002 -4.8019e+002  9.3139e+001 31112 101912,101964,101938
 3.6000e+000 102408 -4.3616e+001 -2.4394e+002  1.8091e+001 30658 102431,102186,102160
 3.6000e+000 102385 -8.4151e+001 -2.4075e+002 -8.7169e-001 30658 102431,102160,102264
 3.6000e+000 102362 -7.8947e+001 -2.6331e+002  3.0257e+000 30658 102186,102238,102212
 3.6000e+000 102339 -9.1855e+001 -2.5528e+002 -1.5723e+001 30658 102134,102264,102160
 3.6000e+000 102316 -6.3248e+001 -2.1380e+002 -7.0289e+001 30658 102134,102290,102264
 3.6000e+000 102457 -7.7135e+001 -2.5729e+002  9.2335e+000 30658 102238,102186,102431
 3.6000e+000 102480 -1.2055e+002 -2.5814e+002 -1.1417e+001 30658 102238,102431,102264
 3.6000e+000 102681 -3.7567e+001 -2.9322e+002  4.1634e+001 30004 102704,102557,102505
 3.6000e+000 102658 -4.2948e+001 -2.9630e+002  4.2975e+001 30004 102704,102505,102609
 3.6000e+000 102635 -1.7528e+000 -2.5380e+002  9.4304e+000 30004 102505,102557,102531
 3.6000e+000 102730 -4.2522e+001 -2.8564e+002  3.8068e+001 30004 102583,102557,102704
 3.6000e+000 102753 -5.4901e+001 -2.9252e+002  4.0780e+001 30004 102583,102704,102609
 3.6000e+000 103003 -3.5316e+001 -2.3652e+002 -2.0291e+001 29564 103026,102804,102778
 3.6000e+000 102980 -4.3139e+001 -2.7930e+002 -3.1112e+001 29564 103026,102778,102908
 3.6000e+000 102957 -4.1027e+001 -2.3645e+002 -5.3335e+000 29564 102856,102908,102882
 3.6000e+000 102934 -5.7397e+001 -2.1461e+002  1.1549e+001 29564 102804,102856,102830
 3.6000e+000 103052 -3.0256e+001 -2.1471e+002  8.6562e+000 29564 102856,102804,103026
 3.6000e+000 103075 -4.2311e+001 -2.4986e+002 -6.1959e+000 29564 102856,103026,102908
 3.6000e+000 103634 -1.1541e+002 -2.7262e+002 -3.1853e+001 29160 103657,103418,103392
 3.6000e+000 103611 -1.1043e+002 -2.6346e+002 -1.5882e+001 29160 103657,103392,103314
 3.6000e+000 103588 -8.0512e+001 -2.3266e+002 -2.8117e+001 29160 103314,103392,103366
 3.6000e+000 103565 -7.2603e+001 -2.4676e+002 -3.1654e+001 29160 103314,103366,103340
 3.6000e+000 103542 -1.3694e+002 -2.6058e+002 -2.9063e+001 29160 103262,103444,103314
 3.6000e+000 103519 -1.6065e+002 -3.0924e+002 -3.9202e+001 29160 103262,103314,103288
 3.6000e+000 103496 -1.0568e+002 -2.8558e+002 -1.0536e+001 29160 103262,103470,103444
 3.6000e+000 103683 -1.3978e+002 -2.9154e+002 -4.9459e+001 29160 103444,103418,103657
 3.6000e+000 103706 -1.2004e+002 -2.6225e+002 -3.1034e+001 29160 103444,103657,103314
 3.6000e+000 104035 -6.9262e+001 -2.4996e+002  2.2109e+001 28770 103836,103914,103862
 3.6000e+000 104012 -6.6225e+001 -2.4018e+002  2.8687e+001 28770 103810,103914,103836
 3.6000e+000 103989  2.0447e+001 -2.1770e+002  3.7578e+001 28770 103810,103940,103914
 3.6000e+000 103966 -1.3253e+001 -2.0240e+002  4.7244e+001 28770 103862,103914,103888
 3.6000e+000 104185 -3.8527e+001 -2.5095e+002  4.1396e+001 28366 104208,104110,104084
 3.6000e+000 104162 -2.6879e+001 -2.0958e+002  3.8866e+001 28366 104280,104208,104084
 3.6000e+000 104234  2.8349e+001 -2.4480e+002  2.5365e+001 28366 104610,104208,104136
 3.6000e+000 104257 -5.7070e+001 -2.3846e+002  2.6359e+001 28366 104538,104410,104208
 3.6000e+000 104306 -8.3932e+001 -2.4030e+002  2.5432e+001 28366 104538,104208,104280
 3.6000e+000 104436 -2.9810e+001 -2.5312e+002  2.7801e+000 28366 104136,104208,104410
 3.6000e+000 104564 -8.5094e+001 -2.3802e+002  1.2223e+001 28366 104058,104410,104538
 3.6000e+000 104587 -1.0182e+002 -2.3376e+002  9.5232e+000 28366 104058,104538,104280
 3.6000e+000 104636  1.1509e+001 -2.5030e+002  3.3166e+001 28366 104110,104208,104610
 3.6000e+000 105349 -5.7807e+001 -2.1225e+002 -2.2505e+001 27976 105516,105372,105107
 3.6000e+000 105326 -8.9042e+001 -2.1169e+002  5.0945e+000 27976 105588,105372,105055
 3.6000e+000 105303 -9.4308e+001 -2.0596e+002 -2.0369e+001 27976 105444,105159,105133
 3.6000e+000 105280 -3.3465e+001 -2.2090e+002 -1.3376e+001 27976 105516,105107,105081
 3.6000e+000 105257 -8.2662e+001 -2.3444e+002  1.9722e+001 27976 105588,105055,105029
 3.6000e+000 105234 -4.4901e+001 -1.7989e+002  1.8826e+000 27976 105003,105185,105159
 3.6000e+000 105211 -6.2279e+001 -1.4563e+002  2.5738e+001 27976 104977,105185,105003
 3.6000e+000 105398 -4.6369e+001 -2.1158e+002 -2.8562e+001 27976 105133,105107,105372
 3.6000e+000 105421 -7.6618e+001 -2.1963e+002 -1.2354e+001 27976 105444,105133,105372
 3.6000e+000 105470 -7.7792e+001 -1.8260e+002 -1.1247e+001 27976 105003,105159,105444
 3.6000e+000 105493 -6.5298e+001 -1.9845e+002 -7.3155e+000 27976 105003,105444,105372
 3.6000e+000 105542 -4.1460e+001 -2.0901e+002 -2.6577e+000 27976 105055,105372,105516
 3.6000e+000 105565 -5.4370e+000 -2.1317e+002  4.0556e+000 27976 105055,105516,105081
 3.6000e+000 105614 -1.0246e+002 -2.3414e+002  1.6006e+001 27976 105003,105372,105588
 3.6000e+000 105637 -9.9604e+001 -2.5653e+002  3.1984e+001 27976 105003,105588,105029
 3.6000e+000 106143 -1.1106e+002 -3.2934e+002  1.9457e+001 27664 106166,105846,105820
 3.6000e+000 106120 -8.0932e+001 -2.6115e+002  8.1224e+000 27664 106310,106166,105820
 3.6000e+000 106097 -3.9173e+001 -2.9889e+002 -5.6840e+001 27664 106382,106238,105950
 3.6000e+000 106074 -5.4394e+001 -2.5669e+002  9.2129e+000 27664 106310,105820,106002
 3.6000e+000 106051  2.1399e+001 -2.6505e+002 -4.2804e+001 27664 106382,105950,105924
 3.6000e+000 106028 -3.9493e+001 -4.5463e+002 -1.5190e+001 27664 105846,105898,105872
 3.6000e+000 106192 -1.0373e+002 -3.6452e+002 -4.2496e+001 27664 105898,105846,106166
 3.6000e+000 106215 -6.9321e+001 -3.0868e+002 -1.2675e+001 27664 106238,105898,106166
 3.6000e+000 106264 -1.7523e+002 -3.3515e+002 -7.5921e+001 27664 105976,105950,106238
 3.6000e+000 106287 -6.1851e+001 -3.0789e+002 -1.3701e+001 27664 105976,106238,106166
 3.6000e+000 106336 -5.4342e+001 -2.7469e+002  3.2132e+001 27664 105976,106166,106310
 3.6000e+000 106359 -2.3997e+001 -2.6825e+002  3.2222e+001 27664 105976,106310,106002
 3.6000e+000 106408 -6.5570e+001 -2.4555e+002  1.0997e+001 27664 105898,106238,106382
 3.6000e+000 106431 -2.9140e+001 -2.2764e+002  1.9546e+001 27664 105898,106382,105924
 3.6000e+000 106728 -3.3723e+001 -1.7932e+002  3.3028e+001 27153 106751,106506,106454
 3.6000e+000 106705 -3.1377e+001 -1.8068e+002  2.5494e+001 27153 106751,106454,106610
 3.6000e+000 106682 -5.1496e+001 -1.3608e+002  6.2368e+000 27153 106454,106506,106480
 3.6000e+000 106659 -4.3344e+001 -1.7506e+002  1.5268e+001 27153 106532,106610,106584
 3.6000e+000 106636 -7.2809e+001 -1.0816e+002  3.2704e+001 27153 106532,106584,106558
 3.6000e+000 106777 -2.3444e+001 -1.7958e+002  3.4042e+001 27153 106532,106506,106751
 3.6000e+000 106800 -2.2531e+001 -1.8006e+002  2.5025e+001 27153 106532,106751,106610
 3.6000e+000 107180 -4.5485e+001 -2.1450e+002  1.4296e+001 26642 107203,106984,106958
 3.6000e+000 107157 -1.1358e+002 -2.4590e+002  4.2156e+000 26642 107203,106958,106932
 3.6000e+000 107134 -1.3208e+002 -2.6945e+002 -3.5262e+001 26642 107275,107036,107010
 3.6000e+000 107111 -8.4392e+001 -2.6907e+002 -4.3923e+001 26642 106932,107062,107036
 3.6000e+000 107088 -2.9879e+000 -2.1121e+002  2.5791e+001 26642 106906,107062,106932
 3.6000e+000 107229 -1.1298e+001 -2.0195e+002 -5.9276e+001 26642 107010,106984,107203
 3.6000e+000 107252 -1.1773e+002 -2.4973e+002 -4.2814e+001 26642 107275,107010,107203
 3.6000e+000 107301 -1.1497e+002 -2.6701e+002 -4.5958e+001 26642 106932,107036,107275
 3.6000e+000 107324 -1.1040e+002 -2.6725e+002 -4.8213e+001 26642 106932,107275,107203
 3.6000e+000 107675 -5.5648e+001 -1.5637e+002  1.6034e+001 26045 107450,107554,107476
 3.6000e+000 107652 -4.2416e+001 -1.3473e+002  3.9138e+000 26045 107450,107580,107554
 3.6000e+000 107629 -1.7712e+001 -1.4377e+002  6.6613e+000 26045 107476,107528,107502
 3.6000e+000 107606 -1.5261e+001 -1.4789e+002  8.0312e+000 26045 107476,107554,107528
 3.6000e+000 107874 -3.8427e+001 -2.3868e+002  5.8779e+001 25641 107750,107802,107776
 3.6000e+000 107851 -5.0598e+001 -1.6644e+002  2.9388e+001 25641 107724,107802,107750
 3.6000e+000 107828 -4.8707e+001 -1.6884e+002  2.5425e+001 25641 107698,107802,107724
 3.6000e+000 108431 -2.2306e+001 -2.5530e+002  4.3862e+001 25023 108526,108267,108241
 3.6000e+000 108408 -2.8270e-001 -2.4309e+002  8.6654e+000 25023 108059,108267,108085
 3.6000e+000 108385 -3.7645e+001 -2.6025e+002  4.3206e+001 25023 108454,108163,108111
 3.6000e+000 108362 -1.1576e+002 -2.6262e+002  7.2768e+001 25023 108454,108111,108085
 3.6000e+000 108339 -9.2730e+001 -3.3824e+002  7.6047e+001 25023 108111,108163,108137
 3.6000e+000 108316 -6.3802e+001 -1.9056e+002 -1.2319e+001 25023 108163,108241,108215
 3.6000e+000 108293  2.4900e+001 -1.5108e+002 -2.9601e+000 25023 108163,108215,108189
 3.6000e+000 108480 -1.1311e+001 -2.3330e+002  2.9726e+000 25023 108241,108163,108454
 3.6000e+000 108503 -3.9635e+001 -2.4777e+002  4.2057e+001 25023 108526,108241,108454
 3.6000e+000 108552 -4.2607e+001 -2.5846e+002  3.4338e+001 25023 108085,108267,108526
 3.6000e+000 108575 -6.1004e+001 -2.5217e+002  3.2082e+001 25023 108085,108526,108454
 3.6000e+000 108823 -1.6739e+001 -1.8956e+002  2.7675e+001 24461 108624,108728,108650
 3.6000e+000 108800 -3.7553e+001 -3.8631e+002 -2.3574e+001 24461 108598,108728,108624
 3.6000e+000 108777 -4.5102e+000 -2.5154e+002  2.4936e+001 24461 108650,108728,108676
 3.6000e+000 108754 -1.1593e+002 -6.9908e+002  6.1035e+001 24461 108676,108728,108702
 3.6000e+000 109022 -6.8126e+001 -1.9528e+002  2.2015e+001 24121 108872,108924,108898
 3.6000e+000 108999 -5.1938e+001 -1.9080e+002  2.5391e+001 24121 108846,108924,108872
 3.6000e+000 108976 -7.5681e+001 -2.0235e+002  2.9736e+001 24121 108846,108950,108924
 3.6000e+000 109483 -8.0831e+001 -2.6512e+002 -2.5452e+001 23717 109209,109339,109235
 3.6000e+000 109460 -3.2330e+001 -3.0052e+002 -6.0376e+001 23717 109209,109365,109339
 3.6000e+000 109437 -7.8569e+000 -3.3183e+002 -1.7837e+001 23717 109287,109339,109313
 3.6000e+000 109414 -1.5394e+002 -3.3533e+002  1.7654e+001 23717 109235,109339,109287
 3.6000e+000 109391 -1.2887e+001 -3.8721e+002  1.2980e+002 23717 109235,109287,109261
 3.6000e+000 109910 -1.0366e+002 -3.0579e+002 -3.1992e+001 23305 109613,109743,109717
 3.6000e+000 109887 -1.0522e+002 -3.0889e+002 -1.7994e+001 23305 109613,109769,109743
 3.6000e+000 109864 -1.2577e+002 -3.0166e+002 -2.6436e+001 23305 109613,109717,109639
 3.6000e+000 109841 -8.1798e+001 -2.8367e+002 -6.7076e+000 23305 109587,109769,109613
 3.6000e+000 109818  2.2241e+001 -2.3822e+002  3.5398e+001 23305 109639,109717,109691
 3.6000e+000 109795 -2.7936e+001 -1.9014e+002 -4.1873e+001 23305 109639,109691,109665
 3.6000e+000 110180 -6.6701e+000 -8.9314e+001 -1.9486e+001 22851 110007,110059,110033
 3.6000e+000 110157 -6.1569e+001 -2.3871e+002  1.0161e+001 22851 109981,110059,110007
 3.6000e+000 110134 -8.6080e+001 -2.5737e+002  1.2809e+000 22851 109955,110059,109981
 3.6000e+000 110111 -3.4867e+001 -2.8197e+002 -2.1891e+001 22851 109955,110085,110059
 3.6000e+000 110737 -5.8730e+001 -2.8054e+002 -6.5498e+001 22333 110760,110469,110391
 3.6000e+000 110714 -2.4022e+001 -3.1028e+002 -5.3697e+001 22333 110760,110391,110365
 3.6000e+000 110691 -3.1955e+001 -2.7016e+002 -5.6523e+001 22333 110832,110521,110469
 3.6000e+000 110668 -9.8020e+000 -4.5761e+002  5.7787e+000 22333 110417,110469,110443
 3.6000e+000 110645 -1.3627e+002 -4.2062e+002 -6.3993e-001 22333 110391,110469,110417
 3.6000e+000 110622 -4.3445e+000 -2.6705e+002 -3.2738e+001 22333 110469,110521,110495
 3.6000e+000 110599 -3.0877e+001 -1.8285e+002  1.8462e+001 22333 110365,110573,110547
 3.6000e+000 110786 -3.4373e+001 -2.7123e+002 -5.6824e+001 22333 110832,110469,110760
 3.6000e+000 110809  2.2254e+000 -2.8116e+002 -4.0106e+001 22333 110547,110760,110365
 3.6000e+000 110858 -1.9892e+001 -2.7421e+002 -5.9752e+001 22333 110547,110521,110832
 3.6000e+000 110881 -3.0569e+001 -2.8048e+002 -6.2340e+001 22333 110547,110832,110760
 3.6000e+000 111308 -1.4737e+002 -3.3621e+002  1.6284e+001 21829 111331,111063,111011
 3.6000e+000 111285 -1.3444e+002 -3.1502e+002 -6.0697e+000 21829 111331,111011,111167
 3.6000e+000 111262 -1.5067e+002 -3.3342e+002  1.7134e+001 21829 111403,111089,111063
 3.6000e+000 111239 -1.8717e+002 -3.6086e+002  4.5604e+001 21829 111011,111063,111037
 3.6000e+000 111216 -9.0652e+001 -2.3341e+002  1.1952e+001 21829 110985,111167,111011
 3.6000e+000 111193 -1.6640e+002 -5.2685e+002  1.0980e+002 21829 111089,111141,111115
 3.6000e+000 111357 -1.4671e+002 -3.3662e+002  1.7113e+001 21829 111403,111063,111331
 3.6000e+000 111380 -1.5060e+002 -3.5028e+002 -2.1490e+000 21829 111141,111331,111167
 3.6000e+000 111429 -1.5457e+002 -3.3794e+002  2.1242e+001 21829 111141,111089,111403
 3.6000e+000 111452 -1.5024e+002 -3.4371e+002  1.9402e+001 21829 111141,111403,111331
 3.6000e+000 112056  8.1618e+001 -2.5840e+002  6.3910e+000 21489 111687,111765,111739
 3.6000e+000 112033  9.6575e+000 -2.9577e+002  2.9110e+001 21489 112151,112079,111687
 3.6000e+000 112010 -9.3027e+000 -4.5541e+002  3.3249e+001 21489 111791,111843,111817
 3.6000e+000 111987 -8.9906e+001 -3.6290e+002 -2.4653e+001 21489 112079,111843,111791
 3.6000e+000 111964  5.1976e+001 -2.7615e+002  5.4245e+001 21489 112151,111687,111661
 3.6000e+000 111941 -3.4758e+001 -2.0278e+002  4.8464e+001 21489 111661,111869,111843
 3.6000e+000 111918  8.5800e+001 -2.7724e+002  3.8430e+001 21489 111687,111739,111713
 3.6000e+000 111895  6.4674e+000 -1.0704e+002  1.9964e+001 21489 111635,111869,111661
 3.6000e+000 112105 -5.6500e+001 -3.1939e+002  1.6953e+001 21489 111765,111687,112079
 3.6000e+000 112128 -5.5237e+001 -3.0516e+002  1.7999e+001 21489 111765,112079,111791
 3.6000e+000 112177 -6.2382e+001 -2.9214e+002 -6.1170e+000 21489 111843,112079,112151
 3.6000e+000 112200 -2.3391e+001 -2.8470e+002  1.4351e+001 21489 111843,112151,111661
 3.6000e+000 112578 -7.4995e+001 -3.6910e+002  1.6033e+001 21177 112382,112434,112408
 3.6000e+000 112555 -9.0271e+001 -3.6611e+002  1.4033e+000 21177 112330,112434,112382
 3.6000e+000 112532 -7.4467e+001 -3.1763e+002  5.2378e+001 21177 112304,112434,112330
 3.6000e+000 112509 -8.8180e+001 -3.5137e+002  0.0000e+000 21177 112330,112382,112356
 3.6000e+000 112486 -2.2829e+001 -2.1645e+002  1.2833e+001 21177 112304,112460,112434
 3.6000e+000 112679 -6.6396e+000 -2.5936e+002 -4.1911e+001 20666 112601,112653,112627
 3.6000e+000 112927 -1.0469e+002 -3.5428e+002  1.1249e+001 19762 112702,112754,112728
 3.6000e+000 112904 -4.0865e+001 -3.3526e+002 -4.7705e+000 19762 112702,112832,112754
 3.6000e+000 112881 -8.9648e+001 -3.5789e+002  5.6991e+001 19762 112754,112832,112806
 3.6000e+000 112858 -1.2440e+002 -4.4220e+002  5.3481e+001 19762 112754,112806,112780
 3.6000e+000 113297 -9.7391e+001 -4.1365e+002  2.5729e+001 19308 112974,113052,113026
 3.6000e+000 113274 -6.5626e+001 -3.4901e+002  8.1820e+000 19308 112974,113156,113052
 3.6000e+000 113251 -3.5123e+001 -4.5904e+002 -5.4783e+001 19308 113052,113130,113104
 3.6000e+000 113228 -6.9758e+001 -3.4640e+002  1.2903e-001 19308 113052,113156,113130
 3.6000e+000 113205 -6.6739e+001 -4.0076e+002  0.0000e+000 19308 113052,113104,113078
 3.6000e+000 113182 -1.3398e+002 -4.2670e+002 -7.4479e-001 19308 112974,113026,113000
 3.6000e+000 113547 -2.1814e+001 -3.8394e+002 -2.4427e+001 18711 113570,113374,113348
 3.6000e+000 113524 -3.7243e+001 -3.5039e+002 -1.3545e+001 18711 113570,113348,113452
 3.6000e+000 113501 -3.0065e+001 -2.7120e+002 -7.5135e+001 18711 113322,113452,113348
 3.6000e+000 113478 -4.4670e+001 -3.3866e+002 -1.2077e+002 18711 113374,113426,113400
 3.6000e+000 113596 -1.4851e+001 -3.4762e+002 -3.3630e+001 18711 113426,113374,113570
 3.6000e+000 113619 -3.4898e+001 -3.2092e+002 -1.5966e+001 18711 113426,113570,113452
 3.6000e+000 113771 -1.8869e+002 -4.7066e+002 -2.5440e+001 18307 113670,113722,113696
 3.6000e+000 113748 -1.4873e+002 -4.4132e+002 -1.1889e+001 18307 113644,113722,113670
 3.6000e+000 113972 -7.8571e+001 -3.8864e+002  5.0632e+000 17945 113822,113874,113848
 3.6000e+000 113949 -8.1359e+001 -3.8378e+002  8.7471e+000 17945 113822,113900,113874
 3.6000e+000 113926 -1.1607e+002 -2.9424e+002  1.8153e+002 17945 113796,113900,113822
 3.6000e+000 114075 -5.7605e+001 -5.8090e+002  6.2262e+001 17482 113997,114049,114023
 3.6000e+000 114479 -2.6348e+001 -3.2058e+002 -4.9049e+001 17042 114257,114361,114335
 3.6000e+000 114456 -7.8024e+001 -3.1011e+002 -9.3454e+000 17042 114205,114361,114257
 3.6000e+000 114433 -9.6074e+001 -3.5752e+002  1.1685e+001 17042 114205,114257,114231
 3.6000e+000 114410  7.0986e+001 -4.7037e+002 -3.1609e+001 17042 114283,114335,114309
 3.6000e+000 114387 -8.2678e+000 -4.1116e+002 -2.0752e+001 17042 114257,114335,114283
 3.6000e+000 114879 -1.6911e+002 -3.5388e+002 -4.2416e+000 16638 114631,114683,114657
 3.6000e+000 114856 -8.0105e+000 -2.8490e+002 -5.9624e+000 16638 114605,114683,114631
 3.6000e+000 114833  3.3871e+001 -1.8196e+002 -1.3109e+001 16638 114605,114761,114683
 3.6000e+000 114810 -2.8766e+001 -3.6757e+002 -2.0240e+001 16638 114683,114735,114709
 3.6000e+000 114787 -5.8951e+001 -3.9433e+002 -3.3755e+001 16638 114683,114761,114735
 3.6000e+000 115078 -1.5400e+002 -3.5503e+002  5.9518e+000 16232 114954,115006,114980
 3.6000e+000 115055 -1.6365e+002 -3.9796e+002  1.7106e+001 16232 114928,115006,114954
 3.6000e+000 115032 -7.8214e+001 -4.9958e+002  3.3475e+001 16232 114902,115006,114928
 3.6000e+000 115228 -1.1809e+002 -3.7040e+002  9.0836e+000 15482 115101,115153,115127
 3.6000e+000 115205 -8.9952e+001 -3.4816e+002 -3.5319e+000 15482 115101,115179,115153
 3.6000e+000 115331 -9.1223e+001 -3.5217e+002 -4.1048e+001 15163 115253,115305,115279
 3.6000e+000 115434 -1.1002e+002 -3.7099e+002  5.0305e+001 421 115356,115408,115382
 3.7000e+000 68213 -3.4931e+001 -2.2970e+002 -1.9934e+001 67888 68112,68164,68138
 3.7000e+000 68190 -2.5154e+002 -2.9563e+002 -3.1341e+001 67888 68086,68164,68112
 3.7000e+000 68314 -2.2635e+001 -2.9729e+002  2.8718e+001 67576 68236,68288,68262
 3.7000e+000 68584 -9.8633e+001 -4.8650e+002  1.8263e+001 67378 68385,68489,68463
 3.7000e+000 68561  8.9206e+001 -4.0758e+002  1.3349e+001 67378 68359,68489,68385
 3.7000e+000 68538 -8.7703e+001 -4.2407e+002  2.2746e+001 67378 68385,68463,68411
 3.7000e+000 68515 -5.3452e+001 -2.8716e+002  1.0511e+001 67378 68411,68463,68437
 3.7000e+000 68964 -1.0348e+002 -4.4396e+002  6.6521e+001 67130 68690,68820,68716
 3.7000e+000 68941  9.8676e+001 -4.5562e+002  1.2586e+002 67130 68690,68846,68820
 3.7000e+000 68918 -9.2084e+001 -2.9594e+002  6.6522e+000 67130 68742,68820,68794
 3.7000e+000 68895 -1.5357e+001 -2.9543e+002  2.6900e+001 67130 68716,68820,68742
 3.7000e+000 68872 -5.9714e+001 -2.5124e+002 -2.9966e+001 67130 68742,68794,68768
 3.7000e+000 69065 -6.4249e+001 -2.9004e+002 -3.1041e-001 66926 68987,69039,69013
 3.7000e+000 69445 -2.6884e+001 -2.6261e+002 -1.7177e+001 66614 69223,69301,69275
 3.7000e+000 69422 -5.3277e+001 -2.8091e+002 -4.6957e+000 66614 69171,69301,69223
 3.7000e+000 69399 -6.7664e+001 -2.9284e+002  1.9120e+000 66614 69171,69327,69301
 3.7000e+000 69376  1.3027e+001 -9.1599e+001  5.3048e+000 66614 69223,69275,69249
 3.7000e+000 69353 -5.1022e+001 -3.0332e+002 -7.5459e+000 66614 69171,69223,69197
 3.7000e+000 69546 -7.4041e+001 -4.0705e+002  2.3195e+001 66416 69468,69520,69494
 3.7000e+000 69997 -6.3008e+001 -4.1519e+002 -3.8919e+001 66104 69700,69830,69726
 3.7000e+000 69974 -8.0910e+001 -5.2319e+002 -7.8503e+001 66104 69700,69856,69830
 3.7000e+000 69951 -7.3249e+001 -3.1833e+002 -2.4273e+001 66104 69726,69804,69778
 3.7000e+000 69928 -5.6569e+001 -3.8660e+002 -3.3550e+001 66104 69726,69830,69804
 3.7000e+000 69905 -7.9480e+001 -3.0477e+002 -1.3133e+001 66104 69726,69778,69752
 3.7000e+000 69882 -2.3734e+001 -7.6445e+002 -1.3267e+002 66104 69674,69856,69700
 3.7000e+000 70326 -7.4096e+001 -1.8993e+002 -2.3038e+001 65814 70349,70153,70127
 3.7000e+000 70303 -6.4026e+000 -1.9167e+002 -2.7495e+000 65814 70349,70127,70101
 3.7000e+000 70280  4.1419e+001 -1.1262e+002  9.9907e+001 65814 70101,70231,70205
 3.7000e+000 70257  6.6075e+001 -2.0605e+002  2.3377e+001 65814 70153,70205,70179
 3.7000e+000 70375 -4.1252e+001 -1.9722e+002  2.5069e+001 65814 70205,70153,70349
 3.7000e+000 70398  5.5659e+001 -1.8752e+002  3.9013e+001 65814 70205,70349,70101
 3.7000e+000 70904 -2.8357e+001 -1.0174e+002 -3.0688e+001 65502 70607,70737,70685
 3.7000e+000 70881 -3.4510e+001 -8.0241e+001 -4.1398e+001 65502 70581,70737,70607
 3.7000e+000 70858 -3.4212e+001 -2.0141e+001 -7.0908e+000 65502 70581,70763,70737
 3.7000e+000 70835 -4.6756e+001 -1.1340e+002 -4.5161e+001 65502 70685,70737,70711
 3.7000e+000 70812 -1.4667e+002 -1.2875e+002 -5.9832e+000 65502 70607,70659,70633
 3.7000e+000 70789 -4.6736e+001 -1.3560e+002 -2.9935e+000 65502 70607,70685,70659
 3.7000e+000 71103 -4.3138e+001 -3.6819e+002 -9.1943e+000 65304 71126,70979,70953
 3.7000e+000 71080 -7.9225e+001 -3.7054e+002 -2.7390e+000 65304 71126,70953,70927
 3.7000e+000 71057 -1.1393e+002 -3.7569e+002  2.5493e+001 65304 70927,71031,71005
 3.7000e+000 71152 -7.9993e+001 -3.4424e+002 -1.9438e+001 65304 71005,70979,71126
 3.7000e+000 71175 -1.2301e+002 -3.5497e+002 -4.4504e+000 65304 71005,71126,70927
 3.7000e+000 71374 -2.7629e+001 -3.5432e+002  1.5748e+001 65106 71198,71276,71224
 3.7000e+000 71351 -1.0540e+002 -3.7888e+002  6.9642e+000 65106 71198,71302,71276
 3.7000e+000 71328 -2.9740e+000 -2.9042e+002  4.3520e+001 65106 71224,71276,71250
 3.7000e+000 71756 -4.5623e+001 -2.5759e+002 -1.7588e+001 64652 71508,71638,71534
 3.7000e+000 71733 -9.0639e-001 -2.3799e+002  3.0499e+000 64652 71482,71638,71508
 3.7000e+000 71710 -8.1445e+001 -2.2387e+002 -1.4404e+001 64652 71534,71586,71560
 3.7000e+000 71687 -5.9585e+001 -2.4720e+002 -4.4881e+001 64652 71534,71612,71586
 3.7000e+000 71664 -1.1869e+002 -2.6924e+002 -4.3158e+001 64652 71534,71638,71612
 3.7000e+000 72085 -9.9670e+001 -2.6923e+002 -3.0113e+001 64248 71886,71964,71912
 3.7000e+000 72062 -9.1453e+001 -2.6370e+002 -3.2842e+001 64248 71860,71964,71886
 3.7000e+000 72039 -4.0049e+001 -2.7832e+002 -1.8085e+001 64248 71912,71964,71938
 3.7000e+000 72016 -6.9595e+001 -2.5609e+002 -4.0599e+001 64248 71860,71990,71964
 3.7000e+000 72235 -5.3495e+000 -1.6768e+002 -2.1817e+001 63858 72588,72258,72134
 3.7000e+000 72212 -1.1805e+001 -9.7816e+001  2.7217e+001 63858 72330,72258,72108
 3.7000e+000 72284 -7.6373e+000 -1.1189e+002 -1.0262e+001 63858 72160,72134,72258
 3.7000e+000 72307 -7.9725e+001 -1.5583e+002 -1.6793e+001 63858 72460,72258,72186
 3.7000e+000 72356 -6.5222e+001 -1.4322e+002 -8.6738e+000 63858 72186,72258,72330
 3.7000e+000 72486 -1.8037e+001 -1.4299e+002 -1.5713e+001 63858 72160,72258,72460
 3.7000e+000 72614  1.8070e+001 -1.7421e+002  2.2926e+001 63858 72108,72258,72588
 3.7000e+000 73248 -3.5054e+001 -2.2299e+002  7.1380e+001 63404 72902,72954,72928
 3.7000e+000 73225 -1.2058e+002 -2.7197e+002  3.3414e+001 63404 73271,72954,72902
 3.7000e+000 73202 -1.0808e+002 -2.2343e+002  3.0430e+001 63404 73271,72902,73032
 3.7000e+000 73179 -6.3352e+001 -1.9078e+002  1.2230e+001 63404 72902,73058,73032
 3.7000e+000 73156 -7.2097e+001 -2.3561e+002  3.7881e+001 63404 72980,73032,73006
 3.7000e+000 73133 -5.8520e+001 -1.9961e+002  8.5945e+000 63404 72876,73058,72902
 3.7000e+000 73110 -2.5770e+001 -9.6680e+001 -5.0060e+001 63404 72876,73084,73058
 3.7000e+000 73297 -1.0424e+002 -2.7915e+002  3.8958e+000 63404 72980,72954,73271
 3.7000e+000 73320 -1.0376e+002 -2.5271e+002  5.1709e+000 63404 72980,73271,73032
 3.7000e+000 73470 -9.9924e+001 -6.6475e+002  6.9834e+001 63014 73343,73395,73369
 3.7000e+000 73447 -3.1230e+002 -8.1602e+002 -1.5648e+001 63014 73343,73421,73395
 3.7000e+000 73929  2.8377e+001 -3.0550e+002  2.9745e+001 62702 73759,73811,73785
 3.7000e+000 73906  5.2033e+001 -2.9864e+002  2.1781e+001 62702 73655,73811,73759
 3.7000e+000 73883 -8.8775e-001 -3.5188e+002 -2.1411e+000 62702 73655,73759,73681
 3.7000e+000 73860  4.8586e+001 -2.5314e+002 -6.5213e+001 62702 73681,73759,73707
 3.7000e+000 73837 -1.1944e+002 -3.0196e+002  2.2445e+000 62702 73707,73759,73733
 3.7000e+000 74209 -1.7469e+002 -3.0951e+002  3.1783e+000 62404 74059,74137,74085
 3.7000e+000 74186 -2.1486e+002 -4.0774e+002  4.9984e+001 62404 74033,74137,74059
 3.7000e+000 74163 -1.9283e+002 -2.9120e+002 -9.8103e-001 62404 74085,74137,74111
 3.7000e+000 74408  1.4949e+000 -2.6293e+002  1.8538e+001 62000 74258,74336,74284
 3.7000e+000 74385 -8.8592e+000 -2.6193e+002  3.2914e+001 62000 74232,74336,74258
 3.7000e+000 74362 -6.0170e+001 -2.5223e+002 -2.0622e+000 62000 74284,74336,74310
 3.7000e+000 74509 -1.9520e+001 -3.3203e+002  1.1442e+001 61802 74431,74483,74457
 3.7000e+000 74759 -8.8647e+001 -2.8326e+002  6.9356e-001 61554 74782,74586,74560
 3.7000e+000 74736 -4.7111e+001 -2.6075e+002  9.2842e+000 61554 74782,74560,74664
 3.7000e+000 74713 -7.5311e+001 -2.0446e+002  6.8456e+001 61554 74854,74612,74586
 3.7000e+000 74690 -6.4331e+001 -2.9130e+002  2.2261e+000 61554 74534,74664,74560
 3.7000e+000 74808 -1.0919e+002 -2.5631e+002  1.8787e+001 61554 74854,74586,74782
 3.7000e+000 74831 -6.2634e+001 -3.2392e+002  1.8094e+001 61554 74638,74782,74664
 3.7000e+000 74880 -1.0597e+001 -2.5885e+002  7.6096e+001 61554 74638,74612,74854
 3.7000e+000 74903 -1.2750e+001 -2.5701e+002  3.9846e+001 61554 74638,74854,74782
 3.7000e+000 75285 -3.2046e+001 -3.0143e+002  6.1994e+000 61356 75063,75167,75115
 3.7000e+000 75262 -5.3188e+001 -3.2718e+002 -2.2302e+001 61356 75037,75167,75063
 3.7000e+000 75239  6.9458e+001 -3.1758e+002 -2.1980e+000 61356 75115,75167,75141
 3.7000e+000 75216  3.2171e+001 -2.6581e+002  2.0215e+001 61356 75063,75115,75089
 3.7000e+000 75193 -1.3732e+002 -2.4828e+002  2.1731e+001 61356 75011,75167,75037
 3.7000e+000 75631 -4.3009e+000 -2.3110e+002  3.1052e+000 60952 75654,75412,75360
 3.7000e+000 75608 -4.0947e+001 -2.7265e+002 -1.3943e+001 60952 75654,75360,75334
 3.7000e+000 75585 -2.2628e+001 -3.5100e+002  1.4377e+001 60952 75726,75438,75412
 3.7000e+000 75562 -4.6520e+001 -2.9703e+002 -4.9785e+001 60952 75308,75490,75334
 3.7000e+000 75539 -8.0864e+000 -2.3083e+002 -1.5232e+000 60952 75360,75412,75386
 3.7000e+000 75516 -4.9648e+001 -4.3716e+002 -9.8865e+000 60952 75438,75490,75464
 3.7000e+000 75680  3.5916e+000 -2.9461e+002  7.3594e-001 60952 75726,75412,75654
 3.7000e+000 75703 -1.4894e+000 -2.8233e+002 -1.9476e+001 60952 75490,75654,75334
 3.7000e+000 75752  6.1358e+000 -2.8520e+002 -5.4809e+000 60952 75490,75438,75726
 3.7000e+000 75775  4.6924e+000 -2.7969e+002 -1.7312e+001 60952 75490,75726,75654
 3.7000e+000 76155 -3.4959e+001 -2.6379e+002 -9.6434e-001 60754 75933,75985,75959
 3.7000e+000 76132 -5.6806e+001 -2.7887e+002  3.0148e+001 60754 75933,76037,75985
 3.7000e+000 76109  1.0687e+001 -2.7956e+002  1.3991e+001 60754 75985,76037,76011
 3.7000e+000 76086 -9.0066e+001 -2.3278e+002  1.1200e+001 60754 75881,76037,75933
 3.7000e+000 76063 -1.3496e+002 -1.9874e+002  6.9122e+001 60754 75881,75933,75907
 3.7000e+000 76612 -4.3787e+001 -2.2791e+002  5.1405e+000 60350 76635,76442,76390
 3.7000e+000 76589  1.5414e-001 -2.5247e+002  1.5546e+001 60350 76635,76390,76364
 3.7000e+000 76566 -1.5782e+001 -3.1550e+002 -2.2121e+001 60350 76364,76494,76468
 3.7000e+000 76543 -3.8767e+000 -2.0667e+002  2.0209e+001 60350 76390,76442,76416
 3.7000e+000 76520 -1.1247e+002 -2.0582e+002 -4.9774e+001 60350 76338,76494,76364
 3.7000e+000 76661 -6.8985e+001 -2.4396e+002  1.2096e+001 60350 76468,76442,76635
 3.7000e+000 76684 -3.7435e+001 -2.7454e+002  2.4665e+001 60350 76468,76635,76364
 3.7000e+000 76932 -8.8824e+001 -3.0418e+002  9.6390e+000 59946 76955,76733,76707
 3.7000e+000 76909 -8.6270e+001 -2.9720e+002  1.3851e+001 59946 77027,76955,76707
 3.7000e+000 76886 -7.7158e+001 -2.9618e+002  1.0567e+001 59946 77027,76707,76837
 3.7000e+000 76863 -3.1483e+001 -3.3834e+002 -2.4284e+001 59946 76733,76785,76759
 3.7000e+000 76981 -9.6945e+001 -3.0208e+002  1.6713e+000 59946 76785,76733,76955
 3.7000e+000 77004 -8.9246e+001 -3.0059e+002  1.0198e+001 59946 76785,76955,76811
 3.7000e+000 77053 -7.3095e+001 -2.9863e+002  1.0219e+001 59946 76811,76955,77027
 3.7000e+000 77076 -6.5080e+001 -2.9593e+002  5.3510e+000 59946 76811,77027,76837
 3.7000e+000 77226 -1.1484e+002 -2.7643e+002  6.6292e+000 59542 77099,77151,77125
 3.7000e+000 77203 -1.3463e+002 -3.2045e+002  1.0954e+001 59542 77099,77177,77151
 3.7000e+000 77427 -1.4848e+002 -2.9616e+002 -2.4595e+001 59030 77450,77277,77251
 3.7000e+000 77404 -8.1041e+001 -2.2024e+002 -9.3278e+001 59030 77450,77251,77355
 3.7000e+000 77381  2.5878e-001 -3.5490e+002 -1.2841e+001 59030 77277,77329,77303
 3.7000e+000 77476 -6.9279e+001 -3.1248e+002 -6.8470e+001 59030 77329,77277,77450
 3.7000e+000 77499 -5.4916e-001 -2.7575e+002 -1.2206e+002 59030 77329,77450,77355
 3.7000e+000 77749 -1.1584e+002 -3.7704e+002  3.3807e+001 58426 77772,77628,77602
 3.7000e+000 77726 -8.8421e+001 -4.6722e+002  1.3261e+002 58426 77524,77654,77628
 3.7000e+000 77703 -9.3367e+001 -3.8086e+002  2.5812e+001 58426 77772,77602,77550
 3.7000e+000 77680 -5.1455e+001 -3.5618e+002 -1.8365e+001 58426 77550,77602,77576
 3.7000e+000 77798 -9.0714e+001 -3.6956e+002  3.7292e+001 58426 77524,77628,77772
 3.7000e+000 77821 -8.1518e+001 -3.8173e+002  2.5616e+001 58426 77524,77772,77550
 3.7000e+000 78071 -1.6865e+002 -3.6001e+002  3.9739e+001 57922 78094,77924,77898
 3.7000e+000 78048 -1.9713e+002 -3.7473e+002  9.0342e+000 57922 78094,77898,77872
 3.7000e+000 78025 -1.6116e+002 -3.4647e+002  3.8450e+001 57922 78166,77846,77950
 3.7000e+000 78002 -8.3318e+001 -3.3969e+002  4.5029e+001 57922 77846,77976,77950
 3.7000e+000 78120 -1.4650e+002 -3.6965e+002  3.0411e+001 57922 77950,77924,78094
 3.7000e+000 78143 -1.6376e+002 -3.5135e+002  3.0853e+001 57922 78166,77950,78094
 3.7000e+000 78192 -1.5440e+002 -3.5933e+002  3.0224e+001 57922 77872,77846,78166
 3.7000e+000 78215 -1.6403e+002 -3.7280e+002  2.1931e+001 57922 77872,78166,78094
 3.7000e+000 78416  3.6759e+001 -3.0090e+002 -1.6996e+001 57468 78439,78292,78240
 3.7000e+000 78393 -1.4398e+001 -2.8310e+002 -5.0116e-001 57468 78439,78240,78344
 3.7000e+000 78370  1.6520e+001 -4.1317e+002 -1.1207e+001 57468 78240,78292,78266
 3.7000e+000 78465 -1.2996e+001 -3.2618e+002 -2.7765e+001 57468 78318,78292,78439
 3.7000e+000 78488 -3.4020e+001 -2.9606e+002 -6.4171e+000 57468 78318,78439,78344
 3.7000e+000 78689  5.8805e+001 -3.6897e+002 -4.6930e+001 57014 78712,78539,78513
 3.7000e+000 78666 -2.6647e+000 -3.6629e+002 -7.1580e+000 57014 78712,78513,78617
 3.7000e+000 78643 -8.1174e+001 -3.8555e+002  3.8341e+001 57014 78565,78617,78591
 3.7000e+000 78738 -2.0561e+001 -3.0115e+002 -4.7353e+001 57014 78565,78539,78712
 3.7000e+000 78761 -1.1293e+002 -3.5501e+002  1.7799e+001 57014 78565,78712,78617
 3.7000e+000 79241 -1.1754e+002 -3.1142e+002  2.3626e+001 56652 79264,78895,78869
 3.7000e+000 79218 -5.0909e+001 -4.1063e+002 -2.8710e+001 56652 79264,78869,79051
 3.7000e+000 79195 -8.1516e+001 -3.6456e+002 -8.4286e+001 56652 78869,79077,79051
 3.7000e+000 79172 -8.3645e+001 -1.9900e+002 -5.3612e+001 56652 78895,78973,78947
 3.7000e+000 79149 -1.4513e+002 -5.9664e+002 -5.6409e+001 56652 78973,79051,78999
 3.7000e+000 79126 -8.0193e+001 -1.8321e+002 -5.6298e+001 56652 78895,78947,78921
 3.7000e+000 79103 -1.2307e+002 -4.0480e+002  9.6919e+001 56652 78999,79051,79025
 3.7000e+000 79290 -6.6830e+001 -2.4955e+002  5.7127e+001 56652 78973,78895,79264
 3.7000e+000 79313  5.0858e+000 -3.5455e+002  8.0590e+000 56652 78973,79264,79051
 3.7000e+000 79512 -4.0284e+001 -4.4502e+002  4.1129e+001 56062 79388,79440,79414
 3.7000e+000 79489 -1.8507e+002 -2.3468e+002  6.1094e+001 56062 79336,79440,79388
 3.7000e+000 79466 -8.3409e+001 -2.1838e+002  8.8307e+001 56062 79336,79388,79362
 3.7000e+000 79941 -5.3124e+001 -2.7513e+002  4.2193e+001 55658 79964,79670,79644
 3.7000e+000 79918 -8.3110e+001 -2.8206e+002  4.8549e+001 55658 79964,79644,79800
 3.7000e+000 79895 -7.6226e+001 -2.9666e+002  2.0675e+001 55658 80036,79696,79670
 3.7000e+000 79872 -8.9027e+001 -2.5076e+002 -7.7786e+000 55658 80108,79722,79696
 3.7000e+000 79849 -1.3313e+002 -2.5463e+002  6.4556e+000 55658 79722,79774,79748
 3.7000e+000 79826 -1.2788e+000 -2.5290e+002  1.3769e+001 55658 79618,79800,79644
 3.7000e+000 79990 -8.6707e+001 -2.9923e+002  3.0727e+001 55658 80036,79670,79964
 3.7000e+000 80013 -7.5251e+001 -2.5827e+002  5.1163e+001 55658 79774,79964,79800
 3.7000e+000 80062 -6.3759e+001 -2.6950e+002  1.6294e+001 55658 80108,79696,80036
 3.7000e+000 80085 -8.2908e+001 -2.6018e+002  4.2218e+001 55658 79774,80036,79964
 3.7000e+000 80134 -1.3845e+002 -2.7055e+002  3.0805e+000 55658 79774,79722,80108
 3.7000e+000 80157 -1.2411e+002 -2.9573e+002  2.7035e+001 55658 79774,80108,80036
 3.7000e+000 80307 -1.3367e+002 -2.6028e+002  3.9149e+001 55254 80402,80330,80206
 3.7000e+000 80284 -1.2791e+002 -3.5209e+002  4.4135e+001 55254 80330,80180,80258
 3.7000e+000 80356 -1.5701e+002 -3.1346e+002  7.3422e+001 55254 80232,80206,80330
 3.7000e+000 80379 -3.4184e+001 -2.5778e+002  1.0642e+002 55254 80232,80330,80258
 3.7000e+000 80428 -1.8410e+002 -3.1386e+002  1.7082e+001 55254 80180,80330,80402
 3.7000e+000 80659 -6.3272e+001 -3.4257e+002 -2.9309e+001 54850 80558,80610,80584
 3.7000e+000 80636  2.4033e+001 -3.2030e+002 -3.6926e+001 54850 80532,80610,80558
 3.7000e+000 80760 -2.4743e+001 -2.8726e+002 -2.8863e+001 54652 80682,80734,80708
 3.7000e+000 81164 -1.6271e+001 -3.0129e+002 -8.1310e+000 54248 81187,80942,80890
 3.7000e+000 81141 -2.0538e+001 -3.1094e+002 -6.0004e+000 54248 81187,80890,81046
 3.7000e+000 81118 -2.6080e+001 -3.1174e+002  6.1993e+001 54248 80942,81020,80994
 3.7000e+000 81095 -1.6389e+001 -3.1590e+002  2.2684e+000 54248 80890,80942,80916
 3.7000e+000 81072 -3.2078e+001 -1.6863e+002  4.6031e+000 54248 80942,80994,80968
 3.7000e+000 81213 -2.2769e+001 -2.9412e+002 -6.5407e+000 54248 81020,80942,81187
 3.7000e+000 81236 -2.4523e+001 -3.0052e+002 -5.2146e+000 54248 81020,81187,81046
 3.7000e+000 81663 -1.3426e+002 -2.6854e+002  2.6204e+001 53594 81340,81444,81366
 3.7000e+000 81640 -1.2386e+002 -3.8106e+002  1.2543e+001 53594 81340,81470,81444
 3.7000e+000 81617 -2.5781e+001 -3.3200e+002 -8.4308e+000 53594 81340,81522,81470
 3.7000e+000 81594 -6.8325e+001 -1.9606e+002 -2.4990e+001 53594 81392,81444,81418
 3.7000e+000 81571 -9.8917e+001 -2.3113e+002 -3.8000e+001 53594 81366,81444,81392
 3.7000e+000 81548  1.9508e+001 -5.3853e+002  1.3220e+002 53594 81470,81522,81496
 3.7000e+000 81943 -3.1611e+001 -1.8935e+002 -2.2109e+001 53104 81966,81845,81819
 3.7000e+000 81920 -5.0530e+001 -1.5696e+002 -2.7887e+001 53104 81966,81819,81767
 3.7000e+000 81897 -5.1489e+001 -1.5611e+002 -3.1887e+001 53104 81767,81819,81793
 3.7000e+000 81992 -1.8743e+001 -1.6889e+002 -2.7634e+001 53104 81871,81845,81966
 3.7000e+000 82015 -2.8629e+001 -1.2337e+002 -3.7864e+001 53104 81871,81966,81767
 3.7000e+000 82491 -2.5389e+001 -1.8762e+002 -1.2225e+001 52650 82145,82249,82171
 3.7000e+000 82468 -1.6393e+002 -2.2151e+002 -2.6802e+001 52650 82145,82301,82249
 3.7000e+000 82445 -1.6868e+002 -3.4386e+002 -6.4773e+001 52650 82249,82301,82275
 3.7000e+000 82422 -5.4589e+001 -4.3625e+002 -7.9971e+001 52650 82119,82301,82145
 3.7000e+000 82399 -4.5127e+001 -1.5222e+002  2.2587e+001 52650 82171,82249,82223
 3.7000e+000 82376  3.4303e+001 -4.0066e+002 -6.8020e+001 52650 82119,82327,82301
 3.7000e+000 82353 -1.3250e+001 -7.3470e+001 -3.1330e+001 52650 82171,82223,82197
 3.7000e+000 82739 -4.1393e+001 -1.7872e+002  6.4196e+000 52246 82762,82540,82514
 3.7000e+000 82716 -2.4916e+001 -6.0516e+001 -1.1756e+001 52246 82762,82514,82644
 3.7000e+000 82693 -8.5517e+001 -2.0847e+002  4.8582e+001 52246 82540,82618,82592
 3.7000e+000 82670 -1.0416e+002 -2.0625e+002  4.4450e+001 52246 82540,82592,82566
 3.7000e+000 82788 -2.4018e+001 -2.3342e+002  1.6818e+001 52246 82618,82540,82762
 3.7000e+000 82811 -5.8367e+001 -1.9644e+002 -1.6865e+001 52246 82618,82762,82644
 3.7000e+000 83059 -2.6529e+001 -2.5713e+002  2.5530e+001 51578 82860,82964,82938
 3.7000e+000 83036  3.3040e+000 -1.6394e+002 -5.5591e+001 51578 82834,82964,82860
 3.7000e+000 83013 -1.0936e+001 -1.9398e+002  5.6566e+001 51578 82860,82938,82886
 3.7000e+000 82990 -7.1389e+000 -1.0896e+002  6.9946e+000 51578 82886,82938,82912
 3.7000e+000 83309 -4.4309e+001 -1.4790e+002  4.2455e+001 51138 83332,83162,83136
 3.7000e+000 83286 -1.5447e+001 -1.9379e+002  1.3806e+001 51138 83332,83136,83110
 3.7000e+000 83263 -7.3536e+001 -2.0061e+002 -1.3106e+001 51138 83404,83214,83188
 3.7000e+000 83240 -1.4072e+000 -1.2258e+002  1.1997e+001 51138 83084,83214,83110
 3.7000e+000 83358 -7.3876e+001 -2.0468e+002  5.4252e+001 51138 83188,83162,83332
 3.7000e+000 83381 -4.9909e+001 -2.2318e+002  8.1870e+000 51138 83404,83188,83332
 3.7000e+000 83430 -4.5305e+001 -1.4464e+002 -1.2788e+000 51138 83110,83214,83404
 3.7000e+000 83453 -2.5129e+001 -1.7945e+002  1.8962e+001 51138 83110,83404,83332
 3.7000e+000 83835 -2.9489e+001 -2.3898e+002 -1.1902e-001 50734 83613,83717,83691
 3.7000e+000 83812 -3.2521e+001 -2.5316e+002 -6.0183e+001 50734 83561,83717,83613
 3.7000e+000 83789 -1.1970e+001 -1.2258e+002 -8.2794e+001 50734 83561,83613,83587
 3.7000e+000 83766 -8.8845e+001 -1.5523e+002  2.9426e-001 50734 83613,83691,83639
 3.7000e+000 83743 -9.3714e+001 -1.5651e+002  3.1503e+001 50734 83639,83691,83665
 3.7000e+000 84034 -6.0491e+001 -1.5686e+002  9.7616e+000 50230 84057,83884,83858
 3.7000e+000 84011 -6.1061e+001 -1.7180e+002 -1.3099e+001 50230 84129,84057,83858
 3.7000e+000 83988 -2.0252e+001 -1.8301e+002 -2.3356e+001 50230 84129,83858,83962
 3.7000e+000 84083 -2.2980e+001 -1.4387e+002  1.6516e+001 50230 83910,83884,84057
 3.7000e+000 84106 -3.8461e+001 -1.7013e+002  8.7257e+000 50230 83910,84057,83936
 3.7000e+000 84155 -7.9928e+000 -1.4745e+002 -1.2009e+000 50230 83936,84057,84129
 3.7000e+000 84178  7.5264e+000 -1.7665e+002 -1.7337e+001 50230 83936,84129,83962
 3.7000e+000 84558 -5.7991e+001 -1.9699e+002 -3.4527e+001 49768 84581,84388,84362
 3.7000e+000 84535 -1.3072e+002 -1.9845e+002 -1.2777e+001 49768 84581,84362,84310
 3.7000e+000 84512  1.3997e+001 -2.1167e+002 -3.5965e+001 49768 84653,84440,84414
 3.7000e+000 84489 -9.9571e+001 -2.1609e+002  1.7235e+001 49768 84310,84362,84336
 3.7000e+000 84466  1.3725e+000 -1.4503e+002  3.3066e+001 49768 84284,84440,84310
 3.7000e+000 84607 -8.5388e+000 -1.6290e+002 -5.7348e+001 49768 84414,84388,84581
 3.7000e+000 84630 -1.5198e+001 -2.0109e+002 -2.5348e+001 49768 84653,84414,84581
 3.7000e+000 84679 -2.5106e+001 -1.9696e+002 -4.9067e+001 49768 84310,84440,84653
 3.7000e+000 84702 -6.5467e+001 -1.9853e+002 -4.9330e+001 49768 84310,84653,84581
 3.7000e+000 85159 -1.0884e+002 -2.9779e+002 -8.5562e+001 49192 84885,84937,84911
 3.7000e+000 85136 -1.1301e+002 -2.5277e+002 -6.3697e+001 49192 84885,85041,84937
 3.7000e+000 85113 -8.2655e+001 -2.1295e+002 -2.9395e+001 49192 84963,85041,84989
 3.7000e+000 85090 -7.3975e+001 -2.0065e+002 -4.6410e+001 49192 84937,85041,84963
 3.7000e+000 85067 -6.8363e+001 -2.2053e+002 -1.8676e+001 49192 84989,85041,85015
 3.7000e+000 85714 -1.1102e+002 -1.8940e+002 -1.5068e+000 48638 85368,85498,85394
 3.7000e+000 85691 -1.3967e+002 -2.1972e+002  1.1127e+001 48638 85368,85524,85498
 3.7000e+000 85668 -1.2420e+002 -1.8136e+002  4.6847e+001 48638 85737,85420,85394
 3.7000e+000 85645 -1.0644e+002 -2.0784e+002  2.5077e+001 48638 85737,85394,85498
 3.7000e+000 85622 -8.5588e+001 -2.1291e+002  4.2557e+001 48638 85446,85498,85472
 3.7000e+000 85599 -3.6395e+001 -1.8032e+002  2.0070e+001 48638 85342,85524,85368
 3.7000e+000 85576 -1.3684e+002 -2.0238e+002  1.8948e+001 48638 85342,85550,85524
 3.7000e+000 85763 -9.1102e+001 -1.6304e+002  6.3497e+001 48638 85446,85420,85737
 3.7000e+000 85786 -9.2748e+001 -1.8783e+002  3.8071e+001 48638 85446,85737,85498
 3.7000e+000 86371 -9.0273e+001 -1.3926e+002 -1.0678e+001 48084 86100,86230,86178
 3.7000e+000 86348 -1.1559e+002 -1.8033e+002 -2.3231e+001 48084 86048,86230,86100
 3.7000e+000 86325 -9.4857e+001 -1.3111e+002  3.4126e+001 48084 86100,86178,86126
 3.7000e+000 86302 -5.3247e+001 -3.3486e+001 -3.9156e+001 48084 86048,86100,86074
 3.7000e+000 86279 -1.1718e+002 -2.2480e+002 -5.5254e+000 48084 86178,86230,86204
 3.7000e+000 86256 -8.4478e+001 -1.5223e+002  3.2579e+001 48084 86126,86178,86152
 3.7000e+000 86619 -7.7916e+001 -1.7153e+002  1.3192e+001 47630 86642,86446,86420
 3.7000e+000 86596 -9.3425e+001 -1.8975e+002 -2.0566e+001 47630 86642,86420,86394
 3.7000e+000 86573 -1.1532e+002 -2.2018e+002 -3.0675e+001 47630 86394,86524,86498
 3.7000e+000 86550 -4.6720e+001 -1.9581e+002  1.1684e+001 47630 86446,86498,86472
 3.7000e+000 86668 -9.5254e+001 -2.0997e+002 -7.5058e-001 47630 86498,86446,86642
 3.7000e+000 86691 -1.0372e+002 -2.1638e+002 -3.3809e+001 47630 86498,86642,86394
 3.7000e+000 87022 -5.7284e+000 -1.1729e+002 -6.9056e+001 47226 87045,86875,86849
 3.7000e+000 86999 -8.5022e-001 -1.3241e+002 -6.5364e+001 47226 87045,86849,86797
 3.7000e+000 86976  2.2086e+000 -5.9793e+001 -1.6327e+001 47226 86797,86849,86823
 3.7000e+000 86953  8.3769e+000 -8.1666e+001 -3.4297e+001 47226 86875,86927,86901
 3.7000e+000 87071 -1.4035e+001 -1.2847e+002 -6.5421e+001 47226 86927,86875,87045
 3.7000e+000 87094 -5.1297e+000 -1.3878e+002 -6.3290e+001 47226 86927,87045,86797
 3.7000e+000 87244 -1.1069e+001 -2.1970e+002  5.9728e+001 46814 87267,87169,87143
 3.7000e+000 87221 -1.0365e+002 -1.9693e+002 -1.0905e+001 46814 87267,87143,87117
 3.7000e+000 87293 -1.1696e+001 -1.6634e+002  3.6385e+001 46814 87339,87267,87195
 3.7000e+000 87316 -9.0689e+000 -1.5654e+002  5.2921e+000 46814 87469,87267,87117
 3.7000e+000 87365  1.2388e+001 -1.5401e+002  4.2175e+001 46814 87169,87267,87339
 3.7000e+000 87495 -1.1126e+000 -1.7440e+001 -1.9929e+000 46814 87195,87267,87469
 3.7000e+000 88001 -7.2458e+001 -1.8049e+002  3.7307e+001 46310 88024,87834,87808
 3.7000e+000 87978 -8.7393e+001 -1.8402e+002  2.3252e+001 46310 88024,87808,87756
 3.7000e+000 87955 -4.3421e+001 -2.3357e+002  8.3140e+000 46310 88096,87730,87860
 3.7000e+000 87932 -6.4578e+001 -2.3261e+002  2.4013e+001 46310 87756,87808,87782
 3.7000e+000 87909 -5.3655e+001 -2.9067e+002  1.1235e+001 46310 87678,87860,87730
 3.7000e+000 87886 -8.2906e+001 -4.5322e+002 -2.2148e+001 46310 87678,87730,87704
 3.7000e+000 88050 -6.1181e+001 -1.5560e+002  2.2518e+001 46310 87860,87834,88024
 3.7000e+000 88073 -4.5421e+001 -1.7311e+002  2.8402e+001 46310 88096,87860,88024
 3.7000e+000 88122 -5.9022e+001 -2.6241e+002 -1.1939e+001 46310 87756,87730,88096
 3.7000e+000 88145 -9.8856e+001 -2.3833e+002 -6.2598e-001 46310 87756,88096,88024
 3.7000e+000 88572 -3.7660e+001 -2.0816e+002  1.1276e+001 45856 88249,88405,88275
 3.7000e+000 88549 -2.8934e+001 -6.0051e+001 -4.5611e+001 45856 88249,88431,88405
 3.7000e+000 88526 -1.0125e+002 -2.9092e+002 -3.8346e+001 45856 88327,88405,88353
 3.7000e+000 88503 -4.6856e+001 -2.5248e+002 -1.7771e+001 45856 88275,88405,88327
 3.7000e+000 88480 -8.2811e+001 -2.4818e+002 -4.0271e+001 45856 88353,88405,88379
 3.7000e+000 88457 -1.9525e+002 -5.3177e+002  4.3294e+001 45856 88275,88327,88301
 3.7000e+000 88950 -4.1040e+001 -1.3634e+002 -3.4017e+000 45658 88973,88754,88728
 3.7000e+000 88927 -3.8835e+001 -1.4406e+002 -4.0845e+000 45658 88973,88728,88676
 3.7000e+000 88904 -4.0984e+001 -1.7359e+002  4.9789e+001 45658 88676,88832,88806
 3.7000e+000 88881 -6.4915e+001 -1.9371e+002  1.5919e+001 45658 88676,88728,88702
 3.7000e+000 88858 -5.0658e+001 -1.2576e+002 -2.2275e+001 45658 88754,88806,88780
 3.7000e+000 88999 -4.4110e+001 -1.4272e+002 -2.1917e+000 45658 88806,88754,88973
 3.7000e+000 89022 -3.9704e+001 -1.4725e+002 -3.4847e+000 45658 88806,88973,88676
 3.7000e+000 89351 -5.6459e+001 -2.0328e+002 -1.1588e+001 45254 89152,89230,89204
 3.7000e+000 89328 -4.8174e+001 -1.9962e+002 -1.0962e+001 45254 89152,89256,89230
 3.7000e+000 89305 -1.0068e+001 -2.1226e+002 -2.8288e+001 45254 89126,89256,89152
 3.7000e+000 89282  1.6952e+001 -2.0563e+002 -4.2802e+001 45254 89152,89204,89178
 3.7000e+000 89523 -3.6650e+001 -1.9215e+002  5.8565e-001 45006 89422,89474,89448
 3.7000e+000 89500 -2.8879e+001 -1.8885e+002  6.7986e+000 45006 89396,89474,89422
 3.7000e+000 89673 -1.6888e+002 -2.9814e+002  2.6087e+001 44495 89572,89624,89598
 3.7000e+000 89650 -1.7230e+002 -2.9444e+002  1.5139e+001 44495 89546,89624,89572
 3.7000e+000 90104 -1.5825e+001 -2.2945e+002 -1.2713e+001 44005 90199,90127,89937
 3.7000e+000 90081 -4.4371e+001 -2.2718e+002  2.4783e+000 44005 90271,90127,89859
 3.7000e+000 90058 -1.0971e+000 -2.3734e+002 -1.3682e+001 44005 90199,89937,89885
 3.7000e+000 90035 -6.2855e+001 -2.1613e+002  1.2907e+001 44005 90271,89859,89807
 3.7000e+000 90012 -3.1685e+001 -2.6181e+002 -3.1801e+001 44005 89885,89937,89911
 3.7000e+000 89989 -1.9841e+001 -2.3231e+002  3.8702e+001 44005 89807,89859,89833
 3.7000e+000 90153 -4.5668e+001 -2.3958e+002 -6.4865e+000 44005 89963,89937,90127
 3.7000e+000 90176 -4.9885e+001 -2.5721e+002  5.1236e+000 44005 89963,90127,89781
 3.7000e+000 90225 -4.8870e+001 -2.2986e+002 -4.5744e+000 44005 89859,90127,90199
 3.7000e+000 90248 -1.9671e+001 -2.2881e+002  5.1776e-002 44005 89859,90199,89885
 3.7000e+000 90297 -6.9503e+001 -2.4109e+002 -2.9534e+000 44005 89781,90127,90271
 3.7000e+000 90320 -8.0343e+001 -2.2595e+002  8.9854e+000 44005 89781,90271,89807
 3.7000e+000 90470 -4.1537e+001 -2.6043e+002 -1.1876e+001 43601 90493,90369,90343
 3.7000e+000 90447 -6.9075e+001 -2.1269e+002  1.1458e+001 43601 90493,90343,90421
 3.7000e+000 90519 -8.4187e+001 -3.4848e+002 -4.2653e+001 43601 90395,90369,90493
 3.7000e+000 90542 -6.7469e+001 -2.4753e+002 -1.2828e+001 43601 90395,90493,90421
 3.7000e+000 90922 -9.3422e+001 -2.7733e+002  1.8729e+001 43154 90945,90700,90674
 3.7000e+000 90899 -8.5837e+001 -2.8281e+002 -2.6274e+001 43154 90945,90674,90648
 3.7000e+000 90876 -9.9913e+001 -2.2594e+002 -1.7595e+001 43154 90648,90778,90752
 3.7000e+000 90853 -5.2062e+001 -4.4626e+002  1.2468e+001 43154 90700,90752,90726
 3.7000e+000 90830 -6.0047e+001 -2.2716e+002 -4.9437e+000 43154 90648,90804,90778
 3.7000e+000 90971 -1.0654e+002 -3.1643e+002  2.5400e+001 43154 90752,90700,90945
 3.7000e+000 90994 -9.5274e+001 -3.0614e+002 -1.8389e+001 43154 90752,90945,90648
 3.7000e+000 91451 -2.2733e+001 -2.0118e+002 -3.8121e+001 42650 91203,91255,91229
 3.7000e+000 91428  2.1469e+001 -1.8179e+002 -1.8829e+001 42650 91203,91333,91255
 3.7000e+000 91405  4.7446e-001 -2.9423e+002 -5.1234e+001 42650 91177,91333,91203
 3.7000e+000 91382 -8.9749e+001 -3.0958e+002  4.0069e+001 42650 91255,91333,91281
 3.7000e+000 91359 -2.0126e+001 -2.6636e+002  2.0285e+001 42650 91281,91333,91307
 3.7000e+000 91721 -1.2495e+002 -2.9194e+002  1.9847e+001 42288 91496,91600,91522
 3.7000e+000 91698 -6.2631e+001 -1.6223e+002 -6.2706e+000 42288 91496,91626,91600
 3.7000e+000 91675 -7.9651e+001 -2.6482e+002  2.2139e+001 42288 91522,91574,91548
 3.7000e+000 91652 -6.4661e+001 -2.6880e+002  2.0278e+001 42288 91522,91600,91574
 3.7000e+000 92199 -1.8843e+002 -3.2019e+002 -9.1698e+000 41898 92222,91983,91879
 3.7000e+000 92176 -1.9278e+002 -3.4584e+002 -1.9333e+001 41898 92294,92222,91879
 3.7000e+000 92153 -2.0254e+002 -3.4072e+002 -2.6714e+001 41898 92294,91879,91853
 3.7000e+000 92130 -1.6518e+002 -2.0037e+002  1.8274e+001 41898 91879,91957,91931
 3.7000e+000 92107 -1.7114e+002 -3.1361e+002 -2.2806e+000 41898 91879,91983,91957
 3.7000e+000 92084 -1.7209e+002 -1.8026e+002  3.0745e+001 41898 91879,91931,91905
 3.7000e+000 92061 -1.8076e+002 -3.0515e+002 -2.1397e+001 41898 91827,92035,91853
 3.7000e+000 92248 -1.8588e+002 -3.5152e+002 -2.5941e+000 41898 92009,91983,92222
 3.7000e+000 92271 -1.8253e+002 -3.5790e+002 -2.5827e+001 41898 92009,92222,92035
 3.7000e+000 92320 -1.7606e+002 -3.3812e+002 -2.1503e+001 41898 92035,92222,92294
 3.7000e+000 92343 -1.8337e+002 -3.3209e+002 -2.8525e+001 41898 92035,92294,91853
 3.7000e+000 92770 -6.7862e+001 -2.9729e+002 -2.0102e+001 41437 92865,92793,92525
 3.7000e+000 92747 -9.4293e+001 -3.4785e+002 -2.8506e+001 41437 92793,92473,92629
 3.7000e+000 92724 -3.7265e+001 -3.0223e+002 -3.6470e+001 41437 92865,92525,92499
 3.7000e+000 92701 -1.0310e+002 -2.7273e+002 -4.5155e+001 41437 92525,92603,92577
 3.7000e+000 92678 -3.3719e+000 -3.3422e+002 -2.4208e+001 41437 92447,92629,92473
 3.7000e+000 92655 -1.5971e+002 -2.4825e+002 -2.7835e+001 41437 92525,92577,92551
 3.7000e+000 92819 -7.8000e+001 -3.2042e+002 -4.5016e+001 41437 92603,92525,92793
 3.7000e+000 92842 -1.4147e+002 -3.4219e+002 -8.1115e+001 41437 92603,92793,92629
 3.7000e+000 92891 -5.8294e+000 -3.2672e+002 -2.7974e+001 41437 92473,92793,92865
 3.7000e+000 92914  3.9929e+001 -3.1054e+002 -5.2534e+001 41437 92473,92865,92499
 3.7000e+000 93243 -4.7984e+001 -4.3204e+002  1.5715e+002 41097 93044,93096,93070
 3.7000e+000 93220 -8.3618e+001 -3.7833e+002  8.3413e+001 41097 93044,93122,93096
 3.7000e+000 93197  1.6564e+001 -2.5258e+002  3.3519e+001 41097 93044,93148,93122
 3.7000e+000 93174 -7.3245e+001 -2.0322e+002  7.1990e+001 41097 93018,93148,93044
 3.7000e+000 93393 -7.9649e+000 -3.1809e+002  2.0128e+001 40643 93416,93292,93344
 3.7000e+000 93370 -1.2708e+001 -2.9581e+002  2.3068e+001 40643 93266,93344,93292
 3.7000e+000 93442 -1.4220e+001 -3.1696e+002  2.5429e+001 40643 93318,93292,93416
 3.7000e+000 93901 -1.0236e+002 -3.0294e+002 -2.0335e+001 40132 93924,93731,93705
 3.7000e+000 93878 -1.0912e+002 -3.1225e+002 -2.3342e+001 40132 93996,93924,93705
 3.7000e+000 93855 -1.2801e+002 -3.5840e+002 -9.5623e+000 40132 93996,93705,93653
 3.7000e+000 93832 -6.0659e+001 -3.4576e+002 -2.0700e+001 40132 93653,93705,93679
 3.7000e+000 93809 -9.8870e+001 -3.0132e+002  3.0680e+000 40132 93627,93783,93757
 3.7000e+000 93950 -9.7235e+001 -3.2135e+002 -2.5007e+001 40132 93757,93731,93924
 3.7000e+000 93973 -1.1099e+002 -2.8603e+002 -6.5901e+000 40132 93757,93924,93627
 3.7000e+000 94022 -1.4108e+002 -3.4054e+002  1.0194e+001 40132 93627,93924,93996
 3.7000e+000 94045 -1.3252e+002 -3.5681e+002  2.0218e+001 40132 93627,93996,93653
 3.7000e+000 94423 -8.6964e+000 -3.2749e+002 -5.0422e+001 39514 94149,94227,94175
 3.7000e+000 94400 -2.6627e+001 -3.1339e+002  3.7261e+001 39514 94149,94305,94227
 3.7000e+000 94377  1.6489e+001 -3.9257e+002 -4.6866e+001 39514 94175,94227,94201
 3.7000e+000 94354 -9.5242e+001 -2.8970e+002  1.5410e+001 39514 94227,94305,94279
 3.7000e+000 94331 -3.5575e+001 -2.6222e+002  2.7765e+001 39514 94227,94279,94253
 3.7000e+000 94573 -3.3463e+001 -2.0309e+002 -4.2441e+001 38822 94596,94498,94472
 3.7000e+000 94550  3.1267e+001 -2.2295e+002  4.4139e+001 38822 94596,94472,94446
 3.7000e+000 94622 -1.0855e+002 -2.3556e+002 -3.7755e+001 38822 94524,94498,94596
 3.7000e+000 94645 -9.6936e+001 -2.8172e+002  5.8015e+001 38822 94524,94596,94446
 3.7000e+000 95025 -2.1213e+001 -2.5953e+002 -2.0236e+001 38418 95048,94829,94777
 3.7000e+000 95002 -2.9486e+001 -2.7282e+002 -3.2478e+001 38418 95120,95048,94777
 3.7000e+000 94979 -2.3163e+001 -2.6941e+002 -3.0288e+001 38418 95120,94777,94751
 3.7000e+000 94956 -1.5994e+001 -2.4088e+002 -3.5759e+001 38418 95192,94881,94855
 3.7000e+000 94933 -8.1440e+001 -2.3181e+002 -1.3197e+001 38418 94777,94829,94803
 3.7000e+000 95074 -4.8499e+001 -3.4288e+002 -7.5024e+000 38418 94855,94829,95048
 3.7000e+000 95097 -2.3158e+001 -2.7014e+002 -3.9256e+001 38418 95192,94855,95048
 3.7000e+000 95146 -5.1014e+001 -2.5928e+002 -2.6236e+001 38418 94907,95048,95120
 3.7000e+000 95169 -3.3131e+001 -2.4615e+002 -1.9925e+001 38418 94907,95120,94751
 3.7000e+000 95218 -2.4367e+001 -1.8672e+002 -3.1539e+001 38418 94907,94881,95192
 3.7000e+000 95241 -4.1570e+001 -2.3355e+002 -2.7373e+001 38418 94907,95192,95048
 3.7000e+000 95511 -9.3705e+001 -2.9170e+002  1.1557e+001 38049 95312,95390,95364
 3.7000e+000 95488 -6.9838e+001 -2.8254e+002  1.4008e+001 38049 95312,95416,95390
 3.7000e+000 95465 -3.4164e+001 -2.7887e+002 -1.9242e+001 38049 95312,95364,95338
 3.7000e+000 95442 -2.7654e+001 -2.6669e+002  2.5636e+001 38049 95286,95416,95312
 3.7000e+000 95808 -8.1942e+001 -3.1835e+002 -7.2582e+000 37437 95831,95586,95560
 3.7000e+000 95785  3.1569e+001 -3.3741e+002 -1.5288e+001 37437 95831,95560,95534
 3.7000e+000 95762 -1.6506e+002 -3.0513e+002  7.3364e+000 37437 95586,95664,95638
 3.7000e+000 95739 -2.4156e+001 -1.5438e+002 -8.3600e+001 37437 95534,95690,95664
 3.7000e+000 95716 -1.5056e+002 -2.1958e+002  8.4776e+000 37437 95586,95638,95612
 3.7000e+000 95857 -1.5483e+002 -3.1162e+002  3.8321e+001 37437 95664,95586,95831
 3.7000e+000 95880 -3.4273e+001 -3.2722e+002  3.1796e+001 37437 95664,95831,95534
 3.7000e+000 96390 -1.0552e+002 -2.3352e+002 -1.4843e+001 36883 96413,96145,96093
 3.7000e+000 96367 -8.4452e+001 -2.2318e+002 -9.3373e+000 36883 96413,96093,96067
 3.7000e+000 96344 -5.9924e+001 -2.7212e+002  6.4431e-001 36883 96067,96249,96171
 3.7000e+000 96321 -9.2655e+001 -2.7012e+002 -5.6714e+000 36883 96093,96145,96119
 3.7000e+000 96298 -1.3026e+002 -4.5046e+002  4.2938e+001 36883 96171,96249,96197
 3.7000e+000 96275 -3.4959e+001 -3.5571e+002 -8.1377e+000 36883 96197,96249,96223
 3.7000e+000 96439 -9.9964e+001 -2.2668e+002  4.1544e+000 36883 96171,96145,96413
 3.7000e+000 96462 -8.2283e+001 -2.2183e+002  7.9699e+000 36883 96171,96413,96067
 3.7000e+000 96781 -8.7142e+001 -2.6642e+002 -3.8898e+001 36215 96559,96663,96637
 3.7000e+000 96758 -1.0774e+002 -2.9349e+002 -5.0032e+001 36215 96507,96663,96559
 3.7000e+000 96735 -1.0723e+002 -2.0054e+002  2.0459e+001 36215 96585,96637,96611
 3.7000e+000 96712 -2.2462e+002 -3.0965e+002 -3.3127e+001 36215 96559,96637,96585
 3.7000e+000 96689 -4.1834e+001 -3.4688e+002 -1.1357e+001 36215 96507,96559,96533
 3.7000e+000 97161  3.9892e+000 -1.4608e+002 -8.7435e+000 35818 97184,96965,96939
 3.7000e+000 97138 -1.5323e+001 -1.7513e+002 -1.7474e+001 35818 97184,96939,96887
 3.7000e+000 97115 -5.0479e+000 -1.8243e+002  3.3360e+001 35818 96965,97043,97017
 3.7000e+000 97092 -8.2640e+000 -1.6897e+002 -2.1210e+001 35818 96887,96939,96913
 3.7000e+000 97069 -9.5126e+001 -1.8886e+002  1.9756e+001 35818 96965,97017,96991
 3.7000e+000 97210  2.4622e+001 -1.7080e+002  7.3039e+000 35818 97043,96965,97184
 3.7000e+000 97233  9.7160e+000 -1.9158e+002  4.7367e-001 35818 97043,97184,96887
 3.7000e+000 97739 -1.0187e+002 -2.8750e+002 -6.3840e+001 35214 97416,97468,97442
 3.7000e+000 97716 -1.1629e+002 -2.0946e+002 -2.1118e+001 35214 97416,97598,97468
 3.7000e+000 97693 -1.0470e+002 -2.0081e+002 -8.1908e+000 35214 97762,97520,97468
 3.7000e+000 97670 -1.0708e+002 -2.0571e+002 -1.6701e+001 35214 97762,97468,97598
 3.7000e+000 97647 -8.2701e+001 -1.9744e+002 -2.6615e+001 35214 97546,97598,97572
 3.7000e+000 97624 -6.9802e+001 -2.1081e+002 -1.0138e+001 35214 97468,97520,97494
 3.7000e+000 97788 -1.0804e+002 -2.1034e+002 -1.1340e+001 35214 97546,97520,97762
 3.7000e+000 97811 -1.0848e+002 -2.1428e+002 -1.9315e+001 35214 97546,97762,97598
 3.7000e+000 98189 -2.2312e+001 -1.6107e+002 -1.1066e+001 34760 98356,98212,97967
 3.7000e+000 98166 -4.4718e+001 -1.9734e+002 -2.6021e+001 34760 98284,98212,97941
 3.7000e+000 98143 -7.7378e+001 -1.7968e+002 -1.1828e+001 34760 98284,97941,97915
 3.7000e+000 98120 -2.5242e+001 -2.1614e+002 -4.9333e+000 34760 98484,97993,97967
 3.7000e+000 98097 -2.5109e+001 -1.8404e+002 -4.2677e+000 34760 98556,98045,98019
 3.7000e+000 98238 -3.6975e+001 -2.0258e+002 -5.7231e+000 34760 98484,97967,98212
 3.7000e+000 98261 -9.0426e+000 -1.9055e+002 -1.2544e+001 34760 98556,98019,98212
 3.7000e+000 98310 -1.5805e+001 -1.6607e+002 -3.9917e+001 34760 98071,98212,98284
 3.7000e+000 98333 -3.8480e+001 -1.2271e+002 -3.2565e+001 34760 98071,98284,97915
 3.7000e+000 98382 -1.0188e+002 -2.1646e+002 -3.5880e+001 34760 97941,98212,98356
 3.7000e+000 98510 -5.8119e+000 -2.0531e+002 -1.1372e+001 34760 98019,97993,98484
 3.7000e+000 98533 -2.4980e+001 -1.9777e+002 -1.0902e+001 34760 98019,98484,98212
 3.7000e+000 98582 -4.6813e+000 -1.7483e+002 -6.8355e-001 34760 98071,98045,98556
 3.7000e+000 98605  2.0692e+000 -1.8711e+002 -1.0626e+001 34760 98071,98556,98212
 3.7000e+000 99032 -1.0775e+002 -2.4940e+002  3.4136e+001 34156 98735,98891,98839
 3.7000e+000 99009 -9.0641e+001 -2.5687e+002  1.5029e+001 34156 98709,98891,98735
 3.7000e+000 98986 -3.0722e+001 -2.2418e+002  3.3484e+001 34156 98735,98813,98787
 3.7000e+000 98963 -3.6501e+001 -2.4453e+002  2.7054e+001 34156 98735,98839,98813
 3.7000e+000 98940  1.4416e+001 -3.3480e+002  3.7756e+001 34156 98735,98787,98761
 3.7000e+000 98917 -9.4851e+001 -2.1632e+002  1.7822e+001 34156 98839,98891,98865
 3.7000e+000 99231 -3.2514e+001 -1.3709e+002  1.1148e+001 33766 99055,99133,99107
 3.7000e+000 99208 -5.7969e+001 -1.7897e+002  2.3357e+001 33766 99055,99159,99133
 3.7000e+000 99185 -1.7964e+001 -1.6066e+002  2.8496e+001 33766 99055,99107,99081
 3.7000e+000 99818 -7.2105e+001 -1.9861e+002  3.8485e+000 33248 99521,99651,99573
 3.7000e+000 99795 -7.2107e+001 -1.9029e+002  1.8453e+001 33248 99521,99677,99651
 3.7000e+000 99772 -1.0371e+002 -2.3676e+002 -1.1949e+001 33248 99573,99651,99599
 3.7000e+000 99749 -7.3147e+001 -2.3656e+002  2.1179e+001 33248 99495,99677,99521
 3.7000e+000 99726 -5.1475e+001 -2.0138e+002 -4.5725e+001 33248 99599,99651,99625
 3.7000e+000 99703 -9.1158e+001 -2.3626e+002  1.3746e+001 33248 99521,99573,99547
 3.7000e+000 100196 -7.4278e+001 -2.1334e+002 -4.0399e+001 32794 100219,99948,99922
 3.7000e+000 100173 -8.5901e+001 -2.3794e+002 -1.9781e+001 32794 100219,99922,100052
 3.7000e+000 100150 -1.1335e+002 -2.1858e+002  1.1776e+001 32794 99974,100052,100026
 3.7000e+000 100127 -1.0176e+002 -1.9495e+002 -3.1539e+001 32794 99922,100078,100052
 3.7000e+000 100104 -1.2052e+002 -2.6635e+002  4.9219e+001 32794 99974,100026,100000
 3.7000e+000 100245 -9.7620e+001 -2.0895e+002 -1.6316e+001 32794 99974,99948,100219
 3.7000e+000 100268 -1.0505e+002 -2.4192e+002  4.4652e+000 32794 99974,100219,100052
 3.7000e+000 100418 -1.2816e+001 -1.8963e+002 -2.0915e+001 32504 100571,100343,100317
 3.7000e+000 100395 -7.4736e+001 -2.1775e+002  1.8956e+001 32504 100571,100317,100441
 3.7000e+000 100467  5.5574e+001 -1.0446e+002 -5.6171e+001 32504 100291,100369,100441
 3.7000e+000 100597  1.4727e+001 -1.5916e+002 -6.8954e+001 32504 100369,100343,100571
 3.7000e+000 100620 -1.2960e+001 -1.4826e+002 -3.4545e+001 32504 100369,100571,100441
 3.7000e+000 101020 -3.7543e+001 -1.8107e+002  8.0445e+000 32142 100772,100902,100876
 3.7000e+000 100997 -2.4533e+001 -1.6771e+002  1.4076e+001 32142 100746,100902,100772
 3.7000e+000 100974 -1.5699e+001 -2.0322e+002  1.8707e+001 32142 101043,100824,100798
 3.7000e+000 100951 -3.8526e+001 -2.1237e+002  1.5013e+001 32142 101043,100798,100772
 3.7000e+000 100928 -1.1797e+002 -2.4502e+002 -5.6455e+001 32142 101115,100876,100850
 3.7000e+000 101069  1.9837e+001 -2.1470e+002 -2.2240e+001 32142 100850,100824,101043
 3.7000e+000 101092 -6.4953e+001 -2.5042e+002 -2.7985e+001 32142 101115,100850,101043
 3.7000e+000 101141 -5.3008e+001 -2.1087e+002 -2.0035e+001 32142 100772,100876,101115
 3.7000e+000 101164 -1.2668e+001 -2.1493e+002  1.1248e+001 32142 100772,101115,101043
 3.7000e+000 101719 -1.0892e+002 -2.5794e+002  3.2815e+001 31538 101742,101477,101399
 3.7000e+000 101696 -1.3530e+002 -3.1496e+002  5.6687e+000 31538 101814,101742,101399
 3.7000e+000 101673 -1.5657e+002 -2.7080e+002 -2.5627e+001 31538 101814,101399,101373
 3.7000e+000 101650 -1.0966e+002 -1.8750e+002  2.1013e+001 31538 101425,101477,101451
 3.7000e+000 101627 -1.0367e+002 -2.1854e+002  4.5115e+000 31538 101399,101477,101425
 3.7000e+000 101604 -6.6546e+001 -3.0059e+002  6.3077e+001 31538 101477,101529,101503
 3.7000e+000 101581 -4.1716e+001 -1.8543e+002 -2.1808e+001 31538 101347,101555,101373
 3.7000e+000 101768 -1.2566e+002 -3.1777e+002  3.3010e+001 31538 101529,101477,101742
 3.7000e+000 101791 -1.0583e+002 -3.2459e+002 -1.1679e+001 31538 101529,101742,101555
 3.7000e+000 101840 -8.2320e+001 -2.7026e+002 -1.4593e+001 31538 101555,101742,101814
 3.7000e+000 101863 -1.1261e+002 -2.3420e+002 -4.3185e+001 31538 101555,101814,101373
 3.7000e+000 102111 -1.5799e+002 -4.0561e+002  5.2273e+001 31112 101886,101990,101912
 3.7000e+000 102088 -5.8085e+001 -2.4040e+002  3.8622e+000 31112 101886,102016,101990
 3.7000e+000 102065 -7.3264e+001 -3.9559e+002  8.2860e+001 31112 101912,101990,101964
 3.7000e+000 102042 -1.1728e+002 -5.0134e+002  9.7385e+001 31112 101912,101964,101938
 3.7000e+000 102408 -4.4389e+001 -2.5328e+002  1.9490e+001 30658 102431,102186,102160
 3.7000e+000 102385 -8.6934e+001 -2.4995e+002 -3.5040e-001 30658 102431,102160,102264
 3.7000e+000 102362 -8.2077e+001 -2.7363e+002  3.7855e+000 30658 102186,102238,102212
 3.7000e+000 102339 -9.3936e+001 -2.6501e+002 -1.6229e+001 30658 102134,102264,102160
 3.7000e+000 102316 -6.5061e+001 -2.2180e+002 -7.3520e+001 30658 102134,102290,102264
 3.7000e+000 102457 -7.9577e+001 -2.6717e+002  1.0227e+001 30658 102238,102186,102431
 3.7000e+000 102480 -1.2516e+002 -2.6808e+002 -1.1386e+001 30658 102238,102431,102264
 3.7000e+000 102681 -3.8771e+001 -3.0460e+002  4.3935e+001 30004 102704,102557,102505
 3.7000e+000 102658 -4.5211e+001 -3.0686e+002  4.4914e+001 30004 102704,102505,102609
 3.7000e+000 102635 -2.1182e+000 -2.6457e+002  1.0756e+001 30004 102505,102557,102531
 3.7000e+000 102730 -4.4350e+001 -2.9713e+002  4.0024e+001 30004 102583,102557,102704
 3.7000e+000 102753 -5.8754e+001 -3.0404e+002  4.2192e+001 30004 102583,102704,102609
 3.7000e+000 103003 -3.7329e+001 -2.4529e+002 -2.0099e+001 29564 103026,102804,102778
 3.7000e+000 102980 -4.5639e+001 -2.8905e+002 -3.0775e+001 29564 103026,102778,102908
 3.7000e+000 102957 -4.3931e+001 -2.4502e+002 -4.4119e+000 29564 102856,102908,102882
 3.7000e+000 102934 -6.0605e+001 -2.2378e+002  1.2732e+001 29564 102804,102856,102830
 3.7000e+000 103052 -3.2732e+001 -2.2319e+002  9.5512e+000 29564 102856,102804,103026
 3.7000e+000 103075 -4.5074e+001 -2.5897e+002 -5.2333e+000 29564 102856,103026,102908
 3.7000e+000 103634 -1.1990e+002 -2.8352e+002 -3.3228e+001 29160 103657,103418,103392
 3.7000e+000 103611 -1.1481e+002 -2.7421e+002 -1.6762e+001 29160 103657,103392,103314
 3.7000e+000 103588 -8.4196e+001 -2.4189e+002 -2.9379e+001 29160 103314,103392,103366
 3.7000e+000 103565 -7.5502e+001 -2.5663e+002 -3.3267e+001 29160 103314,103366,103340
 3.7000e+000 103542 -1.4188e+002 -2.7091e+002 -2.9731e+001 29160 103262,103444,103314
 3.7000e+000 103519 -1.6602e+002 -3.2059e+002 -3.9872e+001 29160 103262,103314,103288
 3.7000e+000 103496 -1.1102e+002 -2.9609e+002 -1.1142e+001 29160 103262,103470,103444
 3.7000e+000 103683 -1.4495e+002 -3.0280e+002 -5.0987e+001 29160 103444,103418,103657
 3.7000e+000 103706 -1.2483e+002 -2.7313e+002 -3.2007e+001 29160 103444,103657,103314
 3.7000e+000 104035 -7.2165e+001 -2.5899e+002  2.3340e+001 28770 103836,103914,103862
 3.7000e+000 104012 -6.9874e+001 -2.4942e+002  2.9902e+001 28770 103810,103914,103836
 3.7000e+000 103989  2.0227e+001 -2.2588e+002  3.8941e+001 28770 103810,103940,103914
 3.7000e+000 103966 -1.4545e+001 -2.0942e+002  4.9178e+001 28770 103862,103914,103888
 3.7000e+000 104185 -3.8531e+001 -2.5991e+002  4.2769e+001 28366 104208,104110,104084
 3.7000e+000 104162 -2.7816e+001 -2.1989e+002  3.9763e+001 28366 104280,104208,104084
 3.7000e+000 104234  3.0836e+001 -2.5459e+002  2.7073e+001 28366 104610,104208,104136
 3.7000e+000 104257 -5.9041e+001 -2.4722e+002  2.8531e+001 28366 104538,104410,104208
 3.7000e+000 104306 -8.7759e+001 -2.5051e+002  2.8259e+001 28366 104538,104208,104280
 3.7000e+000 104436 -2.9920e+001 -2.6181e+002  3.5487e+000 28366 104136,104208,104410
 3.7000e+000 104564 -8.9102e+001 -2.4505e+002  1.3291e+001 28366 104058,104410,104538
 3.7000e+000 104587 -1.0670e+002 -2.4162e+002  1.0965e+001 28366 104058,104538,104280
 3.7000e+000 104636  1.3643e+001 -2.6034e+002  3.4434e+001 28366 104110,104208,104610
 3.7000e+000 105349 -6.0757e+001 -2.2145e+002 -2.3586e+001 27976 105516,105372,105107
 3.7000e+000 105326 -9.2905e+001 -2.2036e+002  5.2092e+000 27976 105588,105372,105055
 3.7000e+000 105303 -9.8839e+001 -2.1462e+002 -2.1303e+001 27976 105444,105159,105133
 3.7000e+000 105280 -3.5091e+001 -2.3082e+002 -1.3798e+001 27976 105516,105107,105081
 3.7000e+000 105257 -8.6097e+001 -2.4386e+002  2.0539e+001 27976 105588,105055,105029
 3.7000e+000 105234 -4.7430e+001 -1.8758e+002  1.5171e+000 27976 105003,105185,105159
 3.7000e+000 105211 -6.5480e+001 -1.5215e+002  2.6182e+001 27976 104977,105185,105003
 3.7000e+000 105398 -4.8607e+001 -2.2015e+002 -2.9981e+001 27976 105133,105107,105372
 3.7000e+000 105421 -8.0388e+001 -2.2863e+002 -1.3067e+001 27976 105444,105133,105372
 3.7000e+000 105470 -8.1531e+001 -1.9055e+002 -1.1880e+001 27976 105003,105159,105444
 3.7000e+000 105493 -6.8588e+001 -2.0692e+002 -7.8219e+000 27976 105003,105444,105372
 3.7000e+000 105542 -4.3481e+001 -2.1756e+002 -2.8386e+000 27976 105055,105372,105516
 3.7000e+000 105565 -5.6745e+000 -2.2233e+002  4.4449e+000 27976 105055,105516,105081
 3.7000e+000 105614 -1.0710e+002 -2.4353e+002  1.6448e+001 27976 105003,105372,105588
 3.7000e+000 105637 -1.0402e+002 -2.6672e+002  3.3170e+001 27976 105003,105588,105029
 3.7000e+000 106143 -1.1593e+002 -3.4198e+002  2.0320e+001 27664 106166,105846,105820
 3.7000e+000 106120 -8.4768e+001 -2.7224e+002  8.5396e+000 27664 106310,106166,105820
 3.7000e+000 106097 -4.0398e+001 -3.1132e+002 -5.9280e+001 27664 106382,106238,105950
 3.7000e+000 106074 -5.6434e+001 -2.6939e+002  1.0992e+001 27664 106310,105820,106002
 3.7000e+000 106051  2.1921e+001 -2.7584e+002 -4.4101e+001 27664 106382,105950,105924
 3.7000e+000 106028 -4.1233e+001 -4.7130e+002 -1.6264e+001 27664 105846,105898,105872
 3.7000e+000 106192 -1.0762e+002 -3.7843e+002 -4.4368e+001 27664 105898,105846,106166
 3.7000e+000 106215 -7.2079e+001 -3.2035e+002 -1.4070e+001 27664 106238,105898,106166
 3.7000e+000 106264 -1.8061e+002 -3.4812e+002 -7.9682e+001 27664 105976,105950,106238
 3.7000e+000 106287 -6.3502e+001 -3.1825e+002 -1.5614e+001 27664 105976,106238,106166
 3.7000e+000 106336 -5.6538e+001 -2.8326e+002  3.3286e+001 27664 105976,106166,106310
 3.7000e+000 106359 -2.4419e+001 -2.7852e+002  3.4739e+001 27664 105976,106310,106002
 3.7000e+000 106408 -6.6969e+001 -2.5488e+002  1.0562e+001 27664 105898,106238,106382
 3.7000e+000 106431 -2.9801e+001 -2.3636e+002  2.0105e+001 27664 105898,106382,105924
 3.7000e+000 106728 -3.4824e+001 -1.8709e+002  3.4646e+001 27153 106751,106506,106454
 3.7000e+000 106705 -3.2471e+001 -1.8851e+002  2.7019e+001 27153 106751,106454,106610
 3.7000e+000 106682 -5.3380e+001 -1.4057e+002  6.3278e+000 27153 106454,106506,106480
 3.7000e+000 106659 -4.4975e+001 -1.8181e+002  1.6445e+001 27153 106532,106610,106584
 3.7000e+000 106636 -7.6005e+001 -1.1251e+002  3.4456e+001 27153 106532,106584,106558
 3.7000e+000 106777 -2.4354e+001 -1.8734e+002  3.5679e+001 27153 106532,106506,106751
 3.7000e+000 106800 -2.3451e+001 -1.8787e+002  2.6546e+001 27153 106532,106751,106610
 3.7000e+000 107180 -4.6905e+001 -2.2276e+002  1.5036e+001 26642 107203,106984,106958
 3.7000e+000 107157 -1.1809e+002 -2.5553e+002  4.7188e+000 26642 107203,106958,106932
 3.7000e+000 107134 -1.3699e+002 -2.7936e+002 -3.6688e+001 26642 107275,107036,107010
 3.7000e+000 107111 -8.6841e+001 -2.7923e+002 -4.5214e+001 26642 106932,107062,107036
 3.7000e+000 107088 -3.2680e+000 -2.1939e+002  2.7357e+001 26642 106906,107062,106932
 3.7000e+000 107229 -1.1385e+001 -2.0997e+002 -6.1576e+001 26642 107010,106984,107203
 3.7000e+000 107252 -1.2230e+002 -2.5958e+002 -4.4543e+001 26642 107275,107010,107203
 3.7000e+000 107301 -1.1936e+002 -2.7677e+002 -4.7517e+001 26642 106932,107036,107275
 3.7000e+000 107324 -1.1450e+002 -2.7716e+002 -4.9918e+001 26642 106932,107275,107203
 3.7000e+000 107675 -5.7155e+001 -1.6284e+002  1.6597e+001 26045 107450,107554,107476
 3.7000e+000 107652 -4.4041e+001 -1.4067e+002  4.1262e+000 26045 107450,107580,107554
 3.7000e+000 107629 -1.7672e+001 -1.5080e+002  7.1420e+000 26045 107476,107528,107502
 3.7000e+000 107606 -1.5687e+001 -1.5421e+002  8.2796e+000 26045 107476,107554,107528
 3.7000e+000 107874 -4.0558e+001 -2.4862e+002  6.1396e+001 25641 107750,107802,107776
 3.7000e+000 107851 -5.2993e+001 -1.7337e+002  3.1020e+001 25641 107724,107802,107750
 3.7000e+000 107828 -5.0375e+001 -1.7564e+002  2.6871e+001 25641 107698,107802,107724
 3.7000e+000 108431 -2.3448e+001 -2.6563e+002  4.5493e+001 25023 108526,108267,108241
 3.7000e+000 108408 -3.8110e-001 -2.5314e+002  9.2255e+000 25023 108059,108267,108085
 3.7000e+000 108385 -3.9394e+001 -2.7020e+002  4.4987e+001 25023 108454,108163,108111
 3.7000e+000 108362 -1.2033e+002 -2.7296e+002  7.5324e+001 25023 108454,108111,108085
 3.7000e+000 108339 -9.6526e+001 -3.5222e+002  7.9490e+001 25023 108111,108163,108137
 3.7000e+000 108316 -6.6555e+001 -1.9800e+002 -1.2482e+001 25023 108163,108241,108215
 3.7000e+000 108293  2.5325e+001 -1.5715e+002 -3.0350e+000 25023 108163,108215,108189
 3.7000e+000 108480 -1.2299e+001 -2.4266e+002  3.2742e+000 25023 108241,108163,108454
 3.7000e+000 108503 -4.1519e+001 -2.5761e+002  4.3548e+001 25023 108526,108241,108454
 3.7000e+000 108552 -4.4558e+001 -2.6923e+002  3.5599e+001 25023 108085,108267,108526
 3.7000e+000 108575 -6.3754e+001 -2.6251e+002  3.3181e+001 25023 108085,108526,108454
 3.7000e+000 108823 -1.6623e+001 -1.9704e+002  2.8455e+001 24461 108624,108728,108650
 3.7000e+000 108800 -3.8960e+001 -4.0069e+002 -2.4665e+001 24461 108598,108728,108624
 3.7000e+000 108777 -3.9520e+000 -2.6215e+002  2.5550e+001 24461 108650,108728,108676
 3.7000e+000 108754 -1.1989e+002 -7.2864e+002  6.3339e+001 24461 108676,108728,108702
 3.7000e+000 109022 -7.1301e+001 -2.0303e+002  2.3229e+001 24121 108872,108924,108898
 3.7000e+000 108999 -5.3832e+001 -1.9863e+002  2.6752e+001 24121 108846,108924,108872
 3.7000e+000 108976 -7.9746e+001 -2.1116e+002  3.1320e+001 24121 108846,108950,108924
 3.7000e+000 109483 -8.3468e+001 -2.7526e+002 -2.6793e+001 23717 109209,109339,109235
 3.7000e+000 109460 -3.3517e+001 -3.1176e+002 -6.2744e+001 23717 109209,109365,109339
 3.7000e+000 109437 -7.9323e+000 -3.4573e+002 -1.8873e+001 23717 109287,109339,109313
 3.7000e+000 109414 -1.5962e+002 -3.4877e+002  1.8471e+001 23717 109235,109339,109287
 3.7000e+000 109391 -1.2496e+001 -4.0061e+002  1.3501e+002 23717 109235,109287,109261
 3.7000e+000 109910 -1.0815e+002 -3.1797e+002 -3.2939e+001 23305 109613,109743,109717
 3.7000e+000 109887 -1.0995e+002 -3.2123e+002 -1.8647e+001 23305 109613,109769,109743
 3.7000e+000 109864 -1.3144e+002 -3.1331e+002 -2.7131e+001 23305 109613,109717,109639
 3.7000e+000 109841 -8.5767e+001 -2.9714e+002 -6.7760e+000 23305 109587,109769,109613
 3.7000e+000 109818  2.3371e+001 -2.4692e+002  3.8007e+001 23305 109639,109717,109691
 3.7000e+000 109795 -3.1584e+001 -1.9880e+002 -4.1381e+001 23305 109639,109691,109665
 3.7000e+000 110180 -7.9577e+000 -9.3924e+001 -2.0189e+001 22851 110007,110059,110033
 3.7000e+000 110157 -6.4875e+001 -2.4881e+002  1.0542e+001 22851 109981,110059,110007
 3.7000e+000 110134 -9.0138e+001 -2.6832e+002  1.1941e+000 22851 109955,110059,109981
 3.7000e+000 110111 -3.6733e+001 -2.9450e+002 -2.2973e+001 22851 109955,110085,110059
 3.7000e+000 110737 -6.0805e+001 -2.9135e+002 -6.8463e+001 22333 110760,110469,110391
 3.7000e+000 110714 -2.4600e+001 -3.2227e+002 -5.6163e+001 22333 110760,110391,110365
 3.7000e+000 110691 -3.2831e+001 -2.8128e+002 -5.9384e+001 22333 110832,110521,110469
 3.7000e+000 110668 -9.4068e+000 -4.7815e+002  6.8715e+000 22333 110417,110469,110443
 3.7000e+000 110645 -1.4173e+002 -4.3739e+002 -6.5349e-001 22333 110391,110469,110417
 3.7000e+000 110622 -4.1486e+000 -2.7829e+002 -3.3910e+001 22333 110469,110521,110495
 3.7000e+000 110599 -3.1563e+001 -1.8957e+002  1.9210e+001 22333 110365,110573,110547
 3.7000e+000 110786 -3.5524e+001 -2.8221e+002 -5.9499e+001 22333 110832,110469,110760
 3.7000e+000 110809  3.0613e+000 -2.9176e+002 -4.1796e+001 22333 110547,110760,110365
 3.7000e+000 110858 -2.0389e+001 -2.8500e+002 -6.2756e+001 22333 110547,110521,110832
 3.7000e+000 110881 -3.1410e+001 -2.9108e+002 -6.5176e+001 22333 110547,110832,110760
 3.7000e+000 111308 -1.5366e+002 -3.5097e+002  1.6653e+001 21829 111331,111063,111011
 3.7000e+000 111285 -1.4010e+002 -3.2892e+002 -6.5748e+000 21829 111331,111011,111167
 3.7000e+000 111262 -1.5700e+002 -3.4799e+002  1.7557e+001 21829 111403,111089,111063
 3.7000e+000 111239 -1.9433e+002 -3.7441e+002  4.7126e+001 21829 111011,111063,111037
 3.7000e+000 111216 -9.4234e+001 -2.4421e+002  1.2348e+001 21829 110985,111167,111011
 3.7000e+000 111193 -1.7098e+002 -5.4464e+002  1.1453e+002 21829 111089,111141,111115
 3.7000e+000 111357 -1.5291e+002 -3.5130e+002  1.7535e+001 21829 111403,111063,111331
 3.7000e+000 111380 -1.5694e+002 -3.6574e+002 -2.5226e+000 21829 111141,111331,111167
 3.7000e+000 111429 -1.6075e+002 -3.5266e+002  2.1942e+001 21829 111141,111089,111403
 3.7000e+000 111452 -1.5649e+002 -3.5886e+002  1.9947e+001 21829 111141,111403,111331
 3.7000e+000 112056  8.4615e+001 -2.6717e+002  4.2568e+000 21489 111687,111765,111739
 3.7000e+000 112033  9.8637e+000 -3.0708e+002  3.0282e+001 21489 112151,112079,111687
 3.7000e+000 112010 -1.0088e+001 -4.7405e+002  3.5363e+001 21489 111791,111843,111817
 3.7000e+000 111987 -9.3477e+001 -3.7673e+002 -2.5458e+001 21489 112079,111843,111791
 3.7000e+000 111964  5.3757e+001 -2.8682e+002  5.6358e+001 21489 112151,111687,111661
 3.7000e+000 111941 -3.6297e+001 -2.1153e+002  5.0174e+001 21489 111661,111869,111843
 3.7000e+000 111918  8.8422e+001 -2.8843e+002  3.9803e+001 21489 111687,111739,111713
 3.7000e+000 111895  6.3104e+000 -1.1255e+002  2.0759e+001 21489 111635,111869,111661
 3.7000e+000 112105 -5.8755e+001 -3.3151e+002  1.7702e+001 21489 111765,111687,112079
 3.7000e+000 112128 -5.7432e+001 -3.1684e+002  1.8766e+001 21489 111765,112079,111791
 3.7000e+000 112177 -6.4960e+001 -3.0342e+002 -6.1578e+000 21489 111843,112079,112151
 3.7000e+000 112200 -2.4473e+001 -2.9573e+002  1.5081e+001 21489 111843,112151,111661
 3.7000e+000 112578 -7.7602e+001 -3.8263e+002  1.6623e+001 21177 112382,112434,112408
 3.7000e+000 112555 -9.3512e+001 -3.7979e+002  1.4631e+000 21177 112330,112434,112382
 3.7000e+000 112532 -7.6757e+001 -3.2920e+002  5.4507e+001 21177 112304,112434,112330
 3.7000e+000 112509 -9.1325e+001 -3.6447e+002  0.0000e+000 21177 112330,112382,112356
 3.7000e+000 112486 -2.3940e+001 -2.2311e+002  1.3109e+001 21177 112304,112460,112434
 3.7000e+000 112679 -7.4974e+000 -2.6941e+002 -4.3411e+001 20666 112601,112653,112627
 3.7000e+000 112927 -1.0929e+002 -3.6738e+002  1.1836e+001 19762 112702,112754,112728
 3.7000e+000 112904 -4.2512e+001 -3.4824e+002 -4.7578e+000 19762 112702,112832,112754
 3.7000e+000 112881 -9.3289e+001 -3.7196e+002  5.9426e+001 19762 112754,112832,112806
 3.7000e+000 112858 -1.2902e+002 -4.5836e+002  5.5647e+001 19762 112754,112806,112780
 3.7000e+000 113297 -1.0110e+002 -4.2979e+002  2.6743e+001 19308 112974,113052,113026
 3.7000e+000 113274 -6.8638e+001 -3.6290e+002  8.6864e+000 19308 112974,113156,113052
 3.7000e+000 113251 -3.7266e+001 -4.7664e+002 -5.6673e+001 19308 113052,113130,113104
 3.7000e+000 113228 -7.2889e+001 -3.5993e+002  2.3113e-001 19308 113052,113156,113130
 3.7000e+000 113205 -6.9932e+001 -4.1637e+002  0.0000e+000 19308 113052,113104,113078
 3.7000e+000 113182 -1.3911e+002 -4.4376e+002 -6.7412e-001 19308 112974,113026,113000
 3.7000e+000 113547 -2.2592e+001 -3.9698e+002 -2.4786e+001 18711 113570,113374,113348
 3.7000e+000 113524 -3.7720e+001 -3.6309e+002 -1.3761e+001 18711 113570,113348,113452
 3.7000e+000 113501 -2.9940e+001 -2.7952e+002 -7.8340e+001 18711 113322,113452,113348
 3.7000e+000 113478 -4.7338e+001 -3.5134e+002 -1.2399e+002 18711 113374,113426,113400
 3.7000e+000 113596 -1.6375e+001 -3.6017e+002 -3.3957e+001 18711 113426,113374,113570
 3.7000e+000 113619 -3.5831e+001 -3.3297e+002 -1.6048e+001 18711 113426,113570,113452
 3.7000e+000 113771 -1.9623e+002 -4.8992e+002 -2.6299e+001 18307 113670,113722,113696
 3.7000e+000 113748 -1.5492e+002 -4.5906e+002 -1.2168e+001 18307 113644,113722,113670
 3.7000e+000 113972 -8.1921e+001 -4.0319e+002  5.6402e+000 17945 113822,113874,113848
 3.7000e+000 113949 -8.4320e+001 -3.9847e+002  9.1734e+000 17945 113822,113900,113874
 3.7000e+000 113926 -1.2026e+002 -3.0515e+002  1.8924e+002 17945 113796,113900,113822
 3.7000e+000 114075 -6.0045e+001 -6.0265e+002  6.4477e+001 17482 113997,114049,114023
 3.7000e+000 114479 -2.7272e+001 -3.3297e+002 -5.0710e+001 17042 114257,114361,114335
 3.7000e+000 114456 -8.0724e+001 -3.2226e+002 -9.6723e+000 17042 114205,114361,114257
 3.7000e+000 114433 -9.9410e+001 -3.7180e+002  1.2303e+001 17042 114205,114257,114231
 3.7000e+000 114410  7.3163e+001 -4.8869e+002 -3.2683e+001 17042 114283,114335,114309
 3.7000e+000 114387 -8.7907e+000 -4.2685e+002 -2.1559e+001 17042 114257,114335,114283
 3.7000e+000 114879 -1.7539e+002 -3.6788e+002 -6.4558e+000 16638 114631,114683,114657
 3.7000e+000 114856 -8.3009e+000 -2.9677e+002 -6.3171e+000 16638 114605,114683,114631
 3.7000e+000 114833  3.5349e+001 -1.8976e+002 -1.3862e+001 16638 114605,114761,114683
 3.7000e+000 114810 -2.9368e+001 -3.8160e+002 -2.0846e+001 16638 114683,114735,114709
 3.7000e+000 114787 -6.0663e+001 -4.0971e+002 -3.5116e+001 16638 114683,114761,114735
 3.7000e+000 115078 -1.6058e+002 -3.7082e+002  6.6098e+000 16232 114954,115006,114980
 3.7000e+000 115055 -1.7027e+002 -4.1465e+002  1.7970e+001 16232 114928,115006,114954
 3.7000e+000 115032 -8.1312e+001 -5.2032e+002  3.5006e+001 16232 114902,115006,114928
 3.7000e+000 115228 -1.2260e+002 -3.8642e+002  9.9040e+000 15482 115101,115153,115127
 3.7000e+000 115205 -9.3683e+001 -3.6305e+002 -3.5608e+000 15482 115101,115179,115153
 3.7000e+000 115331 -9.4539e+001 -3.6542e+002 -4.2660e+001 15163 115253,115305,115279
 3.7000e+000 115434 -1.1363e+002 -3.8397e+002  4.9282e+001 421 115356,115408,115382
 3.8000e+000 68213 -3.5354e+001 -2.3414e+002 -2.0492e+001 67888 68112,68164,68138
 3.8000e+000 68190 -2.5814e+002 -3.0210e+002 -3.2060e+001 67888 68086,68164,68112
 3.8000e+000 68314 -2.5349e+001 -3.0646e+002  3.0097e+001 67576 68236,68288,68262
 3.8000e+000 68584 -8.3305e+001 -5.3400e+002  2.4784e+001 67378 68385,68489,68463
 3.8000e+000 68561 -5.4525e+001 -5.1471e+002  7.9370e+000 67378 68359,68489,68385
 3.8000e+000 68538 -5.5767e+001 -4.6462e+002  3.6548e+001 67378 68385,68463,68411
 3.8000e+000 68515 -2.6447e+001 -2.8206e+002  2.8060e+001 67378 68411,68463,68437
 3.8000e+000 68964 -1.0557e+002 -4.4784e+002  6.6936e+001 67130 68690,68820,68716
 3.8000e+000 68941  9.5115e+001 -4.6039e+002  1.2576e+002 67130 68690,68846,68820
 3.8000e+000 68918 -9.4657e+001 -2.9945e+002  6.8020e+000 67130 68742,68820,68794
 3.8000e+000 68895 -1.6525e+001 -2.9835e+002  2.6922e+001 67130 68716,68820,68742
 3.8000e+000 68872 -6.1920e+001 -2.5453e+002 -3.0528e+001 67130 68742,68794,68768
 3.8000e+000 69065 -6.8766e+001 -2.9930e+002  8.6313e-001 66926 68987,69039,69013
 3.8000e+000 69445 -2.9820e+001 -2.7144e+002 -1.8427e+001 66614 69223,69301,69275
 3.8000e+000 69422 -5.6727e+001 -2.9067e+002 -4.8190e+000 66614 69171,69301,69223
 3.8000e+000 69399 -7.0281e+001 -3.0072e+002  1.4518e+000 66614 69171,69327,69301
 3.8000e+000 69376  7.8290e+000 -1.0192e+002  6.0181e+000 66614 69223,69275,69249
 3.8000e+000 69353 -5.4636e+001 -3.1602e+002 -8.1603e+000 66614 69171,69223,69197
 3.8000e+000 69546 -6.9979e+001 -4.0984e+002  2.1071e+001 66416 69468,69520,69494
 3.8000e+000 69997 -5.8063e+001 -4.1437e+002 -3.6557e+001 66104 69700,69830,69726
 3.8000e+000 69974 -8.9605e+001 -5.2588e+002 -7.8237e+001 66104 69700,69856,69830
 3.8000e+000 69951 -6.4213e+001 -3.2043e+002 -2.3808e+001 66104 69726,69804,69778
 3.8000e+000 69928 -5.0910e+001 -3.8977e+002 -3.4012e+001 66104 69726,69830,69804
 3.8000e+000 69905 -6.9984e+001 -3.0622e+002 -1.2276e+001 66104 69726,69778,69752
 3.8000e+000 69882 -2.8452e+001 -7.3797e+002 -1.3223e+002 66104 69674,69856,69700
 3.8000e+000 70326 -6.4159e+001 -1.8186e+002  1.1873e+001 65814 70349,70153,70127
 3.8000e+000 70303 -4.1338e+001 -1.7523e+002  1.2131e+001 65814 70349,70127,70101
 3.8000e+000 70280 -3.4525e+001 -1.6869e+002  6.1667e+001 65814 70101,70231,70205
 3.8000e+000 70257  2.5786e+001 -2.0632e+002  2.8977e+001 65814 70153,70205,70179
 3.8000e+000 70375 -5.4321e+001 -1.9623e+002  3.1955e+001 65814 70205,70153,70349
 3.8000e+000 70398 -1.7416e+001 -1.8239e+002  2.9115e+001 65814 70205,70349,70101
 3.8000e+000 70904 -2.8012e+001 -1.0330e+002 -3.2125e+001 65502 70607,70737,70685
 3.8000e+000 70881 -3.8317e+001 -8.2533e+001 -4.2641e+001 65502 70581,70737,70607
 3.8000e+000 70858 -3.7694e+001 -2.2197e+001 -8.7182e+000 65502 70581,70763,70737
 3.8000e+000 70835 -4.8868e+001 -1.1611e+002 -4.6952e+001 65502 70685,70737,70711
 3.8000e+000 70812 -1.5056e+002 -1.3245e+002 -4.9041e+000 65502 70607,70659,70633
 3.8000e+000 70789 -4.7672e+001 -1.3924e+002 -1.7221e+000 65502 70607,70685,70659
 3.8000e+000 71103 -4.4842e+001 -3.7833e+002 -1.0274e+001 65304 71126,70979,70953
 3.8000e+000 71080 -8.3047e+001 -3.7965e+002 -3.7158e+000 65304 71126,70953,70927
 3.8000e+000 71057 -1.1206e+002 -3.8022e+002  3.3145e+001 65304 70927,71031,71005
 3.8000e+000 71152 -8.3472e+001 -3.5516e+002 -2.1176e+001 65304 71005,70979,71126
 3.8000e+000 71175 -1.2831e+002 -3.6444e+002 -5.7177e+000 65304 71005,71126,70927
 3.8000e+000 71374 -2.1078e+001 -3.6662e+002  1.9623e+001 65106 71198,71276,71224
 3.8000e+000 71351 -1.0806e+002 -3.9994e+002  6.8676e+000 65106 71198,71302,71276
 3.8000e+000 71328  4.7370e+000 -3.0006e+002  4.6838e+001 65106 71224,71276,71250
 3.8000e+000 71756 -3.5587e+001 -2.4070e+002 -1.8044e+001 64652 71508,71638,71534
 3.8000e+000 71733 -1.8833e-001 -2.2525e+002  2.5281e+000 64652 71482,71638,71508
 3.8000e+000 71710 -7.2155e+001 -2.3149e+002 -1.6555e+001 64652 71534,71586,71560
 3.8000e+000 71687 -6.0434e+001 -2.6490e+002 -4.0437e+001 64652 71534,71612,71586
 3.8000e+000 71664 -1.0912e+002 -2.7689e+002 -4.5473e+001 64652 71534,71638,71612
 3.8000e+000 72085 -1.0401e+002 -2.7415e+002 -3.3665e+001 64248 71886,71964,71912
 3.8000e+000 72062 -8.7161e+001 -2.6621e+002 -3.6035e+001 64248 71860,71964,71886
 3.8000e+000 72039 -4.0044e+001 -2.9396e+002 -2.2650e+001 64248 71912,71964,71938
 3.8000e+000 72016 -6.9304e+001 -2.4553e+002 -4.3621e+001 64248 71860,71990,71964
 3.8000e+000 72235 -2.5282e+000 -1.6836e+002 -2.2371e+001 63858 72588,72258,72134
 3.8000e+000 72212 -2.3689e+001 -1.4791e+002  4.4517e+000 63858 72330,72258,72108
 3.8000e+000 72284 -1.2542e+001 -1.1600e+002 -1.2878e+001 63858 72160,72134,72258
 3.8000e+000 72307 -7.7887e+001 -1.6398e+002 -2.5438e+001 63858 72460,72258,72186
 3.8000e+000 72356 -6.1257e+001 -1.5933e+002 -2.6607e+001 63858 72186,72258,72330
 3.8000e+000 72486 -2.0856e+001 -1.4993e+002 -2.5955e+001 63858 72160,72258,72460
 3.8000e+000 72614 -7.0480e-002 -1.7507e+002 -1.6302e+000 63858 72108,72258,72588
 3.8000e+000 73248 -3.9275e+001 -2.3290e+002  7.2185e+001 63404 72902,72954,72928
 3.8000e+000 73225 -1.2844e+002 -2.8243e+002  3.2669e+001 63404 73271,72954,72902
 3.8000e+000 73202 -1.1425e+002 -2.3784e+002  2.8440e+001 63404 73271,72902,73032
 3.8000e+000 73179 -6.8917e+001 -2.0522e+002  1.0511e+001 63404 72902,73058,73032
 3.8000e+000 73156 -7.9741e+001 -2.4386e+002  3.1381e+001 63404 72980,73032,73006
 3.8000e+000 73133 -6.4153e+001 -2.1575e+002  6.1527e+000 63404 72876,73058,72902
 3.8000e+000 73110 -2.9479e+001 -1.0757e+002 -5.5335e+001 63404 72876,73084,73058
 3.8000e+000 73297 -1.1065e+002 -2.8812e+002  4.9056e+000 63404 72980,72954,73271
 3.8000e+000 73320 -1.0791e+002 -2.6445e+002  4.8573e+000 63404 72980,73271,73032
 3.8000e+000 73470 -1.0116e+002 -6.6904e+002  7.0468e+001 63014 73343,73395,73369
 3.8000e+000 73447 -3.1432e+002 -8.1898e+002 -1.5224e+001 63014 73343,73421,73395
 3.8000e+000 73929  3.3275e+001 -3.1456e+002  3.4064e+001 62702 73759,73811,73785
 3.8000e+000 73906  5.3954e+001 -3.0978e+002  2.3885e+001 62702 73655,73811,73759
 3.8000e+000 73883 -3.4227e+000 -3.6533e+002 -2.1289e+000 62702 73655,73759,73681
 3.8000e+000 73860  4.7839e+001 -2.6272e+002 -6.6275e+001 62702 73681,73759,73707
 3.8000e+000 73837 -1.2452e+002 -3.1261e+002  2.9160e+000 62702 73707,73759,73733
 3.8000e+000 74209 -1.8115e+002 -3.2027e+002  3.1867e+000 62404 74059,74137,74085
 3.8000e+000 74186 -2.2247e+002 -4.2105e+002  5.1208e+001 62404 74033,74137,74059
 3.8000e+000 74163 -2.0037e+002 -3.0334e+002 -1.4380e+000 62404 74085,74137,74111
 3.8000e+000 74408  3.4862e+000 -2.6291e+002  1.7582e+001 62000 74258,74336,74284
 3.8000e+000 74385 -8.3750e+000 -2.6203e+002  3.3412e+001 62000 74232,74336,74258
 3.8000e+000 74362 -5.9488e+001 -2.6114e+002 -4.0033e+000 62000 74284,74336,74310
 3.8000e+000 74509 -1.9798e+001 -3.4303e+002  1.2314e+001 61802 74431,74483,74457
 3.8000e+000 74759 -9.2289e+001 -2.9347e+002  1.3050e+000 61554 74782,74586,74560
 3.8000e+000 74736 -4.9942e+001 -2.7081e+002  9.8292e+000 61554 74782,74560,74664
 3.8000e+000 74713 -7.8496e+001 -2.1327e+002  7.1118e+001 61554 74854,74612,74586
 3.8000e+000 74690 -6.7966e+001 -3.0143e+002  1.9645e+000 61554 74534,74664,74560
 3.8000e+000 74808 -1.1335e+002 -2.6643e+002  1.9772e+001 61554 74854,74586,74782
 3.8000e+000 74831 -6.5463e+001 -3.3678e+002  1.8773e+001 61554 74638,74782,74664
 3.8000e+000 74880 -1.1440e+001 -2.6918e+002  7.8885e+001 61554 74638,74612,74854
 3.8000e+000 74903 -1.3529e+001 -2.6696e+002  4.1421e+001 61554 74638,74854,74782
 3.8000e+000 75285 -3.3142e+001 -3.1076e+002  6.3941e+000 61356 75063,75167,75115
 3.8000e+000 75262 -5.4478e+001 -3.3605e+002 -2.3121e+001 61356 75037,75167,75063
 3.8000e+000 75239  7.2663e+001 -3.2640e+002 -2.7082e+000 61356 75115,75167,75141
 3.8000e+000 75216  3.4375e+001 -2.7316e+002  2.1235e+001 61356 75063,75115,75089
 3.8000e+000 75193 -1.4099e+002 -2.5626e+002  2.1486e+001 61356 75011,75167,75037
 3.8000e+000 75631 -4.9391e+000 -2.3981e+002  3.2657e+000 60952 75654,75412,75360
 3.8000e+000 75608 -4.2516e+001 -2.8202e+002 -1.4075e+001 60952 75654,75360,75334
 3.8000e+000 75585 -2.2995e+001 -3.6066e+002  1.4889e+001 60952 75726,75438,75412
 3.8000e+000 75562 -4.7961e+001 -3.0726e+002 -5.1501e+001 60952 75308,75490,75334
 3.8000e+000 75539 -8.9779e+000 -2.3908e+002 -2.7721e+000 60952 75360,75412,75386
 3.8000e+000 75516 -5.2143e+001 -4.5475e+002 -9.9018e+000 60952 75438,75490,75464
 3.8000e+000 75680  3.3032e+000 -3.0428e+002  7.6798e-001 60952 75726,75412,75654
 3.8000e+000 75703 -1.9339e+000 -2.9236e+002 -1.9682e+001 60952 75490,75654,75334
 3.8000e+000 75752  6.4621e+000 -2.9479e+002 -5.1099e+000 60952 75490,75438,75726
 3.8000e+000 75775  4.9635e+000 -2.8919e+002 -1.7244e+001 60952 75490,75726,75654
 3.8000e+000 76155 -3.4289e+001 -2.7079e+002 -1.2555e+000 60754 75933,75985,75959
 3.8000e+000 76132 -5.9574e+001 -2.8746e+002  3.0148e+001 60754 75933,76037,75985
 3.8000e+000 76109  1.4494e+001 -2.8319e+002  1.1557e+001 60754 75985,76037,76011
 3.8000e+000 76086 -9.5967e+001 -2.3677e+002  9.4667e+000 60754 75881,76037,75933
 3.8000e+000 76063 -1.4285e+002 -2.0189e+002  6.9849e+001 60754 75881,75933,75907
 3.8000e+000 76612 -4.5191e+001 -2.4081e+002  4.8664e+000 60350 76635,76442,76390
 3.8000e+000 76589  2.8408e+000 -2.6467e+002  1.6582e+001 60350 76635,76390,76364
 3.8000e+000 76566 -1.4579e+001 -3.3078e+002 -2.5436e+001 60350 76364,76494,76468
 3.8000e+000 76543 -3.8285e+000 -2.1850e+002  2.1444e+001 60350 76390,76442,76416
 3.8000e+000 76520 -1.1420e+002 -2.1788e+002 -5.3837e+001 60350 76338,76494,76364
 3.8000e+000 76661 -7.3332e+001 -2.5595e+002  1.1349e+001 60350 76468,76442,76635
 3.8000e+000 76684 -3.9133e+001 -2.8708e+002  2.5005e+001 60350 76468,76635,76364
 3.8000e+000 76932 -9.3234e+001 -3.1505e+002  8.8618e+000 59946 76955,76733,76707
 3.8000e+000 76909 -9.0990e+001 -3.0870e+002  1.3442e+001 59946 77027,76955,76707
 3.8000e+000 76886 -8.2206e+001 -3.0774e+002  1.0277e+001 59946 77027,76707,76837
 3.8000e+000 76863 -3.4464e+001 -3.5309e+002 -2.4970e+001 59946 76733,76785,76759
 3.8000e+000 76981 -1.0138e+002 -3.1335e+002  1.4872e+000 59946 76785,76733,76955
 3.8000e+000 77004 -9.3871e+001 -3.1260e+002  1.0111e+001 59946 76785,76955,76811
 3.8000e+000 77053 -7.8260e+001 -3.1019e+002  9.8553e+000 59946 76811,76955,77027
 3.8000e+000 77076 -7.0512e+001 -3.0756e+002  5.1501e+000 59946 76811,77027,76837
 3.8000e+000 77226 -1.2230e+002 -2.9202e+002  6.7820e+000 59542 77099,77151,77125
 3.8000e+000 77203 -1.4204e+002 -3.3459e+002  1.1827e+001 59542 77099,77177,77151
 3.8000e+000 77427 -1.5308e+002 -3.1186e+002 -2.0399e+001 59030 77450,77277,77251
 3.8000e+000 77404 -8.8726e+001 -2.3899e+002 -8.6569e+001 59030 77450,77251,77355
 3.8000e+000 77381 -6.6159e-001 -3.6948e+002 -6.0538e+000 59030 77277,77329,77303
 3.8000e+000 77476 -7.7024e+001 -3.2726e+002 -6.2773e+001 59030 77329,77277,77450
 3.8000e+000 77499 -1.1163e+001 -2.9198e+002 -1.1450e+002 59030 77329,77450,77355
 3.8000e+000 77749 -1.2232e+002 -3.9066e+002  3.1319e+001 58426 77772,77628,77602
 3.8000e+000 77726 -9.2472e+001 -4.9175e+002  1.3170e+002 58426 77524,77654,77628
 3.8000e+000 77703 -1.0145e+002 -3.8889e+002  2.3579e+001 58426 77772,77602,77550
 3.8000e+000 77680 -5.2663e+001 -3.6188e+002 -1.6020e+001 58426 77550,77602,77576
 3.8000e+000 77798 -9.8221e+001 -3.9016e+002  3.1857e+001 58426 77524,77628,77772
 3.8000e+000 77821 -8.8024e+001 -3.9437e+002  2.1455e+001 58426 77524,77772,77550
 3.8000e+000 78071 -1.7418e+002 -3.7510e+002  3.9567e+001 57922 78094,77924,77898
 3.8000e+000 78048 -2.0447e+002 -3.8821e+002  5.7203e+000 57922 78094,77898,77872
 3.8000e+000 78025 -1.6613e+002 -3.5703e+002  3.7720e+001 57922 78166,77846,77950
 3.8000e+000 78002 -8.6267e+001 -3.5085e+002  4.4972e+001 57922 77846,77976,77950
 3.8000e+000 78120 -1.4813e+002 -3.8313e+002  2.8539e+001 57922 77950,77924,78094
 3.8000e+000 78143 -1.6828e+002 -3.6232e+002  2.8956e+001 57922 78166,77950,78094
 3.8000e+000 78192 -1.5945e+002 -3.7146e+002  2.9211e+001 57922 77872,77846,78166
 3.8000e+000 78215 -1.6934e+002 -3.8648e+002  1.9788e+001 57922 77872,78166,78094
 3.8000e+000 78416  4.4483e+001 -3.0883e+002 -1.9418e+001 57468 78439,78292,78240
 3.8000e+000 78393 -1.3124e+001 -2.8980e+002 -6.9756e-001 57468 78439,78240,78344
 3.8000e+000 78370  2.1137e+001 -4.2336e+002 -1.5505e+001 57468 78240,78292,78266
 3.8000e+000 78465 -1.1664e+001 -3.3702e+002 -3.0860e+001 57468 78318,78292,78439
 3.8000e+000 78488 -3.5330e+001 -3.0382e+002 -6.8756e+000 57468 78318,78439,78344
 3.8000e+000 78689  5.9899e+001 -3.8430e+002 -5.1497e+001 57014 78712,78539,78513
 3.8000e+000 78666 -5.3466e+000 -3.7885e+002 -8.8508e+000 57014 78712,78513,78617
 3.8000e+000 78643 -8.4056e+001 -3.9885e+002  3.9330e+001 57014 78565,78617,78591
 3.8000e+000 78738 -2.4538e+001 -3.1736e+002 -5.3019e+001 57014 78565,78539,78712
 3.8000e+000 78761 -1.2080e+002 -3.6893e+002  1.6122e+001 57014 78565,78712,78617
 3.8000e+000 79241 -1.1690e+002 -3.2999e+002  2.5674e+001 56652 79264,78895,78869
 3.8000e+000 79218 -5.2178e+001 -4.3304e+002 -2.6362e+001 56652 79264,78869,79051
 3.8000e+000 79195 -7.9290e+001 -3.7588e+002 -9.1182e+001 56652 78869,79077,79051
 3.8000e+000 79172 -8.8714e+001 -2.1310e+002 -5.2755e+001 56652 78895,78973,78947
 3.8000e+000 79149 -1.5305e+002 -6.2621e+002 -5.2584e+001 56652 78973,79051,78999
 3.8000e+000 79126 -8.1749e+001 -1.9923e+002 -5.6304e+001 56652 78895,78947,78921
 3.8000e+000 79103 -1.3416e+002 -4.3977e+002  1.0562e+002 56652 78999,79051,79025
 3.8000e+000 79290 -6.8255e+001 -2.6475e+002  6.1834e+001 56652 78973,78895,79264
 3.8000e+000 79313  1.0470e+000 -3.7489e+002  1.3476e+001 56652 78973,79264,79051
 3.8000e+000 79512 -4.3155e+001 -4.5883e+002  4.4108e+001 56062 79388,79440,79414
 3.8000e+000 79489 -1.9584e+002 -2.4503e+002  6.3417e+001 56062 79336,79440,79388
 3.8000e+000 79466 -9.1147e+001 -2.1152e+002  9.4152e+001 56062 79336,79388,79362
 3.8000e+000 79941 -5.5406e+001 -2.8423e+002  4.2321e+001 55658 79964,79670,79644
 3.8000e+000 79918 -8.5971e+001 -2.9215e+002  4.9016e+001 55658 79964,79644,79800
 3.8000e+000 79895 -7.8507e+001 -3.0653e+002  2.0384e+001 55658 80036,79696,79670
 3.8000e+000 79872 -9.1932e+001 -2.6134e+002 -8.5738e+000 55658 80108,79722,79696
 3.8000e+000 79849 -1.3719e+002 -2.6484e+002  5.7567e+000 55658 79722,79774,79748
 3.8000e+000 79826 -1.4255e+000 -2.6160e+002  1.5639e+001 55658 79618,79800,79644
 3.8000e+000 79990 -8.9803e+001 -3.0945e+002  3.0468e+001 55658 80036,79670,79964
 3.8000e+000 80013 -7.7202e+001 -2.6652e+002  5.1994e+001 55658 79774,79964,79800
 3.8000e+000 80062 -6.6127e+001 -2.7967e+002  1.5817e+001 55658 80108,79696,80036
 3.8000e+000 80085 -8.5393e+001 -2.6850e+002  4.2045e+001 55658 79774,80036,79964
 3.8000e+000 80134 -1.4228e+002 -2.8043e+002  2.1523e+000 55658 79774,79722,80108
 3.8000e+000 80157 -1.2766e+002 -3.0551e+002  2.6342e+001 55658 79774,80108,80036
 3.8000e+000 80307 -1.3663e+002 -2.6911e+002  3.9596e+001 55254 80402,80330,80206
 3.8000e+000 80284 -1.3152e+002 -3.6206e+002  4.3076e+001 55254 80330,80180,80258
 3.8000e+000 80356 -1.6100e+002 -3.2472e+002  7.4844e+001 55254 80232,80206,80330
 3.8000e+000 80379 -3.4803e+001 -2.6760e+002  1.0826e+002 55254 80232,80330,80258
 3.8000e+000 80428 -1.9269e+002 -3.2511e+002  1.6308e+001 55254 80180,80330,80402
 3.8000e+000 80659 -6.5566e+001 -3.5425e+002 -3.1898e+001 54850 80558,80610,80584
 3.8000e+000 80636  1.8267e+001 -3.3480e+002 -4.1279e+001 54850 80532,80610,80558
 3.8000e+000 80760 -2.3985e+001 -2.9697e+002 -2.9269e+001 54652 80682,80734,80708
 3.8000e+000 81164 -1.7063e+001 -3.1326e+002 -8.6077e+000 54248 81187,80942,80890
 3.8000e+000 81141 -2.1743e+001 -3.2179e+002 -6.4073e+000 54248 81187,80890,81046
 3.8000e+000 81118 -2.6804e+001 -3.2502e+002  6.4546e+001 54248 80942,81020,80994
 3.8000e+000 81095 -1.6801e+001 -3.2595e+002  1.1068e+000 54248 80890,80942,80916
 3.8000e+000 81072 -3.4174e+001 -1.7684e+002  5.1270e+000 54248 80942,80994,80968
 3.8000e+000 81213 -2.3770e+001 -3.0678e+002 -7.2539e+000 54248 81020,80942,81187
 3.8000e+000 81236 -2.6135e+001 -3.1233e+002 -5.8760e+000 54248 81020,81187,81046
 3.8000e+000 81663 -1.4358e+002 -2.8136e+002  2.4948e+001 53594 81340,81444,81366
 3.8000e+000 81640 -1.3237e+002 -3.9413e+002  1.0775e+001 53594 81340,81470,81444
 3.8000e+000 81617 -3.5214e+001 -3.4637e+002 -7.9645e+000 53594 81340,81522,81470
 3.8000e+000 81594 -7.3569e+001 -2.0559e+002 -2.5814e+001 53594 81392,81444,81418
 3.8000e+000 81571 -1.0431e+002 -2.4227e+002 -3.9128e+001 53594 81366,81444,81392
 3.8000e+000 81548  2.5846e+001 -5.9330e+002  1.6230e+002 53594 81470,81522,81496
 3.8000e+000 81943 -3.3430e+001 -1.9886e+002 -2.4380e+001 53104 81966,81845,81819
 3.8000e+000 81920 -5.2775e+001 -1.6371e+002 -3.0181e+001 53104 81966,81819,81767
 3.8000e+000 81897 -5.3923e+001 -1.6284e+002 -3.4768e+001 53104 81767,81819,81793
 3.8000e+000 81992 -2.0275e+001 -1.7619e+002 -2.9740e+001 53104 81871,81845,81966
 3.8000e+000 82015 -2.9920e+001 -1.2688e+002 -4.0170e+001 53104 81871,81966,81767
 3.8000e+000 82491 -2.7787e+001 -1.9579e+002 -1.3575e+001 52650 82145,82249,82171
 3.8000e+000 82468 -1.6901e+002 -2.3131e+002 -2.7293e+001 52650 82145,82301,82249
 3.8000e+000 82445 -1.7401e+002 -3.5524e+002 -6.5704e+001 52650 82249,82301,82275
 3.8000e+000 82422 -5.9859e+001 -4.4892e+002 -8.1631e+001 52650 82119,82301,82145
 3.8000e+000 82399 -4.7905e+001 -1.5869e+002  2.2862e+001 52650 82171,82249,82223
 3.8000e+000 82376  3.5963e+001 -4.1108e+002 -6.6091e+001 52650 82119,82327,82301
 3.8000e+000 82353 -1.3556e+001 -7.7073e+001 -3.2642e+001 52650 82171,82223,82197
 3.8000e+000 82739 -4.0550e+001 -1.8669e+002  7.3012e+000 52246 82762,82540,82514
 3.8000e+000 82716 -2.3383e+001 -5.9004e+001 -1.2038e+001 52246 82762,82514,82644
 3.8000e+000 82693 -8.9214e+001 -2.1774e+002  5.3490e+001 52246 82540,82618,82592
 3.8000e+000 82670 -1.1467e+002 -2.1792e+002  4.9986e+001 52246 82540,82592,82566
 3.8000e+000 82788 -2.2184e+001 -2.4558e+002  1.8243e+001 52246 82618,82540,82762
 3.8000e+000 82811 -6.0093e+001 -2.0567e+002 -1.8064e+001 52246 82618,82762,82644
 3.8000e+000 83059 -2.8023e+001 -2.7357e+002  2.5671e+001 51578 82860,82964,82938
 3.8000e+000 83036  3.5908e+000 -1.7323e+002 -6.2612e+001 51578 82834,82964,82860
 3.8000e+000 83013 -1.2563e+001 -2.0803e+002  5.8070e+001 51578 82860,82938,82886
 3.8000e+000 82990 -9.1597e+000 -1.2360e+002  8.7630e+000 51578 82886,82938,82912
 3.8000e+000 83309 -4.6804e+001 -1.5332e+002  4.4795e+001 51138 83332,83162,83136
 3.8000e+000 83286 -1.6129e+001 -2.0149e+002  1.4653e+001 51138 83332,83136,83110
 3.8000e+000 83263 -7.7040e+001 -2.0880e+002 -1.2993e+001 51138 83404,83214,83188
 3.8000e+000 83240 -1.1201e+000 -1.2830e+002  1.3060e+001 51138 83084,83214,83110
 3.8000e+000 83358 -7.7645e+001 -2.1258e+002  5.7084e+001 51138 83188,83162,83332
 3.8000e+000 83381 -5.2546e+001 -2.3191e+002  8.8238e+000 51138 83404,83188,83332
 3.8000e+000 83430 -4.7939e+001 -1.5162e+002 -3.7469e-001 51138 83110,83214,83404
 3.8000e+000 83453 -2.6815e+001 -1.8720e+002  2.0306e+001 51138 83110,83404,83332
 3.8000e+000 83835 -3.5988e+001 -2.4921e+002 -1.5340e+000 50734 83613,83717,83691
 3.8000e+000 83812 -3.8330e+001 -2.6132e+002 -6.0173e+001 50734 83561,83717,83613
 3.8000e+000 83789 -1.3114e+001 -1.2970e+002 -8.4126e+001 50734 83561,83613,83587
 3.8000e+000 83766 -9.4335e+001 -1.6213e+002 -2.3628e-001 50734 83613,83691,83639
 3.8000e+000 83743 -9.9997e+001 -1.6476e+002  3.2976e+001 50734 83639,83691,83665
 3.8000e+000 84034 -6.3610e+001 -1.6228e+002  1.0414e+001 50230 84057,83884,83858
 3.8000e+000 84011 -6.4034e+001 -1.7743e+002 -1.3455e+001 50230 84129,84057,83858
 3.8000e+000 83988 -2.1506e+001 -1.8876e+002 -2.4199e+001 50230 84129,83858,83962
 3.8000e+000 84083 -2.3949e+001 -1.4858e+002  1.7591e+001 50230 83910,83884,84057
 3.8000e+000 84106 -4.0509e+001 -1.7706e+002  9.4754e+000 50230 83910,84057,83936
 3.8000e+000 84155 -8.5238e+000 -1.5260e+002 -1.2478e+000 50230 83936,84057,84129
 3.8000e+000 84178  7.6540e+000 -1.8269e+002 -1.8032e+001 50230 83936,84129,83962
 3.8000e+000 84558 -6.4563e+001 -2.0639e+002 -3.4369e+001 49768 84581,84388,84362
 3.8000e+000 84535 -1.3767e+002 -2.0841e+002 -1.3002e+001 49768 84581,84362,84310
 3.8000e+000 84512  8.1376e+000 -2.2350e+002 -3.6220e+001 49768 84653,84440,84414
 3.8000e+000 84489 -1.0591e+002 -2.2571e+002  1.7399e+001 49768 84310,84362,84336
 3.8000e+000 84466 -1.8585e+000 -1.5944e+002  2.8512e+001 49768 84284,84440,84310
 3.8000e+000 84607 -1.2329e+001 -1.7119e+002 -5.8509e+001 49768 84414,84388,84581
 3.8000e+000 84630 -2.0981e+001 -2.1089e+002 -2.5719e+001 49768 84653,84414,84581
 3.8000e+000 84679 -3.0855e+001 -2.1019e+002 -4.9366e+001 49768 84310,84440,84653
 3.8000e+000 84702 -7.2053e+001 -2.1101e+002 -5.0000e+001 49768 84310,84653,84581
 3.8000e+000 85159 -1.1430e+002 -3.0857e+002 -8.8547e+001 49192 84885,84937,84911
 3.8000e+000 85136 -1.1840e+002 -2.6221e+002 -6.6226e+001 49192 84885,85041,84937
 3.8000e+000 85113 -8.7066e+001 -2.2219e+002 -3.0217e+001 49192 84963,85041,84989
 3.8000e+000 85090 -7.7930e+001 -2.0926e+002 -4.8240e+001 49192 84937,85041,84963
 3.8000e+000 85067 -6.9800e+001 -2.2944e+002 -1.8978e+001 49192 84989,85041,85015
 3.8000e+000 85714 -1.1756e+002 -1.9807e+002 -1.1576e+000 48638 85368,85498,85394
 3.8000e+000 85691 -1.4711e+002 -2.3000e+002  1.1868e+001 48638 85368,85524,85498
 3.8000e+000 85668 -1.3069e+002 -1.8920e+002  4.9109e+001 48638 85737,85420,85394
 3.8000e+000 85645 -1.1226e+002 -2.1699e+002  2.6405e+001 48638 85737,85394,85498
 3.8000e+000 85622 -9.0401e+001 -2.2314e+002  4.4798e+001 48638 85446,85498,85472
 3.8000e+000 85599 -3.7680e+001 -1.8818e+002  2.1129e+001 48638 85342,85524,85368
 3.8000e+000 85576 -1.4317e+002 -2.1134e+002  1.9978e+001 48638 85342,85550,85524
 3.8000e+000 85763 -9.6207e+001 -1.7009e+002  6.6573e+001 48638 85446,85420,85737
 3.8000e+000 85786 -9.7968e+001 -1.9603e+002  4.0041e+001 48638 85446,85737,85498
 3.8000e+000 86371 -9.5938e+001 -1.4618e+002 -1.0101e+001 48084 86100,86230,86178
 3.8000e+000 86348 -1.2046e+002 -1.8783e+002 -2.2549e+001 48084 86048,86230,86100
 3.8000e+000 86325 -1.0004e+002 -1.3755e+002  3.6113e+001 48084 86100,86178,86126
 3.8000e+000 86302 -5.6474e+001 -3.7014e+001 -3.9525e+001 48084 86048,86100,86074
 3.8000e+000 86279 -1.2395e+002 -2.3495e+002 -4.7104e+000 48084 86178,86230,86204
 3.8000e+000 86256 -8.9594e+001 -1.5949e+002  3.4422e+001 48084 86126,86178,86152
 3.8000e+000 86619 -8.1463e+001 -1.7829e+002  1.4056e+001 47630 86642,86446,86420
 3.8000e+000 86596 -9.7763e+001 -1.9743e+002 -2.1443e+001 47630 86642,86420,86394
 3.8000e+000 86573 -1.2055e+002 -2.3119e+002 -3.1684e+001 47630 86394,86524,86498
 3.8000e+000 86550 -4.8859e+001 -2.0400e+002  1.2499e+001 47630 86446,86498,86472
 3.8000e+000 86668 -9.9690e+001 -2.1870e+002 -4.9590e-001 47630 86498,86446,86642
 3.8000e+000 86691 -1.0861e+002 -2.2544e+002 -3.5263e+001 47630 86498,86642,86394
 3.8000e+000 87022 -5.4175e+000 -1.2074e+002 -7.1142e+001 47226 87045,86875,86849
 3.8000e+000 86999 -4.2786e-001 -1.3692e+002 -6.7305e+001 47226 87045,86849,86797
 3.8000e+000 86976  2.2596e+000 -6.2178e+001 -1.6032e+001 47226 86797,86849,86823
 3.8000e+000 86953  8.6170e+000 -8.5626e+001 -3.4834e+001 47226 86875,86927,86901
 3.8000e+000 87071 -1.4051e+001 -1.3286e+002 -6.7337e+001 47226 86927,86875,87045
 3.8000e+000 87094 -4.7499e+000 -1.4388e+002 -6.5121e+001 47226 86927,87045,86797
 3.8000e+000 87244 -1.1282e+001 -2.3031e+002  6.3125e+001 46814 87267,87169,87143
 3.8000e+000 87221 -1.0815e+002 -2.0615e+002 -1.0644e+001 46814 87267,87143,87117
 3.8000e+000 87293 -1.1893e+001 -1.7506e+002  3.8395e+001 46814 87339,87267,87195
 3.8000e+000 87316 -9.6389e+000 -1.6411e+002  5.9850e+000 46814 87469,87267,87117
 3.8000e+000 87365  1.3875e+001 -1.6183e+002  4.4725e+001 46814 87169,87267,87339
 3.8000e+000 87495 -9.6356e-001 -1.9261e+001 -1.6762e+000 46814 87195,87267,87469
 3.8000e+000 88001 -7.5630e+001 -1.8812e+002  3.8450e+001 46310 88024,87834,87808
 3.8000e+000 87978 -8.9881e+001 -1.9113e+002  2.3367e+001 46310 88024,87808,87756
 3.8000e+000 87955 -4.5652e+001 -2.4312e+002  9.0430e+000 46310 88096,87730,87860
 3.8000e+000 87932 -6.5368e+001 -2.4074e+002  2.4454e+001 46310 87756,87808,87782
 3.8000e+000 87909 -5.7250e+001 -3.0190e+002  1.1278e+001 46310 87678,87860,87730
 3.8000e+000 87886 -8.6818e+001 -4.7135e+002 -2.4581e+001 46310 87678,87730,87704
 3.8000e+000 88050 -6.3991e+001 -1.6234e+002  2.3784e+001 46310 87860,87834,88024
 3.8000e+000 88073 -4.7358e+001 -1.8002e+002  2.9681e+001 46310 88096,87860,88024
 3.8000e+000 88122 -6.1456e+001 -2.7321e+002 -1.2218e+001 46310 87756,87730,88096
 3.8000e+000 88145 -1.0239e+002 -2.4800e+002 -6.0280e-001 46310 87756,88096,88024
 3.8000e+000 88572 -4.0226e+001 -2.1725e+002  1.3016e+001 45856 88249,88405,88275
 3.8000e+000 88549 -3.1224e+001 -6.3609e+001 -4.5961e+001 45856 88249,88431,88405
 3.8000e+000 88526 -1.0528e+002 -3.0269e+002 -3.8784e+001 45856 88327,88405,88353
 3.8000e+000 88503 -4.8288e+001 -2.6312e+002 -1.7300e+001 45856 88275,88405,88327
 3.8000e+000 88480 -8.5703e+001 -2.5780e+002 -4.1384e+001 45856 88353,88405,88379
 3.8000e+000 88457 -2.0287e+002 -5.5744e+002  4.6124e+001 45856 88275,88327,88301
 3.8000e+000 88950 -4.2861e+001 -1.4157e+002 -3.2030e+000 45658 88973,88754,88728
 3.8000e+000 88927 -4.1798e+001 -1.4946e+002 -4.1949e+000 45658 88973,88728,88676
 3.8000e+000 88904 -4.0759e+001 -1.7935e+002  5.1222e+001 45658 88676,88832,88806
 3.8000e+000 88881 -6.8266e+001 -1.9990e+002  1.6118e+001 45658 88676,88728,88702
 3.8000e+000 88858 -5.1643e+001 -1.3060e+002 -2.3126e+001 45658 88754,88806,88780
 3.8000e+000 88999 -4.5016e+001 -1.4833e+002 -2.5102e+000 45658 88806,88754,88973
 3.8000e+000 89022 -4.1587e+001 -1.5293e+002 -3.8952e+000 45658 88806,88973,88676
 3.8000e+000 89351 -6.0698e+001 -2.1233e+002 -1.0963e+001 45254 89152,89230,89204
 3.8000e+000 89328 -5.4047e+001 -2.0946e+002 -1.0695e+001 45254 89152,89256,89230
 3.8000e+000 89305 -1.3790e+001 -2.2199e+002 -2.8387e+001 45254 89126,89256,89152
 3.8000e+000 89282  1.1502e+001 -2.1573e+002 -4.1661e+001 45254 89152,89204,89178
 3.8000e+000 89523 -4.0265e+001 -2.0044e+002 -1.1763e+000 45006 89422,89474,89448
 3.8000e+000 89500 -3.0264e+001 -1.9618e+002  6.8232e+000 45006 89396,89474,89422
 3.8000e+000 89673 -1.7556e+002 -3.0824e+002  2.6540e+001 44495 89572,89624,89598
 3.8000e+000 89650 -1.7906e+002 -3.0555e+002  1.6324e+001 44495 89546,89624,89572
 3.8000e+000 90104 -1.7677e+001 -2.3915e+002 -1.2484e+001 44005 90199,90127,89937
 3.8000e+000 90081 -4.7671e+001 -2.3723e+002  3.1710e+000 44005 90271,90127,89859
 3.8000e+000 90058 -2.1056e+000 -2.4769e+002 -1.3573e+001 44005 90199,89937,89885
 3.8000e+000 90035 -6.6559e+001 -2.2606e+002  1.3826e+001 44005 90271,89859,89807
 3.8000e+000 90012 -3.4028e+001 -2.7278e+002 -3.2571e+001 44005 89885,89937,89911
 3.8000e+000 89989 -2.1117e+001 -2.4306e+002  4.0995e+001 44005 89807,89859,89833
 3.8000e+000 90153 -4.8467e+001 -2.4947e+002 -5.6938e+000 44005 89963,89937,90127
 3.8000e+000 90176 -5.3093e+001 -2.6823e+002  6.1563e+000 44005 89963,90127,89781
 3.8000e+000 90225 -5.2218e+001 -2.3998e+002 -3.9094e+000 44005 89859,90127,90199
 3.8000e+000 90248 -2.1670e+001 -2.3940e+002  7.9817e-001 44005 89859,90199,89885
 3.8000e+000 90297 -7.3398e+001 -2.5134e+002 -2.2932e+000 44005 89781,90127,90271
 3.8000e+000 90320 -8.4482e+001 -2.3598e+002  9.8943e+000 44005 89781,90271,89807
 3.8000e+000 90470 -4.4535e+001 -2.7187e+002 -1.1627e+001 43601 90493,90369,90343
 3.8000e+000 90447 -7.3275e+001 -2.2221e+002  1.2724e+001 43601 90493,90343,90421
 3.8000e+000 90519 -8.8988e+001 -3.6384e+002 -4.3772e+001 43601 90395,90369,90493
 3.8000e+000 90542 -7.1515e+001 -2.5859e+002 -1.2672e+001 43601 90395,90493,90421
 3.8000e+000 90922 -9.7418e+001 -2.8712e+002  1.9913e+001 43154 90945,90700,90674
 3.8000e+000 90899 -9.0247e+001 -2.9311e+002 -2.6969e+001 43154 90945,90674,90648
 3.8000e+000 90876 -1.0470e+002 -2.3458e+002 -1.8358e+001 43154 90648,90778,90752
 3.8000e+000 90853 -5.4790e+001 -4.6433e+002  1.2630e+001 43154 90700,90752,90726
 3.8000e+000 90830 -6.3786e+001 -2.3649e+002 -4.8061e+000 43154 90648,90804,90778
 3.8000e+000 90971 -1.1126e+002 -3.2788e+002  2.6456e+001 43154 90752,90700,90945
 3.8000e+000 90994 -1.0008e+002 -3.1737e+002 -1.9144e+001 43154 90752,90945,90648
 3.8000e+000 91451 -2.3034e+001 -2.1039e+002 -3.8318e+001 42650 91203,91255,91229
 3.8000e+000 91428  2.2535e+001 -1.9039e+002 -1.8497e+001 42650 91203,91333,91255
 3.8000e+000 91405 -2.9039e-001 -3.0721e+002 -5.2305e+001 42650 91177,91333,91203
 3.8000e+000 91382 -9.3917e+001 -3.2511e+002  4.2982e+001 42650 91255,91333,91281
 3.8000e+000 91359 -2.1104e+001 -2.8062e+002  2.2979e+001 42650 91281,91333,91307
 3.8000e+000 91721 -1.3166e+002 -3.0362e+002  2.0712e+001 42288 91496,91600,91522
 3.8000e+000 91698 -6.8182e+001 -1.7247e+002 -7.2324e+000 42288 91496,91626,91600
 3.8000e+000 91675 -8.3861e+001 -2.7685e+002  2.3598e+001 42288 91522,91574,91548
 3.8000e+000 91652 -6.8421e+001 -2.7925e+002  2.1309e+001 42288 91522,91600,91574
 3.8000e+000 92199 -1.9713e+002 -3.3332e+002 -8.4652e+000 41898 92222,91983,91879
 3.8000e+000 92176 -2.0122e+002 -3.6019e+002 -1.9095e+001 41898 92294,92222,91879
 3.8000e+000 92153 -2.1106e+002 -3.5451e+002 -2.6622e+001 41898 92294,91879,91853
 3.8000e+000 92130 -1.7337e+002 -2.0932e+002  1.9773e+001 41898 91879,91957,91931
 3.8000e+000 92107 -1.7933e+002 -3.2650e+002 -1.6650e+000 41898 91879,91983,91957
 3.8000e+000 92084 -1.8029e+002 -1.8831e+002  3.2528e+001 41898 91879,91931,91905
 3.8000e+000 92061 -1.8878e+002 -3.1775e+002 -2.1609e+001 41898 91827,92035,91853
 3.8000e+000 92248 -1.9488e+002 -3.6623e+002 -1.4767e+000 41898 92009,91983,92222
 3.8000e+000 92271 -1.9115e+002 -3.7300e+002 -2.6329e+001 41898 92009,92222,92035
 3.8000e+000 92320 -1.8420e+002 -3.5186e+002 -2.1762e+001 41898 92035,92222,92294
 3.8000e+000 92343 -1.9166e+002 -3.4547e+002 -2.8970e+001 41898 92035,92294,91853
 3.8000e+000 92770 -7.0981e+001 -3.0834e+002 -2.0467e+001 41437 92865,92793,92525
 3.8000e+000 92747 -9.8480e+001 -3.6216e+002 -2.9552e+001 41437 92793,92473,92629
 3.8000e+000 92724 -3.9246e+001 -3.1302e+002 -3.7420e+001 41437 92865,92525,92499
 3.8000e+000 92701 -1.0727e+002 -2.8416e+002 -4.6031e+001 41437 92525,92603,92577
 3.8000e+000 92678 -2.6324e+000 -3.4689e+002 -2.4643e+001 41437 92447,92629,92473
 3.8000e+000 92655 -1.6683e+002 -2.5808e+002 -2.7657e+001 41437 92525,92577,92551
 3.8000e+000 92819 -8.2073e+001 -3.3367e+002 -4.6114e+001 41437 92603,92525,92793
 3.8000e+000 92842 -1.4745e+002 -3.5594e+002 -8.4208e+001 41437 92603,92793,92629
 3.8000e+000 92891 -6.1670e+000 -3.4005e+002 -2.9075e+001 41437 92473,92793,92865
 3.8000e+000 92914  4.1585e+001 -3.2231e+002 -5.4652e+001 41437 92473,92865,92499
 3.8000e+000 93243 -4.9375e+001 -4.4794e+002  1.6412e+002 41097 93044,93096,93070
 3.8000e+000 93220 -8.6642e+001 -3.9173e+002  8.7045e+001 41097 93044,93122,93096
 3.8000e+000 93197  1.7376e+001 -2.6157e+002  3.5376e+001 41097 93044,93148,93122
 3.8000e+000 93174 -7.5956e+001 -2.1148e+002  7.4619e+001 41097 93018,93148,93044
 3.8000e+000 93393 -8.6470e+000 -3.3046e+002  2.2029e+001 40643 93416,93292,93344
 3.8000e+000 93370 -1.4425e+001 -3.0843e+002  2.4695e+001 40643 93266,93344,93292
 3.8000e+000 93442 -1.4459e+001 -3.2904e+002  2.7506e+001 40643 93318,93292,93416
 3.8000e+000 93901 -1.0662e+002 -3.1467e+002 -2.0472e+001 40132 93924,93731,93705
 3.8000e+000 93878 -1.1334e+002 -3.2478e+002 -2.3542e+001 40132 93996,93924,93705
 3.8000e+000 93855 -1.3285e+002 -3.7246e+002 -9.3642e+000 40132 93996,93705,93653
 3.8000e+000 93832 -6.4919e+001 -3.6029e+002 -2.0431e+001 40132 93653,93705,93679
 3.8000e+000 93809 -1.0484e+002 -3.1336e+002  3.9672e+000 40132 93627,93783,93757
 3.8000e+000 93950 -1.0205e+002 -3.3405e+002 -2.4916e+001 40132 93757,93731,93924
 3.8000e+000 93973 -1.1525e+002 -2.9747e+002 -5.8850e+000 40132 93757,93924,93627
 3.8000e+000 94022 -1.4624e+002 -3.5398e+002  1.1101e+001 40132 93627,93924,93996
 3.8000e+000 94045 -1.3746e+002 -3.7081e+002  2.1409e+001 40132 93627,93996,93653
 3.8000e+000 94423 -1.4469e+001 -3.4183e+002 -5.0312e+001 39514 94149,94227,94175
 3.8000e+000 94400 -3.1478e+001 -3.2508e+002  3.8031e+001 39514 94149,94305,94227
 3.8000e+000 94377  1.3295e+001 -4.0788e+002 -4.7234e+001 39514 94175,94227,94201
 3.8000e+000 94354 -9.9851e+001 -3.0173e+002  1.6239e+001 39514 94227,94305,94279
 3.8000e+000 94331 -3.9723e+001 -2.7399e+002  2.8992e+001 39514 94227,94279,94253
 3.8000e+000 94573 -3.4177e+001 -2.1079e+002 -4.4276e+001 38822 94596,94498,94472
 3.8000e+000 94550  3.3008e+001 -2.3156e+002  4.5560e+001 38822 94596,94472,94446
 3.8000e+000 94622 -1.1211e+002 -2.4450e+002 -3.9203e+001 38822 94524,94498,94596
 3.8000e+000 94645 -1.0011e+002 -2.9270e+002  6.0204e+001 38822 94524,94596,94446
 3.8000e+000 95025 -2.1291e+001 -2.6996e+002 -2.0109e+001 38418 95048,94829,94777
 3.8000e+000 95002 -3.0030e+001 -2.8438e+002 -3.3492e+001 38418 95120,95048,94777
 3.8000e+000 94979 -2.3638e+001 -2.7986e+002 -3.1144e+001 38418 95120,94777,94751
 3.8000e+000 94956 -1.8426e+001 -2.5047e+002 -3.6513e+001 38418 95192,94881,94855
 3.8000e+000 94933 -8.4357e+001 -2.4318e+002 -1.2300e+001 38418 94777,94829,94803
 3.8000e+000 95074 -5.0236e+001 -3.5752e+002 -7.2987e+000 38418 94855,94829,95048
 3.8000e+000 95097 -2.5482e+001 -2.8105e+002 -4.0664e+001 38418 95192,94855,95048
 3.8000e+000 95146 -5.2699e+001 -2.6889e+002 -2.7005e+001 38418 94907,95048,95120
 3.8000e+000 95169 -3.3896e+001 -2.5386e+002 -2.0151e+001 38418 94907,95120,94751
 3.8000e+000 95218 -2.6366e+001 -1.9477e+002 -3.1960e+001 38418 94907,94881,95192
 3.8000e+000 95241 -4.3290e+001 -2.4309e+002 -2.8241e+001 38418 94907,95192,95048
 3.8000e+000 95511 -9.7566e+001 -3.0319e+002  1.1922e+001 38049 95312,95390,95364
 3.8000e+000 95488 -7.2607e+001 -2.9382e+002  1.5122e+001 38049 95312,95416,95390
 3.8000e+000 95465 -3.6010e+001 -2.9073e+002 -1.9972e+001 38049 95312,95364,95338
 3.8000e+000 95442 -2.8442e+001 -2.7871e+002  2.6999e+001 38049 95286,95416,95312
 3.8000e+000 95808 -8.6385e+001 -3.3126e+002 -6.9241e+000 37437 95831,95586,95560
 3.8000e+000 95785  3.0638e+001 -3.5131e+002 -1.5442e+001 37437 95831,95560,95534
 3.8000e+000 95762 -1.7250e+002 -3.1859e+002  7.3540e+000 37437 95586,95664,95638
 3.8000e+000 95739 -2.7988e+001 -1.6208e+002 -8.6479e+001 37437 95534,95690,95664
 3.8000e+000 95716 -1.5755e+002 -2.3122e+002  8.6201e+000 37437 95586,95638,95612
 3.8000e+000 95857 -1.6146e+002 -3.2488e+002  4.0016e+001 37437 95664,95586,95831
 3.8000e+000 95880 -3.7116e+001 -3.4134e+002  3.3030e+001 37437 95664,95831,95534
 3.8000e+000 96390 -1.1089e+002 -2.4353e+002 -1.4858e+001 36883 96413,96145,96093
 3.8000e+000 96367 -8.9619e+001 -2.3296e+002 -8.8531e+000 36883 96413,96093,96067
 3.8000e+000 96344 -6.4337e+001 -2.8246e+002  9.6351e-001 36883 96067,96249,96171
 3.8000e+000 96321 -9.6885e+001 -2.8281e+002 -5.0252e+000 36883 96093,96145,96119
 3.8000e+000 96298 -1.3678e+002 -4.6608e+002  4.4494e+001 36883 96171,96249,96197
 3.8000e+000 96275 -3.9988e+001 -3.6907e+002 -7.9449e+000 36883 96197,96249,96223
 3.8000e+000 96439 -1.0499e+002 -2.3591e+002  4.2048e+000 36883 96171,96145,96413
 3.8000e+000 96462 -8.7330e+001 -2.3134e+002  8.5003e+000 36883 96171,96413,96067
 3.8000e+000 96781 -8.9914e+001 -2.7630e+002 -3.9964e+001 36215 96559,96663,96637
 3.8000e+000 96758 -1.1131e+002 -3.0378e+002 -5.1289e+001 36215 96507,96663,96559
 3.8000e+000 96735 -1.1071e+002 -2.0840e+002  2.0779e+001 36215 96585,96637,96611
 3.8000e+000 96712 -2.3098e+002 -3.2057e+002 -3.4108e+001 36215 96559,96637,96585
 3.8000e+000 96689 -4.4978e+001 -3.6025e+002 -1.2177e+001 36215 96507,96559,96533
 3.8000e+000 97161  3.6784e+000 -1.5272e+002 -9.1434e+000 35818 97184,96965,96939
 3.8000e+000 97138 -1.6116e+001 -1.8398e+002 -1.7791e+001 35818 97184,96939,96887
 3.8000e+000 97115 -6.2243e+000 -1.9152e+002  3.5066e+001 35818 96965,97043,97017
 3.8000e+000 97092 -8.8761e+000 -1.7904e+002 -2.1821e+001 35818 96887,96939,96913
 3.8000e+000 97069 -9.9580e+001 -1.9682e+002  2.1343e+001 35818 96965,97017,96991
 3.8000e+000 97210  2.4693e+001 -1.7923e+002  7.9571e+000 35818 97043,96965,97184
 3.8000e+000 97233  9.6212e+000 -2.0172e+002  1.2765e+000 35818 97043,97184,96887
 3.8000e+000 97739 -1.0565e+002 -2.9854e+002 -6.5985e+001 35214 97416,97468,97442
 3.8000e+000 97716 -1.2138e+002 -2.1837e+002 -2.1123e+001 35214 97416,97598,97468
 3.8000e+000 97693 -1.0985e+002 -2.0891e+002 -8.0415e+000 35214 97762,97520,97468
 3.8000e+000 97670 -1.1217e+002 -2.1387e+002 -1.6740e+001 35214 97762,97468,97598
 3.8000e+000 97647 -8.5812e+001 -2.0583e+002 -2.6607e+001 35214 97546,97598,97572
 3.8000e+000 97624 -7.1825e+001 -2.1917e+002 -1.0342e+001 35214 97468,97520,97494
 3.8000e+000 97788 -1.1327e+002 -2.1865e+002 -1.1218e+001 35214 97546,97520,97762
 3.8000e+000 97811 -1.1363e+002 -2.2263e+002 -1.9371e+001 35214 97546,97762,97598
 3.8000e+000 98189 -2.3197e+001 -1.6748e+002 -1.1453e+001 34760 98356,98212,97967
 3.8000e+000 98166 -4.6591e+001 -2.0489e+002 -2.7050e+001 34760 98284,98212,97941
 3.8000e+000 98143 -8.0253e+001 -1.8670e+002 -1.2431e+001 34760 98284,97941,97915
 3.8000e+000 98120 -2.6498e+001 -2.2334e+002 -5.1315e+000 34760 98484,97993,97967
 3.8000e+000 98097 -2.5571e+001 -1.9133e+002 -4.8256e+000 34760 98556,98045,98019
 3.8000e+000 98238 -3.8286e+001 -2.1017e+002 -5.9922e+000 34760 98484,97967,98212
 3.8000e+000 98261 -9.4417e+000 -1.9836e+002 -1.3160e+001 34760 98556,98019,98212
 3.8000e+000 98310 -1.6836e+001 -1.7274e+002 -4.1353e+001 34760 98071,98212,98284
 3.8000e+000 98333 -4.0207e+001 -1.2809e+002 -3.3790e+001 34760 98071,98284,97915
 3.8000e+000 98382 -1.0660e+002 -2.2501e+002 -3.7285e+001 34760 97941,98212,98356
 3.8000e+000 98510 -6.7626e+000 -2.1305e+002 -1.1560e+001 34760 98019,97993,98484
 3.8000e+000 98533 -2.6104e+001 -2.0598e+002 -1.1250e+001 34760 98019,98484,98212
 3.8000e+000 98582 -5.0603e+000 -1.8162e+002 -9.9061e-001 34760 98071,98045,98556
 3.8000e+000 98605  1.6658e+000 -1.9444e+002 -1.1072e+001 34760 98071,98556,98212
 3.8000e+000 99032 -1.1352e+002 -2.6098e+002  3.6184e+001 34156 98735,98891,98839
 3.8000e+000 99009 -9.5340e+001 -2.6846e+002  1.6515e+001 34156 98709,98891,98735
 3.8000e+000 98986 -3.2934e+001 -2.3347e+002  3.5103e+001 34156 98735,98813,98787
 3.8000e+000 98963 -3.9181e+001 -2.5511e+002  2.8528e+001 34156 98735,98839,98813
 3.8000e+000 98940  1.3826e+001 -3.4866e+002  3.9461e+001 34156 98735,98787,98761
 3.8000e+000 98917 -9.9689e+001 -2.2565e+002  1.9521e+001 34156 98839,98891,98865
 3.8000e+000 99231 -3.5270e+001 -1.4440e+002  1.2393e+001 33766 99055,99133,99107
 3.8000e+000 99208 -6.0857e+001 -1.8697e+002  2.4713e+001 33766 99055,99159,99133
 3.8000e+000 99185 -1.9542e+001 -1.6819e+002  3.0712e+001 33766 99055,99107,99081
 3.8000e+000 99818 -7.5283e+001 -2.0631e+002  4.2783e+000 33248 99521,99651,99573
 3.8000e+000 99795 -7.5293e+001 -1.9795e+002  1.8972e+001 33248 99521,99677,99651
 3.8000e+000 99772 -1.0843e+002 -2.4685e+002 -1.2195e+001 33248 99573,99651,99599
 3.8000e+000 99749 -7.6177e+001 -2.4668e+002  2.1946e+001 33248 99495,99677,99521
 3.8000e+000 99726 -5.3704e+001 -2.0812e+002 -4.7215e+001 33248 99599,99651,99625
 3.8000e+000 99703 -9.5813e+001 -2.4575e+002  1.4808e+001 33248 99521,99573,99547
 3.8000e+000 100196 -7.6345e+001 -2.2124e+002 -4.2241e+001 32794 100219,99948,99922
 3.8000e+000 100173 -8.8499e+001 -2.4697e+002 -2.0381e+001 32794 100219,99922,100052
 3.8000e+000 100150 -1.1810e+002 -2.2650e+002  1.2668e+001 32794 99974,100052,100026
 3.8000e+000 100127 -1.0646e+002 -2.0349e+002 -3.2053e+001 32794 99922,100078,100052
 3.8000e+000 100104 -1.2541e+002 -2.7479e+002  5.0489e+001 32794 99974,100026,100000
 3.8000e+000 100245 -1.0108e+002 -2.1681e+002 -1.7096e+001 32794 99974,99948,100219
 3.8000e+000 100268 -1.0871e+002 -2.5125e+002  4.9508e+000 32794 99974,100219,100052
 3.8000e+000 100418 -1.5148e+001 -1.9814e+002 -2.1508e+001 32504 100571,100343,100317
 3.8000e+000 100395 -7.9120e+001 -2.2719e+002  1.9593e+001 32504 100571,100317,100441
 3.8000e+000 100467  5.4611e+001 -1.1039e+002 -5.8253e+001 32504 100291,100369,100441
 3.8000e+000 100597  1.3244e+001 -1.6680e+002 -7.1120e+001 32504 100369,100343,100571
 3.8000e+000 100620 -1.5360e+001 -1.5558e+002 -3.5661e+001 32504 100369,100571,100441
 3.8000e+000 101020 -3.9046e+001 -1.8808e+002  8.5092e+000 32142 100772,100902,100876
 3.8000e+000 100997 -2.5796e+001 -1.7483e+002  1.4674e+001 32142 100746,100902,100772
 3.8000e+000 100974 -1.6634e+001 -2.1142e+002  1.9730e+001 32142 101043,100824,100798
 3.8000e+000 100951 -4.0739e+001 -2.2131e+002  1.5723e+001 32142 101043,100798,100772
 3.8000e+000 100928 -1.2318e+002 -2.5540e+002 -5.8917e+001 32142 101115,100876,100850
 3.8000e+000 101069  2.0193e+001 -2.2387e+002 -2.2895e+001 32142 100850,100824,101043
 3.8000e+000 101092 -6.7979e+001 -2.6118e+002 -2.9080e+001 32142 101115,100850,101043
 3.8000e+000 101141 -5.5521e+001 -2.1950e+002 -2.1034e+001 32142 100772,100876,101115
 3.8000e+000 101164 -1.3479e+001 -2.2383e+002  1.1712e+001 32142 100772,101115,101043
 3.8000e+000 101719 -1.1382e+002 -2.6778e+002  3.4087e+001 31538 101742,101477,101399
 3.8000e+000 101696 -1.4083e+002 -3.2677e+002  5.9946e+000 31538 101814,101742,101399
 3.8000e+000 101673 -1.6268e+002 -2.8128e+002 -2.6196e+001 31538 101814,101399,101373
 3.8000e+000 101650 -1.1427e+002 -1.9502e+002  2.1517e+001 31538 101425,101477,101451
 3.8000e+000 101627 -1.0802e+002 -2.2672e+002  4.6551e+000 31538 101399,101477,101425
 3.8000e+000 101604 -7.0630e+001 -3.1120e+002  6.5320e+001 31538 101477,101529,101503
 3.8000e+000 101581 -4.3014e+001 -1.9245e+002 -2.1975e+001 31538 101347,101555,101373
 3.8000e+000 101768 -1.3137e+002 -3.2971e+002  3.4467e+001 31538 101529,101477,101742
 3.8000e+000 101791 -1.1059e+002 -3.3668e+002 -1.1832e+001 31538 101529,101742,101555
 3.8000e+000 101840 -8.6294e+001 -2.8064e+002 -1.4925e+001 31538 101555,101742,101814
 3.8000e+000 101863 -1.1743e+002 -2.4351e+002 -4.4334e+001 31538 101555,101814,101373
 3.8000e+000 102111 -1.6387e+002 -4.1983e+002  5.3444e+001 31112 101886,101990,101912
 3.8000e+000 102088 -6.1450e+001 -2.5078e+002  3.6825e+000 31112 101886,102016,101990
 3.8000e+000 102065 -7.7174e+001 -4.1039e+002  8.5882e+001 31112 101912,101990,101964
 3.8000e+000 102042 -1.2285e+002 -5.2146e+002  1.0081e+002 31112 101912,101964,101938
 3.8000e+000 102408 -4.6476e+001 -2.6297e+002  2.0284e+001 30658 102431,102186,102160
 3.8000e+000 102385 -9.0156e+001 -2.5940e+002 -2.3371e-001 30658 102431,102160,102264
 3.8000e+000 102362 -8.4791e+001 -2.8376e+002  4.2544e+000 30658 102186,102238,102212
 3.8000e+000 102339 -9.7114e+001 -2.7529e+002 -1.7225e+001 30658 102134,102264,102160
 3.8000e+000 102316 -6.6775e+001 -2.3050e+002 -7.6184e+001 30658 102134,102290,102264
 3.8000e+000 102457 -8.2503e+001 -2.7731e+002  1.0774e+001 30658 102238,102186,102431
 3.8000e+000 102480 -1.2932e+002 -2.7812e+002 -1.1570e+001 30658 102238,102431,102264
 3.8000e+000 102681 -4.0450e+001 -3.1680e+002  4.6351e+001 30004 102704,102557,102505
 3.8000e+000 102658 -4.7691e+001 -3.1886e+002  4.7240e+001 30004 102704,102505,102609
 3.8000e+000 102635 -1.9025e+000 -2.7608e+002  1.0594e+001 30004 102505,102557,102531
 3.8000e+000 102730 -4.6683e+001 -3.0883e+002  4.2022e+001 30004 102583,102557,102704
 3.8000e+000 102753 -6.2836e+001 -3.1621e+002  4.4119e+001 30004 102583,102704,102609
 3.8000e+000 103003 -3.9444e+001 -2.5511e+002 -2.0294e+001 29564 103026,102804,102778
 3.8000e+000 102980 -4.7917e+001 -3.0024e+002 -3.1441e+001 29564 103026,102778,102908
 3.8000e+000 102957 -4.6132e+001 -2.5515e+002 -4.2310e+000 29564 102856,102908,102882
 3.8000e+000 102934 -6.3060e+001 -2.3271e+002  1.3545e+001 29564 102804,102856,102830
 3.8000e+000 103052 -3.4576e+001 -2.3225e+002  1.0334e+001 29564 102856,102804,103026
 3.8000e+000 103075 -4.7279e+001 -2.6915e+002 -5.0547e+000 29564 102856,103026,102908
 3.8000e+000 103634 -1.2461e+002 -2.9365e+002 -3.3970e+001 29160 103657,103418,103392
 3.8000e+000 103611 -1.1934e+002 -2.8398e+002 -1.7030e+001 29160 103657,103392,103314
 3.8000e+000 103588 -8.7564e+001 -2.5198e+002 -2.9939e+001 29160 103314,103392,103366
 3.8000e+000 103565 -7.8899e+001 -2.6740e+002 -3.3817e+001 29160 103314,103366,103340
 3.8000e+000 103542 -1.4751e+002 -2.8123e+002 -3.1081e+001 29160 103262,103444,103314
 3.8000e+000 103519 -1.7294e+002 -3.3392e+002 -4.1311e+001 29160 103262,103314,103288
 3.8000e+000 103496 -1.1548e+002 -3.0856e+002 -1.1072e+001 29160 103262,103470,103444
 3.8000e+000 103683 -1.5045e+002 -3.1368e+002 -5.2573e+001 29160 103444,103418,103657
 3.8000e+000 103706 -1.2955e+002 -2.8272e+002 -3.3030e+001 29160 103444,103657,103314
 3.8000e+000 104035 -7.5743e+001 -2.6924e+002  2.4735e+001 28770 103836,103914,103862
 3.8000e+000 104012 -7.3464e+001 -2.5973e+002  3.1255e+001 28770 103810,103914,103836
 3.8000e+000 103989  1.9493e+001 -2.3568e+002  4.0840e+001 28770 103810,103940,103914
 3.8000e+000 103966 -1.5930e+001 -2.1790e+002  5.1557e+001 28770 103862,103914,103888
 3.8000e+000 104185 -4.0312e+001 -2.7057e+002  4.5072e+001 28366 104208,104110,104084
 3.8000e+000 104162 -2.9354e+001 -2.2922e+002  4.1864e+001 28366 104280,104208,104084
 3.8000e+000 104234  3.2087e+001 -2.6596e+002  2.7863e+001 28366 104610,104208,104136
 3.8000e+000 104257 -6.1746e+001 -2.5716e+002  2.9580e+001 28366 104538,104410,104208
 3.8000e+000 104306 -9.1463e+001 -2.6114e+002  2.9623e+001 28366 104538,104208,104280
 3.8000e+000 104436 -3.1328e+001 -2.7295e+002  3.3504e+000 28366 104136,104208,104410
 3.8000e+000 104564 -9.3019e+001 -2.5413e+002  1.3705e+001 28366 104058,104410,104538
 3.8000e+000 104587 -1.1106e+002 -2.5106e+002  1.1540e+001 28366 104058,104538,104280
 3.8000e+000 104636  1.3864e+001 -2.7186e+002  3.6605e+001 28366 104110,104208,104610
 3.8000e+000 105349 -6.3961e+001 -2.3081e+002 -2.4513e+001 27976 105516,105372,105107
 3.8000e+000 105326 -9.6939e+001 -2.2922e+002  5.5230e+000 27976 105588,105372,105055
 3.8000e+000 105303 -1.0363e+002 -2.2339e+002 -2.1791e+001 27976 105444,105159,105133
 3.8000e+000 105280 -3.6930e+001 -2.4086e+002 -1.4085e+001 27976 105516,105107,105081
 3.8000e+000 105257 -8.9704e+001 -2.5373e+002  2.1651e+001 27976 105588,105055,105029
 3.8000e+000 105234 -5.0520e+001 -1.9548e+002  1.5142e+000 27976 105003,105185,105159
 3.8000e+000 105211 -6.9058e+001 -1.5914e+002  2.6802e+001 27976 104977,105185,105003
 3.8000e+000 105398 -5.1278e+001 -2.2891e+002 -3.1150e+001 27976 105133,105107,105372
 3.8000e+000 105421 -8.4368e+001 -2.3769e+002 -1.3357e+001 27976 105444,105133,105372
 3.8000e+000 105470 -8.5429e+001 -1.9862e+002 -1.2068e+001 27976 105003,105159,105444
 3.8000e+000 105493 -7.2041e+001 -2.1549e+002 -7.8869e+000 27976 105003,105444,105372
 3.8000e+000 105542 -4.5762e+001 -2.2636e+002 -2.8397e+000 27976 105055,105372,105516
 3.8000e+000 105565 -6.1108e+000 -2.3167e+002  4.9888e+000 27976 105055,105516,105081
 3.8000e+000 105614 -1.1193e+002 -2.5340e+002  1.7248e+001 27976 105003,105372,105588
 3.8000e+000 105637 -1.0864e+002 -2.7765e+002  3.4830e+001 27976 105003,105588,105029
 3.8000e+000 106143 -1.2057e+002 -3.5569e+002  2.1393e+001 27664 106166,105846,105820
 3.8000e+000 106120 -8.8238e+001 -2.8311e+002  9.1869e+000 27664 106310,106166,105820
 3.8000e+000 106097 -4.2183e+001 -3.2344e+002 -6.1643e+001 27664 106382,106238,105950
 3.8000e+000 106074 -5.8894e+001 -2.8010e+002  1.1688e+001 27664 106310,105820,106002
 3.8000e+000 106051  2.2668e+001 -2.8643e+002 -4.5736e+001 27664 106382,105950,105924
 3.8000e+000 106028 -4.3239e+001 -4.8974e+002 -1.7183e+001 27664 105846,105898,105872
 3.8000e+000 106192 -1.1208e+002 -3.9380e+002 -4.6175e+001 27664 105898,105846,106166
 3.8000e+000 106215 -7.4868e+001 -3.3283e+002 -1.4703e+001 27664 106238,105898,106166
 3.8000e+000 106264 -1.8807e+002 -3.6176e+002 -8.2853e+001 27664 105976,105950,106238
 3.8000e+000 106287 -6.6182e+001 -3.3101e+002 -1.6174e+001 27664 105976,106238,106166
 3.8000e+000 106336 -5.9033e+001 -2.9462e+002  3.4805e+001 27664 105976,106166,106310
 3.8000e+000 106359 -2.5774e+001 -2.8965e+002  3.6269e+001 27664 105976,106310,106002
 3.8000e+000 106408 -6.9736e+001 -2.6453e+002  1.1008e+001 27664 105898,106238,106382
 3.8000e+000 106431 -3.1093e+001 -2.4523e+002  2.1044e+001 27664 105898,106382,105924
 3.8000e+000 106728 -3.6623e+001 -1.9483e+002  3.6169e+001 27153 106751,106506,106454
 3.8000e+000 106705 -3.4134e+001 -1.9636e+002  2.8058e+001 27153 106751,106454,106610
 3.8000e+000 106682 -5.5872e+001 -1.4573e+002  6.5858e+000 27153 106454,106506,106480
 3.8000e+000 106659 -4.7294e+001 -1.8897e+002  1.6983e+001 27153 106532,106610,106584
 3.8000e+000 106636 -7.8607e+001 -1.1704e+002  3.5765e+001 27153 106532,106584,106558
 3.8000e+000 106777 -2.5508e+001 -1.9488e+002  3.7329e+001 27153 106532,106506,106751
 3.8000e+000 106800 -2.4606e+001 -1.9555e+002  2.7628e+001 27153 106532,106751,106610
 3.8000e+000 107180 -4.8809e+001 -2.3055e+002  1.6228e+001 26642 107203,106984,106958
 3.8000e+000 107157 -1.2266e+002 -2.6470e+002  4.9207e+000 26642 107203,106958,106932
 3.8000e+000 107134 -1.4252e+002 -2.9012e+002 -3.7774e+001 26642 107275,107036,107010
 3.8000e+000 107111 -9.0891e+001 -2.9048e+002 -4.6752e+001 26642 106932,107062,107036
 3.8000e+000 107088 -3.3870e+000 -2.2809e+002  2.8215e+001 26642 106906,107062,106932
 3.8000e+000 107229 -1.2165e+001 -2.1789e+002 -6.3226e+001 26642 107010,106984,107203
 3.8000e+000 107252 -1.2704e+002 -2.6881e+002 -4.5893e+001 26642 107275,107010,107203
 3.8000e+000 107301 -1.2408e+002 -2.8752e+002 -4.9329e+001 26642 106932,107036,107275
 3.8000e+000 107324 -1.1919e+002 -2.8778e+002 -5.1733e+001 26642 106932,107275,107203
 3.8000e+000 107675 -6.0562e+001 -1.6999e+002  1.6909e+001 26045 107450,107554,107476
 3.8000e+000 107652 -4.6119e+001 -1.4670e+002  3.8876e+000 26045 107450,107580,107554
 3.8000e+000 107629 -1.8819e+001 -1.5909e+002  7.9231e+000 26045 107476,107528,107502
 3.8000e+000 107606 -1.6703e+001 -1.6066e+002  8.3805e+000 26045 107476,107554,107528
 3.8000e+000 107874 -4.2935e+001 -2.5984e+002  6.4463e+001 25641 107750,107802,107776
 3.8000e+000 107851 -5.5595e+001 -1.8029e+002  3.2789e+001 25641 107724,107802,107750
 3.8000e+000 107828 -5.2130e+001 -1.8299e+002  2.7690e+001 25641 107698,107802,107724
 3.8000e+000 108431 -2.4641e+001 -2.7651e+002  4.7277e+001 25023 108526,108267,108241
 3.8000e+000 108408 -4.1426e-001 -2.6351e+002  9.5551e+000 25023 108059,108267,108085
 3.8000e+000 108385 -4.1543e+001 -2.8101e+002  4.6636e+001 25023 108454,108163,108111
 3.8000e+000 108362 -1.2509e+002 -2.8397e+002  7.7880e+001 25023 108454,108111,108085
 3.8000e+000 108339 -1.0039e+002 -3.6644e+002  8.2540e+001 25023 108111,108163,108137
 3.8000e+000 108316 -6.9779e+001 -2.0605e+002 -1.2510e+001 25023 108163,108241,108215
 3.8000e+000 108293  2.5413e+001 -1.6378e+002 -2.9783e+000 25023 108163,108215,108189
 3.8000e+000 108480 -1.3729e+001 -2.5275e+002  3.7130e+000 25023 108241,108163,108454
 3.8000e+000 108503 -4.3549e+001 -2.6805e+002  4.5220e+001 25023 108526,108241,108454
 3.8000e+000 108552 -4.6683e+001 -2.8040e+002  3.6951e+001 25023 108085,108267,108526
 3.8000e+000 108575 -6.6774e+001 -2.7331e+002  3.4397e+001 25023 108085,108526,108454
 3.8000e+000 108823 -1.7749e+001 -2.0447e+002  2.9487e+001 24461 108624,108728,108650
 3.8000e+000 108800 -4.0112e+001 -4.1518e+002 -2.5305e+001 24461 108598,108728,108624
 3.8000e+000 108777 -4.7846e+000 -2.7226e+002  2.6423e+001 24461 108650,108728,108676
 3.8000e+000 108754 -1.2545e+002 -7.5897e+002  6.6131e+001 24461 108676,108728,108702
 3.8000e+000 109022 -7.4613e+001 -2.1181e+002  2.4284e+001 24121 108872,108924,108898
 3.8000e+000 108999 -5.6301e+001 -2.0703e+002  2.8023e+001 24121 108846,108924,108872
 3.8000e+000 108976 -8.3236e+001 -2.2005e+002  3.2751e+001 24121 108846,108950,108924
 3.8000e+000 109483 -8.7275e+001 -2.8583e+002 -2.7385e+001 23717 109209,109339,109235
 3.8000e+000 109460 -3.4540e+001 -3.2369e+002 -6.5200e+001 23717 109209,109365,109339
 3.8000e+000 109437 -7.8246e+000 -3.5840e+002 -1.9096e+001 23717 109287,109339,109313
 3.8000e+000 109414 -1.6586e+002 -3.6186e+002  1.9514e+001 23717 109235,109339,109287
 3.8000e+000 109391 -1.3585e+001 -4.1528e+002  1.4012e+002 23717 109235,109287,109261
 3.8000e+000 109910 -1.1307e+002 -3.3049e+002 -3.3675e+001 23305 109613,109743,109717
 3.8000e+000 109887 -1.1451e+002 -3.3372e+002 -1.8626e+001 23305 109613,109769,109743
 3.8000e+000 109864 -1.3736e+002 -3.2615e+002 -2.7555e+001 23305 109613,109717,109639
 3.8000e+000 109841 -8.9943e+001 -3.0902e+002 -6.5860e+000 23305 109587,109769,109613
 3.8000e+000 109818  2.3968e+001 -2.5691e+002  3.9767e+001 23305 109639,109717,109691
 3.8000e+000 109795 -3.4339e+001 -2.0747e+002 -4.2646e+001 23305 109639,109691,109665
 3.8000e+000 110180 -8.9965e+000 -9.8513e+001 -2.0898e+001 22851 110007,110059,110033
 3.8000e+000 110157 -6.7920e+001 -2.5878e+002  1.0795e+001 22851 109981,110059,110007
 3.8000e+000 110134 -9.3976e+001 -2.7896e+002  1.1074e+000 22851 109955,110059,109981
 3.8000e+000 110111 -3.8449e+001 -3.0608e+002 -2.4017e+001 22851 109955,110085,110059
 3.8000e+000 110737 -6.3260e+001 -3.0335e+002 -7.0823e+001 22333 110760,110469,110391
 3.8000e+000 110714 -2.5808e+001 -3.3591e+002 -5.7825e+001 22333 110760,110391,110365
 3.8000e+000 110691 -3.4387e+001 -2.9296e+002 -6.1549e+001 22333 110832,110521,110469
 3.8000e+000 110668 -9.9898e+000 -4.9720e+002  7.6125e+000 22333 110417,110469,110443
 3.8000e+000 110645 -1.4681e+002 -4.5389e+002 -6.5017e-001 22333 110391,110469,110417
 3.8000e+000 110622 -4.1994e+000 -2.8975e+002 -3.4807e+001 22333 110469,110521,110495
 3.8000e+000 110599 -3.3214e+001 -1.9791e+002  2.0501e+001 22333 110365,110573,110547
 3.8000e+000 110786 -3.7258e+001 -2.9385e+002 -6.1588e+001 22333 110832,110469,110760
 3.8000e+000 110809  3.0456e+000 -3.0361e+002 -4.2913e+001 22333 110547,110760,110365
 3.8000e+000 110858 -2.1440e+001 -2.9666e+002 -6.5070e+001 22333 110547,110521,110832
 3.8000e+000 110881 -3.2899e+001 -3.0282e+002 -6.7486e+001 22333 110547,110832,110760
 3.8000e+000 111308 -1.5997e+002 -3.6427e+002  1.7312e+001 21829 111331,111063,111011
 3.8000e+000 111285 -1.4592e+002 -3.4179e+002 -6.2512e+000 21829 111331,111011,111167
 3.8000e+000 111262 -1.6335e+002 -3.6113e+002  1.8330e+001 21829 111403,111089,111063
 3.8000e+000 111239 -2.0276e+002 -3.8963e+002  4.9158e+001 21829 111011,111063,111037
 3.8000e+000 111216 -9.8520e+001 -2.5358e+002  1.3261e+001 21829 110985,111167,111011
 3.8000e+000 111193 -1.7892e+002 -5.6460e+002  1.1740e+002 21829 111089,111141,111115
 3.8000e+000 111357 -1.5910e+002 -3.6457e+002  1.8310e+001 21829 111403,111063,111331
 3.8000e+000 111380 -1.6313e+002 -3.7912e+002 -1.9549e+000 21829 111141,111331,111167
 3.8000e+000 111429 -1.6754e+002 -3.6600e+002  2.2774e+001 21829 111141,111089,111403
 3.8000e+000 111452 -1.6292e+002 -3.7224e+002  2.0788e+001 21829 111141,111403,111331
 3.8000e+000 112056  8.8018e+001 -2.7763e+002  4.8058e+000 21489 111687,111765,111739
 3.8000e+000 112033  1.0180e+001 -3.1870e+002  3.1595e+001 21489 112151,112079,111687
 3.8000e+000 112010 -1.0173e+001 -4.9206e+002  3.7102e+001 21489 111791,111843,111817
 3.8000e+000 111987 -9.7130e+001 -3.9076e+002 -2.6241e+001 21489 112079,111843,111791
 3.8000e+000 111964  5.5774e+001 -2.9777e+002  5.8693e+001 21489 112151,111687,111661
 3.8000e+000 111941 -3.7277e+001 -2.1969e+002  5.2294e+001 21489 111661,111869,111843
 3.8000e+000 111918  9.1603e+001 -2.9976e+002  4.1609e+001 21489 111687,111739,111713
 3.8000e+000 111895  7.5974e+000 -1.1543e+002  2.1495e+001 21489 111635,111869,111661
 3.8000e+000 112105 -6.1071e+001 -3.4438e+002  1.8417e+001 21489 111765,111687,112079
 3.8000e+000 112128 -5.9572e+001 -3.2875e+002  1.9495e+001 21489 111765,112079,111791
 3.8000e+000 112177 -6.7631e+001 -3.1494e+002 -6.2186e+000 21489 111843,112079,112151
 3.8000e+000 112200 -2.5530e+001 -3.0703e+002  1.5854e+001 21489 111843,112151,111661
 3.8000e+000 112578 -8.0684e+001 -3.9719e+002  1.7387e+001 21177 112382,112434,112408
 3.8000e+000 112555 -9.7417e+001 -3.9486e+002  1.6298e+000 21177 112330,112434,112382
 3.8000e+000 112532 -8.0155e+001 -3.4251e+002  5.6534e+001 21177 112304,112434,112330
 3.8000e+000 112509 -9.4907e+001 -3.7850e+002  0.0000e+000 21177 112330,112382,112356
 3.8000e+000 112486 -2.4427e+001 -2.3271e+002  1.3616e+001 21177 112304,112460,112434
 3.8000e+000 112679 -8.8674e+000 -2.8099e+002 -4.4922e+001 20666 112601,112653,112627
 3.8000e+000 112927 -1.1387e+002 -3.8163e+002  1.2433e+001 19762 112702,112754,112728
 3.8000e+000 112904 -4.4299e+001 -3.6191e+002 -4.8023e+000 19762 112702,112832,112754
 3.8000e+000 112881 -9.7331e+001 -3.8687e+002  6.2115e+001 19762 112754,112832,112806
 3.8000e+000 112858 -1.3423e+002 -4.7543e+002  5.7832e+001 19762 112754,112806,112780
 3.8000e+000 113297 -1.0508e+002 -4.4562e+002  2.7747e+001 19308 112974,113052,113026
 3.8000e+000 113274 -7.1668e+001 -3.7644e+002  9.1131e+000 19308 112974,113156,113052
 3.8000e+000 113251 -3.9363e+001 -4.9372e+002 -5.8474e+001 19308 113052,113130,113104
 3.8000e+000 113228 -7.5952e+001 -3.7307e+002  3.5967e-001 19308 113052,113156,113130
 3.8000e+000 113205 -7.3063e+001 -4.3156e+002  0.0000e+000 19308 113052,113104,113078
 3.8000e+000 113182 -1.4472e+002 -4.6082e+002 -7.1335e-001 19308 112974,113026,113000
 3.8000e+000 113547 -2.3778e+001 -4.1154e+002 -2.5646e+001 18711 113570,113374,113348
 3.8000e+000 113524 -3.9381e+001 -3.7671e+002 -1.4315e+001 18711 113570,113348,113452
 3.8000e+000 113501 -3.1795e+001 -2.9140e+002 -8.1175e+001 18711 113322,113452,113348
 3.8000e+000 113478 -4.9211e+001 -3.6441e+002 -1.2806e+002 18711 113374,113426,113400
 3.8000e+000 113596 -1.7314e+001 -3.7370e+002 -3.5085e+001 18711 113426,113374,113570
 3.8000e+000 113619 -3.7399e+001 -3.4577e+002 -1.6678e+001 18711 113426,113570,113452
 3.8000e+000 113771 -2.0367e+002 -5.0783e+002 -2.7057e+001 18307 113670,113722,113696
 3.8000e+000 113748 -1.6065e+002 -4.7590e+002 -1.2391e+001 18307 113644,113722,113670
 3.8000e+000 113972 -8.5464e+001 -4.1846e+002  6.0320e+000 17945 113822,113874,113848
 3.8000e+000 113949 -8.8135e+001 -4.1372e+002  9.6170e+000 17945 113822,113900,113874
 3.8000e+000 113926 -1.2509e+002 -3.1715e+002  1.9580e+002 17945 113796,113900,113822
 3.8000e+000 114075 -6.2733e+001 -6.2381e+002  6.6493e+001 17482 113997,114049,114023
 3.8000e+000 114479 -2.8664e+001 -3.4558e+002 -5.2145e+001 17042 114257,114361,114335
 3.8000e+000 114456 -8.3734e+001 -3.3482e+002 -9.9233e+000 17042 114205,114361,114257
 3.8000e+000 114433 -1.0326e+002 -3.8617e+002  1.2859e+001 17042 114205,114257,114231
 3.8000e+000 114410  7.4836e+001 -5.0695e+002 -3.3788e+001 17042 114283,114335,114309
 3.8000e+000 114387 -1.0022e+001 -4.4299e+002 -2.2270e+001 17042 114257,114335,114283
 3.8000e+000 114879 -1.8212e+002 -3.8210e+002 -6.8976e+000 16638 114631,114683,114657
 3.8000e+000 114856 -8.9397e+000 -3.0843e+002 -6.6035e+000 16638 114605,114683,114631
 3.8000e+000 114833  3.6729e+001 -1.9669e+002 -1.4576e+001 16638 114605,114761,114683
 3.8000e+000 114810 -3.0771e+001 -3.9653e+002 -2.1704e+001 16638 114683,114735,114709
 3.8000e+000 114787 -6.3230e+001 -4.2588e+002 -3.6635e+001 16638 114683,114761,114735
 3.8000e+000 115078 -1.6695e+002 -3.8492e+002  6.6938e+000 16232 114954,115006,114980
 3.8000e+000 115055 -1.7723e+002 -4.3119e+002  1.8696e+001 16232 114928,115006,114954
 3.8000e+000 115032 -8.4843e+001 -5.4134e+002  3.6317e+001 16232 114902,115006,114928
 3.8000e+000 115228 -1.2779e+002 -4.0105e+002  1.0035e+001 15482 115101,115153,115127
 3.8000e+000 115205 -9.7712e+001 -3.7683e+002 -3.8794e+000 15482 115101,115179,115153
 3.8000e+000 115331 -9.8109e+001 -3.7930e+002 -4.4145e+001 15163 115253,115305,115279
 3.8000e+000 115434 -1.1835e+002 -3.9985e+002  5.1330e+001 421 115356,115408,115382
 3.9000e+000 68213 -3.6398e+001 -2.4631e+002 -2.1367e+001 67888 68112,68164,68138
 3.9000e+000 68190 -2.6849e+002 -3.1650e+002 -3.4076e+001 67888 68086,68164,68112
 3.9000e+000 68314 -2.3645e+001 -3.2033e+002  3.1179e+001 67576 68236,68288,68262
 3.9000e+000 68584 -8.7382e+001 -5.5445e+002  2.5938e+001 67378 68385,68489,68463
 3.9000e+000 68561 -5.7555e+001 -5.3421e+002  7.9193e+000 67378 68359,68489,68385
 3.9000e+000 68538 -5.9078e+001 -4.8312e+002  3.8024e+001 67378 68385,68463,68411
 3.9000e+000 68515 -2.7855e+001 -2.9238e+002  2.8872e+001 67378 68411,68463,68437
 3.9000e+000 68964 -1.0993e+002 -4.6581e+002  6.9325e+001 67130 68690,68820,68716
 3.9000e+000 68941  9.9066e+001 -4.7831e+002  1.3064e+002 67130 68690,68846,68820
 3.9000e+000 68918 -9.7323e+001 -3.1118e+002  6.6259e+000 67130 68742,68820,68794
 3.9000e+000 68895 -1.7628e+001 -3.1083e+002  2.7839e+001 67130 68716,68820,68742
 3.9000e+000 68872 -6.3351e+001 -2.6488e+002 -3.2425e+001 67130 68742,68794,68768
 3.9000e+000 69065 -6.8460e+001 -3.0739e+002 -5.1110e-001 66926 68987,69039,69013
 3.9000e+000 69445 -3.1118e+001 -2.8021e+002 -1.7989e+001 66614 69223,69301,69275
 3.9000e+000 69422 -5.7912e+001 -2.9908e+002 -4.8604e+000 66614 69171,69301,69223
 3.9000e+000 69399 -7.4068e+001 -3.1233e+002  2.5652e+000 66614 69171,69327,69301
 3.9000e+000 69376  9.2295e+000 -1.0498e+002  5.6748e+000 66614 69223,69275,69249
 3.9000e+000 69353 -5.6291e+001 -3.2594e+002 -8.5482e+000 66614 69171,69223,69197
 3.9000e+000 69546 -7.3317e+001 -4.2730e+002  2.1421e+001 66416 69468,69520,69494
 3.9000e+000 69997 -6.0409e+001 -4.3204e+002 -3.7895e+001 66104 69700,69830,69726
 3.9000e+000 69974 -9.4939e+001 -5.4731e+002 -8.1122e+001 66104 69700,69856,69830
 3.9000e+000 69951 -6.6714e+001 -3.3431e+002 -2.5237e+001 66104 69726,69804,69778
 3.9000e+000 69928 -5.2523e+001 -4.0634e+002 -3.5767e+001 66104 69726,69830,69804
 3.9000e+000 69905 -7.1704e+001 -3.1909e+002 -1.3109e+001 66104 69726,69778,69752
 3.9000e+000 69882 -3.1255e+001 -7.6573e+002 -1.3714e+002 66104 69674,69856,69700
 3.9000e+000 70326 -6.5707e+001 -1.8820e+002  1.2314e+001 65814 70349,70153,70127
 3.9000e+000 70303 -4.2261e+001 -1.8130e+002  1.2492e+001 65814 70349,70127,70101
 3.9000e+000 70280 -3.5947e+001 -1.7503e+002  6.4407e+001 65814 70101,70231,70205
 3.9000e+000 70257  2.7337e+001 -2.1364e+002  2.9807e+001 65814 70153,70205,70179
 3.9000e+000 70375 -5.5586e+001 -2.0310e+002  3.2987e+001 65814 70205,70153,70349
 3.9000e+000 70398 -1.7624e+001 -1.8875e+002  2.9967e+001 65814 70205,70349,70101
 3.9000e+000 70904 -3.0042e+001 -1.0836e+002 -3.2766e+001 65502 70607,70737,70685
 3.9000e+000 70881 -3.9130e+001 -8.6195e+001 -4.3927e+001 65502 70581,70737,70607
 3.9000e+000 70858 -3.9062e+001 -2.3801e+001 -7.9927e+000 65502 70581,70763,70737
 3.9000e+000 70835 -5.0196e+001 -1.2117e+002 -4.8657e+001 65502 70685,70737,70711
 3.9000e+000 70812 -1.5567e+002 -1.3802e+002 -5.3745e+000 65502 70607,70659,70633
 3.9000e+000 70789 -5.0223e+001 -1.4544e+002 -2.2485e+000 65502 70607,70685,70659
 3.9000e+000 71103 -4.6737e+001 -3.9251e+002 -1.0851e+001 65304 71126,70979,70953
 3.9000e+000 71080 -8.6441e+001 -3.9355e+002 -4.1139e+000 65304 71126,70953,70927
 3.9000e+000 71057 -1.1602e+002 -3.9462e+002  3.5231e+001 65304 70927,71031,71005
 3.9000e+000 71152 -8.6983e+001 -3.6887e+002 -2.2257e+001 65304 71005,70979,71126
 3.9000e+000 71175 -1.3348e+002 -3.7802e+002 -6.2707e+000 65304 71005,71126,70927
 3.9000e+000 71374 -2.0177e+001 -3.8065e+002  2.0250e+001 65106 71198,71276,71224
 3.9000e+000 71351 -1.1074e+002 -4.1564e+002  6.8233e+000 65106 71198,71302,71276
 3.9000e+000 71328  9.2501e+000 -3.0569e+002  4.7218e+001 65106 71224,71276,71250
 3.9000e+000 71756 -3.6617e+001 -2.4729e+002 -1.8870e+001 64652 71508,71638,71534
 3.9000e+000 71733 -1.0308e+000 -2.3177e+002  1.7296e+000 64652 71482,71638,71508
 3.9000e+000 71710 -7.4134e+001 -2.4182e+002 -1.7579e+001 64652 71534,71586,71560
 3.9000e+000 71687 -6.1949e+001 -2.7522e+002 -4.1948e+001 64652 71534,71612,71586
 3.9000e+000 71664 -1.1231e+002 -2.8746e+002 -4.7327e+001 64652 71534,71638,71612
 3.9000e+000 72085 -1.0829e+002 -2.8455e+002 -3.4762e+001 64248 71886,71964,71912
 3.9000e+000 72062 -9.0891e+001 -2.7603e+002 -3.7500e+001 64248 71860,71964,71886
 3.9000e+000 72039 -4.1918e+001 -3.0509e+002 -2.3340e+001 64248 71912,71964,71938
 3.9000e+000 72016 -7.1327e+001 -2.5427e+002 -4.5736e+001 64248 71860,71990,71964
 3.9000e+000 72235 -2.7818e+000 -1.7509e+002 -2.3364e+001 63858 72588,72258,72134
 3.9000e+000 72212 -2.4873e+001 -1.5552e+002  4.3036e+000 63858 72330,72258,72108
 3.9000e+000 72284 -1.3461e+001 -1.2081e+002 -1.3552e+001 63858 72160,72134,72258
 3.9000e+000 72307 -7.9589e+001 -1.7042e+002 -2.6791e+001 63858 72460,72258,72186
 3.9000e+000 72356 -6.3974e+001 -1.6641e+002 -2.8282e+001 63858 72186,72258,72330
 3.9000e+000 72486 -2.1706e+001 -1.5563e+002 -2.7675e+001 63858 72160,72258,72460
 3.9000e+000 72614 -9.6019e-001 -1.8236e+002 -1.9236e+000 63858 72108,72258,72588
 3.9000e+000 73248 -4.0863e+001 -2.3656e+002  7.5373e+001 63404 72902,72954,72928
 3.9000e+000 73225 -1.3383e+002 -2.9246e+002  3.4216e+001 63404 73271,72954,72902
 3.9000e+000 73202 -1.1875e+002 -2.4763e+002  2.9515e+001 63404 73271,72902,73032
 3.9000e+000 73179 -7.1528e+001 -2.1372e+002  1.0921e+001 63404 72902,73058,73032
 3.9000e+000 73156 -8.1257e+001 -2.5074e+002  3.3626e+001 63404 72980,73032,73006
 3.9000e+000 73133 -6.6249e+001 -2.2622e+002  5.7342e+000 63404 72876,73058,72902
 3.9000e+000 73110 -3.0695e+001 -1.1279e+002 -5.8736e+001 63404 72876,73084,73058
 3.9000e+000 73297 -1.1510e+002 -2.9792e+002  6.0919e+000 63404 72980,72954,73271
 3.9000e+000 73320 -1.1165e+002 -2.7430e+002  5.6786e+000 63404 72980,73271,73032
 3.9000e+000 73470 -1.0476e+002 -6.9509e+002  7.3399e+001 63014 73343,73395,73369
 3.9000e+000 73447 -3.2697e+002 -8.5151e+002 -1.5910e+001 63014 73343,73421,73395
 3.9000e+000 73929  2.9616e+001 -3.2744e+002  3.2530e+001 62702 73759,73811,73785
 3.9000e+000 73906  5.3595e+001 -3.2046e+002  2.4481e+001 62702 73655,73811,73759
 3.9000e+000 73883 -5.4887e+000 -3.7691e+002 -2.3332e+000 62702 73655,73759,73681
 3.9000e+000 73860  4.6435e+001 -2.7289e+002 -6.6998e+001 62702 73681,73759,73707
 3.9000e+000 73837 -1.2956e+002 -3.2330e+002  3.6479e+000 62702 73707,73759,73733
 3.9000e+000 74209 -1.8922e+002 -3.3067e+002  3.2674e+000 62404 74059,74137,74085
 3.9000e+000 74186 -2.3197e+002 -4.3426e+002  5.2630e+001 62404 74033,74137,74059
 3.9000e+000 74163 -2.0938e+002 -3.1252e+002 -1.5549e+000 62404 74085,74137,74111
 3.9000e+000 74408  3.4887e+000 -2.7299e+002  1.8085e+001 62000 74258,74336,74284
 3.9000e+000 74385 -8.7021e+000 -2.7261e+002  3.2962e+001 62000 74232,74336,74258
 3.9000e+000 74362 -6.1115e+001 -2.7216e+002 -4.1260e+000 62000 74284,74336,74310
 3.9000e+000 74509 -2.2214e+001 -3.5345e+002  1.3447e+001 61802 74431,74483,74457
 3.9000e+000 74759 -9.5648e+001 -3.0176e+002  1.1357e+000 61554 74782,74586,74560
 3.9000e+000 74736 -5.2037e+001 -2.7781e+002  1.0414e+001 61554 74782,74560,74664
 3.9000e+000 74713 -8.0785e+001 -2.1691e+002  7.3159e+001 61554 74854,74612,74586
 3.9000e+000 74690 -7.0596e+001 -3.0768e+002  1.7365e+000 61554 74534,74664,74560
 3.9000e+000 74808 -1.1729e+002 -2.7299e+002  2.0274e+001 61554 74854,74586,74782
 3.9000e+000 74831 -6.7943e+001 -3.4588e+002  1.9604e+001 61554 74638,74782,74664
 3.9000e+000 74880 -1.1685e+001 -2.7596e+002  8.1545e+001 61554 74638,74612,74854
 3.9000e+000 74903 -1.4011e+001 -2.7411e+002  4.3105e+001 61554 74638,74854,74782
 3.9000e+000 75285 -3.5358e+001 -3.2418e+002  6.5712e+000 61356 75063,75167,75115
 3.9000e+000 75262 -5.7126e+001 -3.5020e+002 -2.3291e+001 61356 75037,75167,75063
 3.9000e+000 75239  7.1481e+001 -3.3866e+002 -2.9851e+000 61356 75115,75167,75141
 3.9000e+000 75216  3.2231e+001 -2.8621e+002  2.1658e+001 61356 75063,75115,75089
 3.9000e+000 75193 -1.4726e+002 -2.6705e+002  2.3143e+001 61356 75011,75167,75037
 3.9000e+000 75631 -6.4225e+000 -2.4941e+002  3.0761e+000 60952 75654,75412,75360
 3.9000e+000 75608 -4.3432e+001 -2.9255e+002 -1.4562e+001 60952 75654,75360,75334
 3.9000e+000 75585 -2.6410e+001 -3.7411e+002  1.5596e+001 60952 75726,75438,75412
 3.9000e+000 75562 -4.9133e+001 -3.1704e+002 -5.4318e+001 60952 75308,75490,75334
 3.9000e+000 75539 -9.2205e+000 -2.4824e+002 -2.7952e+000 60952 75360,75412,75386
 3.9000e+000 75516 -5.4871e+001 -4.6791e+002 -1.0757e+001 60952 75438,75490,75464
 3.9000e+000 75680  1.0746e+000 -3.1515e+002  9.1819e-001 60952 75726,75412,75654
 3.9000e+000 75703 -3.3290e+000 -3.0259e+002 -2.0138e+001 60952 75490,75654,75334
 3.9000e+000 75752  4.3631e+000 -3.0520e+002 -5.3173e+000 60952 75490,75438,75726
 3.9000e+000 75775  2.8097e+000 -2.9938e+002 -1.7929e+001 60952 75490,75726,75654
 3.9000e+000 76155 -3.7855e+001 -2.8177e+002 -3.3893e-001 60754 75933,75985,75959
 3.9000e+000 76132 -6.3970e+001 -2.9890e+002  3.1598e+001 60754 75933,76037,75985
 3.9000e+000 76109  1.2845e+001 -2.9333e+002  1.2127e+001 60754 75985,76037,76011
 3.9000e+000 76086 -9.9671e+001 -2.4535e+002  1.1145e+001 60754 75881,76037,75933
 3.9000e+000 76063 -1.4578e+002 -2.1022e+002  7.0832e+001 60754 75881,75933,75907
 3.9000e+000 76612 -4.7882e+001 -2.5115e+002  4.4064e+000 60350 76635,76442,76390
 3.9000e+000 76589  2.4585e+000 -2.7521e+002  1.6793e+001 60350 76635,76390,76364
 3.9000e+000 76566 -1.5495e+001 -3.4297e+002 -2.6937e+001 60350 76364,76494,76468
 3.9000e+000 76543 -4.4182e+000 -2.2756e+002  2.2276e+001 60350 76390,76442,76416
 3.9000e+000 76520 -1.1891e+002 -2.2764e+002 -5.6504e+001 60350 76338,76494,76364
 3.9000e+000 76661 -7.7566e+001 -2.6630e+002  1.0866e+001 60350 76468,76442,76635
 3.9000e+000 76684 -4.1803e+001 -2.9819e+002  2.5157e+001 60350 76468,76635,76364
 3.9000e+000 76932 -9.6488e+001 -3.2493e+002  8.7110e+000 59946 76955,76733,76707
 3.9000e+000 76909 -9.4165e+001 -3.1824e+002  1.3984e+001 59946 77027,76955,76707
 3.9000e+000 76886 -8.4374e+001 -3.1714e+002  1.0455e+001 59946 77027,76707,76837
 3.9000e+000 76863 -3.5840e+001 -3.6225e+002 -2.6411e+001 59946 76733,76785,76759
 3.9000e+000 76981 -1.0534e+002 -3.2335e+002  1.1000e+000 59946 76785,76733,76955
 3.9000e+000 77004 -9.7381e+001 -3.2352e+002  1.0646e+001 59946 76785,76955,76811
 3.9000e+000 77053 -8.0331e+001 -3.2006e+002  9.9275e+000 59946 76811,76955,77027
 3.9000e+000 77076 -7.1712e+001 -3.1711e+002  4.6977e+000 59946 76811,77027,76837
 3.9000e+000 77226 -1.2960e+002 -3.0386e+002  6.9240e+000 59542 77099,77151,77125
 3.9000e+000 77203 -1.4952e+002 -3.4719e+002  1.1811e+001 59542 77099,77177,77151
 3.9000e+000 77427 -1.5928e+002 -3.2300e+002 -2.0764e+001 59030 77450,77277,77251
 3.9000e+000 77404 -9.2021e+001 -2.4663e+002 -8.9688e+001 59030 77450,77251,77355
 3.9000e+000 77381  1.6578e+000 -3.8321e+002 -5.3278e+000 59030 77277,77329,77303
 3.9000e+000 77476 -7.9875e+001 -3.3911e+002 -6.5052e+001 59030 77329,77277,77450
 3.9000e+000 77499 -1.1245e+001 -3.0215e+002 -1.1891e+002 59030 77329,77450,77355
 3.9000e+000 77749 -1.2658e+002 -4.0533e+002  3.1781e+001 58426 77772,77628,77602
 3.9000e+000 77726 -9.7195e+001 -5.1512e+002  1.4086e+002 58426 77524,77654,77628
 3.9000e+000 77703 -1.0546e+002 -4.0390e+002  2.3959e+001 58426 77772,77602,77550
 3.9000e+000 77680 -5.5478e+001 -3.7620e+002 -1.6457e+001 58426 77550,77602,77576
 3.9000e+000 77798 -1.0216e+002 -4.0445e+002  3.2470e+001 58426 77524,77628,77772
 3.9000e+000 77821 -9.1966e+001 -4.0920e+002  2.1903e+001 58426 77524,77772,77550
 3.9000e+000 78071 -1.7869e+002 -3.8637e+002  4.1125e+001 57922 78094,77924,77898
 3.9000e+000 78048 -2.0918e+002 -3.9888e+002  6.7232e+000 57922 78094,77898,77872
 3.9000e+000 78025 -1.7112e+002 -3.6782e+002  3.8819e+001 57922 78166,77846,77950
 3.9000e+000 78002 -8.9119e+001 -3.6175e+002  4.6450e+001 57922 77846,77976,77950
 3.9000e+000 78120 -1.5142e+002 -3.9404e+002  2.9573e+001 57922 77950,77924,78094
 3.9000e+000 78143 -1.7271e+002 -3.7300e+002  2.9826e+001 57922 78166,77950,78094
 3.9000e+000 78192 -1.6484e+002 -3.8232e+002  3.0607e+001 57922 77872,77846,78166
 3.9000e+000 78215 -1.7416e+002 -3.9739e+002  2.1029e+001 57922 77872,78166,78094
 3.9000e+000 78416  4.5049e+001 -3.2077e+002 -1.9677e+001 57468 78439,78292,78240
 3.9000e+000 78393 -1.4012e+001 -3.0000e+002 -5.7966e-001 57468 78439,78240,78344
 3.9000e+000 78370  2.0541e+001 -4.3986e+002 -1.5764e+001 57468 78240,78292,78266
 3.9000e+000 78465 -1.2280e+001 -3.4998e+002 -3.2271e+001 57468 78318,78292,78439
 3.9000e+000 78488 -3.6537e+001 -3.1505e+002 -7.5134e+000 57468 78318,78439,78344
 3.9000e+000 78689  6.2105e+001 -3.9810e+002 -5.3547e+001 57014 78712,78539,78513
 3.9000e+000 78666 -5.3127e+000 -3.9290e+002 -9.5402e+000 57014 78712,78513,78617
 3.9000e+000 78643 -8.7177e+001 -4.1571e+002  4.0262e+001 57014 78565,78617,78591
 3.9000e+000 78738 -2.4906e+001 -3.2847e+002 -5.5013e+001 57014 78565,78539,78712
 3.9000e+000 78761 -1.2459e+002 -3.8246e+002  1.6386e+001 57014 78565,78712,78617
 3.9000e+000 79241 -1.2110e+002 -3.4264e+002  2.6540e+001 56652 79264,78895,78869
 3.9000e+000 79218 -5.4509e+001 -4.4993e+002 -2.7135e+001 56652 79264,78869,79051
 3.9000e+000 79195 -8.2998e+001 -3.9041e+002 -9.4738e+001 56652 78869,79077,79051
 3.9000e+000 79172 -9.2828e+001 -2.2095e+002 -5.4806e+001 56652 78895,78973,78947
 3.9000e+000 79149 -1.5984e+002 -6.4846e+002 -5.4033e+001 56652 78973,79051,78999
 3.9000e+000 79126 -8.4736e+001 -2.0705e+002 -5.8703e+001 56652 78895,78947,78921
 3.9000e+000 79103 -1.4160e+002 -4.5825e+002  1.0995e+002 56652 78999,79051,79025
 3.9000e+000 79290 -7.1121e+001 -2.7457e+002  6.4380e+001 56652 78973,78895,79264
 3.9000e+000 79313  1.3298e-001 -3.8935e+002  1.4593e+001 56652 78973,79264,79051
 3.9000e+000 79512 -4.5302e+001 -4.7394e+002  4.6965e+001 56062 79388,79440,79414
 3.9000e+000 79489 -2.0656e+002 -2.5649e+002  6.5522e+001 56062 79336,79440,79388
 3.9000e+000 79466 -9.6646e+001 -2.1354e+002  9.9054e+001 56062 79336,79388,79362
 3.9000e+000 79941 -5.8168e+001 -2.9392e+002  4.4558e+001 55658 79964,79670,79644
 3.9000e+000 79918 -9.0030e+001 -3.0083e+002  5.1203e+001 55658 79964,79644,79800
 3.9000e+000 79895 -8.1610e+001 -3.1811e+002  2.1119e+001 55658 80036,79696,79670
 3.9000e+000 79872 -9.5588e+001 -2.7188e+002 -8.6607e+000 55658 80108,79722,79696
 3.9000e+000 79849 -1.4286e+002 -2.7519e+002  7.1578e+000 55658 79722,79774,79748
 3.9000e+000 79826 -1.1232e+000 -2.6891e+002  1.4572e+001 55658 79618,79800,79644
 3.9000e+000 79990 -9.4000e+001 -3.2136e+002  3.1970e+001 55658 80036,79670,79964
 3.9000e+000 80013 -8.1807e+001 -2.7579e+002  5.3933e+001 55658 79774,79964,79800
 3.9000e+000 80062 -6.8875e+001 -2.9044e+002  1.6489e+001 55658 80108,79696,80036
 3.9000e+000 80085 -8.8639e+001 -2.7716e+002  4.3783e+001 55658 79774,80036,79964
 3.9000e+000 80134 -1.4764e+002 -2.9117e+002  2.2899e+000 55658 79774,79722,80108
 3.9000e+000 80157 -1.3250e+002 -3.1679e+002  2.7197e+001 55658 79774,80108,80036
 3.9000e+000 80307 -1.4257e+002 -2.7965e+002  4.0644e+001 55254 80402,80330,80206
 3.9000e+000 80284 -1.3677e+002 -3.7372e+002  4.4930e+001 55254 80330,80180,80258
 3.9000e+000 80356 -1.6703e+002 -3.3552e+002  7.7233e+001 55254 80232,80206,80330
 3.9000e+000 80379 -3.6674e+001 -2.7647e+002  1.1255e+002 55254 80232,80330,80258
 3.9000e+000 80428 -2.0016e+002 -3.3557e+002  1.7282e+001 55254 80180,80330,80402
 3.9000e+000 80659 -6.8858e+001 -3.6697e+002 -3.3684e+001 54850 80558,80610,80584
 3.9000e+000 80636  2.0090e+001 -3.4652e+002 -4.3838e+001 54850 80532,80610,80558
 3.9000e+000 80760 -2.7414e+001 -3.0785e+002 -2.9935e+001 54652 80682,80734,80708
 3.9000e+000 81164 -1.9150e+001 -3.2290e+002 -8.6405e+000 54248 81187,80942,80890
 3.9000e+000 81141 -2.3163e+001 -3.3313e+002 -6.5596e+000 54248 81187,80890,81046
 3.9000e+000 81118 -2.9341e+001 -3.3402e+002  6.6248e+001 54248 80942,81020,80994
 3.9000e+000 81095 -1.9225e+001 -3.3738e+002  1.7626e+000 54248 80890,80942,80916
 3.9000e+000 81072 -3.6477e+001 -1.8204e+002  5.2695e+000 54248 80942,80994,80968
 3.9000e+000 81213 -2.5601e+001 -3.1520e+002 -6.8838e+000 54248 81020,80942,81187
 3.9000e+000 81236 -2.6957e+001 -3.2199e+002 -5.6125e+000 54248 81020,81187,81046
 3.9000e+000 81663 -1.4862e+002 -2.9198e+002  2.5523e+001 53594 81340,81444,81366
 3.9000e+000 81640 -1.3707e+002 -4.0705e+002  1.1021e+001 53594 81340,81470,81444
 3.9000e+000 81617 -3.5625e+001 -3.5829e+002 -5.8891e+000 53594 81340,81522,81470
 3.9000e+000 81594 -7.5881e+001 -2.1272e+002 -2.6515e+001 53594 81392,81444,81418
 3.9000e+000 81571 -1.0792e+002 -2.5161e+002 -4.0498e+001 53594 81366,81444,81392
 3.9000e+000 81548  2.8982e+001 -6.2860e+002  1.8116e+002 53594 81470,81522,81496
 3.9000e+000 81943 -3.4860e+001 -2.0732e+002 -2.6132e+001 53104 81966,81845,81819
 3.9000e+000 81920 -5.3685e+001 -1.7083e+002 -3.1654e+001 53104 81966,81819,81767
 3.9000e+000 81897 -5.4491e+001 -1.6865e+002 -3.6852e+001 53104 81767,81819,81793
 3.9000e+000 81992 -2.2017e+001 -1.8318e+002 -3.1031e+001 53104 81871,81845,81966
 3.9000e+000 82015 -3.0881e+001 -1.3208e+002 -4.1145e+001 53104 81871,81966,81767
 3.9000e+000 82491 -2.7955e+001 -2.0247e+002 -1.3265e+001 52650 82145,82249,82171
 3.9000e+000 82468 -1.7542e+002 -2.3908e+002 -2.7971e+001 52650 82145,82301,82249
 3.9000e+000 82445 -1.8062e+002 -3.6758e+002 -6.7993e+001 52650 82249,82301,82275
 3.9000e+000 82422 -5.9194e+001 -4.6536e+002 -8.4720e+001 52650 82119,82301,82145
 3.9000e+000 82399 -4.8592e+001 -1.6453e+002  2.4105e+001 52650 82171,82249,82223
 3.9000e+000 82376  3.6594e+001 -4.2738e+002 -7.0575e+001 52650 82119,82327,82301
 3.9000e+000 82353 -1.3341e+001 -7.9195e+001 -3.3943e+001 52650 82171,82223,82197
 3.9000e+000 82739 -4.0940e+001 -1.9555e+002  7.3837e+000 52246 82762,82540,82514
 3.9000e+000 82716 -2.3676e+001 -6.4372e+001 -1.2291e+001 52246 82762,82514,82644
 3.9000e+000 82693 -9.1796e+001 -2.2653e+002  5.5250e+001 52246 82540,82618,82592
 3.9000e+000 82670 -1.2017e+002 -2.2990e+002  5.3408e+001 52246 82540,82592,82566
 3.9000e+000 82788 -2.2437e+001 -2.5573e+002  1.8371e+001 52246 82618,82540,82762
 3.9000e+000 82811 -6.1834e+001 -2.1475e+002 -1.8873e+001 52246 82618,82762,82644
 3.9000e+000 83059 -2.9381e+001 -2.8487e+002  2.6919e+001 51578 82860,82964,82938
 3.9000e+000 83036  3.9704e+000 -1.7882e+002 -6.4534e+001 51578 82834,82964,82860
 3.9000e+000 83013 -1.3337e+001 -2.1630e+002  6.0928e+001 51578 82860,82938,82886
 3.9000e+000 82990 -9.5930e+000 -1.2657e+002  9.0279e+000 51578 82886,82938,82912
 3.9000e+000 83309 -4.9239e+001 -1.5987e+002  4.6363e+001 51138 83332,83162,83136
 3.9000e+000 83286 -1.7704e+001 -2.0987e+002  1.5079e+001 51138 83332,83136,83110
 3.9000e+000 83263 -8.0249e+001 -2.1752e+002 -1.3193e+001 51138 83404,83214,83188
 3.9000e+000 83240 -1.7054e+000 -1.3541e+002  1.2893e+001 51138 83084,83214,83110
 3.9000e+000 83358 -8.0989e+001 -2.2114e+002  5.8856e+001 51138 83188,83162,83332
 3.9000e+000 83381 -5.5122e+001 -2.4107e+002  9.0424e+000 51138 83404,83188,83332
 3.9000e+000 83430 -5.0565e+001 -1.5946e+002 -1.0764e-001 51138 83110,83214,83404
 3.9000e+000 83453 -2.8798e+001 -1.9569e+002  2.0936e+001 51138 83110,83404,83332
 3.9000e+000 83835 -3.7387e+001 -2.5838e+002 -1.8322e+000 50734 83613,83717,83691
 3.9000e+000 83812 -3.9553e+001 -2.7013e+002 -6.2776e+001 50734 83561,83717,83613
 3.9000e+000 83789 -1.3797e+001 -1.3383e+002 -8.7432e+001 50734 83561,83613,83587
 3.9000e+000 83766 -9.7684e+001 -1.6760e+002 -2.8377e-001 50734 83613,83691,83639
 3.9000e+000 83743 -1.0357e+002 -1.7037e+002  3.4414e+001 50734 83639,83691,83665
 3.9000e+000 84034 -6.5805e+001 -1.6777e+002  1.0423e+001 50230 84057,83884,83858
 3.9000e+000 84011 -6.6321e+001 -1.8389e+002 -1.4816e+001 50230 84129,84057,83858
 3.9000e+000 83988 -2.1835e+001 -1.9580e+002 -2.6057e+001 50230 84129,83858,83962
 3.9000e+000 84083 -2.3401e+001 -1.5329e+002  1.8523e+001 50230 83910,83884,84057
 3.9000e+000 84106 -4.1459e+001 -1.8417e+002  9.5868e+000 50230 83910,84057,83936
 3.9000e+000 84155 -8.2577e+000 -1.5780e+002 -2.0074e+000 50230 83936,84057,84129
 3.9000e+000 84178  8.6548e+000 -1.8931e+002 -1.9578e+001 50230 83936,84129,83962
 3.9000e+000 84558 -6.7287e+001 -2.1411e+002 -3.5261e+001 49768 84581,84388,84362
 3.9000e+000 84535 -1.4243e+002 -2.1614e+002 -1.3238e+001 49768 84581,84362,84310
 3.9000e+000 84512  7.5023e+000 -2.3199e+002 -3.7071e+001 49768 84653,84440,84414
 3.9000e+000 84489 -1.0942e+002 -2.3360e+002  1.8218e+001 49768 84310,84362,84336
 3.9000e+000 84466 -2.7012e+000 -1.6685e+002  2.8587e+001 49768 84284,84440,84310
 3.9000e+000 84607 -1.2791e+001 -1.7709e+002 -6.0443e+001 49768 84414,84388,84581
 3.9000e+000 84630 -2.2370e+001 -2.1860e+002 -2.6320e+001 49768 84653,84414,84581
 3.9000e+000 84679 -3.2489e+001 -2.1862e+002 -5.0578e+001 49768 84310,84440,84653
 3.9000e+000 84702 -7.4972e+001 -2.1929e+002 -5.1316e+001 49768 84310,84653,84581
 3.9000e+000 85159 -1.1721e+002 -3.1829e+002 -9.1898e+001 49192 84885,84937,84911
 3.9000e+000 85136 -1.2278e+002 -2.7278e+002 -6.8251e+001 49192 84885,85041,84937
 3.9000e+000 85113 -9.1171e+001 -2.3118e+002 -3.0927e+001 49192 84963,85041,84989
 3.9000e+000 85090 -8.1700e+001 -2.1795e+002 -5.0061e+001 49192 84937,85041,84963
 3.9000e+000 85067 -7.3975e+001 -2.3802e+002 -2.0102e+001 49192 84989,85041,85015
 3.9000e+000 85714 -1.2132e+002 -2.0500e+002 -1.3420e+000 48638 85368,85498,85394
 3.9000e+000 85691 -1.5224e+002 -2.3912e+002  1.2282e+001 48638 85368,85524,85498
 3.9000e+000 85668 -1.3453e+002 -1.9551e+002  5.0496e+001 48638 85737,85420,85394
 3.9000e+000 85645 -1.1592e+002 -2.2470e+002  2.7265e+001 48638 85737,85394,85498
 3.9000e+000 85622 -9.3550e+001 -2.3137e+002  4.6502e+001 48638 85446,85498,85472
 3.9000e+000 85599 -3.9427e+001 -1.9617e+002  2.2243e+001 48638 85342,85524,85368
 3.9000e+000 85576 -1.4902e+002 -2.2020e+002  2.1041e+001 48638 85342,85550,85524
 3.9000e+000 85763 -9.9397e+001 -1.7591e+002  6.8836e+001 48638 85446,85420,85737
 3.9000e+000 85786 -1.0132e+002 -2.0279e+002  4.1593e+001 48638 85446,85737,85498
 3.9000e+000 86371 -9.9804e+001 -1.5188e+002 -1.0521e+001 48084 86100,86230,86178
 3.9000e+000 86348 -1.2448e+002 -1.9456e+002 -2.3170e+001 48084 86048,86230,86100
 3.9000e+000 86325 -1.0399e+002 -1.4301e+002  3.7109e+001 48084 86100,86178,86126
 3.9000e+000 86302 -5.7819e+001 -3.7413e+001 -4.0514e+001 48084 86048,86100,86074
 3.9000e+000 86279 -1.2932e+002 -2.4382e+002 -4.6196e+000 48084 86178,86230,86204
 3.9000e+000 86256 -9.3510e+001 -1.6585e+002  3.5256e+001 48084 86126,86178,86152
 3.9000e+000 86619 -8.4589e+001 -1.8478e+002  1.4887e+001 47630 86642,86446,86420
 3.9000e+000 86596 -1.0180e+002 -2.0483e+002 -2.2198e+001 47630 86642,86420,86394
 3.9000e+000 86573 -1.2593e+002 -2.4135e+002 -3.2691e+001 47630 86394,86524,86498
 3.9000e+000 86550 -5.0748e+001 -2.1164e+002  1.3092e+001 47630 86446,86498,86472
 3.9000e+000 86668 -1.0362e+002 -2.2696e+002 -4.2869e-001 47630 86498,86446,86642
 3.9000e+000 86691 -1.1312e+002 -2.3406e+002 -3.6747e+001 47630 86498,86642,86394
 3.9000e+000 87022 -5.2369e+000 -1.2470e+002 -7.3840e+001 47226 87045,86875,86849
 3.9000e+000 86999 -2.5899e-001 -1.4193e+002 -6.9921e+001 47226 87045,86849,86797
 3.9000e+000 86976  2.5487e+000 -6.3973e+001 -1.6566e+001 47226 86797,86849,86823
 3.9000e+000 86953  9.4406e+000 -8.8632e+001 -3.5800e+001 47226 86875,86927,86901
 3.9000e+000 87071 -1.4131e+001 -1.3780e+002 -6.9886e+001 47226 86927,86875,87045
 3.9000e+000 87094 -4.5737e+000 -1.4952e+002 -6.7630e+001 47226 86927,87045,86797
 3.9000e+000 87244 -1.1808e+001 -2.3906e+002  6.5543e+001 46814 87267,87169,87143
 3.9000e+000 87221 -1.1263e+002 -2.1437e+002 -1.0988e+001 46814 87267,87143,87117
 3.9000e+000 87293 -1.2308e+001 -1.8237e+002  3.9807e+001 46814 87339,87267,87195
 3.9000e+000 87316 -1.1017e+001 -1.7102e+002  6.4873e+000 46814 87469,87267,87117
 3.9000e+000 87365  1.5272e+001 -1.6833e+002  4.6344e+001 46814 87169,87267,87339
 3.9000e+000 87495 -1.1710e+000 -2.0898e+001 -1.7322e+000 46814 87195,87267,87469
 3.9000e+000 88001 -7.7259e+001 -1.9404e+002  4.0118e+001 46310 88024,87834,87808
 3.9000e+000 87978 -9.2664e+001 -1.9736e+002  2.4264e+001 46310 88024,87808,87756
 3.9000e+000 87955 -4.8360e+001 -2.5084e+002  9.4321e+000 46310 88096,87730,87860
 3.9000e+000 87932 -6.8401e+001 -2.5127e+002  2.4722e+001 46310 87756,87808,87782
 3.9000e+000 87909 -6.0626e+001 -3.0994e+002  1.1240e+001 46310 87678,87860,87730
 3.9000e+000 87886 -9.3085e+001 -4.8560e+002 -2.3862e+001 46310 87678,87730,87704
 3.9000e+000 88050 -6.5296e+001 -1.6760e+002  2.4067e+001 46310 87860,87834,88024
 3.9000e+000 88073 -4.9748e+001 -1.8606e+002  3.0300e+001 46310 88096,87860,88024
 3.9000e+000 88122 -6.3911e+001 -2.8174e+002 -1.2571e+001 46310 87756,87730,88096
 3.9000e+000 88145 -1.0537e+002 -2.5585e+002 -8.1317e-001 46310 87756,88096,88024
 3.9000e+000 88572 -4.2093e+001 -2.2565e+002  1.3676e+001 45856 88249,88405,88275
 3.9000e+000 88549 -3.1792e+001 -6.5747e+001 -4.7739e+001 45856 88249,88431,88405
 3.9000e+000 88526 -1.0907e+002 -3.1388e+002 -4.0033e+001 45856 88327,88405,88353
 3.9000e+000 88503 -4.9936e+001 -2.7312e+002 -1.7773e+001 45856 88275,88405,88327
 3.9000e+000 88480 -8.8263e+001 -2.6587e+002 -4.2467e+001 45856 88353,88405,88379
 3.9000e+000 88457 -2.1000e+002 -5.7668e+002  4.7970e+001 45856 88275,88327,88301
 3.9000e+000 88950 -4.3495e+001 -1.4480e+002 -3.2373e+000 45658 88973,88754,88728
 3.9000e+000 88927 -4.2106e+001 -1.5400e+002 -4.3644e+000 45658 88973,88728,88676
 3.9000e+000 88904 -4.3499e+001 -1.8639e+002  5.2990e+001 45658 88676,88832,88806
 3.9000e+000 88881 -7.0004e+001 -2.0720e+002  1.7133e+001 45658 88676,88728,88702
 3.9000e+000 88858 -5.2930e+001 -1.3458e+002 -2.3354e+001 45658 88754,88806,88780
 3.9000e+000 88999 -4.6170e+001 -1.5270e+002 -2.3465e+000 45658 88806,88754,88973
 3.9000e+000 89022 -4.2038e+001 -1.5808e+002 -3.9605e+000 45658 88806,88973,88676
 3.9000e+000 89351 -6.3064e+001 -2.2028e+002 -1.1189e+001 45254 89152,89230,89204
 3.9000e+000 89328 -5.6266e+001 -2.1731e+002 -1.0819e+001 45254 89152,89256,89230
 3.9000e+000 89305 -1.4296e+001 -2.3045e+002 -2.9326e+001 45254 89126,89256,89152
 3.9000e+000 89282  1.1404e+001 -2.2347e+002 -4.2847e+001 45254 89152,89204,89178
 3.9000e+000 89523 -3.6818e+001 -1.9378e+002 -8.7325e-001 45006 89422,89474,89448
 3.9000e+000 89500 -2.7457e+001 -1.8979e+002  6.6135e+000 45006 89396,89474,89422
 3.9000e+000 89673 -1.8244e+002 -3.1947e+002  2.7751e+001 44495 89572,89624,89598
 3.9000e+000 89650 -1.8606e+002 -3.1689e+002  1.7403e+001 44495 89546,89624,89572
 3.9000e+000 90104 -1.9012e+001 -2.4777e+002 -1.2752e+001 44005 90199,90127,89937
 3.9000e+000 90081 -4.9224e+001 -2.4593e+002  3.2377e+000 44005 90271,90127,89859
 3.9000e+000 90058 -3.1561e+000 -2.5651e+002 -1.3876e+001 44005 90199,89937,89885
 3.9000e+000 90035 -6.8857e+001 -2.3454e+002  1.4304e+001 44005 90271,89859,89807
 3.9000e+000 90012 -3.5805e+001 -2.8200e+002 -3.3338e+001 44005 89885,89937,89911
 3.9000e+000 89989 -2.2245e+001 -2.5263e+002  4.2742e+001 44005 89807,89859,89833
 3.9000e+000 90153 -5.0336e+001 -2.5823e+002 -5.7384e+000 44005 89963,89937,90127
 3.9000e+000 90176 -5.5085e+001 -2.7733e+002  6.1909e+000 44005 89963,90127,89781
 3.9000e+000 90225 -5.3913e+001 -2.4878e+002 -4.0604e+000 44005 89859,90127,90199
 3.9000e+000 90248 -2.2989e+001 -2.4839e+002  6.5225e-001 44005 89859,90199,89885
 3.9000e+000 90297 -7.5977e+001 -2.6041e+002 -2.2874e+000 44005 89781,90127,90271
 3.9000e+000 90320 -8.7516e+001 -2.4466e+002  1.0353e+001 44005 89781,90271,89807
 3.9000e+000 90470 -4.6326e+001 -2.8153e+002 -1.2442e+001 43601 90493,90369,90343
 3.9000e+000 90447 -7.5754e+001 -2.2970e+002  1.2639e+001 43601 90493,90343,90421
 3.9000e+000 90519 -9.1751e+001 -3.7822e+002 -4.6102e+001 43601 90395,90369,90493
 3.9000e+000 90542 -7.2852e+001 -2.6787e+002 -1.4213e+001 43601 90395,90493,90421
 3.9000e+000 90922 -1.0155e+002 -2.9681e+002  2.1030e+001 43154 90945,90700,90674
 3.9000e+000 90899 -9.3258e+001 -3.0279e+002 -2.8509e+001 43154 90945,90674,90648
 3.9000e+000 90876 -1.0915e+002 -2.4354e+002 -1.8688e+001 43154 90648,90778,90752
 3.9000e+000 90853 -5.6478e+001 -4.8326e+002  1.3730e+001 43154 90700,90752,90726
 3.9000e+000 90830 -6.6115e+001 -2.4522e+002 -4.7826e+000 43154 90648,90804,90778
 3.9000e+000 90971 -1.1600e+002 -3.3985e+002  2.8329e+001 43154 90752,90700,90945
 3.9000e+000 90994 -1.0362e+002 -3.2845e+002 -1.9877e+001 43154 90752,90945,90648
 3.9000e+000 91451 -2.3731e+001 -2.1750e+002 -3.9241e+001 42650 91203,91255,91229
 3.9000e+000 91428  2.3279e+001 -1.9687e+002 -1.9171e+001 42650 91203,91333,91255
 3.9000e+000 91405 -7.7114e-001 -3.1741e+002 -5.4114e+001 42650 91177,91333,91203
 3.9000e+000 91382 -9.6940e+001 -3.3589e+002  4.4297e+001 42650 91255,91333,91281
 3.9000e+000 91359 -2.1956e+001 -2.9020e+002  2.3820e+001 42650 91281,91333,91307
 3.9000e+000 91721 -1.3651e+002 -3.1422e+002  2.1463e+001 42288 91496,91600,91522
 3.9000e+000 91698 -7.1104e+001 -1.7913e+002 -7.4010e+000 42288 91496,91626,91600
 3.9000e+000 91675 -8.7046e+001 -2.8713e+002  2.4599e+001 42288 91522,91574,91548
 3.9000e+000 91652 -7.1080e+001 -2.8899e+002  2.2095e+001 42288 91522,91600,91574
 3.9000e+000 92199 -2.0407e+002 -3.4528e+002 -8.6398e+000 41898 92222,91983,91879
 3.9000e+000 92176 -2.0773e+002 -3.7272e+002 -1.9474e+001 41898 92294,92222,91879
 3.9000e+000 92153 -2.1722e+002 -3.6690e+002 -2.6788e+001 41898 92294,91879,91853
 3.9000e+000 92130 -1.7904e+002 -2.1692e+002  2.0357e+001 41898 91879,91957,91931
 3.9000e+000 92107 -1.8554e+002 -3.3818e+002 -1.5543e+000 41898 91879,91983,91957
 3.9000e+000 92084 -1.8515e+002 -1.9368e+002  3.3030e+001 41898 91879,91931,91905
 3.9000e+000 92061 -1.9601e+002 -3.2909e+002 -2.1789e+001 41898 91827,92035,91853
 3.9000e+000 92248 -2.0170e+002 -3.7900e+002 -1.4877e+000 41898 92009,91983,92222
 3.9000e+000 92271 -1.9831e+002 -3.8623e+002 -2.7265e+001 41898 92009,92222,92035
 3.9000e+000 92320 -1.9121e+002 -3.6435e+002 -2.2340e+001 41898 92035,92222,92294
 3.9000e+000 92343 -1.9844e+002 -3.5798e+002 -2.9372e+001 41898 92035,92294,91853
 3.9000e+000 92770 -7.3222e+001 -3.1878e+002 -2.0748e+001 41437 92865,92793,92525
 3.9000e+000 92747 -1.0221e+002 -3.7560e+002 -3.0403e+001 41437 92793,92473,92629
 3.9000e+000 92724 -4.0358e+001 -3.2320e+002 -3.8290e+001 41437 92865,92525,92499
 3.9000e+000 92701 -1.1094e+002 -2.9419e+002 -4.7507e+001 41437 92525,92603,92577
 3.9000e+000 92678 -3.0050e+000 -3.6031e+002 -2.5610e+001 41437 92447,92629,92473
 3.9000e+000 92655 -1.7212e+002 -2.6790e+002 -2.8913e+001 41437 92525,92577,92551
 3.9000e+000 92819 -8.4973e+001 -3.4559e+002 -4.7644e+001 41437 92603,92525,92793
 3.9000e+000 92842 -1.5334e+002 -3.6886e+002 -8.7474e+001 41437 92603,92793,92629
 3.9000e+000 92891 -5.9807e+000 -3.5247e+002 -3.0009e+001 41437 92473,92793,92865
 3.9000e+000 92914  4.3633e+001 -3.3336e+002 -5.6550e+001 41437 92473,92865,92499
 3.9000e+000 93243 -5.0206e+001 -4.6252e+002  1.7009e+002 41097 93044,93096,93070
 3.9000e+000 93220 -8.9395e+001 -4.0507e+002  8.9899e+001 41097 93044,93122,93096
 3.9000e+000 93197  1.7545e+001 -2.7049e+002  3.6526e+001 41097 93044,93148,93122
 3.9000e+000 93174 -7.7397e+001 -2.2015e+002  7.6082e+001 41097 93018,93148,93044
 3.9000e+000 93393 -8.8379e+000 -3.4243e+002  2.3125e+001 40643 93416,93292,93344
 3.9000e+000 93370 -1.4628e+001 -3.1986e+002  2.5884e+001 40643 93266,93344,93292
 3.9000e+000 93442 -1.4852e+001 -3.4094e+002  2.8823e+001 40643 93318,93292,93416
 3.9000e+000 93901 -1.1073e+002 -3.2519e+002 -2.0925e+001 40132 93924,93731,93705
 3.9000e+000 93878 -1.1723e+002 -3.3703e+002 -2.4092e+001 40132 93996,93924,93705
 3.9000e+000 93855 -1.3743e+002 -3.8643e+002 -9.1386e+000 40132 93996,93705,93653
 3.9000e+000 93832 -6.4501e+001 -3.7219e+002 -2.1377e+001 40132 93653,93705,93679
 3.9000e+000 93809 -1.0961e+002 -3.2628e+002  4.1071e+000 40132 93627,93783,93757
 3.9000e+000 93950 -1.0652e+002 -3.4664e+002 -2.5354e+001 40132 93757,93731,93924
 3.9000e+000 93973 -1.1988e+002 -3.0969e+002 -6.1310e+000 40132 93757,93924,93627
 3.9000e+000 94022 -1.5185e+002 -3.6750e+002  1.1794e+001 40132 93627,93924,93996
 3.9000e+000 94045 -1.4242e+002 -3.8484e+002  2.2709e+001 40132 93627,93996,93653
 3.9000e+000 94423 -1.5150e+001 -3.5390e+002 -5.1917e+001 39514 94149,94227,94175
 3.9000e+000 94400 -3.2864e+001 -3.3684e+002  3.9615e+001 39514 94149,94305,94227
 3.9000e+000 94377  1.3756e+001 -4.2186e+002 -4.8824e+001 39514 94175,94227,94201
 3.9000e+000 94354 -1.0365e+002 -3.1222e+002  1.7106e+001 39514 94227,94305,94279
 3.9000e+000 94331 -4.1646e+001 -2.8363e+002  3.0161e+001 39514 94227,94279,94253
 3.9000e+000 94573 -3.4773e+001 -2.1802e+002 -4.5503e+001 38822 94596,94498,94472
 3.9000e+000 94550  3.5173e+001 -2.3962e+002  4.7890e+001 38822 94596,94472,94446
 3.9000e+000 94622 -1.1594e+002 -2.5313e+002 -4.0229e+001 38822 94524,94498,94596
 3.9000e+000 94645 -1.0336e+002 -3.0326e+002  6.3155e+001 38822 94524,94596,94446
 3.9000e+000 95025 -2.2140e+001 -2.8104e+002 -2.0660e+001 38418 95048,94829,94777
 3.9000e+000 95002 -3.1112e+001 -2.9592e+002 -3.4501e+001 38418 95120,95048,94777
 3.9000e+000 94979 -2.4667e+001 -2.9042e+002 -3.2013e+001 38418 95120,94777,94751
 3.9000e+000 94956 -1.9688e+001 -2.6003e+002 -3.7997e+001 38418 95192,94881,94855
 3.9000e+000 94933 -8.8938e+001 -2.5377e+002 -1.2166e+001 38418 94777,94829,94803
 3.9000e+000 95074 -5.2268e+001 -3.7220e+002 -7.3054e+000 38418 94855,94829,95048
 3.9000e+000 95097 -2.7142e+001 -2.9202e+002 -4.2271e+001 38418 95192,94855,95048
 3.9000e+000 95146 -5.5071e+001 -2.7846e+002 -2.7722e+001 38418 94907,95048,95120
 3.9000e+000 95169 -3.5294e+001 -2.6158e+002 -2.0323e+001 38418 94907,95120,94751
 3.9000e+000 95218 -2.7990e+001 -2.0189e+002 -3.3229e+001 38418 94907,94881,95192
 3.9000e+000 95241 -4.5764e+001 -2.5241e+002 -2.9291e+001 38418 94907,95192,95048
 3.9000e+000 95511 -1.0116e+002 -3.1400e+002  1.2003e+001 38049 95312,95390,95364
 3.9000e+000 95488 -7.5740e+001 -3.0459e+002  1.5642e+001 38049 95312,95416,95390
 3.9000e+000 95465 -3.7155e+001 -3.0156e+002 -2.1188e+001 38049 95312,95364,95338
 3.9000e+000 95442 -2.8886e+001 -2.8904e+002  2.8143e+001 38049 95286,95416,95312
 3.9000e+000 95808 -9.0145e+001 -3.4300e+002 -6.6411e+000 37437 95831,95586,95560
 3.9000e+000 95785  3.0130e+001 -3.6427e+002 -1.5749e+001 37437 95831,95560,95534
 3.9000e+000 95762 -1.7872e+002 -3.3046e+002  7.4268e+000 37437 95586,95664,95638
 3.9000e+000 95739 -3.0385e+001 -1.6837e+002 -8.9929e+001 37437 95534,95690,95664
 3.9000e+000 95716 -1.6204e+002 -2.4011e+002  9.4357e+000 37437 95586,95638,95612
 3.9000e+000 95857 -1.6718e+002 -3.3707e+002  4.1511e+001 37437 95664,95586,95831
 3.9000e+000 95880 -3.9344e+001 -3.5465e+002  3.3959e+001 37437 95664,95831,95534
 3.9000e+000 96390 -1.1492e+002 -2.5233e+002 -1.4994e+001 36883 96413,96145,96093
 3.9000e+000 96367 -9.2981e+001 -2.4150e+002 -9.0590e+000 36883 96413,96093,96067
 3.9000e+000 96344 -6.6697e+001 -2.9229e+002  1.0392e+000 36883 96067,96249,96171
 3.9000e+000 96321 -1.0047e+002 -2.9338e+002 -4.6837e+000 36883 96093,96145,96119
 3.9000e+000 96298 -1.4149e+002 -4.8188e+002  4.6134e+001 36883 96171,96249,96197
 3.9000e+000 96275 -4.1370e+001 -3.8114e+002 -8.3877e+000 36883 96197,96249,96223
 3.9000e+000 96439 -1.0901e+002 -2.4488e+002  4.7479e+000 36883 96171,96145,96413
 3.9000e+000 96462 -9.0684e+001 -2.3998e+002  8.9209e+000 36883 96171,96413,96067
 3.9000e+000 96781 -9.3108e+001 -2.8592e+002 -4.1191e+001 36215 96559,96663,96637
 3.9000e+000 96758 -1.1566e+002 -3.1513e+002 -5.3215e+001 36215 96507,96663,96559
 3.9000e+000 96735 -1.1488e+002 -2.1667e+002  2.1501e+001 36215 96585,96637,96611
 3.9000e+000 96712 -2.3875e+002 -3.3178e+002 -3.5045e+001 36215 96559,96637,96585
 3.9000e+000 96689 -4.6121e+001 -3.7486e+002 -1.2200e+001 36215 96507,96559,96533
 3.9000e+000 97161  3.7597e+000 -1.5866e+002 -9.3487e+000 35818 97184,96965,96939
 3.9000e+000 97138 -1.6809e+001 -1.9098e+002 -1.8367e+001 35818 97184,96939,96887
 3.9000e+000 97115 -6.4796e+000 -1.9860e+002  3.6626e+001 35818 96965,97043,97017
 3.9000e+000 97092 -8.7799e+000 -1.8555e+002 -2.2843e+001 35818 96887,96939,96913
 3.9000e+000 97069 -1.0323e+002 -2.0339e+002  2.2602e+001 35818 96965,97017,96991
 3.9000e+000 97210  2.5619e+001 -1.8613e+002  8.3718e+000 35818 97043,96965,97184
 3.9000e+000 97233  9.9450e+000 -2.0935e+002  1.4002e+000 35818 97043,97184,96887
 3.9000e+000 97739 -1.0745e+002 -3.0650e+002 -6.8100e+001 35214 97416,97468,97442
 3.9000e+000 97716 -1.2460e+002 -2.2543e+002 -2.1420e+001 35214 97416,97598,97468
 3.9000e+000 97693 -1.1386e+002 -2.1652e+002 -8.0560e+000 35214 97762,97520,97468
 3.9000e+000 97670 -1.1604e+002 -2.2168e+002 -1.7330e+001 35214 97762,97468,97598
 3.9000e+000 97647 -8.7815e+001 -2.1334e+002 -2.7576e+001 35214 97546,97598,97572
 3.9000e+000 97624 -7.4611e+001 -2.2673e+002 -1.0536e+001 35214 97468,97520,97494
 3.9000e+000 97788 -1.1756e+002 -2.2692e+002 -1.1251e+001 35214 97546,97520,97762
 3.9000e+000 97811 -1.1776e+002 -2.3108e+002 -1.9948e+001 35214 97546,97762,97598
 3.9000e+000 98189 -2.4591e+001 -1.7423e+002 -1.1451e+001 34760 98356,98212,97967
 3.9000e+000 98166 -4.8779e+001 -2.1307e+002 -2.7831e+001 34760 98284,98212,97941
 3.9000e+000 98143 -8.3565e+001 -1.9440e+002 -1.2804e+001 34760 98284,97941,97915
 3.9000e+000 98120 -2.7875e+001 -2.3339e+002 -4.8490e+000 34760 98484,97993,97967
 3.9000e+000 98097 -2.7160e+001 -1.9933e+002 -4.4685e+000 34760 98556,98045,98019
 3.9000e+000 98238 -4.0468e+001 -2.1911e+002 -5.7331e+000 34760 98484,97967,98212
 3.9000e+000 98261 -1.0107e+001 -2.0627e+002 -1.3260e+001 34760 98556,98019,98212
 3.9000e+000 98310 -1.7734e+001 -1.8029e+002 -4.2836e+001 34760 98071,98212,98284
 3.9000e+000 98333 -4.2153e+001 -1.3455e+002 -3.5172e+001 34760 98071,98284,97915
 3.9000e+000 98382 -1.1021e+002 -2.3375e+002 -3.8123e+001 34760 97941,98212,98356
 3.9000e+000 98510 -6.9992e+000 -2.2206e+002 -1.1723e+001 34760 98019,97993,98484
 3.9000e+000 98533 -2.7580e+001 -2.1424e+002 -1.1298e+001 34760 98019,98484,98212
 3.9000e+000 98582 -5.4370e+000 -1.8952e+002 -6.5243e-001 34760 98071,98045,98556
 3.9000e+000 98605  1.7183e+000 -2.0259e+002 -1.1215e+001 34760 98071,98556,98212
 3.9000e+000 99032 -1.1792e+002 -2.7077e+002  3.7972e+001 34156 98735,98891,98839
 3.9000e+000 99009 -9.8148e+001 -2.7886e+002  1.6618e+001 34156 98709,98891,98735
 3.9000e+000 98986 -3.4429e+001 -2.4213e+002  3.6283e+001 34156 98735,98813,98787
 3.9000e+000 98963 -4.0934e+001 -2.6421e+002  2.9889e+001 34156 98735,98839,98813
 3.9000e+000 98940  1.4326e+001 -3.6168e+002  4.0867e+001 34156 98735,98787,98761
 3.9000e+000 98917 -1.0302e+002 -2.3274e+002  2.0125e+001 34156 98839,98891,98865
 3.9000e+000 99231 -3.7062e+001 -1.5057e+002  1.3293e+001 33766 99055,99133,99107
 3.9000e+000 99208 -6.4066e+001 -1.9520e+002  2.6257e+001 33766 99055,99159,99133
 3.9000e+000 99185 -2.0094e+001 -1.7327e+002  3.2334e+001 33766 99055,99107,99081
 3.9000e+000 99818 -7.7395e+001 -2.1373e+002  4.3220e+000 33248 99521,99651,99573
 3.9000e+000 99795 -7.7519e+001 -2.0517e+002  1.9442e+001 33248 99521,99677,99651
 3.9000e+000 99772 -1.1063e+002 -2.5397e+002 -1.2264e+001 33248 99573,99651,99599
 3.9000e+000 99749 -7.8274e+001 -2.5470e+002  2.2537e+001 33248 99495,99677,99521
 3.9000e+000 99726 -5.4486e+001 -2.1406e+002 -4.8155e+001 33248 99599,99651,99625
 3.9000e+000 99703 -9.8780e+001 -2.5394e+002  1.5188e+001 33248 99521,99573,99547
 3.9000e+000 100196 -7.9097e+001 -2.2922e+002 -4.3231e+001 32794 100219,99948,99922
 3.9000e+000 100173 -9.1814e+001 -2.5623e+002 -2.0816e+001 32794 100219,99922,100052
 3.9000e+000 100150 -1.2260e+002 -2.3523e+002  1.3696e+001 32794 99974,100052,100026
 3.9000e+000 100127 -1.0956e+002 -2.0955e+002 -3.3478e+001 32794 99922,100078,100052
 3.9000e+000 100104 -1.2967e+002 -2.8592e+002  5.3559e+001 32794 99974,100026,100000
 3.9000e+000 100245 -1.0447e+002 -2.2432e+002 -1.6779e+001 32794 99974,99948,100219
 3.9000e+000 100268 -1.1271e+002 -2.6058e+002  5.8078e+000 32794 99974,100219,100052
 3.9000e+000 100418 -1.6502e+001 -2.0580e+002 -2.2210e+001 32504 100571,100343,100317
 3.9000e+000 100395 -8.2471e+001 -2.3576e+002  2.0304e+001 32504 100571,100317,100441
 3.9000e+000 100467  5.5449e+001 -1.1504e+002 -5.9959e+001 32504 100291,100369,100441
 3.9000e+000 100597  1.2801e+001 -1.7335e+002 -7.3270e+001 32504 100369,100343,100571
 3.9000e+000 100620 -1.6656e+001 -1.6168e+002 -3.6595e+001 32504 100369,100571,100441
 3.9000e+000 101020 -4.0991e+001 -1.9590e+002  9.1285e+000 32142 100772,100902,100876
 3.9000e+000 100997 -2.7845e+001 -1.8358e+002  1.5298e+001 32142 100746,100902,100772
 3.9000e+000 100974 -1.7640e+001 -2.1927e+002  2.0557e+001 32142 101043,100824,100798
 3.9000e+000 100951 -4.2418e+001 -2.2962e+002  1.6349e+001 32142 101043,100798,100772
 3.9000e+000 100928 -1.2793e+002 -2.6490e+002 -6.0573e+001 32142 101115,100876,100850
 3.9000e+000 101069  2.0558e+001 -2.3206e+002 -2.3610e+001 32142 100850,100824,101043
 3.9000e+000 101092 -7.0694e+001 -2.7062e+002 -2.9942e+001 32142 101115,100850,101043
 3.9000e+000 101141 -5.7943e+001 -2.2827e+002 -2.1327e+001 32142 100772,100876,101115
 3.9000e+000 101164 -1.4456e+001 -2.3262e+002  1.2331e+001 32142 100772,101115,101043
 3.9000e+000 101719 -1.1824e+002 -2.7740e+002  3.5190e+001 31538 101742,101477,101399
 3.9000e+000 101696 -1.4592e+002 -3.3839e+002  6.1409e+000 31538 101814,101742,101399
 3.9000e+000 101673 -1.6833e+002 -2.9177e+002 -2.6870e+001 31538 101814,101399,101373
 3.9000e+000 101650 -1.1826e+002 -2.0101e+002  2.2403e+001 31538 101425,101477,101451
 3.9000e+000 101627 -1.1177e+002 -2.3457e+002  4.5650e+000 31538 101399,101477,101425
 3.9000e+000 101604 -7.3743e+001 -3.2031e+002  6.7327e+001 31538 101477,101529,101503
 3.9000e+000 101581 -4.5191e+001 -2.0047e+002 -2.2409e+001 31538 101347,101555,101373
 3.9000e+000 101768 -1.3642e+002 -3.4148e+002  3.5608e+001 31538 101529,101477,101742
 3.9000e+000 101791 -1.1489e+002 -3.4866e+002 -1.2195e+001 31538 101529,101742,101555
 3.9000e+000 101840 -8.9979e+001 -2.9112e+002 -1.5291e+001 31538 101555,101742,101814
 3.9000e+000 101863 -1.2191e+002 -2.5308e+002 -4.5446e+001 31538 101555,101814,101373
 3.9000e+000 102111 -1.6970e+002 -4.3394e+002  5.5051e+001 31112 101886,101990,101912
 3.9000e+000 102088 -6.4359e+001 -2.5962e+002  4.0583e+000 31112 101886,102016,101990
 3.9000e+000 102065 -8.0520e+001 -4.2499e+002  8.9477e+001 31112 101912,101990,101964
 3.9000e+000 102042 -1.2828e+002 -5.4071e+002  1.0515e+002 31112 101912,101964,101938
 3.9000e+000 102408 -4.7240e+001 -2.7275e+002  2.1206e+001 30658 102431,102186,102160
 3.9000e+000 102385 -9.2891e+001 -2.6919e+002 -1.3855e-002 30658 102431,102160,102264
 3.9000e+000 102362 -8.7540e+001 -2.9404e+002  4.8445e+000 30658 102186,102238,102212
 3.9000e+000 102339 -1.0007e+002 -2.8548e+002 -1.7418e+001 30658 102134,102264,102160
 3.9000e+000 102316 -6.8866e+001 -2.3921e+002 -7.8259e+001 30658 102134,102290,102264
 3.9000e+000 102457 -8.5005e+001 -2.8757e+002  1.1289e+001 30658 102238,102186,102431
 3.9000e+000 102480 -1.3393e+002 -2.8857e+002 -1.1833e+001 30658 102238,102431,102264
 3.9000e+000 102681 -4.1600e+001 -3.2915e+002  4.8990e+001 30004 102704,102557,102505
 3.9000e+000 102658 -4.9755e+001 -3.3006e+002  4.9374e+001 30004 102704,102505,102609
 3.9000e+000 102635 -1.8604e+000 -2.8748e+002  1.1924e+001 30004 102505,102557,102531
 3.9000e+000 102730 -4.8159e+001 -3.2170e+002  4.4525e+001 30004 102583,102557,102704
 3.9000e+000 102753 -6.5883e+001 -3.2867e+002  4.5816e+001 30004 102583,102704,102609
 3.9000e+000 103003 -4.1452e+001 -2.6464e+002 -2.0566e+001 29564 103026,102804,102778
 3.9000e+000 102980 -5.0020e+001 -3.1086e+002 -3.2134e+001 29564 103026,102778,102908
 3.9000e+000 102957 -4.7903e+001 -2.6447e+002 -4.2426e+000 29564 102856,102908,102882
 3.9000e+000 102934 -6.5013e+001 -2.4155e+002  1.3989e+001 29564 102804,102856,102830
 3.9000e+000 103052 -3.6220e+001 -2.4116e+002  1.0763e+001 29564 102856,102804,103026
 3.9000e+000 103075 -4.9230e+001 -2.7903e+002 -5.1520e+000 29564 102856,103026,102908
 3.9000e+000 103634 -1.2877e+002 -3.0354e+002 -3.5544e+001 29160 103657,103418,103392
 3.9000e+000 103611 -1.2345e+002 -2.9387e+002 -1.7928e+001 29160 103657,103392,103314
 3.9000e+000 103588 -9.1108e+001 -2.6111e+002 -3.1092e+001 29160 103314,103392,103366
 3.9000e+000 103565 -8.2342e+001 -2.7770e+002 -3.5019e+001 29160 103314,103366,103340
 3.9000e+000 103542 -1.5276e+002 -2.9105e+002 -3.1819e+001 29160 103262,103444,103314
 3.9000e+000 103519 -1.7924e+002 -3.4672e+002 -4.1481e+001 29160 103262,103314,103288
 3.9000e+000 103496 -1.2084e+002 -3.1926e+002 -1.1292e+001 29160 103262,103470,103444
 3.9000e+000 103683 -1.5552e+002 -3.2399e+002 -5.4246e+001 29160 103444,103418,103657
 3.9000e+000 103706 -1.3423e+002 -2.9283e+002 -3.3960e+001 29160 103444,103657,103314
 3.9000e+000 104035 -7.8968e+001 -2.7929e+002  2.5701e+001 28770 103836,103914,103862
 3.9000e+000 104012 -7.6049e+001 -2.6920e+002  3.2533e+001 28770 103810,103914,103836
 3.9000e+000 103989  1.9345e+001 -2.4453e+002  4.2380e+001 28770 103810,103940,103914
 3.9000e+000 103966 -1.6834e+001 -2.2596e+002  5.3559e+001 28770 103862,103914,103888
 3.9000e+000 104185 -4.1570e+001 -2.8053e+002  4.6922e+001 28366 104208,104110,104084
 3.9000e+000 104162 -3.0297e+001 -2.3722e+002  4.3358e+001 28366 104280,104208,104084
 3.9000e+000 104234  3.3993e+001 -2.7530e+002  2.9239e+001 28366 104610,104208,104136
 3.9000e+000 104257 -6.3444e+001 -2.6665e+002  3.0756e+001 28366 104538,104410,104208
 3.9000e+000 104306 -9.4515e+001 -2.7032e+002  3.0540e+001 28366 104538,104208,104280
 3.9000e+000 104436 -3.2096e+001 -2.8306e+002  3.6841e+000 28366 104136,104208,104410
 3.9000e+000 104564 -9.6128e+001 -2.6420e+002  1.4206e+001 28366 104058,104410,104538
 3.9000e+000 104587 -1.1512e+002 -2.6057e+002  1.1743e+001 28366 104058,104538,104280
 3.9000e+000 104636  1.5314e+001 -2.8142e+002  3.7903e+001 28366 104110,104208,104610
 3.9000e+000 105349 -6.6834e+001 -2.3971e+002 -2.5447e+001 27976 105516,105372,105107
 3.9000e+000 105326 -1.0069e+002 -2.3769e+002  5.8301e+000 27976 105588,105372,105055
 3.9000e+000 105303 -1.0812e+002 -2.3181e+002 -2.2343e+001 27976 105444,105159,105133
 3.9000e+000 105280 -3.8593e+001 -2.5029e+002 -1.4495e+001 27976 105516,105107,105081
 3.9000e+000 105257 -9.3112e+001 -2.6292e+002  2.2568e+001 27976 105588,105055,105029
 3.9000e+000 105234 -5.2955e+001 -2.0304e+002  1.3933e+000 27976 105003,105185,105159
 3.9000e+000 105211 -7.1980e+001 -1.6556e+002  2.7443e+001 27976 104977,105185,105003
 3.9000e+000 105398 -5.3465e+001 -2.3712e+002 -3.2405e+001 27976 105133,105107,105372
 3.9000e+000 105421 -8.8059e+001 -2.4629e+002 -1.3769e+001 27976 105444,105133,105372
 3.9000e+000 105470 -8.9005e+001 -2.0648e+002 -1.2363e+001 27976 105003,105159,105444
 3.9000e+000 105493 -7.5215e+001 -2.2378e+002 -8.0805e+000 27976 105003,105444,105372
 3.9000e+000 105542 -4.7810e+001 -2.3484e+002 -2.8972e+000 27976 105055,105372,105516
 3.9000e+000 105565 -6.4774e+000 -2.4053e+002  5.3592e+000 27976 105055,105516,105081
 3.9000e+000 105614 -1.1631e+002 -2.6257e+002  1.7882e+001 27976 105003,105372,105588
 3.9000e+000 105637 -1.1284e+002 -2.8757e+002  3.6116e+001 27976 105003,105588,105029
 3.9000e+000 106143 -1.2544e+002 -3.6965e+002  2.2147e+001 27664 106166,105846,105820
 3.9000e+000 106120 -9.1999e+001 -2.9518e+002  9.4777e+000 27664 106310,106166,105820
 3.9000e+000 106097 -4.3981e+001 -3.3590e+002 -6.3866e+001 27664 106382,106238,105950
 3.9000e+000 106074 -6.1587e+001 -2.9217e+002  1.2148e+001 27664 106310,105820,106002
 3.9000e+000 106051  2.3399e+001 -2.9756e+002 -4.7467e+001 27664 106382,105950,105924
 3.9000e+000 106028 -4.5240e+001 -5.0670e+002 -1.8137e+001 27664 105846,105898,105872
 3.9000e+000 106192 -1.1666e+002 -4.0895e+002 -4.7573e+001 27664 105898,105846,106166
 3.9000e+000 106215 -7.8170e+001 -3.4585e+002 -1.5119e+001 27664 106238,105898,106166
 3.9000e+000 106264 -1.9521e+002 -3.7580e+002 -8.5638e+001 27664 105976,105950,106238
 3.9000e+000 106287 -6.8967e+001 -3.4427e+002 -1.6573e+001 27664 105976,106238,106166
 3.9000e+000 106336 -6.1770e+001 -3.0688e+002  3.5942e+001 27664 105976,106166,106310
 3.9000e+000 106359 -2.7332e+001 -3.0187e+002  3.7542e+001 27664 105976,106310,106002
 3.9000e+000 106408 -7.2698e+001 -2.7500e+002  1.1577e+001 27664 105898,106238,106382
 3.9000e+000 106431 -3.2480e+001 -2.5497e+002  2.1864e+001 27664 105898,106382,105924
 3.9000e+000 106728 -3.7767e+001 -2.0265e+002  3.7552e+001 27153 106751,106506,106454
 3.9000e+000 106705 -3.5203e+001 -2.0401e+002  2.9420e+001 27153 106751,106454,106610
 3.9000e+000 106682 -5.7670e+001 -1.5099e+002  6.7303e+000 27153 106454,106506,106480
 3.9000e+000 106659 -4.8535e+001 -1.9635e+002  1.7956e+001 27153 106532,106610,106584
 3.9000e+000 106636 -8.2067e+001 -1.2281e+002  3.7003e+001 27153 106532,106584,106558
 3.9000e+000 106777 -2.6521e+001 -2.0325e+002  3.8557e+001 27153 106532,106506,106751
 3.9000e+000 106800 -2.5431e+001 -2.0349e+002  2.8800e+001 27153 106532,106751,106610
 3.9000e+000 107180 -5.0690e+001 -2.3896e+002  1.7075e+001 26642 107203,106984,106958
 3.9000e+000 107157 -1.2770e+002 -2.7457e+002  5.2947e+000 26642 107203,106958,106932
 3.9000e+000 107134 -1.4771e+002 -3.0058e+002 -3.9405e+001 26642 107275,107036,107010
 3.9000e+000 107111 -9.4314e+001 -3.0139e+002 -4.8285e+001 26642 106932,107062,107036
 3.9000e+000 107088 -3.9740e+000 -2.3676e+002  2.9442e+001 26642 106906,107062,106932
 3.9000e+000 107229 -1.2884e+001 -2.2650e+002 -6.5390e+001 26642 107010,106984,107203
 3.9000e+000 107252 -1.3193e+002 -2.7887e+002 -4.7689e+001 26642 107275,107010,107203
 3.9000e+000 107301 -1.2890e+002 -2.9793e+002 -5.1168e+001 26642 106932,107036,107275
 3.9000e+000 107324 -1.2391e+002 -2.9819e+002 -5.3624e+001 26642 106932,107275,107203
 3.9000e+000 107675 -6.2402e+001 -1.7624e+002  1.7308e+001 26045 107450,107554,107476
 3.9000e+000 107652 -4.7632e+001 -1.5223e+002  3.8725e+000 26045 107450,107580,107554
 3.9000e+000 107629 -1.9248e+001 -1.6679e+002  8.4273e+000 26045 107476,107528,107502
 3.9000e+000 107606 -1.7957e+001 -1.6697e+002  8.4261e+000 26045 107476,107554,107528
 3.9000e+000 107874 -4.4897e+001 -2.6980e+002  6.6944e+001 25641 107750,107802,107776
 3.9000e+000 107851 -5.7700e+001 -1.8676e+002  3.4247e+001 25641 107724,107802,107750
 3.9000e+000 107828 -5.3520e+001 -1.8972e+002  2.8494e+001 25641 107698,107802,107724
 3.9000e+000 108431 -2.5789e+001 -2.8667e+002  4.8930e+001 25023 108526,108267,108241
 3.9000e+000 108408 -3.6001e-001 -2.7330e+002  9.5563e+000 25023 108059,108267,108085
 3.9000e+000 108385 -4.3285e+001 -2.9102e+002  4.8291e+001 25023 108454,108163,108111
 3.9000e+000 108362 -1.2957e+002 -2.9422e+002  8.0449e+001 25023 108454,108111,108085
 3.9000e+000 108339 -1.0414e+002 -3.8041e+002  8.5826e+001 25023 108111,108163,108137
 3.9000e+000 108316 -7.2414e+001 -2.1359e+002 -1.2749e+001 25023 108163,108241,108215
 3.9000e+000 108293  2.5863e+001 -1.6995e+002 -2.8971e+000 25023 108163,108215,108189
 3.9000e+000 108480 -1.4641e+001 -2.6195e+002  3.9420e+000 25023 108241,108163,108454
 3.9000e+000 108503 -4.5376e+001 -2.7774e+002  4.6741e+001 25023 108526,108241,108454
 3.9000e+000 108552 -4.8603e+001 -2.9090e+002  3.8248e+001 25023 108085,108267,108526
 3.9000e+000 108575 -6.9427e+001 -2.8340e+002  3.5541e+001 25023 108085,108526,108454
 3.9000e+000 108823 -1.8564e+001 -2.1262e+002  3.0425e+001 24461 108624,108728,108650
 3.9000e+000 108800 -4.2090e+001 -4.3062e+002 -2.6265e+001 24461 108598,108728,108624
 3.9000e+000 108777 -4.9509e+000 -2.8318e+002  2.7302e+001 24461 108650,108728,108676
 3.9000e+000 108754 -1.3091e+002 -7.9018e+002  6.8382e+001 24461 108676,108728,108702
 3.9000e+000 109022 -7.7841e+001 -2.2073e+002  2.5372e+001 24121 108872,108924,108898
 3.9000e+000 108999 -5.8654e+001 -2.1490e+002  2.9510e+001 24121 108846,108924,108872
 3.9000e+000 108976 -8.6317e+001 -2.2813e+002  3.4013e+001 24121 108846,108950,108924
 3.9000e+000 109483 -9.0246e+001 -2.9621e+002 -2.8391e+001 23717 109209,109339,109235
 3.9000e+000 109460 -3.5985e+001 -3.3637e+002 -6.7410e+001 23717 109209,109365,109339
 3.9000e+000 109437 -8.1588e+000 -3.7192e+002 -1.9148e+001 23717 109287,109339,109313
 3.9000e+000 109414 -1.7236e+002 -3.7574e+002  2.0720e+001 23717 109235,109339,109287
 3.9000e+000 109391 -1.4298e+001 -4.2935e+002  1.4559e+002 23717 109235,109287,109261
 3.9000e+000 109910 -1.1792e+002 -3.4265e+002 -3.4525e+001 23305 109613,109743,109717
 3.9000e+000 109887 -1.1931e+002 -3.4592e+002 -1.8968e+001 23305 109613,109769,109743
 3.9000e+000 109864 -1.4341e+002 -3.3889e+002 -2.8009e+001 23305 109613,109717,109639
 3.9000e+000 109841 -9.4377e+001 -3.2188e+002 -6.6319e+000 23305 109587,109769,109613
 3.9000e+000 109818  2.4198e+001 -2.6689e+002  4.1551e+001 23305 109639,109717,109691
 3.9000e+000 109795 -3.4877e+001 -2.1583e+002 -4.3191e+001 23305 109639,109691,109665
 3.9000e+000 110180 -9.7232e+000 -1.0252e+002 -2.1592e+001 22851 110007,110059,110033
 3.9000e+000 110157 -7.0654e+001 -2.6820e+002  1.1107e+001 22851 109981,110059,110007
 3.9000e+000 110134 -9.7521e+001 -2.8909e+002  1.0626e+000 22851 109955,110059,109981
 3.9000e+000 110111 -3.9959e+001 -3.1726e+002 -2.4982e+001 22851 109955,110085,110059
 3.9000e+000 110737 -6.5280e+001 -3.1395e+002 -7.3528e+001 22333 110760,110469,110391
 3.9000e+000 110714 -2.6377e+001 -3.4786e+002 -5.9947e+001 22333 110760,110391,110365
 3.9000e+000 110691 -3.5103e+001 -3.0415e+002 -6.4355e+001 22333 110832,110521,110469
 3.9000e+000 110668 -1.0564e+001 -5.1693e+002  8.4456e+000 22333 110417,110469,110443
 3.9000e+000 110645 -1.5251e+002 -4.7116e+002 -4.9146e-001 22333 110391,110469,110417
 3.9000e+000 110622 -4.1044e+000 -3.0100e+002 -3.6386e+001 22333 110469,110521,110495
 3.9000e+000 110599 -3.3771e+001 -2.0423e+002  2.1610e+001 22333 110365,110573,110547
 3.9000e+000 110786 -3.8443e+001 -3.0475e+002 -6.4042e+001 22333 110832,110469,110760
 3.9000e+000 110809  3.9922e+000 -3.1392e+002 -4.4229e+001 22333 110547,110760,110365
 3.9000e+000 110858 -2.1710e+001 -3.0732e+002 -6.8062e+001 22333 110547,110521,110832
 3.9000e+000 110881 -3.3639e+001 -3.1303e+002 -7.0132e+001 22333 110547,110832,110760
 3.9000e+000 111308 -1.6663e+002 -3.7835e+002  1.7688e+001 21829 111331,111063,111011
 3.9000e+000 111285 -1.5166e+002 -3.5516e+002 -6.4014e+000 21829 111331,111011,111167
 3.9000e+000 111262 -1.7001e+002 -3.7452e+002  1.8874e+001 21829 111403,111089,111063
 3.9000e+000 111239 -2.1074e+002 -4.0315e+002  5.0893e+001 21829 111011,111063,111037
 3.9000e+000 111216 -1.0249e+002 -2.6421e+002  1.3867e+001 21829 110985,111167,111011
 3.9000e+000 111193 -1.8604e+002 -5.8417e+002  1.2105e+002 21829 111089,111141,111115
 3.9000e+000 111357 -1.6544e+002 -3.7819e+002  1.8860e+001 21829 111403,111063,111331
 3.9000e+000 111380 -1.6948e+002 -3.9365e+002 -1.8696e+000 21829 111141,111331,111167
 3.9000e+000 111429 -1.7422e+002 -3.7974e+002  2.3772e+001 21829 111141,111089,111403
 3.9000e+000 111452 -1.6945e+002 -3.8663e+002  2.1559e+001 21829 111141,111403,111331
 3.9000e+000 112056  9.1360e+001 -2.8928e+002  6.3847e+000 21489 111687,111765,111739
 3.9000e+000 112033  1.0592e+001 -3.3091e+002  3.2261e+001 21489 112151,112079,111687
 3.9000e+000 112010 -1.0126e+001 -5.1136e+002  3.8835e+001 21489 111791,111843,111817
 3.9000e+000 111987 -1.0076e+002 -4.0530e+002 -2.7471e+001 21489 112079,111843,111791
 3.9000e+000 111964  5.7971e+001 -3.0957e+002  6.0468e+001 21489 112151,111687,111661
 3.9000e+000 111941 -3.8928e+001 -2.2812e+002  5.4483e+001 21489 111661,111869,111843
 3.9000e+000 111918  9.5606e+001 -3.1010e+002  4.1581e+001 21489 111687,111739,111713
 3.9000e+000 111895  6.2698e+000 -1.2310e+002  2.2532e+001 21489 111635,111869,111661
 3.9000e+000 112105 -6.3314e+001 -3.5772e+002  1.8531e+001 21489 111765,111687,112079
 3.9000e+000 112128 -6.1666e+001 -3.4134e+002  1.9612e+001 21489 111765,112079,111791
 3.9000e+000 112177 -7.0469e+001 -3.2737e+002 -6.6304e+000 21489 111843,112079,112151
 3.9000e+000 112200 -2.6599e+001 -3.1939e+002  1.6365e+001 21489 111843,112151,111661
 3.9000e+000 112578 -8.3993e+001 -4.1293e+002  1.7411e+001 21177 112382,112434,112408
 3.9000e+000 112555 -1.0067e+002 -4.0921e+002  1.3159e+000 21177 112330,112434,112382
 3.9000e+000 112532 -8.3398e+001 -3.5496e+002  5.8454e+001 21177 112304,112434,112330
 3.9000e+000 112509 -9.8819e+001 -3.9437e+002  0.0000e+000 21177 112330,112382,112356
 3.9000e+000 112486 -2.5351e+001 -2.4128e+002  1.3986e+001 21177 112304,112460,112434
 3.9000e+000 112679 -7.6549e+000 -2.8726e+002 -4.6496e+001 20666 112601,112653,112627
 3.9000e+000 112927 -1.1819e+002 -3.9552e+002  1.3084e+001 19762 112702,112754,112728
 3.9000e+000 112904 -4.6053e+001 -3.7537e+002 -4.7210e+000 19762 112702,112832,112754
 3.9000e+000 112881 -1.0110e+002 -4.0115e+002  6.4811e+001 19762 112754,112832,112806
 3.9000e+000 112858 -1.3917e+002 -4.9166e+002  5.9901e+001 19762 112754,112806,112780
 3.9000e+000 113297 -1.0868e+002 -4.6101e+002  2.8679e+001 19308 112974,113052,113026
 3.9000e+000 113274 -7.4396e+001 -3.8962e+002  9.4983e+000 19308 112974,113156,113052
 3.9000e+000 113251 -4.1027e+001 -5.1054e+002 -6.0375e+001 19308 113052,113130,113104
 3.9000e+000 113228 -7.8779e+001 -3.8595e+002  4.0028e-001 19308 113052,113156,113130
 3.9000e+000 113205 -7.5857e+001 -4.4641e+002  0.0000e+000 19308 113052,113104,113078
 3.9000e+000 113182 -1.4973e+002 -4.7716e+002 -7.0595e-001 19308 112974,113026,113000
 3.9000e+000 113547 -2.5149e+001 -4.2795e+002 -2.6523e+001 18711 113570,113374,113348
 3.9000e+000 113524 -4.1196e+001 -3.9143e+002 -1.4626e+001 18711 113570,113348,113452
 3.9000e+000 113501 -3.2797e+001 -3.0174e+002 -8.4011e+001 18711 113322,113452,113348
 3.9000e+000 113478 -5.1763e+001 -3.7797e+002 -1.3281e+002 18711 113374,113426,113400
 3.9000e+000 113596 -1.8944e+001 -3.8830e+002 -3.6304e+001 18711 113426,113374,113570
 3.9000e+000 113619 -3.9479e+001 -3.5889e+002 -1.6977e+001 18711 113426,113570,113452
 3.9000e+000 113771 -2.1178e+002 -5.2695e+002 -2.8200e+001 18307 113670,113722,113696
 3.9000e+000 113748 -1.6674e+002 -4.9414e+002 -1.2991e+001 18307 113644,113722,113670
 3.9000e+000 113972 -8.8879e+001 -4.3353e+002  6.0682e+000 17945 113822,113874,113848
 3.9000e+000 113949 -9.1469e+001 -4.2854e+002  9.8083e+000 17945 113822,113900,113874
 3.9000e+000 113926 -1.2998e+002 -3.2964e+002  2.0262e+002 17945 113796,113900,113822
 3.9000e+000 114075 -6.5360e+001 -6.4526e+002  6.8631e+001 17482 113997,114049,114023
 3.9000e+000 114479 -2.9954e+001 -3.5786e+002 -5.3720e+001 17042 114257,114361,114335
 3.9000e+000 114456 -8.6598e+001 -3.4690e+002 -1.0321e+001 17042 114205,114361,114257
 3.9000e+000 114433 -1.0717e+002 -3.9983e+002  1.3153e+001 17042 114205,114257,114231
 3.9000e+000 114410  7.7009e+001 -5.2428e+002 -3.4929e+001 17042 114283,114335,114309
 3.9000e+000 114387 -1.0832e+001 -4.5830e+002 -2.2982e+001 17042 114257,114335,114283
 3.9000e+000 114879 -1.8881e+002 -3.9642e+002 -3.8546e+000 16638 114631,114683,114657
 3.9000e+000 114856 -8.9441e+000 -3.1910e+002 -7.1775e+000 16638 114605,114683,114631
 3.9000e+000 114833  3.8225e+001 -2.0419e+002 -1.5586e+001 16638 114605,114761,114683
 3.9000e+000 114810 -3.1824e+001 -4.1206e+002 -2.3220e+001 16638 114683,114735,114709
 3.9000e+000 114787 -6.5181e+001 -4.4174e+002 -3.8238e+001 16638 114683,114761,114735
 3.9000e+000 115078 -1.7519e+002 -4.0009e+002  7.4594e+000 16232 114954,115006,114980
 3.9000e+000 115055 -1.8370e+002 -4.4546e+002  1.8943e+001 16232 114928,115006,114954
 3.9000e+000 115032 -8.7652e+001 -5.6038e+002  3.7176e+001 16232 114902,115006,114928
 3.9000e+000 115228 -1.3257e+002 -4.1529e+002  1.0618e+001 15482 115101,115153,115127
 3.9000e+000 115205 -1.0151e+002 -3.9031e+002 -3.7308e+000 15482 115101,115179,115153
 3.9000e+000 115331 -1.0189e+002 -3.9440e+002 -4.6456e+001 15163 115253,115305,115279
 3.9000e+000 115434 -1.2196e+002 -4.1320e+002  5.6267e+001 421 115356,115408,115382
 4.0000e+000 68213 -3.8055e+001 -2.4615e+002 -2.2372e+001 67888 68112,68164,68138
 4.0000e+000 68190 -2.8072e+002 -3.1859e+002 -3.6668e+001 67888 68086,68164,68112
 4.0000e+000 68314 -3.2753e+001 -3.2997e+002  3.1155e+001 67576 68236,68288,68262
 4.0000e+000 68584 -9.3574e+001 -5.7366e+002  2.6690e+001 67378 68385,68489,68463
 4.0000e+000 68561 -5.7201e+001 -5.5081e+002  8.8249e+000 67378 68359,68489,68385
 4.0000e+000 68538 -6.4563e+001 -4.9937e+002  3.9066e+001 67378 68385,68463,68411
 4.0000e+000 68515 -3.1835e+001 -3.0580e+002  2.9264e+001 67378 68411,68463,68437
 4.0000e+000 68964 -1.1731e+002 -4.8470e+002  7.1509e+001 67130 68690,68820,68716
 4.0000e+000 68941  9.8372e+001 -4.9747e+002  1.3480e+002 67130 68690,68846,68820
 4.0000e+000 68918 -1.0362e+002 -3.2468e+002  6.3491e+000 67130 68742,68820,68794
 4.0000e+000 68895 -2.2572e+001 -3.2545e+002  2.8916e+001 67130 68716,68820,68742
 4.0000e+000 68872 -6.8732e+001 -2.7700e+002 -3.3598e+001 67130 68742,68794,68768
 4.0000e+000 69065 -7.7936e+001 -3.1779e+002  1.1153e+000 66926 68987,69039,69013
 4.0000e+000 69445 -3.5677e+001 -2.8783e+002 -1.8848e+001 66614 69223,69301,69275
 4.0000e+000 69422 -6.5341e+001 -3.0797e+002 -5.4844e+000 66614 69171,69301,69223
 4.0000e+000 69399 -8.0752e+001 -3.1991e+002  1.6252e+000 66614 69171,69327,69301
 4.0000e+000 69376  5.4856e+000 -1.0861e+002  5.4766e+000 66614 69223,69275,69249
 4.0000e+000 69353 -6.2062e+001 -3.3357e+002 -8.5667e+000 66614 69171,69223,69197
 4.0000e+000 69546 -7.9058e+001 -4.4471e+002  2.2010e+001 66416 69468,69520,69494
 4.0000e+000 69997 -6.5734e+001 -4.5118e+002 -3.8758e+001 66104 69700,69830,69726
 4.0000e+000 69974 -1.0278e+002 -5.6826e+002 -8.2802e+001 66104 69700,69856,69830
 4.0000e+000 69951 -7.0666e+001 -3.4809e+002 -2.5811e+001 66104 69726,69804,69778
 4.0000e+000 69928 -5.6897e+001 -4.2405e+002 -3.7173e+001 66104 69726,69830,69804
 4.0000e+000 69905 -7.6116e+001 -3.3349e+002 -1.4053e+001 66104 69726,69778,69752
 4.0000e+000 69882 -3.4108e+001 -7.9190e+002 -1.4207e+002 66104 69674,69856,69700
 4.0000e+000 70326 -6.9899e+001 -1.9742e+002  1.2740e+001 65814 70349,70153,70127
 4.0000e+000 70303 -4.5332e+001 -1.9018e+002  1.2918e+001 65814 70349,70127,70101
 4.0000e+000 70280 -3.8547e+001 -1.8224e+002  6.7965e+001 65814 70101,70231,70205
 4.0000e+000 70257  2.6690e+001 -2.2494e+002  3.0700e+001 65814 70153,70205,70179
 4.0000e+000 70375 -5.9285e+001 -2.1308e+002  3.4419e+001 65814 70205,70153,70349
 4.0000e+000 70398 -1.9497e+001 -1.9802e+002  3.1239e+001 65814 70205,70349,70101
 4.0000e+000 70904 -3.3109e+001 -1.1484e+002 -3.3912e+001 65502 70607,70737,70685
 4.0000e+000 70881 -4.2789e+001 -9.2426e+001 -4.5225e+001 65502 70581,70737,70607
 4.0000e+000 70858 -4.2313e+001 -2.9393e+001 -9.5701e+000 65502 70581,70763,70737
 4.0000e+000 70835 -5.2775e+001 -1.2769e+002 -5.0696e+001 65502 70685,70737,70711
 4.0000e+000 70812 -1.6311e+002 -1.4494e+002 -5.8043e+000 65502 70607,70659,70633
 4.0000e+000 70789 -5.3666e+001 -1.5246e+002 -2.4713e+000 65502 70607,70685,70659
 4.0000e+000 71103 -5.0207e+001 -4.0864e+002 -1.1095e+001 65304 71126,70979,70953
 4.0000e+000 71080 -9.0951e+001 -4.1033e+002 -4.0351e+000 65304 71126,70953,70927
 4.0000e+000 71057 -1.2110e+002 -4.0932e+002  3.6318e+001 65304 70927,71031,71005
 4.0000e+000 71152 -9.1510e+001 -3.8339e+002 -2.2728e+001 65304 71005,70979,71126
 4.0000e+000 71175 -1.3954e+002 -3.9382e+002 -6.1400e+000 65304 71005,71126,70927
 4.0000e+000 71374 -2.5167e+001 -3.9568e+002  2.1017e+001 65106 71198,71276,71224
 4.0000e+000 71351 -1.1663e+002 -4.3101e+002  7.4615e+000 65106 71198,71302,71276
 4.0000e+000 71328  4.2745e+000 -3.2073e+002  4.7638e+001 65106 71224,71276,71250
 4.0000e+000 71756 -3.8363e+001 -2.6012e+002 -1.8994e+001 64652 71508,71638,71534
 4.0000e+000 71733 -2.0447e-001 -2.4351e+002  2.0486e+000 64652 71482,71638,71508
 4.0000e+000 71710 -7.8197e+001 -2.4974e+002 -1.7385e+001 64652 71534,71586,71560
 4.0000e+000 71687 -6.5757e+001 -2.8587e+002 -4.2982e+001 64652 71534,71612,71586
 4.0000e+000 71664 -1.1773e+002 -2.9851e+002 -4.8532e+001 64652 71534,71638,71612
 4.0000e+000 72085 -1.1263e+002 -2.9691e+002 -3.6434e+001 64248 71886,71964,71912
 4.0000e+000 72062 -9.4136e+001 -2.8882e+002 -3.8439e+001 64248 71860,71964,71886
 4.0000e+000 72039 -4.5035e+001 -3.1714e+002 -2.4692e+001 64248 71912,71964,71938
 4.0000e+000 72016 -7.5116e+001 -2.6525e+002 -4.6650e+001 64248 71860,71990,71964
 4.0000e+000 72235 -2.6682e+000 -1.8302e+002 -2.4186e+001 63858 72588,72258,72134
 4.0000e+000 72212 -2.6468e+001 -1.6270e+002  4.9911e+000 63858 72330,72258,72108
 4.0000e+000 72284 -1.4817e+001 -1.2828e+002 -1.4529e+001 63858 72160,72134,72258
 4.0000e+000 72307 -8.3792e+001 -1.7838e+002 -2.7687e+001 63858 72460,72258,72186
 4.0000e+000 72356 -6.7398e+001 -1.7405e+002 -2.9110e+001 63858 72186,72258,72330
 4.0000e+000 72486 -2.2168e+001 -1.6162e+002 -2.9333e+001 63858 72160,72258,72460
 4.0000e+000 72614 -1.1539e+000 -1.9085e+002 -1.6321e+000 63858 72108,72258,72588
 4.0000e+000 73248 -4.5641e+001 -2.4449e+002  7.8338e+001 63404 72902,72954,72928
 4.0000e+000 73225 -1.4043e+002 -3.0489e+002  3.6409e+001 63404 73271,72954,72902
 4.0000e+000 73202 -1.2395e+002 -2.5899e+002  3.1017e+001 63404 73271,72902,73032
 4.0000e+000 73179 -7.5308e+001 -2.2366e+002  1.1452e+001 63404 72902,73058,73032
 4.0000e+000 73156 -8.3995e+001 -2.6013e+002  3.4925e+001 63404 72980,73032,73006
 4.0000e+000 73133 -6.9708e+001 -2.3732e+002  5.7767e+000 63404 72876,73058,72902
 4.0000e+000 73110 -3.2278e+001 -1.1857e+002 -6.1605e+001 63404 72876,73084,73058
 4.0000e+000 73297 -1.2014e+002 -3.1012e+002  7.3588e+000 63404 72980,72954,73271
 4.0000e+000 73320 -1.1573e+002 -2.8617e+002  6.4657e+000 63404 72980,73271,73032
 4.0000e+000 73470 -1.1014e+002 -7.2155e+002  7.6088e+001 63014 73343,73395,73369
 4.0000e+000 73447 -3.3976e+002 -8.8180e+002 -1.6095e+001 63014 73343,73421,73395
 4.0000e+000 73929  2.7929e+001 -3.4153e+002  3.2841e+001 62702 73759,73811,73785
 4.0000e+000 73906  5.1313e+001 -3.3456e+002  2.5369e+001 62702 73655,73811,73759
 4.0000e+000 73883 -9.6666e+000 -3.9172e+002 -2.3446e+000 62702 73655,73759,73681
 4.0000e+000 73860  4.3649e+001 -2.8498e+002 -6.8839e+001 62702 73681,73759,73707
 4.0000e+000 73837 -1.3791e+002 -3.3729e+002  4.0371e+000 62702 73707,73759,73733
 4.0000e+000 74209 -1.9830e+002 -3.4417e+002  3.2441e+000 62404 74059,74137,74085
 4.0000e+000 74186 -2.4225e+002 -4.5081e+002  5.4070e+001 62404 74033,74137,74059
 4.0000e+000 74163 -2.1997e+002 -3.2201e+002 -1.7250e+000 62404 74085,74137,74111
 4.0000e+000 74408  3.8379e+000 -2.8385e+002  1.9079e+001 62000 74258,74336,74284
 4.0000e+000 74385 -7.9594e+000 -2.8359e+002  3.3298e+001 62000 74232,74336,74258
 4.0000e+000 74362 -6.3420e+001 -2.8264e+002 -3.9924e+000 62000 74284,74336,74310
 4.0000e+000 74509 -2.3321e+001 -3.5852e+002  1.4053e+001 61802 74431,74483,74457
 4.0000e+000 74759 -1.0083e+002 -3.1275e+002  1.9368e+000 61554 74782,74586,74560
 4.0000e+000 74736 -5.6915e+001 -2.8904e+002  1.0949e+001 61554 74782,74560,74664
 4.0000e+000 74713 -8.5130e+001 -2.2699e+002  7.5638e+001 61554 74854,74612,74586
 4.0000e+000 74690 -7.5651e+001 -3.1926e+002  2.2125e+000 61554 74534,74664,74560
 4.0000e+000 74808 -1.2263e+002 -2.8443e+002  2.1121e+001 61554 74854,74586,74782
 4.0000e+000 74831 -7.2318e+001 -3.6020e+002  2.0098e+001 61554 74638,74782,74664
 4.0000e+000 74880 -1.4006e+001 -2.8743e+002  8.4151e+001 61554 74638,74612,74854
 4.0000e+000 74903 -1.6366e+001 -2.8542e+002  4.4487e+001 61554 74638,74854,74782
 4.0000e+000 75285 -3.7823e+001 -3.2963e+002  6.1801e+000 61356 75063,75167,75115
 4.0000e+000 75262 -5.8545e+001 -3.5384e+002 -2.2888e+001 61356 75037,75167,75063
 4.0000e+000 75239  6.7534e+001 -3.4482e+002 -2.9914e+000 61356 75115,75167,75141
 4.0000e+000 75216  2.8948e+001 -2.9265e+002  2.0712e+001 61356 75063,75115,75089
 4.0000e+000 75193 -1.5110e+002 -2.7367e+002  2.2182e+001 61356 75011,75167,75037
 4.0000e+000 75631 -7.1330e+000 -2.5495e+002  3.6140e+000 60952 75654,75412,75360
 4.0000e+000 75608 -4.5226e+001 -2.9841e+002 -1.4204e+001 60952 75654,75360,75334
 4.0000e+000 75585 -2.6963e+001 -3.8110e+002  1.5748e+001 60952 75726,75438,75412
 4.0000e+000 75562 -4.9825e+001 -3.2230e+002 -5.5354e+001 60952 75308,75490,75334
 4.0000e+000 75539 -9.0375e+000 -2.5355e+002 -1.9022e+000 60952 75360,75412,75386
 4.0000e+000 75516 -5.6058e+001 -4.7653e+002 -1.1705e+001 60952 75438,75490,75464
 4.0000e+000 75680  7.6352e-001 -3.2149e+002  1.2983e+000 60952 75726,75412,75654
 4.0000e+000 75703 -4.3014e+000 -3.0816e+002 -1.9999e+001 60952 75490,75654,75334
 4.0000e+000 75752  3.4993e+000 -3.1133e+002 -5.3048e+000 60952 75490,75438,75726
 4.0000e+000 75775  1.8857e+000 -3.0570e+002 -1.7851e+001 60952 75490,75726,75654
 4.0000e+000 76155 -3.9033e+001 -2.9186e+002  7.6018e-003 60754 75933,75985,75959
 4.0000e+000 76132 -6.7409e+001 -3.1000e+002  3.2001e+001 60754 75933,76037,75985
 4.0000e+000 76109  1.2716e+001 -3.0314e+002  1.1500e+001 60754 75985,76037,76011
 4.0000e+000 76086 -1.0449e+002 -2.5377e+002  1.0760e+001 60754 75881,76037,75933
 4.0000e+000 76063 -1.5197e+002 -2.1756e+002  7.2305e+001 60754 75881,75933,75907
 4.0000e+000 76612 -5.0413e+001 -2.6280e+002  4.0503e+000 60350 76635,76442,76390
 4.0000e+000 76589  2.6591e+000 -2.8711e+002  1.7228e+001 60350 76635,76390,76364
 4.0000e+000 76566 -1.8780e+001 -3.5752e+002 -2.8333e+001 60350 76364,76494,76468
 4.0000e+000 76543 -4.4465e+000 -2.3775e+002  2.3277e+001 60350 76390,76442,76416
 4.0000e+000 76520 -1.2453e+002 -2.3902e+002 -5.8496e+001 60350 76338,76494,76364
 4.0000e+000 76661 -8.1907e+001 -2.7793e+002  1.0466e+001 60350 76468,76442,76635
 4.0000e+000 76684 -4.4295e+001 -3.1073e+002  2.5504e+001 60350 76468,76635,76364
 4.0000e+000 76932 -1.0017e+002 -3.3489e+002  8.4536e+000 59946 76955,76733,76707
 4.0000e+000 76909 -9.7865e+001 -3.2825e+002  1.3747e+001 59946 77027,76955,76707
 4.0000e+000 76886 -8.9023e+001 -3.2708e+002  1.0547e+001 59946 77027,76707,76837
 4.0000e+000 76863 -3.7062e+001 -3.7407e+002 -2.7814e+001 59946 76733,76785,76759
 4.0000e+000 76981 -1.0933e+002 -3.3339e+002  7.8709e-001 59946 76785,76733,76955
 4.0000e+000 77004 -1.0125e+002 -3.3284e+002  1.0173e+001 59946 76785,76955,76811
 4.0000e+000 77053 -8.4966e+001 -3.3015e+002  9.8115e+000 59946 76811,76955,77027
 4.0000e+000 77076 -7.7028e+001 -3.2709e+002  5.0432e+000 59946 76811,77027,76837
 4.0000e+000 77226 -1.3585e+002 -3.1704e+002  7.3701e+000 59542 77099,77151,77125
 4.0000e+000 77203 -1.5602e+002 -3.6039e+002  1.2600e+001 59542 77099,77177,77151
 4.0000e+000 77427 -1.6433e+002 -3.3580e+002 -2.1621e+001 59030 77450,77277,77251
 4.0000e+000 77404 -9.4807e+001 -2.5634e+002 -9.2425e+001 59030 77450,77251,77355
 4.0000e+000 77381  4.4173e-001 -3.9951e+002 -4.9583e+000 59030 77277,77329,77303
 4.0000e+000 77476 -8.2358e+001 -3.5255e+002 -6.7486e+001 59030 77329,77277,77450
 4.0000e+000 77499 -1.1757e+001 -3.1407e+002 -1.2277e+002 59030 77329,77450,77355
 4.0000e+000 77749 -1.3201e+002 -4.2026e+002  3.2859e+001 58426 77772,77628,77602
 4.0000e+000 77726 -1.0199e+002 -5.3872e+002  1.4914e+002 58426 77524,77654,77628
 4.0000e+000 77703 -1.0981e+002 -4.1811e+002  2.4592e+001 58426 77772,77602,77550
 4.0000e+000 77680 -5.7402e+001 -3.8918e+002 -1.6833e+001 58426 77550,77602,77576
 4.0000e+000 77798 -1.0622e+002 -4.2006e+002  3.3275e+001 58426 77524,77628,77772
 4.0000e+000 77821 -9.5308e+001 -4.2418e+002  2.2214e+001 58426 77524,77772,77550
 4.0000e+000 78071 -1.8536e+002 -4.0036e+002  4.2592e+001 57922 78094,77924,77898
 4.0000e+000 78048 -2.1572e+002 -4.1188e+002  7.9236e+000 57922 78094,77898,77872
 4.0000e+000 78025 -1.7786e+002 -3.8087e+002  3.9904e+001 57922 78166,77846,77950
 4.0000e+000 78002 -9.3529e+001 -3.7597e+002  4.8616e+001 57922 77846,77976,77950
 4.0000e+000 78120 -1.5718e+002 -4.0724e+002  3.0629e+001 57922 77950,77924,78094
 4.0000e+000 78143 -1.7921e+002 -3.8601e+002  3.0790e+001 57922 78166,77950,78094
 4.0000e+000 78192 -1.7187e+002 -3.9541e+002  3.1906e+001 57922 77872,77846,78166
 4.0000e+000 78215 -1.8093e+002 -4.1051e+002  2.2246e+001 57922 77872,78166,78094
 4.0000e+000 78416  4.5856e+001 -3.3225e+002 -2.0131e+001 57468 78439,78292,78240
 4.0000e+000 78393 -1.4791e+001 -3.1153e+002 -4.6628e-001 57468 78439,78240,78344
 4.0000e+000 78370  2.1094e+001 -4.5451e+002 -1.5845e+001 57468 78240,78292,78266
 4.0000e+000 78465 -1.3154e+001 -3.6209e+002 -3.2630e+001 57468 78318,78292,78439
 4.0000e+000 78488 -3.8057e+001 -3.2664e+002 -7.2819e+000 57468 78318,78439,78344
 4.0000e+000 78689  6.1441e+001 -4.1220e+002 -5.4518e+001 57014 78712,78539,78513
 4.0000e+000 78666 -7.3046e+000 -4.0696e+002 -9.6206e+000 57014 78712,78513,78617
 4.0000e+000 78643 -9.1085e+001 -4.3322e+002  4.1517e+001 57014 78565,78617,78591
 4.0000e+000 78738 -2.7417e+001 -3.4090e+002 -5.5964e+001 57014 78565,78539,78712
 4.0000e+000 78761 -1.2925e+002 -3.9627e+002  1.6929e+001 57014 78565,78712,78617
 4.0000e+000 79241 -1.2618e+002 -3.5441e+002  2.7605e+001 56652 79264,78895,78869
 4.0000e+000 79218 -5.6620e+001 -4.6550e+002 -2.8304e+001 56652 79264,78869,79051
 4.0000e+000 79195 -8.6273e+001 -4.0491e+002 -9.7410e+001 56652 78869,79077,79051
 4.0000e+000 79172 -9.5976e+001 -2.2776e+002 -5.7456e+001 56652 78895,78973,78947
 4.0000e+000 79149 -1.6597e+002 -6.7085e+002 -5.6683e+001 56652 78973,79051,78999
 4.0000e+000 79126 -8.8081e+001 -2.1371e+002 -6.1306e+001 56652 78895,78947,78921
 4.0000e+000 79103 -1.4867e+002 -4.7646e+002  1.1436e+002 56652 78999,79051,79025
 4.0000e+000 79290 -7.3949e+001 -2.8396e+002  6.6696e+001 56652 78973,78895,79264
 4.0000e+000 79313  5.7555e-001 -4.0261e+002  1.4806e+001 56652 78973,79264,79051
 4.0000e+000 79512 -4.9282e+001 -4.9137e+002  5.0110e+001 56062 79388,79440,79414
 4.0000e+000 79489 -2.1948e+002 -2.7026e+002  6.7863e+001 56062 79336,79440,79388
 4.0000e+000 79466 -1.0233e+002 -2.1880e+002  1.0453e+002 56062 79336,79388,79362
 4.0000e+000 79941 -6.0963e+001 -3.0231e+002  4.5932e+001 55658 79964,79670,79644
 4.0000e+000 79918 -9.2629e+001 -3.1076e+002  5.2933e+001 55658 79964,79644,79800
 4.0000e+000 79895 -8.4040e+001 -3.2650e+002  2.3097e+001 55658 80036,79696,79670
 4.0000e+000 79872 -9.8776e+001 -2.8070e+002 -7.5258e+000 55658 80108,79722,79696
 4.0000e+000 79849 -1.4697e+002 -2.8274e+002  7.8581e+000 55658 79722,79774,79748
 4.0000e+000 79826 -1.8156e+000 -2.7830e+002  1.4397e+001 55658 79618,79800,79644
 4.0000e+000 79990 -9.6694e+001 -3.2999e+002  3.3314e+001 55658 80036,79670,79964
 4.0000e+000 80013 -8.2112e+001 -2.8319e+002  5.6717e+001 55658 79774,79964,79800
 4.0000e+000 80062 -7.1335e+001 -2.9907e+002  1.8142e+001 55658 80108,79696,80036
 4.0000e+000 80085 -9.1572e+001 -2.8551e+002  4.5536e+001 55658 79774,80036,79964
 4.0000e+000 80134 -1.5219e+002 -2.9944e+002  3.3818e+000 55658 79774,79722,80108
 4.0000e+000 80157 -1.3668e+002 -3.2525e+002  2.8724e+001 55658 79774,80108,80036
 4.0000e+000 80307 -1.4901e+002 -2.9065e+002  4.1500e+001 55254 80402,80330,80206
 4.0000e+000 80284 -1.4277e+002 -3.8651e+002  4.5463e+001 55254 80330,80180,80258
 4.0000e+000 80356 -1.7422e+002 -3.4826e+002  7.9433e+001 55254 80232,80206,80330
 4.0000e+000 80379 -4.0096e+001 -2.8759e+002  1.1507e+002 55254 80232,80330,80258
 4.0000e+000 80428 -2.0800e+002 -3.4810e+002  1.7507e+001 55254 80180,80330,80402
 4.0000e+000 80659 -7.1910e+001 -3.8122e+002 -3.4520e+001 54850 80558,80610,80584
 4.0000e+000 80636  1.9797e+001 -3.5989e+002 -4.4747e+001 54850 80532,80610,80558
 4.0000e+000 80760 -2.6210e+001 -3.1130e+002 -2.9266e+001 54652 80682,80734,80708
 4.0000e+000 81164 -1.9898e+001 -3.2929e+002 -8.6580e+000 54248 81187,80942,80890
 4.0000e+000 81141 -2.4570e+001 -3.3888e+002 -6.3893e+000 54248 81187,80890,81046
 4.0000e+000 81118 -3.1082e+001 -3.4153e+002  6.8108e+001 54248 80942,81020,80994
 4.0000e+000 81095 -1.8854e+001 -3.4109e+002  1.8331e+000 54248 80890,80942,80916
 4.0000e+000 81072 -3.9964e+001 -1.8675e+002  6.0368e+000 54248 80942,80994,80968
 4.0000e+000 81213 -2.6886e+001 -3.2205e+002 -7.0941e+000 54248 81020,80942,81187
 4.0000e+000 81236 -2.8995e+001 -3.2834e+002 -5.6863e+000 54248 81020,81187,81046
 4.0000e+000 81663 -1.5477e+002 -3.0335e+002  2.6085e+001 53594 81340,81444,81366
 4.0000e+000 81640 -1.4307e+002 -4.2150e+002  1.1299e+001 53594 81340,81470,81444
 4.0000e+000 81617 -3.7059e+001 -3.7136e+002 -4.4527e+000 53594 81340,81522,81470
 4.0000e+000 81594 -7.9457e+001 -2.2138e+002 -2.7289e+001 53594 81392,81444,81418
 4.0000e+000 81571 -1.1218e+002 -2.6157e+002 -4.1650e+001 53594 81366,81444,81392
 4.0000e+000 81548  3.1475e+001 -6.6383e+002  1.9873e+002 53594 81470,81522,81496
 4.0000e+000 81943 -3.7260e+001 -2.1495e+002 -2.6572e+001 53104 81966,81845,81819
 4.0000e+000 81920 -5.7244e+001 -1.7810e+002 -3.2505e+001 53104 81966,81819,81767
 4.0000e+000 81897 -5.8333e+001 -1.7682e+002 -3.7405e+001 53104 81767,81819,81793
 4.0000e+000 81992 -2.3668e+001 -1.9120e+002 -3.2055e+001 53104 81871,81845,81966
 4.0000e+000 82015 -3.3528e+001 -1.3954e+002 -4.2794e+001 53104 81871,81966,81767
 4.0000e+000 82491 -2.9544e+001 -2.1049e+002 -1.3440e+001 52650 82145,82249,82171
 4.0000e+000 82468 -1.8205e+002 -2.4794e+002 -2.8949e+001 52650 82145,82301,82249
 4.0000e+000 82445 -1.8736e+002 -3.8189e+002 -7.0947e+001 52650 82249,82301,82275
 4.0000e+000 82422 -6.0504e+001 -4.8152e+002 -8.7833e+001 52650 82119,82301,82145
 4.0000e+000 82399 -5.1159e+001 -1.7163e+002  2.5038e+001 52650 82171,82249,82223
 4.0000e+000 82376  3.9714e+001 -4.4162e+002 -7.4320e+001 52650 82119,82327,82301
 4.0000e+000 82353 -1.5382e+001 -8.2908e+001 -3.5383e+001 52650 82171,82223,82197
 4.0000e+000 82739 -4.1958e+001 -2.0278e+002  8.1529e+000 52246 82762,82540,82514
 4.0000e+000 82716 -2.4653e+001 -6.5055e+001 -1.2205e+001 52246 82762,82514,82644
 4.0000e+000 82693 -9.5538e+001 -2.3565e+002  5.7423e+001 52246 82540,82618,82592
 4.0000e+000 82670 -1.2199e+002 -2.3837e+002  5.5434e+001 52246 82540,82592,82566
 4.0000e+000 82788 -2.3220e+001 -2.6557e+002  1.9304e+001 52246 82618,82540,82762
 4.0000e+000 82811 -6.5641e+001 -2.2272e+002 -1.9770e+001 52246 82618,82762,82644
 4.0000e+000 83059 -3.0605e+001 -2.9454e+002  2.7536e+001 51578 82860,82964,82938
 4.0000e+000 83036  3.6299e+000 -1.8501e+002 -6.6756e+001 51578 82834,82964,82860
 4.0000e+000 83013 -1.2011e+001 -2.2454e+002  6.2233e+001 51578 82860,82938,82886
 4.0000e+000 82990 -8.4065e+000 -1.3212e+002  8.6622e+000 51578 82886,82938,82912
 4.0000e+000 83309 -5.1034e+001 -1.6511e+002  4.7971e+001 51138 83332,83162,83136
 4.0000e+000 83286 -1.7937e+001 -2.1684e+002  1.5547e+001 51138 83332,83136,83110
 4.0000e+000 83263 -8.3001e+001 -2.2500e+002 -1.3358e+001 51138 83404,83214,83188
 4.0000e+000 83240 -1.3844e+000 -1.4117e+002  1.3058e+001 51138 83084,83214,83110
 4.0000e+000 83358 -8.3724e+001 -2.2827e+002  6.0786e+001 51138 83188,83162,83332
 4.0000e+000 83381 -5.7139e+001 -2.4893e+002  9.2757e+000 51138 83404,83188,83332
 4.0000e+000 83430 -5.2605e+001 -1.6608e+002  5.0355e-001 51138 83110,83214,83404
 4.0000e+000 83453 -2.9977e+001 -2.0284e+002  2.1864e+001 51138 83110,83404,83332
 4.0000e+000 83835 -3.9100e+001 -2.6844e+002 -2.0911e+000 50734 83613,83717,83691
 4.0000e+000 83812 -4.1318e+001 -2.8032e+002 -6.5043e+001 50734 83561,83717,83613
 4.0000e+000 83789 -1.3853e+001 -1.3985e+002 -9.0662e+001 50734 83561,83613,83587
 4.0000e+000 83766 -1.0151e+002 -1.7420e+002 -3.7270e-001 50734 83613,83691,83639
 4.0000e+000 83743 -1.0743e+002 -1.7696e+002  3.4837e+001 50734 83639,83691,83665
 4.0000e+000 84034 -6.7385e+001 -1.7364e+002  1.0416e+001 50230 84057,83884,83858
 4.0000e+000 84011 -6.8162e+001 -1.9044e+002 -1.4990e+001 50230 84129,84057,83858
 4.0000e+000 83988 -2.2987e+001 -2.0259e+002 -2.6407e+001 50230 84129,83858,83962
 4.0000e+000 84083 -2.4174e+001 -1.5910e+002  1.9249e+001 50230 83910,83884,84057
 4.0000e+000 84106 -4.2884e+001 -1.9152e+002  1.0216e+001 50230 83910,84057,83936
 4.0000e+000 84155 -9.2255e+000 -1.6387e+002 -1.9643e+000 50230 83936,84057,84129
 4.0000e+000 84178  7.9342e+000 -1.9594e+002 -1.9822e+001 50230 83936,84129,83962
 4.0000e+000 84558 -7.0553e+001 -2.2222e+002 -3.6221e+001 49768 84581,84388,84362
 4.0000e+000 84535 -1.4759e+002 -2.2436e+002 -1.3687e+001 49768 84581,84362,84310
 4.0000e+000 84512  6.3282e+000 -2.4103e+002 -3.8036e+001 49768 84653,84440,84414
 4.0000e+000 84489 -1.1363e+002 -2.4213e+002  1.8610e+001 49768 84310,84362,84336
 4.0000e+000 84466 -3.1996e+000 -1.7455e+002  2.8571e+001 49768 84284,84440,84310
 4.0000e+000 84607 -1.4125e+001 -1.8378e+002 -6.2299e+001 49768 84414,84388,84581
 4.0000e+000 84630 -2.4286e+001 -2.2675e+002 -2.7044e+001 49768 84653,84414,84581
 4.0000e+000 84679 -3.4641e+001 -2.2769e+002 -5.1903e+001 49768 84310,84440,84653
 4.0000e+000 84702 -7.8442e+001 -2.2819e+002 -5.2763e+001 49768 84310,84653,84581
 4.0000e+000 85159 -1.1959e+002 -3.2731e+002 -9.3586e+001 49192 84885,84937,84911
 4.0000e+000 85136 -1.2438e+002 -2.7985e+002 -7.0013e+001 49192 84885,85041,84937
 4.0000e+000 85113 -9.2361e+001 -2.3726e+002 -3.2256e+001 49192 84963,85041,84989
 4.0000e+000 85090 -8.3103e+001 -2.2466e+002 -5.1743e+001 49192 84937,85041,84963
 4.0000e+000 85067 -7.5238e+001 -2.4544e+002 -2.0266e+001 49192 84989,85041,85015
 4.0000e+000 85714 -1.2612e+002 -2.1273e+002 -1.2742e+000 48638 85368,85498,85394
 4.0000e+000 85691 -1.5812e+002 -2.4789e+002  1.2831e+001 48638 85368,85524,85498
 4.0000e+000 85668 -1.3958e+002 -2.0277e+002  5.2236e+001 48638 85737,85420,85394
 4.0000e+000 85645 -1.2046e+002 -2.3306e+002  2.8276e+001 48638 85737,85394,85498
 4.0000e+000 85622 -9.7312e+001 -2.4042e+002  4.8283e+001 48638 85446,85498,85472
 4.0000e+000 85599 -4.1060e+001 -2.0319e+002  2.2799e+001 48638 85342,85524,85368
 4.0000e+000 85576 -1.5579e+002 -2.2887e+002  2.1920e+001 48638 85342,85550,85524
 4.0000e+000 85763 -1.0342e+002 -1.8256e+002  7.1270e+001 48638 85446,85420,85737
 4.0000e+000 85786 -1.0543e+002 -2.1036e+002  4.3150e+001 48638 85446,85737,85498
 4.0000e+000 86371 -1.0290e+002 -1.5740e+002 -1.0791e+001 48084 86100,86230,86178
 4.0000e+000 86348 -1.2853e+002 -2.0129e+002 -2.3867e+001 48084 86048,86230,86100
 4.0000e+000 86325 -1.0833e+002 -1.4869e+002  3.8642e+001 48084 86100,86178,86126
 4.0000e+000 86302 -5.9748e+001 -3.9101e+001 -4.1800e+001 48084 86048,86100,86074
 4.0000e+000 86279 -1.3325e+002 -2.5215e+002 -4.7707e+000 48084 86178,86230,86204
 4.0000e+000 86256 -9.6414e+001 -1.7372e+002  3.6696e+001 48084 86126,86178,86152
 4.0000e+000 86619 -8.6859e+001 -1.9002e+002  1.5497e+001 47630 86642,86446,86420
 4.0000e+000 86596 -1.0502e+002 -2.1080e+002 -2.2635e+001 47630 86642,86420,86394
 4.0000e+000 86573 -1.2998e+002 -2.4868e+002 -3.3720e+001 47630 86394,86524,86498
 4.0000e+000 86550 -5.2548e+001 -2.1831e+002  1.3040e+001 47630 86446,86498,86472
 4.0000e+000 86668 -1.0648e+002 -2.3343e+002 -6.4446e-001 47630 86498,86446,86642
 4.0000e+000 86691 -1.1665e+002 -2.4090e+002 -3.7977e+001 47630 86498,86642,86394
 4.0000e+000 87022 -4.9912e+000 -1.2996e+002 -7.6979e+001 47226 87045,86875,86849
 4.0000e+000 86999  5.5845e-001 -1.4770e+002 -7.2700e+001 47226 87045,86849,86797
 4.0000e+000 86976  2.8382e+000 -6.6955e+001 -1.6382e+001 47226 86797,86849,86823
 4.0000e+000 86953  9.7821e+000 -9.2308e+001 -3.7303e+001 47226 86875,86927,86901
 4.0000e+000 87071 -1.4595e+001 -1.4323e+002 -7.2757e+001 47226 86927,86875,87045
 4.0000e+000 87094 -4.3123e+000 -1.5532e+002 -7.0275e+001 47226 86927,87045,86797
 4.0000e+000 87244 -1.2285e+001 -2.4779e+002  6.7953e+001 46814 87267,87169,87143
 4.0000e+000 87221 -1.1752e+002 -2.2257e+002 -1.1674e+001 46814 87267,87143,87117
 4.0000e+000 87293 -1.2844e+001 -1.8974e+002  4.1151e+001 46814 87339,87267,87195
 4.0000e+000 87316 -1.2539e+001 -1.7780e+002  6.8969e+000 46814 87469,87267,87117
 4.0000e+000 87365  1.7087e+001 -1.7467e+002  4.7853e+001 46814 87169,87267,87339
 4.0000e+000 87495 -1.3638e+000 -2.1845e+001 -1.9707e+000 46814 87195,87267,87469
 4.0000e+000 88001 -8.0228e+001 -1.9787e+002  4.2443e+001 46310 88024,87834,87808
 4.0000e+000 87978 -9.6331e+001 -2.0130e+002  2.5813e+001 46310 88024,87808,87756
 4.0000e+000 87955 -5.0312e+001 -2.5638e+002  1.0342e+001 46310 88096,87730,87860
 4.0000e+000 87932 -6.9997e+001 -2.5640e+002  2.6665e+001 46310 87756,87808,87782
 4.0000e+000 87909 -6.2972e+001 -3.1349e+002  1.1504e+001 46310 87678,87860,87730
 4.0000e+000 87886 -9.5986e+001 -4.9324e+002 -2.4649e+001 46310 87678,87730,87704
 4.0000e+000 88050 -6.8181e+001 -1.7123e+002  2.5868e+001 46310 87860,87834,88024
 4.0000e+000 88073 -5.1879e+001 -1.8961e+002  3.2019e+001 46310 88096,87860,88024
 4.0000e+000 88122 -6.6438e+001 -2.8829e+002 -1.2386e+001 46310 87756,87730,88096
 4.0000e+000 88145 -1.0947e+002 -2.6169e+002 -1.2993e-001 46310 87756,88096,88024
 4.0000e+000 88572 -4.3715e+001 -2.3382e+002  1.4180e+001 45856 88249,88405,88275
 4.0000e+000 88549 -3.5310e+001 -6.9256e+001 -4.8922e+001 45856 88249,88431,88405
 4.0000e+000 88526 -1.1336e+002 -3.2486e+002 -4.1447e+001 45856 88327,88405,88353
 4.0000e+000 88503 -5.1977e+001 -2.8303e+002 -1.8390e+001 45856 88275,88405,88327
 4.0000e+000 88480 -9.1891e+001 -2.7512e+002 -4.3717e+001 45856 88353,88405,88379
 4.0000e+000 88457 -2.1754e+002 -5.9555e+002  4.9696e+001 45856 88275,88327,88301
 4.0000e+000 88950 -4.5696e+001 -1.5071e+002 -1.7784e+000 45658 88973,88754,88728
 4.0000e+000 88927 -4.5195e+001 -1.5957e+002 -3.0722e+000 45658 88973,88728,88676
 4.0000e+000 88904 -4.4009e+001 -1.9224e+002  5.5883e+001 45658 88676,88832,88806
 4.0000e+000 88881 -7.3104e+001 -2.1233e+002  1.9362e+001 45658 88676,88728,88702
 4.0000e+000 88858 -5.3791e+001 -1.3708e+002 -2.3224e+001 45658 88754,88806,88780
 4.0000e+000 88999 -4.7675e+001 -1.5860e+002 -1.2632e+000 45658 88806,88754,88973
 4.0000e+000 89022 -4.4464e+001 -1.6374e+002 -2.8630e+000 45658 88806,88973,88676
 4.0000e+000 89351 -6.5707e+001 -2.2843e+002 -1.1405e+001 45254 89152,89230,89204
 4.0000e+000 89328 -5.8653e+001 -2.2536e+002 -1.1016e+001 45254 89152,89256,89230
 4.0000e+000 89305 -1.5432e+001 -2.3902e+002 -3.0185e+001 45254 89126,89256,89152
 4.0000e+000 89282  1.1182e+001 -2.3179e+002 -4.4080e+001 45254 89152,89204,89178
 4.0000e+000 89523 -3.7605e+001 -1.9793e+002  1.3152e-001 45006 89422,89474,89448
 4.0000e+000 89500 -2.8855e+001 -1.9422e+002  7.1274e+000 45006 89396,89474,89422
 4.0000e+000 89673 -1.8928e+002 -3.3150e+002  2.9277e+001 44495 89572,89624,89598
 4.0000e+000 89650 -1.9285e+002 -3.2834e+002  1.8507e+001 44495 89546,89624,89572
 4.0000e+000 90104 -1.9761e+001 -2.5526e+002 -1.3245e+001 44005 90199,90127,89937
 4.0000e+000 90081 -5.0783e+001 -2.5351e+002  3.6287e+000 44005 90271,90127,89859
 4.0000e+000 90058 -2.9280e+000 -2.6480e+002 -1.4520e+001 44005 90199,89937,89885
 4.0000e+000 90035 -7.1049e+001 -2.4163e+002  1.5064e+001 44005 90271,89859,89807
 4.0000e+000 90012 -3.6265e+001 -2.9190e+002 -3.4172e+001 44005 89885,89937,89911
 4.0000e+000 89989 -2.2665e+001 -2.6156e+002  4.5595e+001 44005 89807,89859,89833
 4.0000e+000 90153 -5.1982e+001 -2.6588e+002 -5.6399e+000 44005 89963,89937,90127
 4.0000e+000 90176 -5.7268e+001 -2.8661e+002  6.8375e+000 44005 89963,90127,89781
 4.0000e+000 90225 -5.5964e+001 -2.5703e+002 -4.1154e+000 44005 89859,90127,90199
 4.0000e+000 90248 -2.3774e+001 -2.5746e+002  5.7419e-001 44005 89859,90199,89885
 4.0000e+000 90297 -7.8368e+001 -2.6857e+002 -2.1722e+000 44005 89781,90127,90271
 4.0000e+000 90320 -9.0270e+001 -2.5219e+002  1.0900e+001 44005 89781,90271,89807
 4.0000e+000 90470 -4.7375e+001 -2.8693e+002 -1.1610e+001 43601 90493,90369,90343
 4.0000e+000 90447 -7.7742e+001 -2.3308e+002  1.4341e+001 43601 90493,90343,90421
 4.0000e+000 90519 -9.4407e+001 -3.8740e+002 -4.6580e+001 43601 90395,90369,90493
 4.0000e+000 90542 -7.4600e+001 -2.7271e+002 -1.3592e+001 43601 90395,90493,90421
 4.0000e+000 90922 -1.0341e+002 -3.0313e+002  2.1910e+001 43154 90945,90700,90674
 4.0000e+000 90899 -9.4866e+001 -3.0933e+002 -2.9586e+001 43154 90945,90674,90648
 4.0000e+000 90876 -1.1205e+002 -2.4980e+002 -1.8972e+001 43154 90648,90778,90752
 4.0000e+000 90853 -5.8046e+001 -4.9792e+002  1.3764e+001 43154 90700,90752,90726
 4.0000e+000 90830 -6.7655e+001 -2.5169e+002 -4.5289e+000 43154 90648,90804,90778
 4.0000e+000 90971 -1.1841e+002 -3.4789e+002  2.9541e+001 43154 90752,90700,90945
 4.0000e+000 90994 -1.0563e+002 -3.3602e+002 -2.0568e+001 43154 90752,90945,90648
 4.0000e+000 91451 -2.3581e+001 -2.2452e+002 -4.0107e+001 42650 91203,91255,91229
 4.0000e+000 91428  2.4659e+001 -2.0334e+002 -1.9592e+001 42650 91203,91333,91255
 4.0000e+000 91405  1.1100e-002 -3.2892e+002 -5.5934e+001 42650 91177,91333,91203
 4.0000e+000 91382 -1.0034e+002 -3.4829e+002  4.6298e+001 42650 91255,91333,91281
 4.0000e+000 91359 -2.2947e+001 -3.0139e+002  2.5403e+001 42650 91281,91333,91307
 4.0000e+000 91721 -1.4152e+002 -3.2520e+002  2.2311e+001 42288 91496,91600,91522
 4.0000e+000 91698 -7.3932e+001 -1.8569e+002 -7.6440e+000 42288 91496,91626,91600
 4.0000e+000 91675 -9.0299e+001 -2.9763e+002  2.5676e+001 42288 91522,91574,91548
 4.0000e+000 91652 -7.3764e+001 -2.9907e+002  2.2973e+001 42288 91522,91600,91574
 4.0000e+000 92199 -2.1158e+002 -3.5766e+002 -8.8094e+000 41898 92222,91983,91879
 4.0000e+000 92176 -2.1517e+002 -3.8576e+002 -1.9898e+001 41898 92294,92222,91879
 4.0000e+000 92153 -2.2475e+002 -3.7984e+002 -2.7289e+001 41898 92294,91879,91853
 4.0000e+000 92130 -1.8657e+002 -2.2595e+002  2.1501e+001 41898 91879,91957,91931
 4.0000e+000 92107 -1.9252e+002 -3.5036e+002 -1.5409e+000 41898 91879,91983,91957
 4.0000e+000 92084 -1.9181e+002 -2.0143e+002  3.3758e+001 41898 91879,91931,91905
 4.0000e+000 92061 -2.0359e+002 -3.4164e+002 -2.2355e+001 41898 91827,92035,91853
 4.0000e+000 92248 -2.0897e+002 -3.9219e+002 -1.5123e+000 41898 92009,91983,92222
 4.0000e+000 92271 -2.0575e+002 -3.9975e+002 -2.8025e+001 41898 92009,92222,92035
 4.0000e+000 92320 -1.9849e+002 -3.7724e+002 -2.2859e+001 41898 92035,92222,92294
 4.0000e+000 92343 -2.0580e+002 -3.7080e+002 -2.9971e+001 41898 92035,92294,91853
 4.0000e+000 92770 -7.4308e+001 -3.2588e+002 -2.1176e+001 41437 92865,92793,92525
 4.0000e+000 92747 -1.0452e+002 -3.8568e+002 -3.1435e+001 41437 92793,92473,92629
 4.0000e+000 92724 -4.0908e+001 -3.2977e+002 -3.8980e+001 41437 92865,92525,92499
 4.0000e+000 92701 -1.1341e+002 -3.0212e+002 -4.8887e+001 41437 92525,92603,92577
 4.0000e+000 92678 -3.0470e+000 -3.7039e+002 -2.6746e+001 41437 92447,92629,92473
 4.0000e+000 92655 -1.7619e+002 -2.7350e+002 -2.8933e+001 41437 92525,92577,92551
 4.0000e+000 92819 -8.6801e+001 -3.5436e+002 -4.8976e+001 41437 92603,92525,92793
 4.0000e+000 92842 -1.5709e+002 -3.7822e+002 -9.0210e+001 41437 92603,92793,92629
 4.0000e+000 92891 -5.5676e+000 -3.6170e+002 -3.1198e+001 41437 92473,92793,92865
 4.0000e+000 92914  4.5228e+001 -3.4103e+002 -5.8299e+001 41437 92473,92865,92499
 4.0000e+000 93243 -5.2283e+001 -4.7919e+002  1.7596e+002 41097 93044,93096,93070
 4.0000e+000 93220 -9.2467e+001 -4.1903e+002  9.3184e+001 41097 93044,93122,93096
 4.0000e+000 93197  1.8446e+001 -2.8006e+002  3.8030e+001 41097 93044,93148,93122
 4.0000e+000 93174 -7.9975e+001 -2.2938e+002  7.8139e+001 41097 93018,93148,93044
 4.0000e+000 93393 -9.1575e+000 -3.5432e+002  2.3872e+001 40643 93416,93292,93344
 4.0000e+000 93370 -1.5162e+001 -3.3155e+002  2.6619e+001 40643 93266,93344,93292
 4.0000e+000 93442 -1.5273e+001 -3.5277e+002  2.9725e+001 40643 93318,93292,93416
 4.0000e+000 93901 -1.1350e+002 -3.3510e+002 -2.1776e+001 40132 93924,93731,93705
 4.0000e+000 93878 -1.2036e+002 -3.4678e+002 -2.5043e+001 40132 93996,93924,93705
 4.0000e+000 93855 -1.4124e+002 -3.9786e+002 -9.6438e+000 40132 93996,93705,93653
 4.0000e+000 93832 -6.5784e+001 -3.8232e+002 -2.2556e+001 40132 93653,93705,93679
 4.0000e+000 93809 -1.1256e+002 -3.3658e+002  5.1631e+000 40132 93627,93783,93757
 4.0000e+000 93950 -1.0903e+002 -3.5664e+002 -2.6368e+001 40132 93757,93731,93924
 4.0000e+000 93973 -1.2287e+002 -3.1794e+002 -6.2378e+000 40132 93757,93924,93627
 4.0000e+000 94022 -1.5607e+002 -3.7827e+002  1.2106e+001 40132 93627,93924,93996
 4.0000e+000 94045 -1.4637e+002 -3.9621e+002  2.3341e+001 40132 93627,93996,93653
 4.0000e+000 94423 -1.6223e+001 -3.6711e+002 -5.3341e+001 39514 94149,94227,94175
 4.0000e+000 94400 -3.4126e+001 -3.4890e+002  4.0757e+001 39514 94149,94305,94227
 4.0000e+000 94377  1.3964e+001 -4.3671e+002 -5.0305e+001 39514 94175,94227,94201
 4.0000e+000 94354 -1.0745e+002 -3.2330e+002  1.7466e+001 39514 94227,94305,94279
 4.0000e+000 94331 -4.4090e+001 -2.9407e+002  3.0931e+001 39514 94227,94279,94253
 4.0000e+000 94573 -3.4810e+001 -2.2358e+002 -4.6860e+001 38822 94596,94498,94472
 4.0000e+000 94550  3.8346e+001 -2.4547e+002  5.0405e+001 38822 94596,94472,94446
 4.0000e+000 94622 -1.1966e+002 -2.6022e+002 -4.2266e+001 38822 94524,94498,94596
 4.0000e+000 94645 -1.0596e+002 -3.1130e+002  6.5440e+001 38822 94524,94596,94446
 4.0000e+000 95025 -2.1428e+001 -2.8913e+002 -2.1194e+001 38418 95048,94829,94777
 4.0000e+000 95002 -3.1286e+001 -3.0523e+002 -3.6106e+001 38418 95120,95048,94777
 4.0000e+000 94979 -2.4467e+001 -2.9945e+002 -3.3479e+001 38418 95120,94777,94751
 4.0000e+000 94956 -1.9905e+001 -2.6754e+002 -3.9627e+001 38418 95192,94881,94855
 4.0000e+000 94933 -9.0698e+001 -2.6046e+002 -1.2449e+001 38418 94777,94829,94803
 4.0000e+000 95074 -5.3413e+001 -3.8515e+002 -7.6400e+000 38418 94855,94829,95048
 4.0000e+000 95097 -2.7526e+001 -3.0101e+002 -4.4315e+001 38418 95192,94855,95048
 4.0000e+000 95146 -5.6302e+001 -2.8709e+002 -2.9012e+001 38418 94907,95048,95120
 4.0000e+000 95169 -3.5579e+001 -2.6946e+002 -2.1270e+001 38418 94907,95120,94751
 4.0000e+000 95218 -2.8315e+001 -2.0695e+002 -3.4569e+001 38418 94907,94881,95192
 4.0000e+000 95241 -4.6507e+001 -2.5961e+002 -3.0701e+001 38418 94907,95192,95048
 4.0000e+000 95511 -1.0327e+002 -3.2102e+002  1.2948e+001 38049 95312,95390,95364
 4.0000e+000 95488 -7.5955e+001 -3.1067e+002  1.6135e+001 38049 95312,95416,95390
 4.0000e+000 95465 -3.7577e+001 -3.0796e+002 -2.1108e+001 38049 95312,95364,95338
 4.0000e+000 95442 -2.9426e+001 -2.9408e+002  2.8775e+001 38049 95286,95416,95312
 4.0000e+000 95808 -9.2840e+001 -3.5487e+002 -6.9861e+000 37437 95831,95586,95560
 4.0000e+000 95785  3.2419e+001 -3.7743e+002 -1.6718e+001 37437 95831,95560,95534
 4.0000e+000 95762 -1.8520e+002 -3.4232e+002  7.3664e+000 37437 95586,95664,95638
 4.0000e+000 95739 -3.1210e+001 -1.7421e+002 -9.3358e+001 37437 95534,95690,95664
 4.0000e+000 95716 -1.6731e+002 -2.4843e+002  9.7802e+000 37437 95586,95638,95612
 4.0000e+000 95857 -1.7297e+002 -3.4910e+002  4.3125e+001 37437 95664,95586,95831
 4.0000e+000 95880 -3.9743e+001 -3.6775e+002  3.4992e+001 37437 95664,95831,95534
 4.0000e+000 96390 -1.1929e+002 -2.6114e+002 -1.5412e+001 36883 96413,96145,96093
 4.0000e+000 96367 -9.6566e+001 -2.4998e+002 -9.4622e+000 36883 96413,96093,96067
 4.0000e+000 96344 -7.0087e+001 -3.0257e+002  1.2870e+000 36883 96067,96249,96171
 4.0000e+000 96321 -1.0433e+002 -3.0445e+002 -4.4890e+000 36883 96093,96145,96119
 4.0000e+000 96298 -1.4744e+002 -4.9841e+002  4.7320e+001 36883 96171,96249,96197
 4.0000e+000 96275 -4.3394e+001 -3.9395e+002 -9.1676e+000 36883 96197,96249,96223
 4.0000e+000 96439 -1.1331e+002 -2.5373e+002  5.0464e+000 36883 96171,96145,96413
 4.0000e+000 96462 -9.4240e+001 -2.4851e+002  9.1712e+000 36883 96171,96413,96067
 4.0000e+000 96781 -9.6470e+001 -2.9602e+002 -4.2552e+001 36215 96559,96663,96637
 4.0000e+000 96758 -1.1923e+002 -3.2659e+002 -5.5101e+001 36215 96507,96663,96559
 4.0000e+000 96735 -1.1862e+002 -2.2414e+002  2.1946e+001 36215 96585,96637,96611
 4.0000e+000 96712 -2.4629e+002 -3.4308e+002 -3.6322e+001 36215 96559,96637,96585
 4.0000e+000 96689 -4.8271e+001 -3.8992e+002 -1.3104e+001 36215 96507,96559,96533
 4.0000e+000 97161  4.3436e+000 -1.6397e+002 -9.8645e+000 35818 97184,96965,96939
 4.0000e+000 97138 -1.6506e+001 -1.9810e+002 -1.8729e+001 35818 97184,96939,96887
 4.0000e+000 97115 -6.3859e+000 -2.0561e+002  3.7534e+001 35818 96965,97043,97017
 4.0000e+000 97092 -8.2438e+000 -1.9249e+002 -2.3333e+001 35818 96887,96939,96913
 4.0000e+000 97069 -1.0598e+002 -2.0986e+002  2.3286e+001 35818 96965,97017,96991
 4.0000e+000 97210  2.6419e+001 -1.9283e+002  8.6605e+000 35818 97043,96965,97184
 4.0000e+000 97233  1.0715e+001 -2.1747e+002  1.8875e+000 35818 97043,97184,96887
 4.0000e+000 97739 -1.0921e+002 -3.1401e+002 -6.9589e+001 35214 97416,97468,97442
 4.0000e+000 97716 -1.2644e+002 -2.3102e+002 -2.2122e+001 35214 97416,97598,97468
 4.0000e+000 97693 -1.1699e+002 -2.2331e+002 -9.2394e+000 35214 97762,97520,97468
 4.0000e+000 97670 -1.1865e+002 -2.2819e+002 -1.8377e+001 35214 97762,97468,97598
 4.0000e+000 97647 -9.0683e+001 -2.1916e+002 -2.8513e+001 35214 97546,97598,97572
 4.0000e+000 97624 -7.5666e+001 -2.3479e+002 -1.1658e+001 35214 97468,97520,97494
 4.0000e+000 97788 -1.2067e+002 -2.3345e+002 -1.2048e+001 35214 97546,97520,97762
 4.0000e+000 97811 -1.2057e+002 -2.3744e+002 -2.0633e+001 35214 97546,97762,97598
 4.0000e+000 98189 -2.4399e+001 -1.7765e+002 -1.1886e+001 34760 98356,98212,97967
 4.0000e+000 98166 -4.8577e+001 -2.1725e+002 -2.8997e+001 34760 98284,98212,97941
 4.0000e+000 98143 -8.4293e+001 -1.9792e+002 -1.3478e+001 34760 98284,97941,97915
 4.0000e+000 98120 -2.8264e+001 -2.3905e+002 -5.0620e+000 34760 98484,97993,97967
 4.0000e+000 98097 -2.7616e+001 -2.0360e+002 -4.4814e+000 34760 98556,98045,98019
 4.0000e+000 98238 -4.0809e+001 -2.2419e+002 -5.8430e+000 34760 98484,97967,98212
 4.0000e+000 98261 -9.9251e+000 -2.1003e+002 -1.3574e+001 34760 98556,98019,98212
 4.0000e+000 98310 -1.7127e+001 -1.8311e+002 -4.4099e+001 34760 98071,98212,98284
 4.0000e+000 98333 -4.1849e+001 -1.3566e+002 -3.6054e+001 34760 98071,98284,97915
 4.0000e+000 98382 -1.1097e+002 -2.3842e+002 -3.9047e+001 34760 97941,98212,98356
 4.0000e+000 98510 -7.7417e+000 -2.2690e+002 -1.1978e+001 34760 98019,97993,98484
 4.0000e+000 98533 -2.8132e+001 -2.1842e+002 -1.1323e+001 34760 98019,98484,98212
 4.0000e+000 98582 -5.0384e+000 -1.9413e+002 -9.0018e-001 34760 98071,98045,98556
 4.0000e+000 98605  2.4484e+000 -2.0697e+002 -1.1713e+001 34760 98071,98556,98212
 4.0000e+000 99032 -1.2263e+002 -2.8051e+002  3.9375e+001 34156 98735,98891,98839
 4.0000e+000 99009 -1.0169e+002 -2.8851e+002  1.7540e+001 34156 98709,98891,98735
 4.0000e+000 98986 -3.5580e+001 -2.5023e+002  3.7550e+001 34156 98735,98813,98787
 4.0000e+000 98963 -4.2230e+001 -2.7308e+002  3.0745e+001 34156 98735,98839,98813
 4.0000e+000 98940  1.5289e+001 -3.7436e+002  4.2380e+001 34156 98735,98787,98761
 4.0000e+000 98917 -1.0700e+002 -2.4071e+002  2.1164e+001 34156 98839,98891,98865
 4.0000e+000 99231 -3.7659e+001 -1.5500e+002  1.3469e+001 33766 99055,99133,99107
 4.0000e+000 99208 -6.5921e+001 -2.0195e+002  2.7059e+001 33766 99055,99159,99133
 4.0000e+000 99185 -1.9312e+001 -1.7774e+002  3.3593e+001 33766 99055,99107,99081
 4.0000e+000 99818 -7.7722e+001 -2.1932e+002  4.3676e+000 33248 99521,99651,99573
 4.0000e+000 99795 -7.9284e+001 -2.1122e+002  1.9696e+001 33248 99521,99677,99651
 4.0000e+000 99772 -1.1206e+002 -2.6057e+002 -1.2823e+001 33248 99573,99651,99599
 4.0000e+000 99749 -8.0236e+001 -2.6305e+002  2.2836e+001 33248 99495,99677,99521
 4.0000e+000 99726 -5.4442e+001 -2.1995e+002 -4.9743e+001 33248 99599,99651,99625
 4.0000e+000 99703 -1.0030e+002 -2.6016e+002  1.5651e+001 33248 99521,99573,99547
 4.0000e+000 100196 -8.1092e+001 -2.3645e+002 -4.5528e+001 32794 100219,99948,99922
 4.0000e+000 100173 -9.4495e+001 -2.6498e+002 -2.1961e+001 32794 100219,99922,100052
 4.0000e+000 100150 -1.2742e+002 -2.4319e+002  1.4390e+001 32794 99974,100052,100026
 4.0000e+000 100127 -1.1268e+002 -2.1637e+002 -3.5142e+001 32794 99922,100078,100052
 4.0000e+000 100104 -1.3444e+002 -2.9613e+002  5.6109e+001 32794 99974,100026,100000
 4.0000e+000 100245 -1.0775e+002 -2.3120e+002 -1.7527e+001 32794 99974,99948,100219
 4.0000e+000 100268 -1.1650e+002 -2.6957e+002  6.2181e+000 32794 99974,100219,100052
 4.0000e+000 100418 -1.7474e+001 -2.1313e+002 -2.2767e+001 32504 100571,100343,100317
 4.0000e+000 100395 -8.5654e+001 -2.4410e+002  2.1062e+001 32504 100571,100317,100441
 4.0000e+000 100467  5.6757e+001 -1.1951e+002 -6.1933e+001 32504 100291,100369,100441
 4.0000e+000 100597  1.2738e+001 -1.7975e+002 -7.5519e+001 32504 100369,100343,100571
 4.0000e+000 100620 -1.7706e+001 -1.6774e+002 -3.7724e+001 32504 100369,100571,100441
 4.0000e+000 101020 -4.0707e+001 -1.9959e+002  8.9059e+000 32142 100772,100902,100876
 4.0000e+000 100997 -2.7549e+001 -1.8512e+002  1.4944e+001 32142 100746,100902,100772
 4.0000e+000 100974 -1.6328e+001 -2.2286e+002  2.1287e+001 32142 101043,100824,100798
 4.0000e+000 100951 -4.2218e+001 -2.3379e+002  1.6839e+001 32142 101043,100798,100772
 4.0000e+000 100928 -1.3039e+002 -2.7037e+002 -6.2641e+001 32142 101115,100876,100850
 4.0000e+000 101069  2.3177e+001 -2.3633e+002 -2.4466e+001 32142 100850,100824,101043
 4.0000e+000 101092 -7.1198e+001 -2.7621e+002 -3.1030e+001 32142 101115,100850,101043
 4.0000e+000 101141 -5.8026e+001 -2.3252e+002 -2.2063e+001 32142 100772,100876,101115
 4.0000e+000 101164 -1.3094e+001 -2.3700e+002  1.2672e+001 32142 100772,101115,101043
 4.0000e+000 101719 -1.2260e+002 -2.8733e+002  3.6614e+001 31538 101742,101477,101399
 4.0000e+000 101696 -1.5114e+002 -3.5046e+002  6.5508e+000 31538 101814,101742,101399
 4.0000e+000 101673 -1.7429e+002 -3.0219e+002 -2.7599e+001 31538 101814,101399,101373
 4.0000e+000 101650 -1.2219e+002 -2.0829e+002  2.3155e+001 31538 101425,101477,101451
 4.0000e+000 101627 -1.1576e+002 -2.4283e+002  4.8126e+000 31538 101399,101477,101425
 4.0000e+000 101604 -7.7069e+001 -3.3008e+002  6.9650e+001 31538 101477,101529,101503
 4.0000e+000 101581 -4.6650e+001 -2.0790e+002 -2.3196e+001 31538 101347,101555,101373
 4.0000e+000 101768 -1.4152e+002 -3.5364e+002  3.7134e+001 31538 101529,101477,101742
 4.0000e+000 101791 -1.1912e+002 -3.6107e+002 -1.2413e+001 31538 101529,101742,101555
 4.0000e+000 101840 -9.3302e+001 -3.0147e+002 -1.5671e+001 31538 101555,101742,101814
 4.0000e+000 101863 -1.2631e+002 -2.6210e+002 -4.6865e+001 31538 101555,101814,101373
 4.0000e+000 102111 -1.7553e+002 -4.4839e+002  5.6592e+001 31112 101886,101990,101912
 4.0000e+000 102088 -6.6984e+001 -2.6903e+002  3.9307e+000 31112 101886,102016,101990
 4.0000e+000 102065 -8.3482e+001 -4.3997e+002  9.3275e+001 31112 101912,101990,101964
 4.0000e+000 102042 -1.3359e+002 -5.6206e+002  1.0965e+002 31112 101912,101964,101938
 4.0000e+000 102408 -4.8626e+001 -2.8191e+002  2.2122e+001 30658 102431,102186,102160
 4.0000e+000 102385 -9.6102e+001 -2.7824e+002  1.1361e-001 30658 102431,102160,102264
 4.0000e+000 102362 -9.0518e+001 -3.0379e+002  5.2997e+000 30658 102186,102238,102212
 4.0000e+000 102339 -1.0380e+002 -2.9529e+002 -1.8049e+001 30658 102134,102264,102160
 4.0000e+000 102316 -7.1251e+001 -2.4720e+002 -8.1028e+001 30658 102134,102290,102264
 4.0000e+000 102457 -8.7970e+001 -2.9725e+002  1.1816e+001 30658 102238,102186,102431
 4.0000e+000 102480 -1.3885e+002 -2.9832e+002 -1.2171e+001 30658 102238,102431,102264
 4.0000e+000 102681 -4.2148e+001 -3.3972e+002  5.1037e+001 30004 102704,102557,102505
 4.0000e+000 102658 -5.1206e+001 -3.4022e+002  5.1242e+001 30004 102704,102505,102609
 4.0000e+000 102635 -7.9245e-001 -2.9617e+002  1.2554e+001 30004 102505,102557,102531
 4.0000e+000 102730 -4.9312e+001 -3.3203e+002  4.6205e+001 30004 102583,102557,102704
 4.0000e+000 102753 -6.8853e+001 -3.3930e+002  4.7256e+001 30004 102583,102704,102609
 4.0000e+000 103003 -4.2985e+001 -2.7318e+002 -2.1033e+001 29564 103026,102804,102778
 4.0000e+000 102980 -5.1767e+001 -3.2103e+002 -3.3128e+001 29564 103026,102778,102908
 4.0000e+000 102957 -4.9805e+001 -2.7316e+002 -4.3674e+000 29564 102856,102908,102882
 4.0000e+000 102934 -6.6464e+001 -2.4839e+002  1.4434e+001 29564 102804,102856,102830
 4.0000e+000 103052 -3.7415e+001 -2.4880e+002  1.1422e+001 29564 102856,102804,103026
 4.0000e+000 103075 -5.0861e+001 -2.8801e+002 -5.1736e+000 29564 102856,103026,102908
 4.0000e+000 103634 -1.3305e+002 -3.1359e+002 -3.6520e+001 29160 103657,103418,103392
 4.0000e+000 103611 -1.2773e+002 -3.0401e+002 -1.8442e+001 29160 103657,103392,103314
 4.0000e+000 103588 -9.3801e+001 -2.6912e+002 -3.2315e+001 29160 103314,103392,103366
 4.0000e+000 103565 -8.4526e+001 -2.8575e+002 -3.6469e+001 29160 103314,103366,103340
 4.0000e+000 103542 -1.5794e+002 -3.0115e+002 -3.2077e+001 29160 103262,103444,103314
 4.0000e+000 103519 -1.8446e+002 -3.5696e+002 -4.1682e+001 29160 103262,103314,103288
 4.0000e+000 103496 -1.2510e+002 -3.3013e+002 -1.0981e+001 29160 103262,103470,103444
 4.0000e+000 103683 -1.6033e+002 -3.3421e+002 -5.5154e+001 29160 103444,103418,103657
 4.0000e+000 103706 -1.3887e+002 -3.0315e+002 -3.4373e+001 29160 103444,103657,103314
 4.0000e+000 104035 -8.1454e+001 -2.8829e+002  2.6589e+001 28770 103836,103914,103862
 4.0000e+000 104012 -7.8385e+001 -2.7791e+002  3.3603e+001 28770 103810,103914,103836
 4.0000e+000 103989  2.0518e+001 -2.5239e+002  4.3893e+001 28770 103810,103940,103914
 4.0000e+000 103966 -1.7252e+001 -2.3333e+002  5.5376e+001 28770 103862,103914,103888
 4.0000e+000 104185 -4.2270e+001 -2.8909e+002  4.8795e+001 28366 104208,104110,104084
 4.0000e+000 104162 -3.1042e+001 -2.4400e+002  4.4577e+001 28366 104280,104208,104084
 4.0000e+000 104234  3.6416e+001 -2.8283e+002  3.1002e+001 28366 104610,104208,104136
 4.0000e+000 104257 -6.4562e+001 -2.7382e+002  3.2098e+001 28366 104538,104410,104208
 4.0000e+000 104306 -9.6275e+001 -2.7746e+002  3.1825e+001 28366 104538,104208,104280
 4.0000e+000 104436 -3.2716e+001 -2.9224e+002  4.2273e+000 28366 104136,104208,104410
 4.0000e+000 104564 -9.7803e+001 -2.7141e+002  1.5281e+001 28366 104058,104410,104538
 4.0000e+000 104587 -1.1725e+002 -2.6763e+002  1.2732e+001 28366 104058,104538,104280
 4.0000e+000 104636  1.8198e+001 -2.8891e+002  3.8923e+001 28366 104110,104208,104610
 4.0000e+000 105349 -6.9418e+001 -2.4841e+002 -2.6477e+001 27976 105516,105372,105107
 4.0000e+000 105326 -1.0393e+002 -2.4566e+002  5.9563e+000 27976 105588,105372,105055
 4.0000e+000 105303 -1.1192e+002 -2.3968e+002 -2.2833e+001 27976 105444,105159,105133
 4.0000e+000 105280 -3.9962e+001 -2.5967e+002 -1.4901e+001 27976 105516,105107,105081
 4.0000e+000 105257 -9.5978e+001 -2.7174e+002  2.3375e+001 27976 105588,105055,105029
 4.0000e+000 105234 -5.4750e+001 -2.1019e+002  1.3897e+000 27976 105003,105185,105159
 4.0000e+000 105211 -7.4380e+001 -1.7149e+002  2.8266e+001 27976 104977,105185,105003
 4.0000e+000 105398 -5.5449e+001 -2.4490e+002 -3.3693e+001 27976 105133,105107,105372
 4.0000e+000 105421 -9.1268e+001 -2.5431e+002 -1.4142e+001 27976 105444,105133,105372
 4.0000e+000 105470 -9.2165e+001 -2.1394e+002 -1.2664e+001 27976 105003,105159,105444
 4.0000e+000 105493 -7.8063e+001 -2.3156e+002 -8.3004e+000 27976 105003,105444,105372
 4.0000e+000 105542 -4.9551e+001 -2.4289e+002 -3.1405e+000 27976 105055,105372,105516
 4.0000e+000 105565 -6.6161e+000 -2.4918e+002  5.6664e+000 27976 105055,105516,105081
 4.0000e+000 105614 -1.2027e+002 -2.7133e+002  1.8378e+001 27976 105003,105372,105588
 4.0000e+000 105637 -1.1661e+002 -2.9721e+002  3.7340e+001 27976 105003,105588,105029
 4.0000e+000 106143 -1.2858e+002 -3.7991e+002  2.3056e+001 27664 106166,105846,105820
 4.0000e+000 106120 -9.3764e+001 -3.0261e+002  9.8457e+000 27664 106310,106166,105820
 4.0000e+000 106097 -4.4104e+001 -3.4522e+002 -6.6234e+001 27664 106382,106238,105950
 4.0000e+000 106074 -6.2593e+001 -2.9935e+002  1.2465e+001 27664 106310,105820,106002
 4.0000e+000 106051  2.5674e+001 -3.0581e+002 -4.9598e+001 27664 106382,105950,105924
 4.0000e+000 106028 -4.5275e+001 -5.1919e+002 -1.9008e+001 27664 105846,105898,105872
 4.0000e+000 106192 -1.1881e+002 -4.2008e+002 -4.8755e+001 27664 105898,105846,106166
 4.0000e+000 106215 -7.9555e+001 -3.5581e+002 -1.5626e+001 27664 106238,105898,106166
 4.0000e+000 106264 -2.0122e+002 -3.8667e+002 -8.8857e+001 27664 105976,105950,106238
 4.0000e+000 106287 -7.0267e+001 -3.5359e+002 -1.7285e+001 27664 105976,106238,106166
 4.0000e+000 106336 -6.2754e+001 -3.1491e+002  3.7051e+001 27664 105976,106166,106310
 4.0000e+000 106359 -2.7440e+001 -3.0958e+002  3.8564e+001 27664 105976,106310,106002
 4.0000e+000 106408 -7.4114e+001 -2.8296e+002  1.1833e+001 27664 105898,106238,106382
 4.0000e+000 106431 -3.2299e+001 -2.6227e+002  2.2125e+001 27664 105898,106382,105924
 4.0000e+000 106728 -3.8768e+001 -2.0923e+002  3.9358e+001 27153 106751,106506,106454
 4.0000e+000 106705 -3.5999e+001 -2.1045e+002  3.0836e+001 27153 106751,106454,106610
 4.0000e+000 106682 -5.9908e+001 -1.5569e+002  6.9770e+000 27153 106454,106506,106480
 4.0000e+000 106659 -4.9845e+001 -2.0285e+002  1.8804e+001 27153 106532,106610,106584
 4.0000e+000 106636 -8.4492e+001 -1.2606e+002  3.8723e+001 27153 106532,106584,106558
 4.0000e+000 106777 -2.7015e+001 -2.1010e+002  4.0331e+001 27153 106532,106506,106751
 4.0000e+000 106800 -2.5744e+001 -2.1005e+002  3.0106e+001 27153 106532,106751,106610
 4.0000e+000 107180 -5.2000e+001 -2.4644e+002  1.8254e+001 26642 107203,106984,106958
 4.0000e+000 107157 -1.3207e+002 -2.8346e+002  6.0060e+000 26642 107203,106958,106932
 4.0000e+000 107134 -1.5255e+002 -3.1090e+002 -4.0550e+001 26642 107275,107036,107010
 4.0000e+000 107111 -9.7337e+001 -3.1268e+002 -4.9539e+001 26642 106932,107062,107036
 4.0000e+000 107088 -3.8658e+000 -2.4568e+002  3.0923e+001 26642 106906,107062,106932
 4.0000e+000 107229 -1.2520e+001 -2.3319e+002 -6.7486e+001 26642 107010,106984,107203
 4.0000e+000 107252 -1.3617e+002 -2.8781e+002 -4.8975e+001 26642 107275,107010,107203
 4.0000e+000 107301 -1.3316e+002 -3.0829e+002 -5.2932e+001 26642 106932,107036,107275
 4.0000e+000 107324 -1.2825e+002 -3.0840e+002 -5.5338e+001 26642 106932,107275,107203
 4.0000e+000 107675 -6.4741e+001 -1.8251e+002  1.7676e+001 26045 107450,107554,107476
 4.0000e+000 107652 -4.8942e+001 -1.5739e+002  3.6661e+000 26045 107450,107580,107554
 4.0000e+000 107629 -1.9880e+001 -1.7446e+002  9.0652e+000 26045 107476,107528,107502
 4.0000e+000 107606 -1.8718e+001 -1.7294e+002  8.4500e+000 26045 107476,107554,107528
 4.0000e+000 107874 -4.6872e+001 -2.7946e+002  6.9584e+001 25641 107750,107802,107776
 4.0000e+000 107851 -5.9714e+001 -1.9268e+002  3.5888e+001 25641 107724,107802,107750
 4.0000e+000 107828 -5.5471e+001 -1.9606e+002  2.9558e+001 25641 107698,107802,107724
 4.0000e+000 108431 -2.6720e+001 -2.9703e+002  5.0758e+001 25023 108526,108267,108241
 4.0000e+000 108408 -3.9076e-001 -2.8327e+002  1.0184e+001 25023 108059,108267,108085
 4.0000e+000 108385 -4.4857e+001 -3.0122e+002  5.0118e+001 25023 108454,108163,108111
 4.0000e+000 108362 -1.3408e+002 -3.0467e+002  8.3263e+001 25023 108454,108111,108085
 4.0000e+000 108339 -1.0801e+002 -3.9431e+002  8.9181e+001 25023 108111,108163,108137
 4.0000e+000 108316 -7.4959e+001 -2.2084e+002 -1.2857e+001 25023 108163,108241,108215
 4.0000e+000 108293  2.6942e+001 -1.7574e+002 -3.4087e+000 25023 108163,108215,108189
 4.0000e+000 108480 -1.5382e+001 -2.7137e+002  4.2934e+000 25023 108241,108163,108454
 4.0000e+000 108503 -4.7060e+001 -2.8767e+002  4.8458e+001 25023 108526,108241,108454
 4.0000e+000 108552 -5.0365e+001 -3.0153e+002  3.9690e+001 25023 108085,108267,108526
 4.0000e+000 108575 -7.1997e+001 -2.9367e+002  3.6851e+001 25023 108085,108526,108454
 4.0000e+000 108823 -1.7082e+001 -2.1831e+002  3.1101e+001 24461 108624,108728,108650
 4.0000e+000 108800 -4.2294e+001 -4.4275e+002 -2.7364e+001 24461 108598,108728,108624
 4.0000e+000 108777 -3.8229e+000 -2.9188e+002  2.7588e+001 24461 108650,108728,108676
 4.0000e+000 108754 -1.3407e+002 -8.1689e+002  7.0292e+001 24461 108676,108728,108702
 4.0000e+000 109022 -8.0481e+001 -2.2814e+002  2.6315e+001 24121 108872,108924,108898
 4.0000e+000 108999 -6.0639e+001 -2.2181e+002  3.0673e+001 24121 108846,108924,108872
 4.0000e+000 108976 -8.8690e+001 -2.3519e+002  3.5149e+001 24121 108846,108950,108924
 4.0000e+000 109483 -9.3457e+001 -3.0642e+002 -2.8702e+001 23717 109209,109339,109235
 4.0000e+000 109460 -3.6974e+001 -3.4800e+002 -6.9229e+001 23717 109209,109365,109339
 4.0000e+000 109437 -7.7147e+000 -3.8457e+002 -1.9889e+001 23717 109287,109339,109313
 4.0000e+000 109414 -1.7846e+002 -3.8829e+002  2.1750e+001 23717 109235,109339,109287
 4.0000e+000 109391 -1.5371e+001 -4.4281e+002  1.5048e+002 23717 109235,109287,109261
 4.0000e+000 109910 -1.2184e+002 -3.5433e+002 -3.5965e+001 23305 109613,109743,109717
 4.0000e+000 109887 -1.2333e+002 -3.5787e+002 -1.9083e+001 23305 109613,109769,109743
 4.0000e+000 109864 -1.4864e+002 -3.5077e+002 -2.9067e+001 23305 109613,109717,109639
 4.0000e+000 109841 -9.7476e+001 -3.3165e+002 -6.4276e+000 23305 109587,109769,109613
 4.0000e+000 109818  2.5713e+001 -2.7581e+002  4.3415e+001 23305 109639,109717,109691
 4.0000e+000 109795 -3.7394e+001 -2.2374e+002 -4.4301e+001 23305 109639,109691,109665
 4.0000e+000 110180 -1.0356e+001 -1.0614e+002 -2.2394e+001 22851 110007,110059,110033
 4.0000e+000 110157 -7.3300e+001 -2.7741e+002  1.1571e+001 22851 109981,110059,110007
 4.0000e+000 110134 -1.0112e+002 -2.9916e+002  1.0916e+000 22851 109955,110059,109981
 4.0000e+000 110111 -4.1508e+001 -3.2869e+002 -2.5885e+001 22851 109955,110085,110059
 4.0000e+000 110737 -6.6930e+001 -3.2371e+002 -7.6481e+001 22333 110760,110469,110391
 4.0000e+000 110714 -2.6760e+001 -3.5927e+002 -6.2190e+001 22333 110760,110391,110365
 4.0000e+000 110691 -3.6281e+001 -3.1357e+002 -6.6841e+001 22333 110832,110521,110469
 4.0000e+000 110668 -9.7661e+000 -5.3358e+002  9.1418e+000 22333 110417,110469,110443
 4.0000e+000 110645 -1.5696e+002 -4.8541e+002 -4.4473e-001 22333 110391,110469,110417
 4.0000e+000 110622 -4.1894e+000 -3.1060e+002 -3.6932e+001 22333 110469,110521,110495
 4.0000e+000 110599 -3.4112e+001 -2.0993e+002  2.2788e+001 22333 110365,110573,110547
 4.0000e+000 110786 -3.9347e+001 -3.1433e+002 -6.6730e+001 22333 110832,110469,110760
 4.0000e+000 110809  5.3027e+000 -3.2349e+002 -4.5570e+001 22333 110547,110760,110365
 4.0000e+000 110858 -2.3259e+001 -3.1700e+002 -7.0402e+001 22333 110547,110521,110832
 4.0000e+000 110881 -3.4825e+001 -3.2291e+002 -7.2648e+001 22333 110547,110832,110760
 4.0000e+000 111308 -1.7197e+002 -3.9108e+002  1.8450e+001 21829 111331,111063,111011
 4.0000e+000 111285 -1.5635e+002 -3.6703e+002 -6.4820e+000 21829 111331,111011,111167
 4.0000e+000 111262 -1.7559e+002 -3.8652e+002  1.9672e+001 21829 111403,111089,111063
 4.0000e+000 111239 -2.1753e+002 -4.1623e+002  5.2865e+001 21829 111011,111063,111037
 4.0000e+000 111216 -1.0575e+002 -2.7174e+002  1.4275e+001 21829 110985,111167,111011
 4.0000e+000 111193 -1.9078e+002 -6.0134e+002  1.2640e+002 21829 111089,111141,111115
 4.0000e+000 111357 -1.7061e+002 -3.9051e+002  1.9663e+001 21829 111403,111063,111331
 4.0000e+000 111380 -1.7490e+002 -4.0724e+002 -1.8388e+000 21829 111141,111331,111167
 4.0000e+000 111429 -1.7989e+002 -3.9219e+002  2.5132e+001 21829 111141,111089,111403
 4.0000e+000 111452 -1.7490e+002 -3.9991e+002  2.2639e+001 21829 111141,111403,111331
 4.0000e+000 112056  9.5836e+001 -2.9639e+002  6.8264e+000 21489 111687,111765,111739
 4.0000e+000 112033  1.1720e+001 -3.4045e+002  3.3986e+001 21489 112151,112079,111687
 4.0000e+000 112010 -9.3564e+000 -5.2861e+002  4.0421e+001 21489 111791,111843,111817
 4.0000e+000 111987 -1.0354e+002 -4.1834e+002 -2.8545e+001 21489 112079,111843,111791
 4.0000e+000 111964  6.0424e+001 -3.1760e+002  6.2845e+001 21489 112151,111687,111661
 4.0000e+000 111941 -3.8880e+001 -2.3431e+002  5.5441e+001 21489 111661,111869,111843
 4.0000e+000 111918  9.8640e+001 -3.1909e+002  4.4111e+001 21489 111687,111739,111713
 4.0000e+000 111895  8.4612e+000 -1.2427e+002  2.2997e+001 21489 111635,111869,111661
 4.0000e+000 112105 -6.4694e+001 -3.6765e+002  1.9981e+001 21489 111765,111687,112079
 4.0000e+000 112128 -6.2980e+001 -3.5119e+002  2.1029e+001 21489 111765,112079,111791
 4.0000e+000 112177 -7.1476e+001 -3.3601e+002 -6.8671e+000 21489 111843,112079,112151
 4.0000e+000 112200 -2.6562e+001 -3.2720e+002  1.6614e+001 21489 111843,112151,111661
 4.0000e+000 112578 -8.4758e+001 -4.2189e+002  1.8617e+001 21177 112382,112434,112408
 4.0000e+000 112555 -1.0276e+002 -4.1958e+002  1.7192e+000 21177 112330,112434,112382
 4.0000e+000 112532 -8.3441e+001 -3.6327e+002  6.0381e+001 21177 112304,112434,112330
 4.0000e+000 112509 -1.0017e+002 -4.0180e+002  0.0000e+000 21177 112330,112382,112356
 4.0000e+000 112486 -2.5755e+001 -2.4450e+002  1.4079e+001 21177 112304,112460,112434
 4.0000e+000 112679 -8.8435e+000 -2.9124e+002 -4.8003e+001 20666 112601,112653,112627
 4.0000e+000 112927 -1.2227e+002 -4.0876e+002  1.3533e+001 19762 112702,112754,112728
 4.0000e+000 112904 -4.7677e+001 -3.8816e+002 -4.8235e+000 19762 112702,112832,112754
 4.0000e+000 112881 -1.0488e+002 -4.1550e+002  6.7109e+001 19762 112754,112832,112806
 4.0000e+000 112858 -1.4389e+002 -5.0788e+002  6.1861e+001 19762 112754,112806,112780
 4.0000e+000 113297 -1.1246e+002 -4.7693e+002  2.9636e+001 19308 112974,113052,113026
 4.0000e+000 113274 -7.7116e+001 -4.0328e+002  9.8526e+000 19308 112974,113156,113052
 4.0000e+000 113251 -4.2588e+001 -5.2811e+002 -6.2381e+001 19308 113052,113130,113104
 4.0000e+000 113228 -8.1611e+001 -3.9938e+002  4.3836e-001 19308 113052,113156,113130
 4.0000e+000 113205 -7.8615e+001 -4.6190e+002  0.0000e+000 19308 113052,113104,113078
 4.0000e+000 113182 -1.5485e+002 -4.9393e+002 -6.4874e-001 19308 112974,113026,113000
 4.0000e+000 113547 -2.5817e+001 -4.4211e+002 -2.7308e+001 18711 113570,113374,113348
 4.0000e+000 113524 -4.2107e+001 -4.0470e+002 -1.5103e+001 18711 113570,113348,113452
 4.0000e+000 113501 -3.4636e+001 -3.1470e+002 -8.7121e+001 18711 113322,113452,113348
 4.0000e+000 113478 -5.3406e+001 -3.9036e+002 -1.3692e+002 18711 113374,113426,113400
 4.0000e+000 113596 -1.9713e+001 -4.0144e+002 -3.7289e+001 18711 113426,113374,113570
 4.0000e+000 113619 -4.0496e+001 -3.7124e+002 -1.7463e+001 18711 113426,113570,113452
 4.0000e+000 113771 -2.1861e+002 -5.4429e+002 -2.8888e+001 18307 113670,113722,113696
 4.0000e+000 113748 -1.7263e+002 -5.1101e+002 -1.3412e+001 18307 113644,113722,113670
 4.0000e+000 113972 -9.2055e+001 -4.4880e+002  6.3449e+000 17945 113822,113874,113848
 4.0000e+000 113949 -9.4676e+001 -4.4343e+002  1.0340e+001 17945 113822,113900,113874
 4.0000e+000 113926 -1.3372e+002 -3.3977e+002  2.0977e+002 17945 113796,113900,113822
 4.0000e+000 114075 -6.8066e+001 -6.6762e+002  7.0858e+001 17482 113997,114049,114023
 4.0000e+000 114479 -3.0799e+001 -3.7003e+002 -5.5512e+001 17042 114257,114361,114335
 4.0000e+000 114456 -8.9450e+001 -3.5890e+002 -1.0627e+001 17042 114205,114361,114257
 4.0000e+000 114433 -1.1079e+002 -4.1369e+002  1.3678e+001 17042 114205,114257,114231
 4.0000e+000 114410  7.9791e+001 -5.4218e+002 -3.6148e+001 17042 114283,114335,114309
 4.0000e+000 114387 -1.1131e+001 -4.7406e+002 -2.3765e+001 17042 114257,114335,114283
 4.0000e+000 114879 -1.9441e+002 -4.0920e+002 -4.2196e+000 16638 114631,114683,114657
 4.0000e+000 114856 -8.3406e+000 -3.2942e+002 -6.7433e+000 16638 114605,114683,114631
 4.0000e+000 114833  4.0817e+001 -2.0987e+002 -1.5581e+001 16638 114605,114761,114683
 4.0000e+000 114810 -3.1995e+001 -4.2491e+002 -2.3323e+001 16638 114683,114735,114709
 4.0000e+000 114787 -6.5963e+001 -4.5548e+002 -3.8855e+001 16638 114683,114761,114735
 4.0000e+000 115078 -1.8050e+002 -4.1452e+002  7.9141e+000 16232 114954,115006,114980
 4.0000e+000 115055 -1.9006e+002 -4.6188e+002  2.0027e+001 16232 114928,115006,114954
 4.0000e+000 115032 -9.1136e+001 -5.8005e+002  3.8815e+001 16232 114902,115006,114928
 4.0000e+000 115228 -1.3655e+002 -4.2996e+002  1.1341e+001 15482 115101,115153,115127
 4.0000e+000 115205 -1.0429e+002 -4.0348e+002 -4.0716e+000 15482 115101,115179,115153
 4.0000e+000 115331 -1.0352e+002 -4.0352e+002 -4.7515e+001 15163 115253,115305,115279
 4.0000e+000 115434 -1.2513e+002 -4.2617e+002  5.7738e+001 421 115356,115408,115382
 4.1000e+000 68213 -2.8257e+001 -2.2395e+002 -2.2151e+001 67888 68112,68164,68138
 4.1000e+000 68190 -2.6781e+002 -2.9400e+002 -3.7876e+001 67888 68086,68164,68112
 4.1000e+000 68314 -2.8380e+001 -3.1232e+002  2.9388e+001 67576 68236,68288,68262
 4.1000e+000 68584 -1.1023e+002 -5.6457e+002  2.6706e+001 67378 68385,68489,68463
 4.1000e+000 68561 -4.6021e+001 -5.3193e+002  1.2362e+001 67378 68359,68489,68385
 4.1000e+000 68538 -8.2007e+001 -4.8650e+002  3.8705e+001 67378 68385,68463,68411
 4.1000e+000 68515 -4.3175e+001 -3.1470e+002  2.5229e+001 67378 68411,68463,68437
 4.1000e+000 68964 -1.2411e+002 -4.9386e+002  7.1777e+001 67130 68690,68820,68716
 4.1000e+000 68941  9.2308e+001 -5.0717e+002  1.3523e+002 67130 68690,68846,68820
 4.1000e+000 68918 -1.1119e+002 -3.3266e+002  6.3690e+000 67130 68742,68820,68794
 4.1000e+000 68895 -2.9033e+001 -3.3316e+002  2.8996e+001 67130 68716,68820,68742
 4.1000e+000 68872 -7.6369e+001 -2.8622e+002 -3.4746e+001 67130 68742,68794,68768
 4.1000e+000 69065 -9.0064e+001 -3.0363e+002  3.9244e+000 66926 68987,69039,69013
 4.1000e+000 69445 -4.8786e+001 -2.7652e+002 -1.4562e+001 66614 69223,69301,69275
 4.1000e+000 69422 -7.9371e+001 -2.9421e+002 -5.5284e+000 66614 69171,69301,69223
 4.1000e+000 69399 -9.3290e+001 -3.0429e+002  9.2046e-001 66614 69171,69327,69301
 4.1000e+000 69376 -1.2432e+001 -1.2716e+002  3.2216e+000 66614 69223,69275,69249
 4.1000e+000 69353 -7.3103e+001 -3.1284e+002 -6.8001e+000 66614 69171,69223,69197
 4.1000e+000 69546 -8.8538e+001 -4.5302e+002  2.3062e+001 66416 69468,69520,69494
 4.1000e+000 69997 -8.0058e+001 -4.6084e+002 -3.6334e+001 66104 69700,69830,69726
 4.1000e+000 69974 -1.1814e+002 -5.6530e+002 -7.5905e+001 66104 69700,69856,69830
 4.1000e+000 69951 -8.3371e+001 -3.5629e+002 -2.5845e+001 66104 69726,69804,69778
 4.1000e+000 69928 -6.8573e+001 -4.3059e+002 -3.6672e+001 66104 69726,69830,69804
 4.1000e+000 69905 -8.8172e+001 -3.4139e+002 -1.3989e+001 66104 69726,69778,69752
 4.1000e+000 69882 -3.7621e+001 -7.7497e+002 -1.4032e+002 66104 69674,69856,69700
 4.1000e+000 70326 -8.0089e+001 -2.1325e+002  7.9425e+000 65814 70349,70153,70127
 4.1000e+000 70303 -5.1372e+001 -2.0849e+002  1.1370e+001 65814 70349,70127,70101
 4.1000e+000 70280 -4.5872e+001 -1.9448e+002  7.6088e+001 65814 70101,70231,70205
 4.1000e+000 70257  1.3804e+001 -2.3790e+002  2.7397e+001 65814 70153,70205,70179
 4.1000e+000 70375 -6.7022e+001 -2.2575e+002  3.1304e+001 65814 70205,70153,70349
 4.1000e+000 70398 -2.2543e+001 -2.1345e+002  3.1285e+001 65814 70205,70349,70101
 4.1000e+000 70904 -3.7558e+001 -1.2205e+002 -3.4053e+001 65502 70607,70737,70685
 4.1000e+000 70881 -4.8022e+001 -1.0001e+002 -4.5211e+001 65502 70581,70737,70607
 4.1000e+000 70858 -4.7271e+001 -3.7915e+001 -1.0523e+001 65502 70581,70763,70737
 4.1000e+000 70835 -5.3481e+001 -1.3330e+002 -5.0753e+001 65502 70685,70737,70711
 4.1000e+000 70812 -1.7463e+002 -1.5425e+002 -4.9301e+000 65502 70607,70659,70633
 4.1000e+000 70789 -5.9014e+001 -1.6127e+002 -1.0805e+000 65502 70607,70685,70659
 4.1000e+000 71103 -5.0380e+001 -4.0239e+002 -1.1505e+001 65304 71126,70979,70953
 4.1000e+000 71080 -9.4793e+001 -4.0092e+002 -4.6033e+000 65304 71126,70953,70927
 4.1000e+000 71057 -1.2914e+002 -4.0424e+002  3.1518e+001 65304 70927,71031,71005
 4.1000e+000 71152 -9.4362e+001 -3.8113e+002 -2.4368e+001 65304 71005,70979,71126
 4.1000e+000 71175 -1.4469e+002 -3.8656e+002 -7.4567e+000 65304 71005,71126,70927
 4.1000e+000 71374 -4.9336e+001 -3.8927e+002  1.9567e+001 65106 71198,71276,71224
 4.1000e+000 71351 -1.1543e+002 -4.1842e+002  7.9416e+000 65106 71198,71302,71276
 4.1000e+000 71328 -2.4682e+001 -3.2488e+002  4.8460e+001 65106 71224,71276,71250
 4.1000e+000 71756 -4.7669e+001 -2.7418e+002 -1.7388e+001 64652 71508,71638,71534
 4.1000e+000 71733 -2.1913e-002 -2.5362e+002  2.1536e+000 64652 71482,71638,71508
 4.1000e+000 71710 -9.0067e+001 -2.6101e+002 -1.9054e+001 64652 71534,71586,71560
 4.1000e+000 71687 -7.8640e+001 -2.9281e+002 -4.2156e+001 64652 71534,71612,71586
 4.1000e+000 71664 -1.2756e+002 -3.0551e+002 -4.6486e+001 64652 71534,71638,71612
 4.1000e+000 72085 -1.1814e+002 -3.0242e+002 -3.5522e+001 64248 71886,71964,71912
 4.1000e+000 72062 -9.5803e+001 -2.9330e+002 -3.7324e+001 64248 71860,71964,71886
 4.1000e+000 72039 -5.2244e+001 -3.2658e+002 -2.4912e+001 64248 71912,71964,71938
 4.1000e+000 72016 -8.9120e+001 -2.7299e+002 -4.1218e+001 64248 71860,71990,71964
 4.1000e+000 72235 -7.5318e+000 -1.9402e+002 -2.5849e+001 63858 72588,72258,72134
 4.1000e+000 72212 -3.5485e+001 -1.7029e+002  6.3497e+000 63858 72330,72258,72108
 4.1000e+000 72284 -2.4594e+001 -1.4431e+002 -1.8184e+001 63858 72160,72134,72258
 4.1000e+000 72307 -9.3645e+001 -1.8847e+002 -2.9746e+001 63858 72460,72258,72186
 4.1000e+000 72356 -7.8515e+001 -1.8284e+002 -2.9318e+001 63858 72186,72258,72330
 4.1000e+000 72486 -2.9250e+001 -1.7010e+002 -3.2054e+001 63858 72160,72258,72460
 4.1000e+000 72614 -8.2600e+000 -2.0379e+002 -5.3588e-001 63858 72108,72258,72588
 4.1000e+000 73248 -6.1480e+001 -2.6983e+002  7.6656e+001 63404 72902,72954,72928
 4.1000e+000 73225 -1.5282e+002 -3.2021e+002  3.6238e+001 63404 73271,72954,72902
 4.1000e+000 73202 -1.3471e+002 -2.7219e+002  3.0125e+001 63404 73271,72902,73032
 4.1000e+000 73179 -8.5264e+001 -2.3618e+002  1.0145e+001 63404 72902,73058,73032
 4.1000e+000 73156 -1.0132e+002 -2.7927e+002  2.5105e+001 63404 72980,73032,73006
 4.1000e+000 73133 -7.7730e+001 -2.4831e+002  5.1258e+000 63404 72876,73058,72902
 4.1000e+000 73110 -3.3287e+001 -1.2410e+002 -6.4686e+001 63404 72876,73084,73058
 4.1000e+000 73297 -1.3071e+002 -3.2538e+002  5.6075e+000 63404 72980,72954,73271
 4.1000e+000 73320 -1.2536e+002 -3.0054e+002  4.2914e+000 63404 72980,73271,73032
 4.1000e+000 73470 -1.1202e+002 -7.3110e+002  7.7379e+001 63014 73343,73395,73369
 4.1000e+000 73447 -3.4443e+002 -8.9141e+002 -1.5810e+001 63014 73343,73421,73395
 4.1000e+000 73929  4.6643e+000 -3.4213e+002  2.2749e+001 62702 73759,73811,73785
 4.1000e+000 73906  2.6946e+001 -3.3209e+002  2.4430e+001 62702 73655,73811,73759
 4.1000e+000 73883 -3.0484e+001 -3.8439e+002 -1.7322e+000 62702 73655,73759,73681
 4.1000e+000 73860  1.9486e+001 -2.8366e+002 -6.1970e+001 62702 73681,73759,73707
 4.1000e+000 73837 -1.4943e+002 -3.3625e+002  5.9947e+000 62702 73707,73759,73733
 4.1000e+000 74209 -2.0116e+002 -3.3703e+002  3.3486e+000 62404 74059,74137,74085
 4.1000e+000 74186 -2.4409e+002 -4.3564e+002  5.0238e+001 62404 74033,74137,74059
 4.1000e+000 74163 -2.1999e+002 -3.1310e+002 -5.4598e-001 62404 74085,74137,74111
 4.1000e+000 74408 -7.3034e+000 -2.8639e+002  1.6650e+001 62000 74258,74336,74284
 4.1000e+000 74385 -8.5984e+000 -2.8187e+002  3.0622e+001 62000 74232,74336,74258
 4.1000e+000 74362 -6.8444e+001 -2.8704e+002 -4.4250e+000 62000 74284,74336,74310
 4.1000e+000 74509 -2.4245e+001 -3.3077e+002  2.1524e+001 61802 74431,74483,74457
 4.1000e+000 74759 -1.0446e+002 -2.9815e+002  3.2755e+000 61554 74782,74586,74560
 4.1000e+000 74736 -6.2899e+001 -2.7702e+002  1.0763e+001 61554 74782,74560,74664
 4.1000e+000 74713 -9.0391e+001 -2.2094e+002  7.4763e+001 61554 74854,74612,74586
 4.1000e+000 74690 -8.0142e+001 -3.0455e+002  2.6301e+000 61554 74534,74664,74560
 4.1000e+000 74808 -1.2565e+002 -2.7387e+002  2.1400e+001 61554 74854,74586,74782
 4.1000e+000 74831 -7.7057e+001 -3.4674e+002  1.9376e+001 61554 74638,74782,74664
 4.1000e+000 74880 -2.1150e+001 -2.7651e+002  8.2150e+001 61554 74638,74612,74854
 4.1000e+000 74903 -2.3040e+001 -2.7350e+002  4.2949e+001 61554 74638,74854,74782
 4.1000e+000 75285 -4.5373e+001 -3.0684e+002  3.8584e+000 61356 75063,75167,75115
 4.1000e+000 75262 -6.1220e+001 -3.2538e+002 -1.8581e+001 61356 75037,75167,75063
 4.1000e+000 75239  2.9908e+001 -3.1818e+002 -2.4794e+000 61356 75115,75167,75141
 4.1000e+000 75216 -2.9682e+000 -2.8213e+002  1.3957e+001 61356 75063,75115,75089
 4.1000e+000 75193 -1.3903e+002 -2.5560e+002  2.0473e+001 61356 75011,75167,75037
 4.1000e+000 75631 -1.6940e+001 -2.4197e+002  5.9986e+000 60952 75654,75412,75360
 4.1000e+000 75608 -4.4355e+001 -2.7945e+002 -9.0530e+000 60952 75654,75360,75334
 4.1000e+000 75585 -4.1594e+001 -3.5922e+002  1.8836e+001 60952 75726,75438,75412
 4.1000e+000 75562 -4.0845e+001 -2.9058e+002 -4.7184e+001 60952 75308,75490,75334
 4.1000e+000 75539 -2.1197e+001 -2.4125e+002 -2.2894e-001 60952 75360,75412,75386
 4.1000e+000 75516 -6.3781e+001 -4.3909e+002 -1.2086e+001 60952 75438,75490,75464
 4.1000e+000 75680 -1.4136e+001 -2.9969e+002  5.6249e+000 60952 75726,75412,75654
 4.1000e+000 75703 -1.4951e+001 -2.8467e+002 -1.3623e+001 60952 75490,75654,75334
 4.1000e+000 75752 -1.3045e+001 -2.9014e+002 -1.6823e+000 60952 75490,75438,75726
 4.1000e+000 75775 -1.4406e+001 -2.8441e+002 -1.3430e+001 60952 75490,75726,75654
 4.1000e+000 76155 -4.3979e+001 -2.8399e+002  8.0185e-001 60754 75933,75985,75959
 4.1000e+000 76132 -7.3155e+001 -3.0188e+002  2.9696e+001 60754 75933,76037,75985
 4.1000e+000 76109  7.1231e+000 -2.9478e+002  9.1098e+000 60754 75985,76037,76011
 4.1000e+000 76086 -1.1053e+002 -2.4834e+002  8.4536e+000 60754 75881,76037,75933
 4.1000e+000 76063 -1.5636e+002 -2.1799e+002  6.6236e+001 60754 75881,75933,75907
 4.1000e+000 76612 -5.3475e+001 -2.7143e+002  6.8273e+000 60350 76635,76442,76390
 4.1000e+000 76589 -1.5401e+000 -2.9856e+002  1.9302e+001 60350 76635,76390,76364
 4.1000e+000 76566 -2.2659e+001 -3.7494e+002 -2.8774e+001 60350 76364,76494,76468
 4.1000e+000 76543 -4.5257e+000 -2.4578e+002  2.3961e+001 60350 76390,76442,76416
 4.1000e+000 76520 -1.3200e+002 -2.5059e+002 -5.9686e+001 60350 76338,76494,76364
 4.1000e+000 76661 -8.3650e+001 -2.8892e+002  1.4360e+001 60350 76468,76442,76635
 4.1000e+000 76684 -4.6518e+001 -3.2360e+002  2.9132e+001 60350 76468,76635,76364
 4.1000e+000 76932 -1.0371e+002 -3.2083e+002  5.5368e+000 59946 76955,76733,76707
 4.1000e+000 76909 -1.0221e+002 -3.1605e+002  1.0935e+001 59946 77027,76955,76707
 4.1000e+000 76886 -9.5023e+001 -3.1578e+002  8.3738e+000 59946 77027,76707,76837
 4.1000e+000 76863 -4.5587e+001 -3.5457e+002 -2.9927e+001 59946 76733,76785,76759
 4.1000e+000 76981 -1.1516e+002 -3.2014e+002 -2.2415e+000 59946 76785,76733,76955
 4.1000e+000 77004 -1.0558e+002 -3.1475e+002  6.8479e+000 59946 76785,76955,76811
 4.1000e+000 77053 -9.1938e+001 -3.1644e+002  8.6420e+000 59946 76811,76955,77027
 4.1000e+000 77076 -8.5893e+001 -3.1526e+002  4.8450e+000 59946 76811,77027,76837
 4.1000e+000 77226 -1.4149e+002 -3.3060e+002  7.6000e+000 59542 77099,77151,77125
 4.1000e+000 77203 -1.6416e+002 -3.7703e+002  1.4747e+001 59542 77099,77177,77151
 4.1000e+000 77427 -1.6507e+002 -3.3910e+002 -2.2471e+001 59030 77450,77277,77251
 4.1000e+000 77404 -9.9118e+001 -2.6545e+002 -9.1445e+001 59030 77450,77251,77355
 4.1000e+000 77381 -1.3504e+001 -4.0282e+002 -5.0067e+000 59030 77277,77329,77303
 4.1000e+000 77476 -8.6477e+001 -3.5439e+002 -6.5908e+001 59030 77329,77277,77450
 4.1000e+000 77499 -1.8408e+001 -3.1897e+002 -1.1990e+002 59030 77329,77450,77355
 4.1000e+000 77749 -1.3645e+002 -4.2317e+002  3.1024e+001 58426 77772,77628,77602
 4.1000e+000 77726 -9.9968e+001 -5.3817e+002  1.3998e+002 58426 77524,77654,77628
 4.1000e+000 77703 -1.1309e+002 -4.1786e+002  2.2159e+001 58426 77772,77602,77550
 4.1000e+000 77680 -6.3176e+001 -3.9046e+002 -1.6211e+001 58426 77550,77602,77576
 4.1000e+000 77798 -1.0887e+002 -4.2666e+002  2.9903e+001 58426 77524,77628,77772
 4.1000e+000 77821 -9.6436e+001 -4.2692e+002  1.8535e+001 58426 77524,77772,77550
 4.1000e+000 78071 -1.7869e+002 -3.8722e+002  4.1507e+001 57922 78094,77924,77898
 4.1000e+000 78048 -2.0806e+002 -3.9365e+002  5.6655e+000 57922 78094,77898,77872
 4.1000e+000 78025 -1.7045e+002 -3.6110e+002  3.8560e+001 57922 78166,77846,77950
 4.1000e+000 78002 -8.9770e+001 -3.5552e+002  4.6281e+001 57922 77846,77976,77950
 4.1000e+000 78120 -1.4826e+002 -3.8975e+002  2.8533e+001 57922 77950,77924,78094
 4.1000e+000 78143 -1.7170e+002 -3.6648e+002  2.8860e+001 57922 78166,77950,78094
 4.1000e+000 78192 -1.6410e+002 -3.7631e+002  3.0120e+001 57922 77872,77846,78166
 4.1000e+000 78215 -1.7352e+002 -3.9228e+002  1.9866e+001 57922 77872,78166,78094
 4.1000e+000 78416  3.8379e+001 -3.2537e+002 -1.8364e+001 57468 78439,78292,78240
 4.1000e+000 78393 -1.7420e+001 -3.0609e+002 -2.1699e-001 57468 78439,78240,78344
 4.1000e+000 78370  1.6328e+001 -4.4200e+002 -1.3248e+001 57468 78240,78292,78266
 4.1000e+000 78465 -1.5828e+001 -3.5285e+002 -3.0027e+001 57468 78318,78292,78439
 4.1000e+000 78488 -3.8727e+001 -3.2011e+002 -6.6136e+000 57468 78318,78439,78344
 4.1000e+000 78689  4.4889e+001 -3.9723e+002 -4.9549e+001 57014 78712,78539,78513
 4.1000e+000 78666 -1.6717e+001 -3.9433e+002 -9.4852e+000 57014 78712,78513,78617
 4.1000e+000 78643 -8.8996e+001 -4.1225e+002  3.8857e+001 57014 78565,78617,78591
 4.1000e+000 78738 -3.4732e+001 -3.3061e+002 -5.0071e+001 57014 78565,78539,78712
 4.1000e+000 78761 -1.2676e+002 -3.8365e+002  1.5261e+001 57014 78565,78712,78617
 4.1000e+000 79241 -1.2689e+002 -3.5081e+002  2.7787e+001 56652 79264,78895,78869
 4.1000e+000 79218 -5.8804e+001 -4.5939e+002 -2.7130e+001 56652 79264,78869,79051
 4.1000e+000 79195 -8.9946e+001 -4.0196e+002 -9.3406e+001 56652 78869,79077,79051
 4.1000e+000 79172 -9.9710e+001 -2.2813e+002 -5.5179e+001 56652 78895,78973,78947
 4.1000e+000 79149 -1.6718e+002 -6.6841e+002 -5.5651e+001 56652 78973,79051,78999
 4.1000e+000 79126 -8.8109e+001 -2.2054e+002 -5.9522e+001 56652 78895,78947,78921
 4.1000e+000 79103 -1.4775e+002 -4.7280e+002  1.1269e+002 56652 78999,79051,79025
 4.1000e+000 79290 -7.5490e+001 -2.8209e+002  6.5913e+001 56652 78973,78895,79264
 4.1000e+000 79313 -2.5094e+000 -3.9803e+002  1.4884e+001 56652 78973,79264,79051
 4.1000e+000 79512 -4.8171e+001 -4.9926e+002  4.8582e+001 56062 79388,79440,79414
 4.1000e+000 79489 -2.1645e+002 -2.7233e+002  6.7847e+001 56062 79336,79440,79388
 4.1000e+000 79466 -9.7037e+001 -2.4102e+002  1.0186e+002 56062 79336,79388,79362
 4.1000e+000 79941 -5.7808e+001 -2.8564e+002  4.4884e+001 55658 79964,79670,79644
 4.1000e+000 79918 -8.8876e+001 -2.9318e+002  5.1582e+001 55658 79964,79644,79800
 4.1000e+000 79895 -8.1637e+001 -3.0638e+002  2.4490e+001 55658 80036,79696,79670
 4.1000e+000 79872 -9.5702e+001 -2.6328e+002 -4.4861e+000 55658 80108,79722,79696
 4.1000e+000 79849 -1.4064e+002 -2.6371e+002  1.1239e+001 55658 79722,79774,79748
 4.1000e+000 79826 -7.6471e-001 -2.6180e+002  1.3031e+001 55658 79618,79800,79644
 4.1000e+000 79990 -9.2480e+001 -3.0937e+002  3.3297e+001 55658 80036,79670,79964
 4.1000e+000 80013 -8.1317e+001 -2.6871e+002  5.4006e+001 55658 79774,79964,79800
 4.1000e+000 80062 -6.9804e+001 -2.8089e+002  1.9758e+001 55658 80108,79696,80036
 4.1000e+000 80085 -8.9065e+001 -2.7065e+002  4.5163e+001 55658 79774,80036,79964
 4.1000e+000 80134 -1.4595e+002 -2.8134e+002  5.9242e+000 55658 79774,79722,80108
 4.1000e+000 80157 -1.3129e+002 -3.0588e+002  2.9895e+001 55658 79774,80108,80036
 4.1000e+000 80307 -1.5129e+002 -2.7753e+002  3.5677e+001 55254 80402,80330,80206
 4.1000e+000 80284 -1.4637e+002 -3.7329e+002  3.7862e+001 55254 80330,80180,80258
 4.1000e+000 80356 -1.7705e+002 -3.3648e+002  7.1890e+001 55254 80232,80206,80330
 4.1000e+000 80379 -4.8242e+001 -2.7840e+002  1.0420e+002 55254 80232,80330,80258
 4.1000e+000 80428 -2.0870e+002 -3.3660e+002  1.1218e+001 55254 80180,80330,80402
 4.1000e+000 80659 -7.3957e+001 -3.8722e+002 -3.3220e+001 54850 80558,80610,80584
 4.1000e+000 80636  6.3570e+000 -3.6832e+002 -4.2023e+001 54850 80532,80610,80558
 4.1000e+000 80760 -2.8069e+001 -2.8595e+002 -2.4284e+001 54652 80682,80734,80708
 4.1000e+000 81164 -2.1653e+001 -3.0300e+002 -6.7840e+000 54248 81187,80942,80890
 4.1000e+000 81141 -2.6090e+001 -3.0715e+002 -4.9587e+000 54248 81187,80890,81046
 4.1000e+000 81118 -3.0594e+001 -3.1782e+002  6.4683e+001 54248 80942,81020,80994
 4.1000e+000 81095 -1.8836e+001 -3.0955e+002  3.1244e+000 54248 80890,80942,80916
 4.1000e+000 81072 -4.0261e+001 -1.7598e+002  7.9580e+000 54248 80942,80994,80968
 4.1000e+000 81213 -2.7034e+001 -2.9946e+002 -6.2094e+000 54248 81020,80942,81187
 4.1000e+000 81236 -3.0142e+001 -3.0192e+002 -5.0414e+000 54248 81020,81187,81046
 4.1000e+000 81663 -1.6162e+002 -3.0922e+002  2.5334e+001 53594 81340,81444,81366
 4.1000e+000 81640 -1.5343e+002 -4.3401e+002  1.1866e+001 53594 81340,81470,81444
 4.1000e+000 81617 -5.3182e+001 -3.8170e+002 -1.4653e+001 53594 81340,81522,81470
 4.1000e+000 81594 -8.8478e+001 -2.2882e+002 -2.5507e+001 53594 81392,81444,81418
 4.1000e+000 81571 -1.1808e+002 -2.6816e+002 -3.8996e+001 53594 81366,81444,81392
 4.1000e+000 81548  2.3883e+001 -6.4200e+002  1.6660e+002 53594 81470,81522,81496
 4.1000e+000 81943 -4.0159e+001 -2.1235e+002 -2.7551e+001 53104 81966,81845,81819
 4.1000e+000 81920 -5.9304e+001 -1.7713e+002 -3.3210e+001 53104 81966,81819,81767
 4.1000e+000 81897 -5.9826e+001 -1.7547e+002 -3.6860e+001 53104 81767,81819,81793
 4.1000e+000 81992 -2.7195e+001 -1.8965e+002 -3.2774e+001 53104 81871,81845,81966
 4.1000e+000 82015 -3.6661e+001 -1.4027e+002 -4.3026e+001 53104 81871,81966,81767
 4.1000e+000 82491 -3.4838e+001 -2.1346e+002 -1.4437e+001 52650 82145,82249,82171
 4.1000e+000 82468 -1.7951e+002 -2.4873e+002 -2.9487e+001 52650 82145,82301,82249
 4.1000e+000 82445 -1.8753e+002 -3.8302e+002 -6.8700e+001 52650 82249,82301,82275
 4.1000e+000 82422 -7.1277e+001 -4.7868e+002 -8.8269e+001 52650 82119,82301,82145
 4.1000e+000 82399 -5.5381e+001 -1.7477e+002  2.3594e+001 52650 82171,82249,82223
 4.1000e+000 82376  2.8091e+001 -4.3952e+002 -7.2341e+001 52650 82119,82327,82301
 4.1000e+000 82353 -1.6016e+001 -8.5287e+001 -3.6712e+001 52650 82171,82223,82197
 4.1000e+000 82739 -4.4451e+001 -2.0329e+002  5.3218e+000 52246 82762,82540,82514
 4.1000e+000 82716 -2.8056e+001 -7.3903e+001 -1.3843e+001 52246 82762,82514,82644
 4.1000e+000 82693 -9.7040e+001 -2.3371e+002  5.2611e+001 52246 82540,82618,82592
 4.1000e+000 82670 -1.1508e+002 -2.2901e+002  4.6997e+001 52246 82540,82592,82566
 4.1000e+000 82788 -2.6669e+001 -2.6235e+002  1.5880e+001 52246 82618,82540,82762
 4.1000e+000 82811 -6.6401e+001 -2.2213e+002 -2.0811e+001 52246 82618,82762,82644
 4.1000e+000 83059 -3.1736e+001 -2.9099e+002  2.7056e+001 51578 82860,82964,82938
 4.1000e+000 83036  1.4088e+000 -1.8545e+002 -6.3370e+001 51578 82834,82964,82860
 4.1000e+000 83013 -1.1691e+001 -2.2257e+002  6.0835e+001 51578 82860,82938,82886
 4.1000e+000 82990 -8.8767e+000 -1.3405e+002  8.3776e+000 51578 82886,82938,82912
 4.1000e+000 83309 -5.1311e+001 -1.6473e+002  4.5224e+001 51138 83332,83162,83136
 4.1000e+000 83286 -1.7935e+001 -2.1380e+002  1.4274e+001 51138 83332,83136,83110
 4.1000e+000 83263 -8.2602e+001 -2.2180e+002 -1.3589e+001 51138 83404,83214,83188
 4.1000e+000 83240 -9.8983e-001 -1.3986e+002  1.3179e+001 51138 83084,83214,83110
 4.1000e+000 83358 -8.2657e+001 -2.2484e+002  5.7798e+001 51138 83188,83162,83332
 4.1000e+000 83381 -5.7297e+001 -2.4478e+002  8.2410e+000 51138 83404,83188,83332
 4.1000e+000 83430 -5.3109e+001 -1.6522e+002  3.8178e-001 51138 83110,83214,83404
 4.1000e+000 83453 -3.0702e+001 -2.0048e+002  2.0922e+001 51138 83110,83404,83332
 4.1000e+000 83835 -4.6551e+001 -2.7181e+002 -2.2782e+000 50734 83613,83717,83691
 4.1000e+000 83812 -5.0574e+001 -2.8758e+002 -6.1412e+001 50734 83561,83717,83613
 4.1000e+000 83789 -2.2993e+001 -1.4850e+002 -8.6887e+001 50734 83561,83613,83587
 4.1000e+000 83766 -1.0440e+002 -1.8086e+002 -9.8538e-002 50734 83613,83691,83639
 4.1000e+000 83743 -1.1076e+002 -1.8403e+002  3.7279e+001 50734 83639,83691,83665
 4.1000e+000 84034 -6.8775e+001 -1.7281e+002  9.6357e+000 50230 84057,83884,83858
 4.1000e+000 84011 -6.8592e+001 -1.8854e+002 -1.7861e+001 50230 84129,84057,83858
 4.1000e+000 83988 -2.1285e+001 -2.0126e+002 -2.9814e+001 50230 84129,83858,83962
 4.1000e+000 84083 -2.4408e+001 -1.5687e+002  1.6020e+001 50230 83910,83884,84057
 4.1000e+000 84106 -4.2029e+001 -1.8541e+002  6.4559e+000 50230 83910,84057,83936
 4.1000e+000 84155 -6.8465e+000 -1.6083e+002 -4.2555e+000 50230 83936,84057,84129
 4.1000e+000 84178  1.1105e+001 -1.9441e+002 -2.2942e+001 50230 83936,84129,83962
 4.1000e+000 84558 -7.5577e+001 -2.2617e+002 -3.5812e+001 49768 84581,84388,84362
 4.1000e+000 84535 -1.5208e+002 -2.2895e+002 -1.4054e+001 49768 84581,84362,84310
 4.1000e+000 84512  1.3069e+000 -2.4678e+002 -3.7998e+001 49768 84653,84440,84414
 4.1000e+000 84489 -1.1989e+002 -2.4679e+002  1.6796e+001 49768 84310,84362,84336
 4.1000e+000 84466 -5.7461e+000 -1.8275e+002  2.4080e+001 49768 84284,84440,84310
 4.1000e+000 84607 -1.9239e+001 -1.8887e+002 -6.1887e+001 49768 84414,84388,84581
 4.1000e+000 84630 -2.9098e+001 -2.3118e+002 -2.7141e+001 49768 84653,84414,84581
 4.1000e+000 84679 -3.9402e+001 -2.3442e+002 -5.1827e+001 49768 84310,84440,84653
 4.1000e+000 84702 -8.3547e+001 -2.3438e+002 -5.2943e+001 49768 84310,84653,84581
 4.1000e+000 85159 -1.1442e+002 -3.1025e+002 -8.8123e+001 49192 84885,84937,84911
 4.1000e+000 85136 -1.1681e+002 -2.5988e+002 -6.6013e+001 49192 84885,85041,84937
 4.1000e+000 85113 -8.7434e+001 -2.2286e+002 -3.1563e+001 49192 84963,85041,84989
 4.1000e+000 85090 -7.8839e+001 -2.1085e+002 -4.9112e+001 49192 84937,85041,84963
 4.1000e+000 85067 -7.0561e+001 -2.2506e+002 -2.5017e+001 49192 84989,85041,85015
 4.1000e+000 85714 -1.2651e+002 -2.1290e+002 -1.9786e+000 48638 85368,85498,85394
 4.1000e+000 85691 -1.5699e+002 -2.4877e+002  1.1418e+001 48638 85368,85524,85498
 4.1000e+000 85668 -1.4059e+002 -2.0316e+002  5.1831e+001 48638 85737,85420,85394
 4.1000e+000 85645 -1.2080e+002 -2.3308e+002  2.7392e+001 48638 85737,85394,85498
 4.1000e+000 85622 -9.6818e+001 -2.4006e+002  4.7422e+001 48638 85446,85498,85472
 4.1000e+000 85599 -4.1316e+001 -2.0508e+002  2.2569e+001 48638 85342,85524,85368
 4.1000e+000 85576 -1.5578e+002 -2.3038e+002  2.1447e+001 48638 85342,85550,85524
 4.1000e+000 85763 -1.0349e+002 -1.8262e+002  7.0631e+001 48638 85446,85420,85737
 4.1000e+000 85786 -1.0540e+002 -2.1050e+002  4.2084e+001 48638 85446,85737,85498
 4.1000e+000 86371 -1.0591e+002 -1.5970e+002 -9.8463e+000 48084 86100,86230,86178
 4.1000e+000 86348 -1.2902e+002 -2.0246e+002 -2.2119e+001 48084 86048,86230,86100
 4.1000e+000 86325 -1.0920e+002 -1.5041e+002  3.8146e+001 48084 86100,86178,86126
 4.1000e+000 86302 -6.3106e+001 -4.6910e+001 -4.0552e+001 48084 86048,86100,86074
 4.1000e+000 86279 -1.3691e+002 -2.5476e+002 -3.4433e+000 48084 86178,86230,86204
 4.1000e+000 86256 -9.9336e+001 -1.7224e+002  3.6336e+001 48084 86126,86178,86152
 4.1000e+000 86619 -8.1288e+001 -1.8047e+002  1.4829e+001 47630 86642,86446,86420
 4.1000e+000 86596 -9.9120e+001 -2.0095e+002 -2.3025e+001 47630 86642,86420,86394
 4.1000e+000 86573 -1.2631e+002 -2.3793e+002 -3.3455e+001 47630 86394,86524,86498
 4.1000e+000 86550 -5.0846e+001 -2.0681e+002  1.2208e+001 47630 86446,86498,86472
 4.1000e+000 86668 -1.0078e+002 -2.2356e+002 -1.0021e+000 47630 86498,86446,86642
 4.1000e+000 86691 -1.1071e+002 -2.3083e+002 -3.8064e+001 47630 86498,86642,86394
 4.1000e+000 87022 -6.7287e+000 -1.3130e+002 -7.5103e+001 47226 87045,86875,86849
 4.1000e+000 86999 -1.2896e+000 -1.4750e+002 -7.1017e+001 47226 87045,86849,86797
 4.1000e+000 86976  1.4838e+000 -6.8560e+001 -1.6738e+001 47226 86797,86849,86823
 4.1000e+000 86953  7.8892e+000 -9.3440e+001 -3.7959e+001 47226 86875,86927,86901
 4.1000e+000 87071 -1.5903e+001 -1.4322e+002 -7.1112e+001 47226 86927,86875,87045
 4.1000e+000 87094 -6.1391e+000 -1.5428e+002 -6.8743e+001 47226 86927,87045,86797
 4.1000e+000 87244 -1.2669e+001 -2.4786e+002  6.4974e+001 46814 87267,87169,87143
 4.1000e+000 87221 -1.1608e+002 -2.2328e+002 -1.3366e+001 46814 87267,87143,87117
 4.1000e+000 87293 -1.2222e+001 -1.8703e+002  4.0065e+001 46814 87339,87267,87195
 4.1000e+000 87316 -1.0842e+001 -1.7840e+002  5.6911e+000 46814 87469,87267,87117
 4.1000e+000 87365  1.1437e+001 -1.7486e+002  4.5977e+001 46814 87169,87267,87339
 4.1000e+000 87495 -8.5242e-001 -2.0479e+001 -2.8125e+000 46814 87195,87267,87469
 4.1000e+000 88001 -7.5926e+001 -1.8281e+002  4.2971e+001 46310 88024,87834,87808
 4.1000e+000 87978 -9.1602e+001 -1.8598e+002  2.5904e+001 46310 88024,87808,87756
 4.1000e+000 87955 -4.8675e+001 -2.3981e+002  1.1524e+001 46310 88096,87730,87860
 4.1000e+000 87932 -6.7066e+001 -2.3998e+002  2.6383e+001 46310 87756,87808,87782
 4.1000e+000 87909 -6.2127e+001 -2.8834e+002  1.0584e+001 46310 87678,87860,87730
 4.1000e+000 87886 -9.4792e+001 -4.6342e+002 -2.4024e+001 46310 87678,87730,87704
 4.1000e+000 88050 -6.5031e+001 -1.5883e+002  2.6735e+001 46310 87860,87834,88024
 4.1000e+000 88073 -4.9849e+001 -1.7524e+002  3.2195e+001 46310 88096,87860,88024
 4.1000e+000 88122 -6.3550e+001 -2.7060e+002 -1.0595e+001 46310 87756,87730,88096
 4.1000e+000 88145 -1.0466e+002 -2.4490e+002  1.1048e+000 46310 87756,88096,88024
 4.1000e+000 88572 -4.6039e+001 -2.3315e+002  1.2899e+001 45856 88249,88405,88275
 4.1000e+000 88549 -3.9776e+001 -7.4547e+001 -4.7769e+001 45856 88249,88431,88405
 4.1000e+000 88526 -1.1375e+002 -3.2159e+002 -4.2084e+001 45856 88327,88405,88353
 4.1000e+000 88503 -5.1734e+001 -2.8061e+002 -1.8934e+001 45856 88275,88405,88327
 4.1000e+000 88480 -9.3141e+001 -2.7456e+002 -4.5048e+001 45856 88353,88405,88379
 4.1000e+000 88457 -2.1506e+002 -5.8396e+002  4.8461e+001 45856 88275,88327,88301
 4.1000e+000 88950 -3.7924e+001 -1.3544e+002 -1.4488e+000 45658 88973,88754,88728
 4.1000e+000 88927 -3.7976e+001 -1.4425e+002 -2.8679e+000 45658 88973,88728,88676
 4.1000e+000 88904 -3.9349e+001 -1.7638e+002  5.1854e+001 45658 88676,88832,88806
 4.1000e+000 88881 -6.6421e+001 -1.9921e+002  1.7995e+001 45658 88676,88728,88702
 4.1000e+000 88858 -4.6865e+001 -1.2651e+002 -2.2336e+001 45658 88754,88806,88780
 4.1000e+000 88999 -3.9519e+001 -1.4356e+002 -1.1566e+000 45658 88806,88754,88973
 4.1000e+000 89022 -3.6819e+001 -1.4863e+002 -2.7668e+000 45658 88806,88973,88676
 4.1000e+000 89351 -6.7718e+001 -2.2983e+002 -1.0654e+001 45254 89152,89230,89204
 4.1000e+000 89328 -6.2843e+001 -2.2778e+002 -1.0634e+001 45254 89152,89256,89230
 4.1000e+000 89305 -2.0746e+001 -2.4127e+002 -2.9454e+001 45254 89126,89256,89152
 4.1000e+000 89282  3.5043e+000 -2.3373e+002 -4.0945e+001 45254 89152,89204,89178
 4.1000e+000 89523 -3.2544e+001 -1.7858e+002  2.9678e-001 45006 89422,89474,89448
 4.1000e+000 89500 -2.4703e+001 -1.7525e+002  6.5651e+000 45006 89396,89474,89422
 4.1000e+000 89673 -1.9042e+002 -3.3205e+002  2.8845e+001 44495 89572,89624,89598
 4.1000e+000 89650 -1.9439e+002 -3.3050e+002  1.8655e+001 44495 89546,89624,89572
 4.1000e+000 90104 -1.8692e+001 -2.4576e+002 -1.3128e+001 44005 90199,90127,89937
 4.1000e+000 90081 -4.9339e+001 -2.4274e+002  2.9420e+000 44005 90271,90127,89859
 4.1000e+000 90058 -2.6528e+000 -2.5448e+002 -1.4237e+001 44005 90199,89937,89885
 4.1000e+000 90035 -6.8024e+001 -2.3037e+002  1.3588e+001 44005 90271,89859,89807
 4.1000e+000 90012 -3.5399e+001 -2.8068e+002 -3.3612e+001 44005 89885,89937,89911
 4.1000e+000 89989 -2.1113e+001 -2.4903e+002  4.2556e+001 44005 89807,89859,89833
 4.1000e+000 90153 -4.9942e+001 -2.5642e+002 -6.7357e+000 44005 89963,89937,90127
 4.1000e+000 90176 -5.4957e+001 -2.7656e+002  5.7411e+000 44005 89963,90127,89781
 4.1000e+000 90225 -5.4362e+001 -2.4648e+002 -4.2783e+000 44005 89859,90127,90199
 4.1000e+000 90248 -2.2788e+001 -2.4570e+002  6.1491e-001 44005 89859,90199,89885
 4.1000e+000 90297 -7.4625e+001 -2.5795e+002 -3.4773e+000 44005 89781,90127,90271
 4.1000e+000 90320 -8.5481e+001 -2.4148e+002  8.8097e+000 44005 89781,90271,89807
 4.1000e+000 90470 -4.3289e+001 -2.6927e+002 -8.9881e+000 43601 90493,90369,90343
 4.1000e+000 90447 -7.2799e+001 -2.1619e+002  1.6355e+001 43601 90493,90343,90421
 4.1000e+000 90519 -8.8995e+001 -3.6870e+002 -4.3523e+001 43601 90395,90369,90493
 4.1000e+000 90542 -6.9056e+001 -2.5540e+002 -1.1408e+001 43601 90395,90493,90421
 4.1000e+000 90922 -9.5440e+001 -2.8323e+002  1.9406e+001 43154 90945,90700,90674
 4.1000e+000 90899 -8.4725e+001 -2.8840e+002 -3.1558e+001 43154 90945,90674,90648
 4.1000e+000 90876 -1.0133e+002 -2.3048e+002 -1.9986e+001 43154 90648,90778,90752
 4.1000e+000 90853 -5.3166e+001 -4.7059e+002  1.3019e+001 43154 90700,90752,90726
 4.1000e+000 90830 -6.1642e+001 -2.3292e+002 -6.4076e+000 43154 90648,90804,90778
 4.1000e+000 90971 -1.0974e+002 -3.2758e+002  2.8240e+001 43154 90752,90700,90945
 4.1000e+000 90994 -9.5398e+001 -3.1508e+002 -2.1403e+001 43154 90752,90945,90648
 4.1000e+000 91451 -2.3237e+001 -2.1782e+002 -3.8714e+001 42650 91203,91255,91229
 4.1000e+000 91428  2.4088e+001 -1.9710e+002 -1.9669e+001 42650 91203,91333,91255
 4.1000e+000 91405 -4.9065e-002 -3.1843e+002 -5.4876e+001 42650 91177,91333,91203
 4.1000e+000 91382 -9.8268e+001 -3.3930e+002  4.4822e+001 42650 91255,91333,91281
 4.1000e+000 91359 -2.2284e+001 -2.9135e+002  2.2490e+001 42650 91281,91333,91307
 4.1000e+000 91721 -1.4289e+002 -3.2463e+002  2.2204e+001 42288 91496,91600,91522
 4.1000e+000 91698 -7.6697e+001 -1.8879e+002 -8.2157e+000 42288 91496,91626,91600
 4.1000e+000 91675 -9.1602e+001 -2.9708e+002  2.5746e+001 42288 91522,91574,91548
 4.1000e+000 91652 -7.4976e+001 -2.9834e+002  2.2989e+001 42288 91522,91600,91574
 4.1000e+000 92199 -2.1152e+002 -3.5282e+002 -8.6158e+000 41898 92222,91983,91879
 4.1000e+000 92176 -2.1504e+002 -3.8256e+002 -2.0350e+001 41898 92294,92222,91879
 4.1000e+000 92153 -2.2488e+002 -3.7656e+002 -2.7923e+001 41898 92294,91879,91853
 4.1000e+000 92130 -1.8531e+002 -2.2116e+002  2.1586e+001 41898 91879,91957,91931
 4.1000e+000 92107 -1.9200e+002 -3.4538e+002 -8.5050e-001 41898 91879,91983,91957
 4.1000e+000 92084 -1.9322e+002 -1.9784e+002  3.5975e+001 41898 91879,91931,91905
 4.1000e+000 92061 -2.0268e+002 -3.4013e+002 -2.3346e+001 41898 91827,92035,91853
 4.1000e+000 92248 -2.0877e+002 -3.8953e+002 -8.6073e-001 41898 92009,91983,92222
 4.1000e+000 92271 -2.0556e+002 -3.9760e+002 -2.8929e+001 41898 92009,92222,92035
 4.1000e+000 92320 -1.9799e+002 -3.7393e+002 -2.3301e+001 41898 92035,92222,92294
 4.1000e+000 92343 -2.0549e+002 -3.6736e+002 -3.0580e+001 41898 92035,92294,91853
 4.1000e+000 92770 -6.5873e+001 -3.0451e+002 -2.0547e+001 41437 92865,92793,92525
 4.1000e+000 92747 -9.6116e+001 -3.6384e+002 -3.1450e+001 41437 92793,92473,92629
 4.1000e+000 92724 -3.2402e+001 -3.0830e+002 -3.8375e+001 41437 92865,92525,92499
 4.1000e+000 92701 -1.0494e+002 -2.8262e+002 -4.8280e+001 41437 92525,92603,92577
 4.1000e+000 92678  1.6900e-001 -3.5073e+002 -2.7654e+001 41437 92447,92629,92473
 4.1000e+000 92655 -1.6373e+002 -2.5401e+002 -2.8601e+001 41437 92525,92577,92551
 4.1000e+000 92819 -7.8598e+001 -3.3356e+002 -4.8257e+001 41437 92603,92525,92793
 4.1000e+000 92842 -1.4916e+002 -3.5740e+002 -9.0356e+001 41437 92603,92793,92629
 4.1000e+000 92891  2.9814e+000 -3.4061e+002 -3.0655e+001 41437 92473,92793,92865
 4.1000e+000 92914  5.3922e+001 -3.1973e+002 -5.7813e+001 41437 92473,92865,92499
 4.1000e+000 93243 -4.9991e+001 -4.6288e+002  1.7026e+002 41097 93044,93096,93070
 4.1000e+000 93220 -8.9561e+001 -4.0705e+002  9.0479e+001 41097 93044,93122,93096
 4.1000e+000 93197  1.8283e+001 -2.7107e+002  3.6583e+001 41097 93044,93148,93122
 4.1000e+000 93174 -7.7298e+001 -2.2183e+002  7.5630e+001 41097 93018,93148,93044
 4.1000e+000 93393 -8.8573e+000 -3.4618e+002  2.3694e+001 40643 93416,93292,93344
 4.1000e+000 93370 -1.4905e+001 -3.2398e+002  2.6340e+001 40643 93266,93344,93292
 4.1000e+000 93442 -1.4012e+001 -3.4326e+002  3.1054e+001 40643 93318,93292,93416
 4.1000e+000 93901 -1.0399e+002 -3.1701e+002 -2.1631e+001 40132 93924,93731,93705
 4.1000e+000 93878 -1.0953e+002 -3.2828e+002 -2.4440e+001 40132 93996,93924,93705
 4.1000e+000 93855 -1.2983e+002 -3.7806e+002 -8.8687e+000 40132 93996,93705,93653
 4.1000e+000 93832 -5.2935e+001 -3.6269e+002 -2.1893e+001 40132 93653,93705,93679
 4.1000e+000 93809 -1.0513e+002 -3.1685e+002  3.6707e+000 40132 93627,93783,93757
 4.1000e+000 93950 -1.0030e+002 -3.3802e+002 -2.5730e+001 40132 93757,93731,93924
 4.1000e+000 93973 -1.1319e+002 -3.0050e+002 -6.2218e+000 40132 93757,93924,93627
 4.1000e+000 94022 -1.4556e+002 -3.5943e+002  1.1623e+001 40132 93627,93924,93996
 4.1000e+000 94045 -1.3543e+002 -3.7674e+002  2.3051e+001 40132 93627,93996,93653
 4.1000e+000 94423 -2.1471e+001 -3.6530e+002 -5.0999e+001 39514 94149,94227,94175
 4.1000e+000 94400 -3.7872e+001 -3.4549e+002  3.9957e+001 39514 94149,94305,94227
 4.1000e+000 94377  1.0172e+001 -4.3253e+002 -4.8697e+001 39514 94175,94227,94201
 4.1000e+000 94354 -1.0709e+002 -3.2110e+002  1.7972e+001 39514 94227,94305,94279
 4.1000e+000 94331 -4.5182e+001 -2.9238e+002  3.2066e+001 39514 94227,94279,94253
 4.1000e+000 94573 -2.5060e+001 -2.0864e+002 -4.3588e+001 38822 94596,94498,94472
 4.1000e+000 94550  4.6068e+001 -2.2764e+002  4.9952e+001 38822 94596,94472,94446
 4.1000e+000 94622 -1.0752e+002 -2.4406e+002 -4.1867e+001 38822 94524,94498,94596
 4.1000e+000 94645 -9.2669e+001 -2.8942e+002  6.1660e+001 38822 94524,94596,94446
 4.1000e+000 95025 -1.6085e+001 -2.7420e+002 -1.9265e+001 38418 95048,94829,94777
 4.1000e+000 95002 -2.7438e+001 -2.9159e+002 -3.5085e+001 38418 95120,95048,94777
 4.1000e+000 94979 -2.0882e+001 -2.8614e+002 -3.2573e+001 38418 95120,94777,94751
 4.1000e+000 94956 -1.8301e+001 -2.5452e+002 -3.8194e+001 38418 95192,94881,94855
 4.1000e+000 94933 -8.4819e+001 -2.4565e+002 -1.0595e+001 38418 94777,94829,94803
 4.1000e+000 95074 -4.8756e+001 -3.6963e+002 -7.5550e+000 38418 94855,94829,95048
 4.1000e+000 95097 -2.5216e+001 -2.8736e+002 -4.3421e+001 38418 95192,94855,95048
 4.1000e+000 95146 -5.1506e+001 -2.7428e+002 -2.8242e+001 38418 94907,95048,95120
 4.1000e+000 95169 -3.1599e+001 -2.5746e+002 -2.0827e+001 38418 94907,95120,94751
 4.1000e+000 95218 -2.5468e+001 -1.9630e+002 -3.3071e+001 38418 94907,94881,95192
 4.1000e+000 95241 -4.1948e+001 -2.4714e+002 -3.0094e+001 38418 94907,95192,95048
 4.1000e+000 95511 -9.4210e+001 -2.9928e+002  1.3335e+001 38049 95312,95390,95364
 4.1000e+000 95488 -6.5832e+001 -2.8791e+002  1.4801e+001 38049 95312,95416,95390
 4.1000e+000 95465 -3.3070e+001 -2.8682e+002 -1.8352e+001 38049 95312,95364,95338
 4.1000e+000 95442 -2.6915e+001 -2.7045e+002  2.6090e+001 38049 95286,95416,95312
 4.1000e+000 95808 -8.7772e+001 -3.4020e+002 -6.6492e+000 37437 95831,95586,95560
 4.1000e+000 95785  3.4405e+001 -3.6272e+002 -1.6352e+001 37437 95831,95560,95534
 4.1000e+000 95762 -1.7817e+002 -3.2937e+002  7.3849e+000 37437 95586,95664,95638
 4.1000e+000 95739 -2.8211e+001 -1.6588e+002 -9.0937e+001 37437 95534,95690,95664
 4.1000e+000 95716 -1.6115e+002 -2.3843e+002  9.5486e+000 37437 95586,95638,95612
 4.1000e+000 95857 -1.6592e+002 -3.3505e+002  4.2148e+001 37437 95664,95586,95831
 4.1000e+000 95880 -3.6067e+001 -3.5383e+002  3.4008e+001 37437 95664,95831,95534
 4.1000e+000 96390 -1.1813e+002 -2.5826e+002 -1.4361e+001 36883 96413,96145,96093
 4.1000e+000 96367 -9.6639e+001 -2.4761e+002 -8.3966e+000 36883 96413,96093,96067
 4.1000e+000 96344 -6.9950e+001 -2.9992e+002  1.1958e+000 36883 96067,96249,96171
 4.1000e+000 96321 -1.0323e+002 -3.0071e+002 -3.6948e+000 36883 96093,96145,96119
 4.1000e+000 96298 -1.4619e+002 -4.9311e+002  4.6995e+001 36883 96171,96249,96197
 4.1000e+000 96275 -4.4604e+001 -3.9139e+002 -7.9589e+000 36883 96197,96249,96223
 4.1000e+000 96439 -1.1224e+002 -2.5072e+002  4.9572e+000 36883 96171,96145,96413
 4.1000e+000 96462 -9.4352e+001 -2.4603e+002  9.1948e+000 36883 96171,96413,96067
 4.1000e+000 96781 -9.3881e+001 -2.9232e+002 -4.1667e+001 36215 96559,96663,96637
 4.1000e+000 96758 -1.1661e+002 -3.2111e+002 -5.3539e+001 36215 96507,96663,96559
 4.1000e+000 96735 -1.1580e+002 -2.1937e+002  2.1348e+001 36215 96585,96637,96611
 4.1000e+000 96712 -2.4134e+002 -3.3817e+002 -3.5872e+001 36215 96559,96637,96585
 4.1000e+000 96689 -4.7327e+001 -3.8382e+002 -1.2457e+001 36215 96507,96559,96533
 4.1000e+000 97161  5.2253e+000 -1.5989e+002 -8.8865e+000 35818 97184,96965,96939
 4.1000e+000 97138 -1.5019e+001 -1.9211e+002 -1.7676e+001 35818 97184,96939,96887
 4.1000e+000 97115 -6.0430e+000 -2.0113e+002  3.7221e+001 35818 96965,97043,97017
 4.1000e+000 97092 -7.0117e+000 -1.8578e+002 -2.2013e+001 35818 96887,96939,96913
 4.1000e+000 97069 -1.0388e+002 -2.0379e+002  2.3654e+001 35818 96965,97017,96991
 4.1000e+000 97210  2.6707e+001 -1.8730e+002  8.7383e+000 35818 97043,96965,97184
 4.1000e+000 97233  1.1342e+001 -2.1048e+002  1.9694e+000 35818 97043,97184,96887
 4.1000e+000 97739 -9.5623e+001 -2.9393e+002 -6.8220e+001 35214 97416,97468,97442
 4.1000e+000 97716 -1.1410e+002 -2.1652e+002 -2.1407e+001 35214 97416,97598,97468
 4.1000e+000 97693 -1.0484e+002 -2.0774e+002 -8.7617e+000 35214 97762,97520,97468
 4.1000e+000 97670 -1.0657e+002 -2.1262e+002 -1.7830e+001 35214 97762,97468,97598
 4.1000e+000 97647 -8.0160e+001 -2.0555e+002 -2.7089e+001 35214 97546,97598,97572
 4.1000e+000 97624 -6.4214e+001 -2.1727e+002 -1.1615e+001 35214 97468,97520,97494
 4.1000e+000 97788 -1.0851e+002 -2.1788e+002 -1.1575e+001 35214 97546,97520,97762
 4.1000e+000 97811 -1.0848e+002 -2.2186e+002 -2.0091e+001 35214 97546,97762,97598
 4.1000e+000 98189 -1.8048e+001 -1.6078e+002 -1.3492e+001 34760 98356,98212,97967
 4.1000e+000 98166 -3.9156e+001 -1.9659e+002 -2.9452e+001 34760 98284,98212,97941
 4.1000e+000 98143 -7.2840e+001 -1.7803e+002 -1.4606e+001 34760 98284,97941,97915
 4.1000e+000 98120 -2.2083e+001 -2.1708e+002 -6.2030e+000 34760 98484,97993,97967
 4.1000e+000 98097 -1.9815e+001 -1.8416e+002 -4.9234e+000 34760 98556,98045,98019
 4.1000e+000 98238 -3.2797e+001 -2.0394e+002 -6.8048e+000 34760 98484,97967,98212
 4.1000e+000 98261 -3.0771e+000 -1.8970e+002 -1.3502e+001 34760 98556,98019,98212
 4.1000e+000 98310 -1.0001e+001 -1.6333e+002 -4.3279e+001 34760 98071,98212,98284
 4.1000e+000 98333 -3.2744e+001 -1.1761e+002 -3.5344e+001 34760 98071,98284,97915
 4.1000e+000 98382 -9.8874e+001 -2.1702e+002 -3.8690e+001 34760 97941,98212,98356
 4.1000e+000 98510 -4.8347e+000 -2.0614e+002 -1.2130e+001 34760 98019,97993,98484
 4.1000e+000 98533 -2.2159e+001 -1.9839e+002 -1.1406e+001 34760 98019,98484,98212
 4.1000e+000 98582  1.5390e+000 -1.7565e+002 -1.7741e+000 34760 98071,98045,98556
 4.1000e+000 98605  8.6845e+000 -1.8726e+002 -1.1902e+001 34760 98071,98556,98212
 4.1000e+000 99032 -1.1800e+002 -2.7181e+002  3.9676e+001 34156 98735,98891,98839
 4.1000e+000 99009 -9.6830e+001 -2.8027e+002  1.7054e+001 34156 98709,98891,98735
 4.1000e+000 98986 -3.2860e+001 -2.4035e+002  3.6863e+001 34156 98735,98813,98787
 4.1000e+000 98963 -4.0030e+001 -2.6357e+002  3.0942e+001 34156 98735,98839,98813
 4.1000e+000 98940  1.6843e+001 -3.6070e+002  4.1643e+001 34156 98735,98787,98761
 4.1000e+000 98917 -1.0330e+002 -2.3449e+002  2.3285e+001 34156 98839,98891,98865
 4.1000e+000 99231 -3.4326e+001 -1.4519e+002  1.3400e+001 33766 99055,99133,99107
 4.1000e+000 99208 -6.1873e+001 -1.9313e+002  2.6893e+001 33766 99055,99159,99133
 4.1000e+000 99185 -1.4726e+001 -1.6419e+002  3.3682e+001 33766 99055,99107,99081
 4.1000e+000 99818 -6.6437e+001 -2.0230e+002  4.3180e+000 33248 99521,99651,99573
 4.1000e+000 99795 -6.8572e+001 -1.9493e+002  1.8771e+001 33248 99521,99677,99651
 4.1000e+000 99772 -9.8978e+001 -2.4111e+002 -1.2022e+001 33248 99573,99651,99599
 4.1000e+000 99749 -7.0264e+001 -2.4215e+002  2.1191e+001 33248 99495,99677,99521
 4.1000e+000 99726 -4.3416e+001 -2.0324e+002 -4.7924e+001 33248 99599,99651,99625
 4.1000e+000 99703 -8.6543e+001 -2.4024e+002  1.4546e+001 33248 99521,99573,99547
 4.1000e+000 100196 -7.2882e+001 -2.2306e+002 -4.2521e+001 32794 100219,99948,99922
 4.1000e+000 100173 -8.5908e+001 -2.5089e+002 -2.0811e+001 32794 100219,99922,100052
 4.1000e+000 100150 -1.1700e+002 -2.2959e+002  1.4508e+001 32794 99974,100052,100026
 4.1000e+000 100127 -1.0479e+002 -2.0161e+002 -3.4147e+001 32794 99922,100078,100052
 4.1000e+000 100104 -1.2131e+002 -2.7720e+002  5.2493e+001 32794 99974,100026,100000
 4.1000e+000 100245 -9.7375e+001 -2.1729e+002 -1.5140e+001 32794 99974,99948,100219
 4.1000e+000 100268 -1.0643e+002 -2.5495e+002  6.6695e+000 32794 99974,100219,100052
 4.1000e+000 100418 -1.7088e+001 -2.0952e+002 -2.2764e+001 32504 100571,100343,100317
 4.1000e+000 100395 -8.4571e+001 -2.4016e+002  2.0317e+001 32504 100571,100317,100441
 4.1000e+000 100467  5.5827e+001 -1.1753e+002 -6.1878e+001 32504 100291,100369,100441
 4.1000e+000 100597  1.2695e+001 -1.7682e+002 -7.5074e+001 32504 100369,100343,100571
 4.1000e+000 100620 -1.7510e+001 -1.6514e+002 -3.7934e+001 32504 100369,100571,100441
 4.1000e+000 101020 -3.2522e+001 -1.8030e+002  7.1120e+000 32142 100772,100902,100876
 4.1000e+000 100997 -2.1473e+001 -1.6449e+002  1.1949e+001 32142 100746,100902,100772
 4.1000e+000 100974 -6.2701e+000 -1.9860e+002  2.1915e+001 32142 101043,100824,100798
 4.1000e+000 100951 -3.5173e+001 -2.1149e+002  1.6616e+001 32142 101043,100798,100772
 4.1000e+000 100928 -1.1515e+002 -2.4680e+002 -5.9881e+001 32142 101115,100876,100850
 4.1000e+000 101069  3.1494e+001 -2.1431e+002 -2.2828e+001 32142 100850,100824,101043
 4.1000e+000 101092 -5.9037e+001 -2.5278e+002 -2.9397e+001 32142 101115,100850,101043
 4.1000e+000 101141 -4.6430e+001 -2.0995e+002 -2.1446e+001 32142 100772,100876,101115
 4.1000e+000 101164 -3.6213e+000 -2.1440e+002  1.1973e+001 32142 100772,101115,101043
 4.1000e+000 101719 -1.1761e+002 -2.7967e+002  3.7337e+001 31538 101742,101477,101399
 4.1000e+000 101696 -1.4426e+002 -3.4085e+002  8.1473e+000 31538 101814,101742,101399
 4.1000e+000 101673 -1.6581e+002 -2.9366e+002 -2.4246e+001 31538 101814,101399,101373
 4.1000e+000 101650 -1.1704e+002 -2.0226e+002  2.4303e+001 31538 101425,101477,101451
 4.1000e+000 101627 -1.1060e+002 -2.3614e+002  6.2983e+000 31538 101399,101477,101425
 4.1000e+000 101604 -7.3140e+001 -3.2268e+002  6.9072e+001 31538 101477,101529,101503
 4.1000e+000 101581 -4.4314e+001 -2.0128e+002 -2.0142e+001 31538 101347,101555,101373
 4.1000e+000 101768 -1.3556e+002 -3.4411e+002  3.7500e+001 31538 101529,101477,101742
 4.1000e+000 101791 -1.1523e+002 -3.5223e+002 -1.1608e+001 31538 101529,101742,101555
 4.1000e+000 101840 -8.9928e+001 -2.9276e+002 -1.3820e+001 31538 101555,101742,101814
 4.1000e+000 101863 -1.2107e+002 -2.5435e+002 -4.3439e+001 31538 101555,101814,101373
 4.1000e+000 102111 -1.7219e+002 -4.4021e+002  5.5455e+001 31112 101886,101990,101912
 4.1000e+000 102088 -6.5817e+001 -2.6540e+002  3.4264e+000 31112 101886,102016,101990
 4.1000e+000 102065 -8.2020e+001 -4.3186e+002  9.1258e+001 31112 101912,101990,101964
 4.1000e+000 102042 -1.3081e+002 -5.5077e+002  1.0719e+002 31112 101912,101964,101938
 4.1000e+000 102408 -4.1750e+001 -2.7085e+002  2.1482e+001 30658 102431,102186,102160
 4.1000e+000 102385 -8.9914e+001 -2.6794e+002  3.8737e-002 30658 102431,102160,102264
 4.1000e+000 102362 -8.5795e+001 -2.9231e+002  4.6615e+000 30658 102186,102238,102212
 4.1000e+000 102339 -9.7690e+001 -2.8397e+002 -1.6793e+001 30658 102134,102264,102160
 4.1000e+000 102316 -6.7537e+001 -2.3791e+002 -7.7932e+001 30658 102134,102290,102264
 4.1000e+000 102457 -8.2055e+001 -2.8532e+002  1.1209e+001 30658 102238,102186,102431
 4.1000e+000 102480 -1.3358e+002 -2.8705e+002 -1.2213e+001 30658 102238,102431,102264
 4.1000e+000 102681 -3.5736e+001 -3.2718e+002  5.0813e+001 30004 102704,102557,102505
 4.1000e+000 102658 -4.5761e+001 -3.2605e+002  5.0303e+001 30004 102704,102505,102609
 4.1000e+000 102635  4.8426e+000 -2.8458e+002  1.2990e+001 30004 102505,102557,102531
 4.1000e+000 102730 -4.3218e+001 -3.2044e+002  4.5884e+001 30004 102583,102557,102704
 4.1000e+000 102753 -6.4383e+001 -3.2694e+002  4.5788e+001 30004 102583,102704,102609
 4.1000e+000 103003 -3.8250e+001 -2.6285e+002 -2.0580e+001 29564 103026,102804,102778
 4.1000e+000 102980 -4.7616e+001 -3.1176e+002 -3.2430e+001 29564 103026,102778,102908
 4.1000e+000 102957 -4.8329e+001 -2.6603e+002 -4.0713e+000 29564 102856,102908,102882
 4.1000e+000 102934 -6.4330e+001 -2.3747e+002  1.5697e+001 29564 102804,102856,102830
 4.1000e+000 103052 -3.3261e+001 -2.3822e+002  1.2567e+001 29564 102856,102804,103026
 4.1000e+000 103075 -4.7032e+001 -2.7813e+002 -3.8617e+000 29564 102856,103026,102908
 4.1000e+000 103634 -1.2010e+002 -2.9361e+002 -3.5567e+001 29160 103657,103418,103392
 4.1000e+000 103611 -1.1509e+002 -2.8472e+002 -1.7896e+001 29160 103657,103392,103314
 4.1000e+000 103588 -8.3365e+001 -2.5108e+002 -3.0992e+001 29160 103314,103392,103366
 4.1000e+000 103565 -7.7700e+001 -2.6703e+002 -3.3559e+001 29160 103314,103366,103340
 4.1000e+000 103542 -1.4569e+002 -2.8337e+002 -3.1110e+001 29160 103262,103444,103314
 4.1000e+000 103519 -1.7300e+002 -3.4085e+002 -4.0976e+001 29160 103262,103314,103288
 4.1000e+000 103496 -1.1450e+002 -3.1284e+002 -9.9183e+000 29160 103262,103470,103444
 4.1000e+000 103683 -1.4656e+002 -3.1331e+002 -5.3061e+001 29160 103444,103418,103657
 4.1000e+000 103706 -1.2609e+002 -2.8416e+002 -3.2797e+001 29160 103444,103657,103314
 4.1000e+000 104035 -7.7526e+001 -2.8140e+002  2.6573e+001 28770 103836,103914,103862
 4.1000e+000 104012 -7.5330e+001 -2.6984e+002  3.4623e+001 28770 103810,103914,103836
 4.1000e+000 103989  1.8877e+001 -2.4498e+002  4.3794e+001 28770 103810,103940,103914
 4.1000e+000 103966 -1.6508e+001 -2.2515e+002  5.3842e+001 28770 103862,103914,103888
 4.1000e+000 104185 -3.2207e+001 -2.6452e+002  4.9408e+001 28366 104208,104110,104084
 4.1000e+000 104162 -2.7459e+001 -2.2544e+002  4.0615e+001 28366 104280,104208,104084
 4.1000e+000 104234  4.7544e+001 -2.6265e+002  3.1455e+001 28366 104610,104208,104136
 4.1000e+000 104257 -5.1835e+001 -2.5040e+002  3.1298e+001 28366 104538,104410,104208
 4.1000e+000 104306 -8.3792e+001 -2.5359e+002  3.0769e+001 28366 104538,104208,104280
 4.1000e+000 104436 -2.1984e+001 -2.7046e+002  4.6027e+000 28366 104136,104208,104410
 4.1000e+000 104564 -8.5347e+001 -2.4858e+002  1.4370e+001 28366 104058,104410,104538
 4.1000e+000 104587 -1.0503e+002 -2.4437e+002  1.1600e+001 28366 104058,104538,104280
 4.1000e+000 104636  3.3666e+001 -2.6692e+002  3.9244e+001 28366 104110,104208,104610
 4.1000e+000 105349 -6.4837e+001 -2.3801e+002 -2.5624e+001 27976 105516,105372,105107
 4.1000e+000 105326 -9.8230e+001 -2.3583e+002  5.4482e+000 27976 105588,105372,105055
 4.1000e+000 105303 -1.0456e+002 -2.2999e+002 -2.1623e+001 27976 105444,105159,105133
 4.1000e+000 105280 -3.7061e+001 -2.4836e+002 -1.4892e+001 27976 105516,105107,105081
 4.1000e+000 105257 -9.0464e+001 -2.6159e+002  2.2560e+001 27976 105588,105055,105029
 4.1000e+000 105234 -4.9988e+001 -2.0208e+002  1.6164e+000 27976 105003,105185,105159
 4.1000e+000 105211 -6.9461e+001 -1.6449e+002  2.7784e+001 27976 104977,105185,105003
 4.1000e+000 105398 -5.1674e+001 -2.3518e+002 -3.2457e+001 27976 105133,105107,105372
 4.1000e+000 105421 -8.5513e+001 -2.4391e+002 -1.3391e+001 27976 105444,105133,105372
 4.1000e+000 105470 -8.6500e+001 -2.0574e+002 -1.2088e+001 27976 105003,105159,105444
 4.1000e+000 105493 -7.3330e+001 -2.2227e+002 -7.9905e+000 27976 105003,105444,105372
 4.1000e+000 105542 -4.6136e+001 -2.3335e+002 -3.3964e+000 27976 105055,105372,105516
 4.1000e+000 105565 -5.4341e+000 -2.3886e+002  4.6720e+000 27976 105055,105516,105081
 4.1000e+000 105614 -1.1422e+002 -2.6123e+002  1.7749e+001 27976 105003,105372,105588
 4.1000e+000 105637 -1.1067e+002 -2.8676e+002  3.6387e+001 27976 105003,105588,105029
 4.1000e+000 106143 -1.1547e+002 -3.5671e+002  2.0578e+001 27664 106166,105846,105820
 4.1000e+000 106120 -8.2436e+001 -2.7706e+002  8.5203e+000 27664 106310,106166,105820
 4.1000e+000 106097 -4.2429e+001 -3.1656e+002 -6.5407e+001 27664 106382,106238,105950
 4.1000e+000 106074 -5.4636e+001 -2.7290e+002  1.0004e+001 27664 106310,105820,106002
 4.1000e+000 106051  1.7128e+001 -2.8643e+002 -5.5139e+001 27664 106382,105950,105924
 4.1000e+000 106028 -2.7618e+001 -4.9278e+002 -2.1352e+001 27664 105846,105898,105872
 4.1000e+000 106192 -1.0433e+002 -3.9572e+002 -5.0200e+001 27664 105898,105846,106166
 4.1000e+000 106215 -6.6167e+001 -3.3072e+002 -2.0663e+001 27664 106238,105898,106166
 4.1000e+000 106264 -1.8170e+002 -3.5450e+002 -8.3691e+001 27664 105976,105950,106238
 4.1000e+000 106287 -6.7003e+001 -3.3069e+002 -2.0584e+001 27664 105976,106238,106166
 4.1000e+000 106336 -5.4646e+001 -2.9036e+002  3.3399e+001 27664 105976,106166,106310
 4.1000e+000 106359 -2.2942e+001 -2.8419e+002  3.3852e+001 27664 105976,106310,106002
 4.1000e+000 106408 -7.1021e+001 -2.7199e+002  1.0158e+000 27664 105898,106238,106382
 4.1000e+000 106431 -3.3676e+001 -2.5485e+002  5.8443e+000 27664 105898,106382,105924
 4.1000e+000 106728 -3.1164e+001 -1.9449e+002  3.5605e+001 27153 106751,106506,106454
 4.1000e+000 106705 -2.9626e+001 -1.9643e+002  2.9507e+001 27153 106751,106454,106610
 4.1000e+000 106682 -5.1119e+001 -1.4337e+002  4.8739e+000 27153 106454,106506,106480
 4.1000e+000 106659 -4.4626e+001 -1.8941e+002  1.9511e+001 27153 106532,106610,106584
 4.1000e+000 106636 -7.7690e+001 -1.1478e+002  3.8953e+001 27153 106532,106584,106558
 4.1000e+000 106777 -2.3021e+001 -1.9312e+002  3.6879e+001 27153 106532,106506,106751
 4.1000e+000 106800 -2.2977e+001 -1.9510e+002  2.9652e+001 27153 106532,106751,106610
 4.1000e+000 107180 -3.8579e+001 -2.2937e+002  1.7140e+001 26642 107203,106984,106958
 4.1000e+000 107157 -1.2011e+002 -2.6673e+002  5.9295e+000 26642 107203,106958,106932
 4.1000e+000 107134 -1.3690e+002 -2.9107e+002 -4.2917e+001 26642 107275,107036,107010
 4.1000e+000 107111 -8.8043e+001 -2.9409e+002 -4.9974e+001 26642 106932,107062,107036
 4.1000e+000 107088 -3.5456e+000 -2.3146e+002  2.8917e+001 26642 106906,107062,106932
 4.1000e+000 107229  1.4457e-001 -2.1759e+002 -6.8503e+001 26642 107010,106984,107203
 4.1000e+000 107252 -1.2240e+002 -2.7110e+002 -5.0530e+001 26642 107275,107010,107203
 4.1000e+000 107301 -1.1962e+002 -2.8863e+002 -5.3724e+001 26642 106932,107036,107275
 4.1000e+000 107324 -1.1502e+002 -2.8885e+002 -5.5983e+001 26642 106932,107275,107203
 4.1000e+000 107675 -6.2079e+001 -1.7594e+002  1.6882e+001 26045 107450,107554,107476
 4.1000e+000 107652 -4.7121e+001 -1.5194e+002  3.4743e+000 26045 107450,107580,107554
 4.1000e+000 107629 -1.8511e+001 -1.6727e+002  8.3172e+000 26045 107476,107528,107502
 4.1000e+000 107606 -1.7706e+001 -1.6666e+002  8.0547e+000 26045 107476,107554,107528
 4.1000e+000 107874 -4.5204e+001 -2.6665e+002  6.6823e+001 25641 107750,107802,107776
 4.1000e+000 107851 -5.5836e+001 -1.8216e+002  3.5637e+001 25641 107724,107802,107750
 4.1000e+000 107828 -5.1573e+001 -1.8449e+002  3.0637e+001 25641 107698,107802,107724
 4.1000e+000 108431 -2.4419e+001 -2.8423e+002  4.9709e+001 25023 108526,108267,108241
 4.1000e+000 108408 -1.6144e-001 -2.7234e+002  9.0375e+000 25023 108059,108267,108085
 4.1000e+000 108385 -3.9259e+001 -2.8712e+002  5.0846e+001 25023 108454,108163,108111
 4.1000e+000 108362 -1.2719e+002 -2.9128e+002  8.2650e+001 25023 108454,108111,108085
 4.1000e+000 108339 -1.0284e+002 -3.8142e+002  9.0405e+001 25023 108111,108163,108137
 4.1000e+000 108316 -6.7401e+001 -2.0888e+002 -1.1833e+001 25023 108163,108241,108215
 4.1000e+000 108293  3.0141e+001 -1.6599e+002 -4.2346e+000 25023 108163,108215,108189
 4.1000e+000 108480 -1.0109e+001 -2.5846e+002  4.5880e+000 25023 108241,108163,108454
 4.1000e+000 108503 -4.3195e+001 -2.7528e+002  4.7478e+001 25023 108526,108241,108454
 4.1000e+000 108552 -4.6182e+001 -2.8884e+002  3.9542e+001 25023 108085,108267,108526
 4.1000e+000 108575 -6.6154e+001 -2.8130e+002  3.6808e+001 25023 108085,108526,108454
 4.1000e+000 108823 -3.6632e+000 -2.0699e+002  2.9088e+001 24461 108624,108728,108650
 4.1000e+000 108800 -3.3292e+001 -4.2281e+002 -2.8043e+001 24461 108598,108728,108624
 4.1000e+000 108777  4.4023e-001 -2.7759e+002  2.3065e+001 24461 108650,108728,108676
 4.1000e+000 108754 -1.2388e+002 -7.8726e+002  6.6696e+001 24461 108676,108728,108702
 4.1000e+000 109022 -7.5470e+001 -2.1678e+002  2.8314e+001 24121 108872,108924,108898
 4.1000e+000 108999 -5.4285e+001 -2.0865e+002  3.3334e+001 24121 108846,108924,108872
 4.1000e+000 108976 -8.7169e+001 -2.2319e+002  3.5745e+001 24121 108846,108950,108924
 4.1000e+000 109483 -8.8213e+001 -2.9216e+002 -2.7301e+001 23717 109209,109339,109235
 4.1000e+000 109460 -3.3671e+001 -3.3236e+002 -6.6518e+001 23717 109209,109365,109339
 4.1000e+000 109437 -3.2650e+000 -3.7405e+002 -2.2256e+001 23717 109287,109339,109313
 4.1000e+000 109414 -1.6888e+002 -3.7236e+002  2.2841e+001 23717 109235,109339,109287
 4.1000e+000 109391 -3.5933e+000 -4.2280e+002  1.5227e+002 23717 109235,109287,109261
 4.1000e+000 109910 -1.1922e+002 -3.3989e+002 -3.6619e+001 23305 109613,109743,109717
 4.1000e+000 109887 -1.1670e+002 -3.4201e+002 -1.8204e+001 23305 109613,109769,109743
 4.1000e+000 109864 -1.4015e+002 -3.3237e+002 -3.1831e+001 23305 109613,109717,109639
 4.1000e+000 109841 -9.3016e+001 -3.1818e+002 -6.5980e+000 23305 109587,109769,109613
 4.1000e+000 109818  2.1330e+000 -2.7140e+002  2.7335e+001 23305 109639,109717,109691
 4.1000e+000 109795 -3.1030e+001 -2.1820e+002 -4.8804e+001 23305 109639,109691,109665
 4.1000e+000 110180 -5.9090e+000 -9.6733e+001 -2.2570e+001 22851 110007,110059,110033
 4.1000e+000 110157 -6.7622e+001 -2.6551e+002  1.2059e+001 22851 109981,110059,110007
 4.1000e+000 110134 -9.5746e+001 -2.8708e+002  1.7482e+000 22851 109955,110059,109981
 4.1000e+000 110111 -3.8541e+001 -3.1632e+002 -2.4158e+001 22851 109955,110085,110059
 4.1000e+000 110737 -4.3363e+001 -3.0126e+002 -7.8765e+001 22333 110760,110469,110391
 4.1000e+000 110714 -1.3892e+001 -3.5010e+002 -5.8959e+001 22333 110760,110391,110365
 4.1000e+000 110691 -2.8065e+001 -2.7793e+002 -6.6671e+001 22333 110832,110521,110469
 4.1000e+000 110668 -6.8127e+001 -5.5350e+002  4.3346e+001 22333 110417,110469,110443
 4.1000e+000 110645 -1.4292e+002 -4.7269e+002  1.8864e+001 22333 110391,110469,110417
 4.1000e+000 110622 -3.7103e+000 -2.7949e+002 -3.3030e+001 22333 110469,110521,110495
 4.1000e+000 110599 -2.2545e+001 -1.9321e+002  2.1245e+001 22333 110365,110573,110547
 4.1000e+000 110786 -2.4903e+001 -2.8236e+002 -7.1143e+001 22333 110832,110469,110760
 4.1000e+000 110809  1.6893e+001 -3.0103e+002 -4.5705e+001 22333 110547,110760,110365
 4.1000e+000 110858 -2.1180e+001 -2.8881e+002 -6.7599e+001 22333 110547,110521,110832
 4.1000e+000 110881 -2.6463e+001 -3.0064e+002 -7.4392e+001 22333 110547,110832,110760
 4.1000e+000 111308 -1.5854e+002 -3.6945e+002  2.1200e+001 21829 111331,111063,111011
 4.1000e+000 111285 -1.4112e+002 -3.4303e+002 -6.0208e+000 21829 111331,111011,111167
 4.1000e+000 111262 -1.6241e+002 -3.6461e+002  2.2666e+001 21829 111403,111089,111063
 4.1000e+000 111239 -2.0035e+002 -3.8369e+002  5.5390e+001 21829 111011,111063,111037
 4.1000e+000 111216 -9.3291e+001 -2.5247e+002  1.3580e+001 21829 110985,111167,111011
 4.1000e+000 111193 -1.8054e+002 -5.8456e+002  1.2877e+002 21829 111089,111141,111115
 4.1000e+000 111357 -1.5695e+002 -3.6893e+002  2.2666e+001 21829 111403,111063,111331
 4.1000e+000 111380 -1.6153e+002 -3.8697e+002 -7.4853e-001 21829 111141,111331,111167
 4.1000e+000 111429 -1.6725e+002 -3.7080e+002  2.8557e+001 21829 111141,111089,111403
 4.1000e+000 111452 -1.6166e+002 -3.7908e+002  2.5893e+001 21829 111141,111403,111331
 4.1000e+000 112056  1.1019e+002 -2.6996e+002  5.1567e+000 21489 111687,111765,111739
 4.1000e+000 112033  2.4749e+001 -3.1015e+002  3.1845e+001 21489 112151,112079,111687
 4.1000e+000 112010 -3.9268e+000 -4.8419e+002  3.3241e+001 21489 111791,111843,111817
 4.1000e+000 111987 -8.4531e+001 -3.8371e+002 -2.9090e+001 21489 112079,111843,111791
 4.1000e+000 111964  7.1110e+001 -2.8774e+002  5.9240e+001 21489 112151,111687,111661
 4.1000e+000 111941 -2.3329e+001 -2.1167e+002  5.0108e+001 21489 111661,111869,111843
 4.1000e+000 111918  1.0810e+002 -2.9476e+002  4.2742e+001 21489 111687,111739,111713
 4.1000e+000 111895  2.2312e+001 -1.0561e+002  1.7473e+001 21489 111635,111869,111661
 4.1000e+000 112105 -4.6884e+001 -3.3939e+002  1.7345e+001 21489 111765,111687,112079
 4.1000e+000 112128 -4.2165e+001 -3.1992e+002  1.6885e+001 21489 111765,112079,111791
 4.1000e+000 112177 -5.4175e+001 -3.0540e+002 -7.6109e+000 21489 111843,112079,112151
 4.1000e+000 112200 -1.1594e+001 -2.9660e+002  1.4652e+001 21489 111843,112151,111661
 4.1000e+000 112578 -6.8896e+001 -3.8837e+002  1.7838e+001 21177 112382,112434,112408
 4.1000e+000 112555 -8.6395e+001 -3.8531e+002  1.1769e+000 21177 112330,112434,112382
 4.1000e+000 112532 -6.5560e+001 -3.2878e+002  5.9436e+001 21177 112304,112434,112330
 4.1000e+000 112509 -8.5275e+001 -3.6710e+002  0.0000e+000 21177 112330,112382,112356
 4.1000e+000 112486 -1.9664e+001 -2.0322e+002  1.1377e+001 21177 112304,112460,112434
 4.1000e+000 112679 -4.3938e+000 -2.3617e+002 -4.7113e+001 20666 112601,112653,112627
 4.1000e+000 112927 -1.1693e+002 -3.8408e+002  1.3704e+001 19762 112702,112754,112728
 4.1000e+000 112904 -4.4617e+001 -3.7086e+002 -2.6662e+000 19762 112702,112832,112754
 4.1000e+000 112881 -9.9644e+001 -3.9939e+002  6.5131e+001 19762 112754,112832,112806
 4.1000e+000 112858 -1.3782e+002 -4.9445e+002  6.2658e+001 19762 112754,112806,112780
 4.1000e+000 113297 -1.0693e+002 -4.6736e+002  2.9723e+001 19308 112974,113052,113026
 4.1000e+000 113274 -7.2255e+001 -3.9279e+002  9.9794e+000 19308 112974,113156,113052
 4.1000e+000 113251 -3.7472e+001 -5.1808e+002 -6.2244e+001 19308 113052,113130,113104
 4.1000e+000 113228 -7.7978e+001 -3.9091e+002 -1.2559e-001 19308 113052,113156,113130
 4.1000e+000 113205 -7.3728e+001 -4.5210e+002  0.0000e+000 19308 113052,113104,113078
 4.1000e+000 113182 -1.5073e+002 -4.8635e+002 -1.2477e+000 19308 112974,113026,113000
 4.1000e+000 113547 -7.1381e+000 -4.2290e+002 -2.8526e+001 18711 113570,113374,113348
 4.1000e+000 113524 -2.2225e+001 -3.8514e+002 -1.6117e+001 18711 113570,113348,113452
 4.1000e+000 113501 -1.3053e+001 -2.9541e+002 -8.3500e+001 18711 113322,113452,113348
 4.1000e+000 113478 -3.9846e+001 -3.7491e+002 -1.4008e+002 18711 113374,113426,113400
 4.1000e+000 113596 -3.4173e+000 -3.8161e+002 -3.8200e+001 18711 113426,113374,113570
 4.1000e+000 113619 -2.2049e+001 -3.5045e+002 -1.8008e+001 18711 113426,113570,113452
 4.1000e+000 113771 -2.1524e+002 -5.2817e+002 -2.7485e+001 18307 113670,113722,113696
 4.1000e+000 113748 -1.6798e+002 -4.9990e+002 -1.2960e+001 18307 113644,113722,113670
 4.1000e+000 113972 -9.3281e+001 -4.4565e+002  8.8497e+000 17945 113822,113874,113848
 4.1000e+000 113949 -9.6898e+001 -4.4371e+002  1.0703e+001 17945 113822,113900,113874
 4.1000e+000 113926 -1.3128e+002 -3.5262e+002  1.8402e+002 17945 113796,113900,113822
 4.1000e+000 114075 -6.7397e+001 -6.5911e+002  7.0144e+001 17482 113997,114049,114023
 4.1000e+000 114479 -2.4008e+001 -3.6031e+002 -5.4970e+001 17042 114257,114361,114335
 4.1000e+000 114456 -8.5151e+001 -3.5141e+002 -8.6801e+000 17042 114205,114361,114257
 4.1000e+000 114433 -1.0014e+002 -4.0536e+002  1.5297e+001 17042 114205,114257,114231
 4.1000e+000 114410  8.3967e+001 -5.3220e+002 -3.5094e+001 17042 114283,114335,114309
 4.1000e+000 114387 -4.4450e+000 -4.6420e+002 -2.3314e+001 17042 114257,114335,114283
 4.1000e+000 114879 -2.0560e+002 -3.7462e+002 -5.1049e+000 16638 114631,114683,114657
 4.1000e+000 114856 -4.3140e+001 -3.0728e+002  3.5222e+000 16638 114605,114683,114631
 4.1000e+000 114833  4.1124e+001 -1.7602e+002 -3.7432e+001 16638 114605,114761,114683
 4.1000e+000 114810 -1.8657e+001 -4.1542e+002 -2.0558e+001 16638 114683,114735,114709
 4.1000e+000 114787 -4.3168e+001 -4.3555e+002 -3.0436e+001 16638 114683,114761,114735
 4.1000e+000 115078 -1.8182e+002 -4.0490e+002  1.0833e+001 16232 114954,115006,114980
 4.1000e+000 115055 -1.8103e+002 -4.4802e+002  2.0140e+001 16232 114928,115006,114954
 4.1000e+000 115032 -8.7832e+001 -5.5695e+002  3.8167e+001 16232 114902,115006,114928
 4.1000e+000 115228 -1.0977e+002 -4.0465e+002  1.2667e+001 15482 115101,115153,115127
 4.1000e+000 115205 -9.5056e+001 -3.8292e+002 -3.7044e+000 15482 115101,115179,115153
 4.1000e+000 115331 -8.4969e+001 -3.7216e+002 -4.7285e+001 15163 115253,115305,115279
 4.1000e+000 115434 -1.3175e+002 -4.0483e+002  6.7838e+001 421 115356,115408,115382
 4.2000e+000 68213 -2.7149e+001 -2.1358e+002 -2.1307e+001 67888 68112,68164,68138
 4.2000e+000 68190 -2.5823e+002 -2.8273e+002 -3.4818e+001 67888 68086,68164,68112
 4.2000e+000 68314 -2.8708e+001 -2.9965e+002  2.9667e+001 67576 68236,68288,68262
 4.2000e+000 68584 -1.0718e+002 -5.4457e+002  2.6155e+001 67378 68385,68489,68463
 4.2000e+000 68561 -4.5167e+001 -5.1303e+002  1.2286e+001 67378 68359,68489,68385
 4.2000e+000 68538 -7.9772e+001 -4.6882e+002  3.7811e+001 67378 68385,68463,68411
 4.2000e+000 68515 -4.0687e+001 -3.0641e+002  2.3918e+001 67378 68411,68463,68437
 4.2000e+000 68964 -1.2248e+002 -4.8132e+002  6.9927e+001 67130 68690,68820,68716
 4.2000e+000 68941  8.7097e+001 -4.9520e+002  1.3127e+002 67130 68690,68846,68820
 4.2000e+000 68918 -1.0823e+002 -3.2377e+002  6.0189e+000 67130 68742,68820,68794
 4.2000e+000 68895 -2.9466e+001 -3.2470e+002  2.8102e+001 67130 68716,68820,68742
 4.2000e+000 68872 -7.4037e+001 -2.7779e+002 -3.3949e+001 67130 68742,68794,68768
 4.2000e+000 69065 -9.0103e+001 -2.9118e+002  4.1570e+000 66926 68987,69039,69013
 4.2000e+000 69445 -5.1346e+001 -2.6732e+002 -1.4622e+001 66614 69223,69301,69275
 4.2000e+000 69422 -7.9292e+001 -2.8428e+002 -5.1311e+000 66614 69171,69301,69223
 4.2000e+000 69399 -9.1314e+001 -2.9129e+002  5.0358e-001 66614 69171,69327,69301
 4.2000e+000 69376 -1.7814e+001 -1.2738e+002  2.6037e+000 66614 69223,69275,69249
 4.2000e+000 69353 -7.2145e+001 -3.0149e+002 -5.9660e+000 66614 69171,69223,69197
 4.2000e+000 69546 -8.6863e+001 -4.4072e+002  2.2802e+001 66416 69468,69520,69494
 4.2000e+000 69997 -7.9683e+001 -4.4786e+002 -3.4907e+001 66104 69700,69830,69726
 4.2000e+000 69974 -1.1631e+002 -5.4711e+002 -7.2516e+001 66104 69700,69856,69830
 4.2000e+000 69951 -8.2454e+001 -3.4623e+002 -2.4883e+001 66104 69726,69804,69778
 4.2000e+000 69928 -6.8306e+001 -4.1824e+002 -3.5414e+001 66104 69726,69830,69804
 4.2000e+000 69905 -8.6875e+001 -3.3154e+002 -1.3255e+001 66104 69726,69778,69752
 4.2000e+000 69882 -3.7014e+001 -7.4716e+002 -1.3536e+002 66104 69674,69856,69700
 4.2000e+000 70326 -7.9386e+001 -2.0800e+002  6.9408e+000 65814 70349,70153,70127
 4.2000e+000 70303 -5.0687e+001 -2.0341e+002  1.0512e+001 65814 70349,70127,70101
 4.2000e+000 70280 -4.5881e+001 -1.8968e+002  7.5562e+001 65814 70101,70231,70205
 4.2000e+000 70257  1.1822e+001 -2.3246e+002  2.6171e+001 65814 70153,70205,70179
 4.2000e+000 70375 -6.6313e+001 -2.2013e+002  3.0158e+001 65814 70205,70153,70349
 4.2000e+000 70398 -2.1988e+001 -2.0809e+002  3.0320e+001 65814 70205,70349,70101
 4.2000e+000 70904 -3.6156e+001 -1.1905e+002 -3.3318e+001 65502 70607,70737,70685
 4.2000e+000 70881 -4.7559e+001 -9.7824e+001 -4.4102e+001 65502 70581,70737,70607
 4.2000e+000 70858 -4.7012e+001 -3.7539e+001 -1.0132e+001 65502 70581,70763,70737
 4.2000e+000 70835 -5.2194e+001 -1.3016e+002 -4.9379e+001 65502 70685,70737,70711
 4.2000e+000 70812 -1.7068e+002 -1.4964e+002 -4.6108e+000 65502 70607,70659,70633
 4.2000e+000 70789 -5.7004e+001 -1.5711e+002 -1.0462e+000 65502 70607,70685,70659
 4.2000e+000 71103 -4.9462e+001 -3.8974e+002 -1.1158e+001 65304 71126,70979,70953
 4.2000e+000 71080 -9.2027e+001 -3.8843e+002 -4.5173e+000 65304 71126,70953,70927
 4.2000e+000 71057 -1.2580e+002 -3.9253e+002  2.9610e+001 65304 70927,71031,71005
 4.2000e+000 71152 -9.1701e+001 -3.6914e+002 -2.3486e+001 65304 71005,70979,71126
 4.2000e+000 71175 -1.3999e+002 -3.7453e+002 -7.2342e+000 65304 71005,71126,70927
 4.2000e+000 71374 -5.1620e+001 -3.7638e+002  1.8927e+001 65106 71198,71276,71224
 4.2000e+000 71351 -1.1172e+002 -4.0456e+002  7.5222e+000 65106 71198,71302,71276
 4.2000e+000 71328 -2.7740e+001 -3.1400e+002  4.6559e+001 65106 71224,71276,71250
 4.2000e+000 71756 -4.6775e+001 -2.6790e+002 -1.6835e+001 64652 71508,71638,71534
 4.2000e+000 71733  3.2999e-001 -2.4759e+002  1.8623e+000 64652 71482,71638,71508
 4.2000e+000 71710 -9.0230e+001 -2.5393e+002 -1.8220e+001 64652 71534,71586,71560
 4.2000e+000 71687 -7.8481e+001 -2.8400e+002 -4.1050e+001 64652 71534,71612,71586
 4.2000e+000 71664 -1.2426e+002 -2.9609e+002 -4.4886e+001 64652 71534,71638,71612
 4.2000e+000 72085 -1.1496e+002 -2.9396e+002 -3.4961e+001 64248 71886,71964,71912
 4.2000e+000 72062 -9.3217e+001 -2.8619e+002 -3.5662e+001 64248 71860,71964,71886
 4.2000e+000 72039 -5.1205e+001 -3.1506e+002 -2.4299e+001 64248 71912,71964,71938
 4.2000e+000 72016 -8.7187e+001 -2.6588e+002 -3.9341e+001 64248 71860,71990,71964
 4.2000e+000 72235 -7.4796e+000 -1.8924e+002 -2.5250e+001 63858 72588,72258,72134
 4.2000e+000 72212 -3.5520e+001 -1.6530e+002  6.4599e+000 63858 72330,72258,72108
 4.2000e+000 72284 -2.4657e+001 -1.4063e+002 -1.7857e+001 63858 72160,72134,72258
 4.2000e+000 72307 -9.2942e+001 -1.8385e+002 -2.8939e+001 63858 72460,72258,72186
 4.2000e+000 72356 -7.7306e+001 -1.7770e+002 -2.8131e+001 63858 72186,72258,72330
 4.2000e+000 72486 -2.9660e+001 -1.6634e+002 -3.0833e+001 63858 72160,72258,72460
 4.2000e+000 72614 -8.9576e+000 -1.9923e+002 -1.5528e-001 63858 72108,72258,72588
 4.2000e+000 73248 -6.0817e+001 -2.6864e+002  7.4682e+001 63404 72902,72954,72928
 4.2000e+000 73225 -1.5016e+002 -3.1350e+002  3.5114e+001 63404 73271,72954,72902
 4.2000e+000 73202 -1.3259e+002 -2.6553e+002  2.9294e+001 63404 73271,72902,73032
 4.2000e+000 73179 -8.4692e+001 -2.3060e+002  9.8843e+000 63404 72902,73058,73032
 4.2000e+000 73156 -1.0170e+002 -2.7507e+002  2.2942e+001 63404 72980,73032,73006
 4.2000e+000 73133 -7.6681e+001 -2.4181e+002  5.2599e+000 63404 72876,73058,72902
 4.2000e+000 73110 -3.2793e+001 -1.2064e+002 -6.2826e+001 63404 72876,73084,73058
 4.2000e+000 73297 -1.2861e+002 -3.1883e+002  4.6553e+000 63404 72980,72954,73271
 4.2000e+000 73320 -1.2371e+002 -2.9390e+002  3.5725e+000 63404 72980,73271,73032
 4.2000e+000 73470 -1.0896e+002 -7.1193e+002  7.5783e+001 63014 73343,73395,73369
 4.2000e+000 73447 -3.3600e+002 -8.6773e+002 -1.5231e+001 63014 73343,73421,73395
 4.2000e+000 73929  1.8740e+000 -3.3184e+002  1.9506e+001 62702 73759,73811,73785
 4.2000e+000 73906  2.2111e+001 -3.2189e+002  2.3099e+001 62702 73655,73811,73759
 4.2000e+000 73883 -3.2728e+001 -3.7145e+002 -1.8978e+000 62702 73655,73759,73681
 4.2000e+000 73860  1.4647e+001 -2.7603e+002 -5.9525e+001 62702 73681,73759,73707
 4.2000e+000 73837 -1.4780e+002 -3.2577e+002  5.8356e+000 62702 73707,73759,73733
 4.2000e+000 74209 -1.9697e+002 -3.2592e+002  3.1369e+000 62404 74059,74137,74085
 4.2000e+000 74186 -2.3626e+002 -4.2002e+002  4.7932e+001 62404 74033,74137,74059
 4.2000e+000 74163 -2.1579e+002 -3.0470e+002 -9.8167e-001 62404 74085,74137,74111
 4.2000e+000 74408 -9.4154e+000 -2.7879e+002  1.6022e+001 62000 74258,74336,74284
 4.2000e+000 74385 -8.4880e+000 -2.7342e+002  2.9808e+001 62000 74232,74336,74258
 4.2000e+000 74362 -6.6946e+001 -2.7992e+002 -3.8419e+000 62000 74284,74336,74310
 4.2000e+000 74509 -2.4119e+001 -3.1998e+002  2.3223e+001 61802 74431,74483,74457
 4.2000e+000 74759 -1.0164e+002 -2.8742e+002  3.2902e+000 61554 74782,74586,74560
 4.2000e+000 74736 -6.2912e+001 -2.6708e+002  1.0785e+001 61554 74782,74560,74664
 4.2000e+000 74713 -8.7085e+001 -2.1175e+002  7.1331e+001 61554 74854,74612,74586
 4.2000e+000 74690 -7.9127e+001 -2.9109e+002  2.4835e+000 61554 74534,74664,74560
 4.2000e+000 74808 -1.2139e+002 -2.6382e+002  2.0339e+001 61554 74854,74586,74782
 4.2000e+000 74831 -7.5288e+001 -3.3436e+002  1.8614e+001 61554 74638,74782,74664
 4.2000e+000 74880 -2.0647e+001 -2.6654e+002  7.8860e+001 61554 74638,74612,74854
 4.2000e+000 74903 -2.2631e+001 -2.6410e+002  4.1564e+001 61554 74638,74854,74782
 4.2000e+000 75285 -4.4548e+001 -2.9248e+002  3.2287e+000 61356 75063,75167,75115
 4.2000e+000 75262 -5.9737e+001 -3.1111e+002 -1.7338e+001 61356 75037,75167,75063
 4.2000e+000 75239  2.3395e+001 -3.0428e+002 -2.0403e+000 61356 75115,75167,75141
 4.2000e+000 75216 -1.0289e+001 -2.7285e+002  1.1152e+001 61356 75063,75115,75089
 4.2000e+000 75193 -1.3360e+002 -2.4638e+002  1.9007e+001 61356 75011,75167,75037
 4.2000e+000 75631 -1.8635e+001 -2.3450e+002  5.7298e+000 60952 75654,75412,75360
 4.2000e+000 75608 -4.3703e+001 -2.6910e+002 -8.1519e+000 60952 75654,75360,75334
 4.2000e+000 75585 -4.2599e+001 -3.4478e+002  1.7676e+001 60952 75726,75438,75412
 4.2000e+000 75562 -3.7210e+001 -2.7642e+002 -4.4902e+001 60952 75308,75490,75334
 4.2000e+000 75539 -2.0247e+001 -2.3267e+002 -5.5814e-001 60952 75360,75412,75386
 4.2000e+000 75516 -6.4101e+001 -4.2037e+002 -1.2094e+001 60952 75438,75490,75464
 4.2000e+000 75680 -1.6541e+001 -2.8810e+002  5.5794e+000 60952 75726,75412,75654
 4.2000e+000 75703 -1.7178e+001 -2.7286e+002 -1.2479e+001 60952 75490,75654,75334
 4.2000e+000 75752 -1.6182e+001 -2.7887e+002 -1.7436e+000 60952 75490,75438,75726
 4.2000e+000 75775 -1.7526e+001 -2.7370e+002 -1.2672e+001 60952 75490,75726,75654
 4.2000e+000 76155 -4.4904e+001 -2.7481e+002  5.5926e-001 60754 75933,75985,75959
 4.2000e+000 76132 -7.2758e+001 -2.9197e+002  2.8635e+001 60754 75933,76037,75985
 4.2000e+000 76109  6.1995e+000 -2.8533e+002  8.4497e+000 60754 75985,76037,76011
 4.2000e+000 76086 -1.1015e+002 -2.4311e+002  7.5981e+000 60754 75881,76037,75933
 4.2000e+000 76063 -1.5403e+002 -2.1167e+002  6.3749e+001 60754 75881,75933,75907
 4.2000e+000 76612 -5.2169e+001 -2.6376e+002  7.4195e+000 60350 76635,76442,76390
 4.2000e+000 76589 -3.6256e+000 -2.9135e+002  1.8823e+001 60350 76635,76390,76364
 4.2000e+000 76566 -2.1867e+001 -3.6664e+002 -2.7798e+001 60350 76364,76494,76468
 4.2000e+000 76543 -4.6780e+000 -2.3917e+002  2.3098e+001 60350 76390,76442,76416
 4.2000e+000 76520 -1.2969e+002 -2.4471e+002 -5.8346e+001 60350 76338,76494,76364
 4.2000e+000 76661 -7.9967e+001 -2.8189e+002  1.5290e+001 60350 76468,76442,76635
 4.2000e+000 76684 -4.5056e+001 -3.1602e+002  2.9152e+001 60350 76468,76635,76364
 4.2000e+000 76932 -1.0100e+002 -3.0903e+002  4.5694e+000 59946 76955,76733,76707
 4.2000e+000 76909 -1.0017e+002 -3.0582e+002  9.8561e+000 59946 77027,76955,76707
 4.2000e+000 76886 -9.4428e+001 -3.0614e+002  7.8446e+000 59946 77027,76707,76837
 4.2000e+000 76863 -4.4987e+001 -3.4090e+002 -2.9828e+001 59946 76733,76785,76759
 4.2000e+000 76981 -1.1319e+002 -3.0901e+002 -2.6203e+000 59946 76785,76733,76955
 4.2000e+000 77004 -1.0350e+002 -3.0183e+002  5.8297e+000 59946 76785,76955,76811
 4.2000e+000 77053 -9.2072e+001 -3.0549e+002  8.5235e+000 59946 76811,76955,77027
 4.2000e+000 77076 -8.7507e+001 -3.0545e+002  5.5315e+000 59946 76811,77027,76837
 4.2000e+000 77226 -1.3678e+002 -3.2220e+002  7.4002e+000 59542 77099,77151,77125
 4.2000e+000 77203 -1.5984e+002 -3.6939e+002  1.4685e+001 59542 77099,77177,77151
 4.2000e+000 77427 -1.6085e+002 -3.2931e+002 -2.1377e+001 59030 77450,77277,77251
 4.2000e+000 77404 -9.6943e+001 -2.5811e+002 -8.8439e+001 59030 77450,77251,77355
 4.2000e+000 77381 -1.6480e+001 -3.9131e+002 -4.9370e+000 59030 77277,77329,77303
 4.2000e+000 77476 -8.4616e+001 -3.4409e+002 -6.3473e+001 59030 77329,77277,77450
 4.2000e+000 77499 -1.8478e+001 -3.0983e+002 -1.1600e+002 59030 77329,77450,77355
 4.2000e+000 77749 -1.3291e+002 -4.1126e+002  3.0309e+001 58426 77772,77628,77602
 4.2000e+000 77726 -9.5764e+001 -5.1837e+002  1.3190e+002 58426 77524,77654,77628
 4.2000e+000 77703 -1.1036e+002 -4.0588e+002  2.1746e+001 58426 77772,77602,77550
 4.2000e+000 77680 -6.2086e+001 -3.7937e+002 -1.5487e+001 58426 77550,77602,77576
 4.2000e+000 77798 -1.0628e+002 -4.1490e+002  2.9121e+001 58426 77524,77628,77772
 4.2000e+000 77821 -9.4186e+001 -4.1480e+002  1.8179e+001 58426 77524,77772,77550
 4.2000e+000 78071 -1.7254e+002 -3.7394e+002  4.0619e+001 57922 78094,77924,77898
 4.2000e+000 78048 -2.0065e+002 -3.7924e+002  5.8795e+000 57922 78094,77898,77872
 4.2000e+000 78025 -1.6429e+002 -3.4797e+002  3.7381e+001 57922 78166,77846,77950
 4.2000e+000 78002 -8.6271e+001 -3.4119e+002  4.3929e+001 57922 77846,77976,77950
 4.2000e+000 78120 -1.4283e+002 -3.7565e+002  2.7954e+001 57922 77950,77924,78094
 4.2000e+000 78143 -1.6580e+002 -3.5320e+002  2.8199e+001 57922 78166,77950,78094
 4.2000e+000 78192 -1.5805e+002 -3.6253e+002  2.9165e+001 57922 77872,77846,78166
 4.2000e+000 78215 -1.6736e+002 -3.7781e+002  1.9417e+001 57922 77872,78166,78094
 4.2000e+000 78416  3.5649e+001 -3.1546e+002 -1.6649e+001 57468 78439,78292,78240
 4.2000e+000 78393 -1.7009e+001 -2.9727e+002  5.0427e-001 57468 78439,78240,78344
 4.2000e+000 78370  1.3316e+001 -4.2770e+002 -1.2551e+001 57468 78240,78292,78266
 4.2000e+000 78465 -1.5627e+001 -3.4142e+002 -2.7633e+001 57468 78318,78292,78439
 4.2000e+000 78488 -3.7209e+001 -3.1052e+002 -5.5262e+000 57468 78318,78439,78344
 4.2000e+000 78689  4.0649e+001 -3.8427e+002 -4.7038e+001 57014 78712,78539,78513
 4.2000e+000 78666 -1.8249e+001 -3.8105e+002 -8.6709e+000 57014 78712,78513,78617
 4.2000e+000 78643 -8.6423e+001 -3.9737e+002  3.7779e+001 57014 78565,78617,78591
 4.2000e+000 78738 -3.5542e+001 -3.2098e+002 -4.7593e+001 57014 78565,78539,78712
 4.2000e+000 78761 -1.2326e+002 -3.7094e+002  1.4895e+001 57014 78565,78712,78617
 4.2000e+000 79241 -1.2419e+002 -3.3902e+002  2.7822e+001 56652 79264,78895,78869
 4.2000e+000 79218 -5.7773e+001 -4.4365e+002 -2.5660e+001 56652 79264,78869,79051
 4.2000e+000 79195 -8.7012e+001 -3.8811e+002 -8.9412e+001 56652 78869,79077,79051
 4.2000e+000 79172 -9.8376e+001 -2.2142e+002 -5.2774e+001 56652 78895,78973,78947
 4.2000e+000 79149 -1.6161e+002 -6.4746e+002 -5.3714e+001 56652 78973,79051,78999
 4.2000e+000 79126 -8.5218e+001 -2.1654e+002 -5.7322e+001 56652 78895,78947,78921
 4.2000e+000 79103 -1.4072e+002 -4.5464e+002  1.0786e+002 56652 78999,79051,79025
 4.2000e+000 79290 -7.3789e+001 -2.7310e+002  6.4237e+001 56652 78973,78895,79264
 4.2000e+000 79313 -2.4841e+000 -3.8466e+002  1.4418e+001 56652 78973,79264,79051
 4.2000e+000 79512 -4.5345e+001 -4.8657e+002  4.6175e+001 56062 79388,79440,79414
 4.2000e+000 79489 -2.0650e+002 -2.6220e+002  6.6164e+001 56062 79336,79440,79388
 4.2000e+000 79466 -9.1602e+001 -2.4229e+002  9.7231e+001 56062 79336,79388,79362
 4.2000e+000 79941 -5.6685e+001 -2.7461e+002  4.3138e+001 55658 79964,79670,79644
 4.2000e+000 79918 -8.5228e+001 -2.8071e+002  4.9083e+001 55658 79964,79644,79800
 4.2000e+000 79895 -7.8959e+001 -2.9533e+002  2.4046e+001 55658 80036,79696,79670
 4.2000e+000 79872 -9.2613e+001 -2.5416e+002 -3.4345e+000 55658 80108,79722,79696
 4.2000e+000 79849 -1.3525e+002 -2.5280e+002  1.1921e+001 55658 79722,79774,79748
 4.2000e+000 79826 -1.0312e+000 -2.5068e+002  1.2845e+001 55658 79618,79800,79644
 4.2000e+000 79990 -8.8507e+001 -2.9788e+002  3.2190e+001 55658 80036,79670,79964
 4.2000e+000 80013 -7.6336e+001 -2.5845e+002  5.2355e+001 55658 79774,79964,79800
 4.2000e+000 80062 -6.7667e+001 -2.7083e+002  1.9861e+001 55658 80108,79696,80036
 4.2000e+000 80085 -8.5915e+001 -2.6127e+002  4.4132e+001 55658 79774,80036,79964
 4.2000e+000 80134 -1.4089e+002 -2.7131e+002  6.5062e+000 55658 79774,79722,80108
 4.2000e+000 80157 -1.2675e+002 -2.9469e+002  2.9520e+001 55658 79774,80108,80036
 4.2000e+000 80307 -1.4841e+002 -2.6793e+002  3.3725e+001 55254 80402,80330,80206
 4.2000e+000 80284 -1.4381e+002 -3.6138e+002  3.5703e+001 55254 80330,80180,80258
 4.2000e+000 80356 -1.7361e+002 -3.2556e+002  6.8572e+001 55254 80232,80206,80330
 4.2000e+000 80379 -4.9496e+001 -2.6962e+002  9.9269e+001 55254 80232,80330,80258
 4.2000e+000 80428 -2.0310e+002 -3.2568e+002  9.9063e+000 55254 80180,80330,80402
 4.2000e+000 80659 -7.2283e+001 -3.7678e+002 -3.1772e+001 54850 80558,80610,80584
 4.2000e+000 80636  4.6009e+000 -3.5871e+002 -4.0230e+001 54850 80532,80610,80558
 4.2000e+000 80760 -2.7349e+001 -2.7418e+002 -2.1965e+001 54652 80682,80734,80708
 4.2000e+000 81164 -2.1835e+001 -2.9071e+002 -6.4637e+000 54248 81187,80942,80890
 4.2000e+000 81141 -2.6671e+001 -2.9530e+002 -4.4701e+000 54248 81187,80890,81046
 4.2000e+000 81118 -3.0946e+001 -3.0423e+002  6.1791e+001 54248 80942,81020,80994
 4.2000e+000 81095 -1.8457e+001 -2.9558e+002  3.2378e+000 54248 80890,80942,80916
 4.2000e+000 81072 -4.0441e+001 -1.6836e+002  7.4894e+000 54248 80942,80994,80968
 4.2000e+000 81213 -2.7773e+001 -2.8678e+002 -5.8210e+000 54248 81020,80942,81187
 4.2000e+000 81236 -3.1134e+001 -2.8949e+002 -4.5524e+000 54248 81020,81187,81046
 4.2000e+000 81663 -1.5785e+002 -3.0081e+002  2.4913e+001 53594 81340,81444,81366
 4.2000e+000 81640 -1.4997e+002 -4.2407e+002  1.1687e+001 53594 81340,81470,81444
 4.2000e+000 81617 -5.4946e+001 -3.7301e+002 -1.6944e+001 53594 81340,81522,81470
 4.2000e+000 81594 -8.5947e+001 -2.2150e+002 -2.4311e+001 53594 81392,81444,81418
 4.2000e+000 81571 -1.1498e+002 -2.6065e+002 -3.7635e+001 53594 81366,81444,81392
 4.2000e+000 81548  2.1402e+001 -6.1305e+002  1.5012e+002 53594 81470,81522,81496
 4.2000e+000 81943 -4.0231e+001 -2.0564e+002 -2.6089e+001 53104 81966,81845,81819
 4.2000e+000 81920 -5.9158e+001 -1.7281e+002 -3.1776e+001 53104 81966,81819,81767
 4.2000e+000 81897 -5.9588e+001 -1.7116e+002 -3.5142e+001 53104 81767,81819,81793
 4.2000e+000 81992 -2.7474e+001 -1.8505e+002 -3.1518e+001 53104 81871,81845,81966
 4.2000e+000 82015 -3.7290e+001 -1.3894e+002 -4.1670e+001 53104 81871,81966,81767
 4.2000e+000 82491 -3.5031e+001 -2.0831e+002 -1.4536e+001 52650 82145,82249,82171
 4.2000e+000 82468 -1.7317e+002 -2.4273e+002 -2.8217e+001 52650 82145,82301,82249
 4.2000e+000 82445 -1.8068e+002 -3.7324e+002 -6.6457e+001 52650 82249,82301,82275
 4.2000e+000 82422 -7.2167e+001 -4.6453e+002 -8.4840e+001 52650 82119,82301,82145
 4.2000e+000 82399 -5.4006e+001 -1.7018e+002  2.2567e+001 52650 82171,82249,82223
 4.2000e+000 82376  2.4833e+001 -4.2637e+002 -6.8475e+001 52650 82119,82327,82301
 4.2000e+000 82353 -1.4900e+001 -8.4136e+001 -3.5243e+001 52650 82171,82223,82197
 4.2000e+000 82739 -4.6000e+001 -1.9834e+002  4.9957e+000 52246 82762,82540,82514
 4.2000e+000 82716 -2.9726e+001 -7.5197e+001 -1.3501e+001 52246 82762,82514,82644
 4.2000e+000 82693 -9.5571e+001 -2.2757e+002  5.0376e+001 52246 82540,82618,82592
 4.2000e+000 82670 -1.1381e+002 -2.2238e+002  4.4409e+001 52246 82540,82592,82566
 4.2000e+000 82788 -2.8410e+001 -2.5486e+002  1.5419e+001 52246 82618,82540,82762
 4.2000e+000 82811 -6.5379e+001 -2.1646e+002 -1.9533e+001 52246 82618,82762,82644
 4.2000e+000 83059 -3.1380e+001 -2.8256e+002  2.6614e+001 51578 82860,82964,82938
 4.2000e+000 83036 -3.9136e-001 -1.8372e+002 -6.0395e+001 51578 82834,82964,82860
 4.2000e+000 83013 -1.1571e+001 -2.1751e+002  5.8600e+001 51578 82860,82938,82886
 4.2000e+000 82990 -8.3011e+000 -1.3277e+002  9.0939e+000 51578 82886,82938,82912
 4.2000e+000 83309 -5.0824e+001 -1.6110e+002  4.4036e+001 51138 83332,83162,83136
 4.2000e+000 83286 -1.8422e+001 -2.0793e+002  1.4447e+001 51138 83332,83136,83110
 4.2000e+000 83263 -8.0263e+001 -2.1517e+002 -1.2060e+001 51138 83404,83214,83188
 4.2000e+000 83240 -1.1927e+000 -1.3537e+002  1.2195e+001 51138 83084,83214,83110
 4.2000e+000 83358 -8.1394e+001 -2.1881e+002  5.6866e+001 51138 83188,83162,83332
 4.2000e+000 83381 -5.6029e+001 -2.3761e+002  9.1707e+000 51138 83404,83188,83332
 4.2000e+000 83430 -5.1759e+001 -1.5971e+002  7.6619e-001 51138 83110,83214,83404
 4.2000e+000 83453 -3.0620e+001 -1.9423e+002  2.0829e+001 51138 83110,83404,83332
 4.2000e+000 83835 -4.6594e+001 -2.6451e+002 -2.2031e+000 50734 83613,83717,83691
 4.2000e+000 83812 -5.0977e+001 -2.8096e+002 -5.8512e+001 50734 83561,83717,83613
 4.2000e+000 83789 -2.2378e+001 -1.4597e+002 -8.3778e+001 50734 83561,83613,83587
 4.2000e+000 83766 -1.0158e+002 -1.7695e+002  5.2811e-003 50734 83613,83691,83639
 4.2000e+000 83743 -1.0766e+002 -1.7956e+002  3.6921e+001 50734 83639,83691,83665
 4.2000e+000 84034 -6.6944e+001 -1.6820e+002  9.0532e+000 50230 84057,83884,83858
 4.2000e+000 84011 -6.7175e+001 -1.8408e+002 -1.6992e+001 50230 84129,84057,83858
 4.2000e+000 83988 -2.1228e+001 -1.9668e+002 -2.8574e+001 50230 84129,83858,83962
 4.2000e+000 84083 -2.5448e+001 -1.5332e+002  1.5084e+001 50230 83910,83884,84057
 4.2000e+000 84106 -4.1717e+001 -1.8012e+002  6.4938e+000 50230 83910,84057,83936
 4.2000e+000 84155 -7.2347e+000 -1.5679e+002 -3.6460e+000 50230 83936,84057,84129
 4.2000e+000 84178  1.0178e+001 -1.8967e+002 -2.1823e+001 50230 83936,84129,83962
 4.2000e+000 84558 -7.3412e+001 -2.1983e+002 -3.4905e+001 49768 84581,84388,84362
 4.2000e+000 84535 -1.4793e+002 -2.2257e+002 -1.3747e+001 49768 84581,84362,84310
 4.2000e+000 84512  1.5263e+000 -2.3991e+002 -3.7070e+001 49768 84653,84440,84414
 4.2000e+000 84489 -1.1587e+002 -2.3992e+002  1.6878e+001 49768 84310,84362,84336
 4.2000e+000 84466 -5.4841e+000 -1.7737e+002  2.3843e+001 49768 84284,84440,84310
 4.2000e+000 84607 -1.8738e+001 -1.8375e+002 -6.0209e+001 49768 84414,84388,84581
 4.2000e+000 84630 -2.8125e+001 -2.2476e+002 -2.6476e+001 49768 84653,84414,84581
 4.2000e+000 84679 -3.8173e+001 -2.2783e+002 -5.0547e+001 49768 84310,84440,84653
 4.2000e+000 84702 -8.1189e+001 -2.2781e+002 -5.1618e+001 49768 84310,84653,84581
 4.2000e+000 85159 -1.1230e+002 -3.0048e+002 -8.4672e+001 49192 84885,84937,84911
 4.2000e+000 85136 -1.1449e+002 -2.5070e+002 -6.3012e+001 49192 84885,85041,84937
 4.2000e+000 85113 -8.5272e+001 -2.1452e+002 -2.9874e+001 49192 84963,85041,84989
 4.2000e+000 85090 -7.6825e+001 -2.0231e+002 -4.6229e+001 49192 84937,85041,84963
 4.2000e+000 85067 -7.0437e+001 -2.1496e+002 -2.5461e+001 49192 84989,85041,85015
 4.2000e+000 85714 -1.2313e+002 -2.0655e+002 -1.4855e+000 48638 85368,85498,85394
 4.2000e+000 85691 -1.5366e+002 -2.4192e+002  1.1943e+001 48638 85368,85524,85498
 4.2000e+000 85668 -1.3681e+002 -1.9734e+002  5.0913e+001 48638 85737,85420,85394
 4.2000e+000 85645 -1.1716e+002 -2.2591e+002  2.6942e+001 48638 85737,85394,85498
 4.2000e+000 85622 -9.4358e+001 -2.3226e+002  4.5804e+001 48638 85446,85498,85472
 4.2000e+000 85599 -4.0153e+001 -1.9876e+002  2.2111e+001 48638 85342,85524,85368
 4.2000e+000 85576 -1.5177e+002 -2.2368e+002  2.1189e+001 48638 85342,85550,85524
 4.2000e+000 85763 -1.0027e+002 -1.7725e+002  6.8877e+001 48638 85446,85420,85737
 4.2000e+000 85786 -1.0202e+002 -2.0421e+002  4.0977e+001 48638 85446,85737,85498
 4.2000e+000 86371 -1.0230e+002 -1.5460e+002 -9.6191e+000 48084 86100,86230,86178
 4.2000e+000 86348 -1.2533e+002 -1.9617e+002 -2.1690e+001 48084 86048,86230,86100
 4.2000e+000 86325 -1.0436e+002 -1.4511e+002  3.6878e+001 48084 86100,86178,86126
 4.2000e+000 86302 -6.1888e+001 -4.6486e+001 -3.9299e+001 48084 86048,86100,86074
 4.2000e+000 86279 -1.3216e+002 -2.4688e+002 -3.5496e+000 48084 86178,86230,86204
 4.2000e+000 86256 -9.4238e+001 -1.6553e+002  3.5380e+001 48084 86126,86178,86152
 4.2000e+000 86619 -7.8504e+001 -1.7429e+002  1.4648e+001 47630 86642,86446,86420
 4.2000e+000 86596 -9.5793e+001 -1.9397e+002 -2.1558e+001 47630 86642,86420,86394
 4.2000e+000 86573 -1.2202e+002 -2.2824e+002 -3.1911e+001 47630 86394,86524,86498
 4.2000e+000 86550 -4.8927e+001 -1.9847e+002  1.2247e+001 47630 86446,86498,86472
 4.2000e+000 86668 -9.7199e+001 -2.1557e+002 -7.0738e-001 47630 86498,86446,86642
 4.2000e+000 86691 -1.0688e+002 -2.2260e+002 -3.6146e+001 47630 86498,86642,86394
 4.2000e+000 87022 -7.1469e+000 -1.2711e+002 -7.2093e+001 47226 87045,86875,86849
 4.2000e+000 86999 -1.7464e+000 -1.4264e+002 -6.8094e+001 47226 87045,86849,86797
 4.2000e+000 86976  8.4645e-001 -6.7165e+001 -1.5891e+001 47226 86797,86849,86823
 4.2000e+000 86953  6.6350e+000 -9.1092e+001 -3.6321e+001 47226 86875,86927,86901
 4.2000e+000 87071 -1.6117e+001 -1.3852e+002 -6.8204e+001 47226 86927,86875,87045
 4.2000e+000 87094 -6.5599e+000 -1.4911e+002 -6.5882e+001 47226 86927,87045,86797
 4.2000e+000 87244 -1.2770e+001 -2.4192e+002  6.3371e+001 46814 87267,87169,87143
 4.2000e+000 87221 -1.1387e+002 -2.1895e+002 -1.3137e+001 46814 87267,87143,87117
 4.2000e+000 87293 -1.2091e+001 -1.8223e+002  3.9454e+001 46814 87339,87267,87195
 4.2000e+000 87316 -1.0422e+001 -1.7481e+002  5.8008e+000 46814 87469,87267,87117
 4.2000e+000 87365  9.1520e+000 -1.7111e+002  4.5222e+001 46814 87169,87267,87339
 4.2000e+000 87495 -8.8746e-001 -1.9411e+001 -2.4899e+000 46814 87195,87267,87469
 4.2000e+000 88001 -7.3745e+001 -1.7463e+002  4.1791e+001 46310 88024,87834,87808
 4.2000e+000 87978 -8.9470e+001 -1.7800e+002  2.5499e+001 46310 88024,87808,87756
 4.2000e+000 87955 -4.7836e+001 -2.2947e+002  1.1187e+001 46310 88096,87730,87860
 4.2000e+000 87932 -6.5303e+001 -2.2967e+002  2.6190e+001 46310 87756,87808,87782
 4.2000e+000 87909 -6.1314e+001 -2.7545e+002  9.7760e+000 46310 87678,87860,87730
 4.2000e+000 87886 -9.2484e+001 -4.4394e+002 -2.3823e+001 46310 87678,87730,87704
 4.2000e+000 88050 -6.3133e+001 -1.5134e+002  2.5639e+001 46310 87860,87834,88024
 4.2000e+000 88073 -4.8981e+001 -1.6745e+002  3.1041e+001 46310 88096,87860,88024
 4.2000e+000 88122 -6.2163e+001 -2.5905e+002 -1.0047e+001 46310 87756,87730,88096
 4.2000e+000 88145 -1.0167e+002 -2.3438e+002  1.1816e+000 46310 87756,88096,88024
 4.2000e+000 88572 -4.6283e+001 -2.2626e+002  1.2656e+001 45856 88249,88405,88275
 4.2000e+000 88549 -4.0762e+001 -7.4253e+001 -4.5443e+001 45856 88249,88431,88405
 4.2000e+000 88526 -1.1030e+002 -3.1122e+002 -4.0906e+001 45856 88327,88405,88353
 4.2000e+000 88503 -4.9975e+001 -2.7219e+002 -1.8484e+001 45856 88275,88405,88327
 4.2000e+000 88480 -9.0473e+001 -2.6680e+002 -4.4658e+001 45856 88353,88405,88379
 4.2000e+000 88457 -2.0793e+002 -5.6611e+002  4.6641e+001 45856 88275,88327,88301
 4.2000e+000 88950 -3.7245e+001 -1.3102e+002 -9.9694e-001 45658 88973,88754,88728
 4.2000e+000 88927 -3.6864e+001 -1.3874e+002 -2.1357e+000 45658 88973,88728,88676
 4.2000e+000 88904 -3.9452e+001 -1.6955e+002  5.0759e+001 45658 88676,88832,88806
 4.2000e+000 88881 -6.4479e+001 -1.9182e+002  1.8496e+001 45658 88676,88728,88702
 4.2000e+000 88858 -4.7471e+001 -1.2369e+002 -2.1947e+001 45658 88754,88806,88780
 4.2000e+000 88999 -3.8961e+001 -1.3802e+002 -5.6072e-001 45658 88806,88754,88973
 4.2000e+000 89022 -3.6201e+001 -1.4248e+002 -1.9488e+000 45658 88806,88973,88676
 4.2000e+000 89351 -6.5765e+001 -2.2315e+002 -1.0366e+001 45254 89152,89230,89204
 4.2000e+000 89328 -6.0990e+001 -2.2114e+002 -1.0352e+001 45254 89152,89256,89230
 4.2000e+000 89305 -2.0451e+001 -2.3436e+002 -2.8640e+001 45254 89126,89256,89152
 4.2000e+000 89282  3.5505e+000 -2.2621e+002 -3.9865e+001 45254 89152,89204,89178
 4.2000e+000 89523 -3.1071e+001 -1.6689e+002  6.4731e-001 45006 89422,89474,89448
 4.2000e+000 89500 -2.5037e+001 -1.6433e+002  5.4696e+000 45006 89396,89474,89422
 4.2000e+000 89673 -1.8507e+002 -3.2316e+002  2.8134e+001 44495 89572,89624,89598
 4.2000e+000 89650 -1.8883e+002 -3.2131e+002  1.8135e+001 44495 89546,89624,89572
 4.2000e+000 90104 -1.9027e+001 -2.3797e+002 -1.2314e+001 44005 90199,90127,89937
 4.2000e+000 90081 -4.8132e+001 -2.3507e+002  3.2853e+000 44005 90271,90127,89859
 4.2000e+000 90058 -3.7513e+000 -2.4617e+002 -1.3344e+001 44005 90199,89937,89885
 4.2000e+000 90035 -6.5967e+001 -2.2320e+002  1.3456e+001 44005 90271,89859,89807
 4.2000e+000 90012 -3.5516e+001 -2.7099e+002 -3.2247e+001 44005 89885,89937,89911
 4.2000e+000 89989 -2.0746e+001 -2.4143e+002  4.1575e+001 44005 89807,89859,89833
 4.2000e+000 90153 -4.8985e+001 -2.4819e+002 -6.1499e+000 44005 89963,89937,90127
 4.2000e+000 90176 -5.3822e+001 -2.6779e+002  6.1208e+000 44005 89963,90127,89781
 4.2000e+000 90225 -5.2994e+001 -2.3842e+002 -3.9146e+000 44005 89859,90127,90199
 4.2000e+000 90248 -2.2847e+001 -2.3748e+002  8.0513e-001 44005 89859,90199,89885
 4.2000e+000 90297 -7.2251e+001 -2.4960e+002 -2.8595e+000 44005 89781,90127,90271
 4.2000e+000 90320 -8.2603e+001 -2.3382e+002  8.8822e+000 44005 89781,90271,89807
 4.2000e+000 90470 -4.2059e+001 -2.5660e+002 -8.2120e+000 43601 90493,90369,90343
 4.2000e+000 90447 -7.0203e+001 -2.0601e+002  1.5947e+001 43601 90493,90343,90421
 4.2000e+000 90519 -8.5562e+001 -3.5159e+002 -4.1188e+001 43601 90395,90369,90493
 4.2000e+000 90542 -6.6538e+001 -2.4353e+002 -1.0606e+001 43601 90395,90493,90421
 4.2000e+000 90922 -9.0629e+001 -2.7162e+002  1.8379e+001 43154 90945,90700,90674
 4.2000e+000 90899 -8.0058e+001 -2.7652e+002 -3.0725e+001 43154 90945,90674,90648
 4.2000e+000 90876 -9.7536e+001 -2.2245e+002 -1.8740e+001 43154 90648,90778,90752
 4.2000e+000 90853 -5.1220e+001 -4.5076e+002  1.2507e+001 43154 90700,90752,90726
 4.2000e+000 90830 -6.0748e+001 -2.2562e+002 -5.3012e+000 43154 90648,90804,90778
 4.2000e+000 90971 -1.0433e+002 -3.1442e+002  2.7130e+001 43154 90752,90700,90945
 4.2000e+000 90994 -9.0380e+001 -3.0234e+002 -2.0701e+001 43154 90752,90945,90648
 4.2000e+000 91451 -2.2578e+001 -2.1099e+002 -3.7242e+001 42650 91203,91255,91229
 4.2000e+000 91428  2.3222e+001 -1.9095e+002 -1.8486e+001 42650 91203,91333,91255
 4.2000e+000 91405 -9.3738e-001 -3.0822e+002 -5.2670e+001 42650 91177,91333,91203
 4.2000e+000 91382 -9.4991e+001 -3.2926e+002  4.3666e+001 42650 91255,91333,91281
 4.2000e+000 91359 -2.1572e+001 -2.8201e+002  2.1205e+001 42650 91281,91333,91307
 4.2000e+000 91721 -1.3860e+002 -3.1494e+002  2.1665e+001 42288 91496,91600,91522
 4.2000e+000 91698 -7.4249e+001 -1.8284e+002 -7.8556e+000 42288 91496,91626,91600
 4.2000e+000 91675 -8.8328e+001 -2.8760e+002  2.4926e+001 42288 91522,91574,91548
 4.2000e+000 91652 -7.2533e+001 -2.8937e+002  2.2432e+001 42288 91522,91600,91574
 4.2000e+000 92199 -2.0554e+002 -3.4138e+002 -8.2290e+000 41898 92222,91983,91879
 4.2000e+000 92176 -2.0963e+002 -3.7084e+002 -1.9882e+001 41898 92294,92222,91879
 4.2000e+000 92153 -2.1973e+002 -3.6554e+002 -2.7514e+001 41898 92294,91879,91853
 4.2000e+000 92130 -1.8044e+002 -2.1214e+002  2.2025e+001 41898 91879,91957,91931
 4.2000e+000 92107 -1.8655e+002 -3.3418e+002 -4.2574e-001 41898 91879,91983,91957
 4.2000e+000 92084 -1.8864e+002 -1.8928e+002  3.6572e+001 41898 91879,91931,91905
 4.2000e+000 92061 -1.9690e+002 -3.3036e+002 -2.2348e+001 41898 91827,92035,91853
 4.2000e+000 92248 -2.0185e+002 -3.7757e+002 -7.6833e-001 41898 92009,91983,92222
 4.2000e+000 92271 -1.9949e+002 -3.8563e+002 -2.7813e+001 41898 92009,92222,92035
 4.2000e+000 92320 -1.9232e+002 -3.6286e+002 -2.2111e+001 41898 92035,92222,92294
 4.2000e+000 92343 -1.9989e+002 -3.5660e+002 -2.9371e+001 41898 92035,92294,91853
 4.2000e+000 92770 -6.3249e+001 -2.9358e+002 -2.0271e+001 41437 92865,92793,92525
 4.2000e+000 92747 -9.2309e+001 -3.4993e+002 -3.0456e+001 41437 92793,92473,92629
 4.2000e+000 92724 -3.0372e+001 -2.9779e+002 -3.7810e+001 41437 92865,92525,92499
 4.2000e+000 92701 -1.0051e+002 -2.7188e+002 -4.7276e+001 41437 92525,92603,92577
 4.2000e+000 92678  5.4734e-001 -3.3687e+002 -2.6565e+001 41437 92447,92629,92473
 4.2000e+000 92655 -1.5870e+002 -2.4427e+002 -2.8157e+001 41437 92525,92577,92551
 4.2000e+000 92819 -7.5115e+001 -3.2065e+002 -4.7215e+001 41437 92603,92525,92793
 4.2000e+000 92842 -1.4382e+002 -3.4396e+002 -8.7619e+001 41437 92603,92793,92629
 4.2000e+000 92891  3.7671e+000 -3.2746e+002 -2.9622e+001 41437 92473,92793,92865
 4.2000e+000 92914  5.3397e+001 -3.0811e+002 -5.6153e+001 41437 92473,92865,92499
 4.2000e+000 93243 -4.8777e+001 -4.4810e+002  1.6479e+002 41097 93044,93096,93070
 4.2000e+000 93220 -8.6898e+001 -3.9409e+002  8.7885e+001 41097 93044,93122,93096
 4.2000e+000 93197  1.8317e+001 -2.6259e+002  3.5708e+001 41097 93044,93148,93122
 4.2000e+000 93174 -7.5671e+001 -2.1322e+002  7.4723e+001 41097 93018,93148,93044
 4.2000e+000 93393 -8.1228e+000 -3.3491e+002  2.3355e+001 40643 93416,93292,93344
 4.2000e+000 93370 -1.4753e+001 -3.1306e+002  2.5820e+001 40643 93266,93344,93292
 4.2000e+000 93442 -1.2489e+001 -3.3160e+002  3.0854e+001 40643 93318,93292,93416
 4.2000e+000 93901 -9.9201e+001 -3.0465e+002 -2.0812e+001 40132 93924,93731,93705
 4.2000e+000 93878 -1.0427e+002 -3.1570e+002 -2.3454e+001 40132 93996,93924,93705
 4.2000e+000 93855 -1.2392e+002 -3.6387e+002 -8.2606e+000 40132 93996,93705,93653
 4.2000e+000 93832 -4.9988e+001 -3.4908e+002 -2.0794e+001 40132 93653,93705,93679
 4.2000e+000 93809 -1.0110e+002 -3.0472e+002  3.6575e+000 40132 93627,93783,93757
 4.2000e+000 93950 -9.5944e+001 -3.2509e+002 -2.4609e+001 40132 93757,93731,93924
 4.2000e+000 93973 -1.0810e+002 -2.8893e+002 -5.8146e+000 40132 93757,93924,93627
 4.2000e+000 94022 -1.3935e+002 -3.4590e+002  1.1356e+001 40132 93627,93924,93996
 4.2000e+000 94045 -1.2941e+002 -3.6266e+002  2.2516e+001 40132 93627,93996,93653
 4.2000e+000 94423 -2.0378e+001 -3.5457e+002 -4.9332e+001 39514 94149,94227,94175
 4.2000e+000 94400 -3.6233e+001 -3.3529e+002  3.8803e+001 39514 94149,94305,94227
 4.2000e+000 94377  9.8600e+000 -4.1925e+002 -4.7091e+001 39514 94175,94227,94201
 4.2000e+000 94354 -1.0404e+002 -3.1113e+002  1.7276e+001 39514 94227,94305,94279
 4.2000e+000 94331 -4.3548e+001 -2.8302e+002  3.1326e+001 39514 94227,94279,94253
 4.2000e+000 94573 -2.4708e+001 -2.0185e+002 -4.1346e+001 38822 94596,94498,94472
 4.2000e+000 94550  4.3469e+001 -2.1980e+002  4.8252e+001 38822 94596,94472,94446
 4.2000e+000 94622 -1.0372e+002 -2.3577e+002 -3.9957e+001 38822 94524,94498,94596
 4.2000e+000 94645 -8.9366e+001 -2.7880e+002  5.9168e+001 38822 94524,94596,94446
 4.2000e+000 95025 -1.5042e+001 -2.6475e+002 -1.8754e+001 38418 95048,94829,94777
 4.2000e+000 95002 -2.5904e+001 -2.8129e+002 -3.3776e+001 38418 95120,95048,94777
 4.2000e+000 94979 -1.9516e+001 -2.7593e+002 -3.1322e+001 38418 95120,94777,94751
 4.2000e+000 94956 -1.7451e+001 -2.4543e+002 -3.6924e+001 38418 95192,94881,94855
 4.2000e+000 94933 -8.1992e+001 -2.3690e+002 -1.0307e+001 38418 94777,94829,94803
 4.2000e+000 95074 -4.6420e+001 -3.5636e+002 -7.5583e+000 38418 94855,94829,95048
 4.2000e+000 95097 -2.4129e+001 -2.7730e+002 -4.2027e+001 38418 95192,94855,95048
 4.2000e+000 95146 -4.9440e+001 -2.6452e+002 -2.7069e+001 38418 94907,95048,95120
 4.2000e+000 95169 -3.0039e+001 -2.4810e+002 -1.9837e+001 38418 94907,95120,94751
 4.2000e+000 95218 -2.4406e+001 -1.8897e+002 -3.1961e+001 38418 94907,94881,95192
 4.2000e+000 95241 -4.0349e+001 -2.3830e+002 -2.9103e+001 38418 94907,95192,95048
 4.2000e+000 95511 -8.9545e+001 -2.8580e+002  1.3441e+001 38049 95312,95390,95364
 4.2000e+000 95488 -6.1565e+001 -2.7427e+002  1.3907e+001 38049 95312,95416,95390
 4.2000e+000 95465 -3.0465e+001 -2.7347e+002 -1.7165e+001 38049 95312,95364,95338
 4.2000e+000 95442 -2.5690e+001 -2.5561e+002  2.4827e+001 38049 95286,95416,95312
 4.2000e+000 95808 -8.5162e+001 -3.2912e+002 -6.8080e+000 37437 95831,95586,95560
 4.2000e+000 95785  3.2983e+001 -3.5063e+002 -1.6048e+001 37437 95831,95560,95534
 4.2000e+000 95762 -1.7250e+002 -3.1864e+002  7.4201e+000 37437 95586,95664,95638
 4.2000e+000 95739 -2.7423e+001 -1.6197e+002 -8.7067e+001 37437 95534,95690,95664
 4.2000e+000 95716 -1.5628e+002 -2.3127e+002  9.4293e+000 37437 95586,95638,95612
 4.2000e+000 95857 -1.6080e+002 -3.2384e+002  4.0433e+001 37437 95664,95586,95831
 4.2000e+000 95880 -3.5298e+001 -3.4177e+002  3.2719e+001 37437 95664,95831,95534
 4.2000e+000 96390 -1.1391e+002 -2.4991e+002 -1.3070e+001 36883 96413,96145,96093
 4.2000e+000 96367 -9.3771e+001 -2.3984e+002 -7.1012e+000 36883 96413,96093,96067
 4.2000e+000 96344 -6.7565e+001 -2.9073e+002  1.3819e+000 36883 96067,96249,96171
 4.2000e+000 96321 -9.9638e+001 -2.9094e+002 -2.7780e+000 36883 96093,96145,96119
 4.2000e+000 96298 -1.4137e+002 -4.7762e+002  4.5045e+001 36883 96171,96249,96197
 4.2000e+000 96275 -4.1943e+001 -3.7971e+002 -7.5481e+000 36883 96197,96249,96223
 4.2000e+000 96439 -1.0814e+002 -2.4227e+002  4.9262e+000 36883 96171,96145,96413
 4.2000e+000 96462 -9.1533e+001 -2.3816e+002  9.2759e+000 36883 96171,96413,96067
 4.2000e+000 96781 -9.0654e+001 -2.8351e+002 -4.0319e+001 36215 96559,96663,96637
 4.2000e+000 96758 -1.1362e+002 -3.1120e+002 -5.1789e+001 36215 96507,96663,96559
 4.2000e+000 96735 -1.1145e+002 -2.1207e+002  2.0770e+001 36215 96585,96637,96611
 4.2000e+000 96712 -2.3339e+002 -3.2775e+002 -3.4798e+001 36215 96559,96637,96585
 4.2000e+000 96689 -4.5203e+001 -3.7010e+002 -1.1410e+001 36215 96507,96559,96533
 4.2000e+000 97161  5.1097e+000 -1.5489e+002 -8.4540e+000 35818 97184,96965,96939
 4.2000e+000 97138 -1.4409e+001 -1.8587e+002 -1.6948e+001 35818 97184,96939,96887
 4.2000e+000 97115 -6.2829e+000 -1.9507e+002  3.6356e+001 35818 96965,97043,97017
 4.2000e+000 97092 -6.5210e+000 -1.8026e+002 -2.1312e+001 35818 96887,96939,96913
 4.2000e+000 97069 -1.0234e+002 -1.9773e+002  2.3045e+001 35818 96965,97017,96991
 4.2000e+000 97210  2.5798e+001 -1.8130e+002  8.5094e+000 35818 97043,96965,97184
 4.2000e+000 97233  1.0969e+001 -2.0356e+002  1.9623e+000 35818 97043,97184,96887
 4.2000e+000 97739 -9.2022e+001 -2.8447e+002 -6.6649e+001 35214 97416,97468,97442
 4.2000e+000 97716 -1.0942e+002 -2.0700e+002 -2.0909e+001 35214 97416,97598,97468
 4.2000e+000 97693 -9.8937e+001 -1.9746e+002 -8.6926e+000 35214 97762,97520,97468
 4.2000e+000 97670 -1.0158e+002 -2.0245e+002 -1.7207e+001 35214 97762,97468,97598
 4.2000e+000 97647 -7.5921e+001 -1.9545e+002 -2.6775e+001 35214 97546,97598,97572
 4.2000e+000 97624 -5.9596e+001 -2.0701e+002 -1.1375e+001 35214 97468,97520,97494
 4.2000e+000 97788 -1.0234e+002 -2.0724e+002 -1.2045e+001 35214 97546,97520,97762
 4.2000e+000 97811 -1.0293e+002 -2.1121e+002 -2.0007e+001 35214 97546,97762,97598
 4.2000e+000 98189 -1.6779e+001 -1.5364e+002 -1.4028e+001 34760 98356,98212,97967
 4.2000e+000 98166 -3.5889e+001 -1.8685e+002 -2.9305e+001 34760 98284,98212,97941
 4.2000e+000 98143 -6.8016e+001 -1.6890e+002 -1.4981e+001 34760 98284,97941,97915
 4.2000e+000 98120 -2.0403e+001 -2.0779e+002 -6.2047e+000 34760 98484,97993,97967
 4.2000e+000 98097 -1.7127e+001 -1.7475e+002 -5.4111e+000 34760 98556,98045,98019
 4.2000e+000 98238 -3.0565e+001 -1.9510e+002 -6.7390e+000 34760 98484,97967,98212
 4.2000e+000 98261 -1.4239e+000 -1.8059e+002 -1.3490e+001 34760 98556,98019,98212
 4.2000e+000 98310 -8.5316e+000 -1.5436e+002 -4.2142e+001 34760 98071,98212,98284
 4.2000e+000 98333 -2.9768e+001 -1.1001e+002 -3.4299e+001 34760 98071,98284,97915
 4.2000e+000 98382 -9.3868e+001 -2.0685e+002 -3.7918e+001 34760 97941,98212,98356
 4.2000e+000 98510 -4.2190e+000 -1.9707e+002 -1.1839e+001 34760 98019,97993,98484
 4.2000e+000 98533 -2.0586e+001 -1.8944e+002 -1.1058e+001 34760 98019,98484,98212
 4.2000e+000 98582  2.8638e+000 -1.6618e+002 -2.1433e+000 34760 98071,98045,98556
 4.2000e+000 98605  9.5120e+000 -1.7768e+002 -1.1775e+001 34760 98071,98556,98212
 4.2000e+000 99032 -1.1430e+002 -2.6267e+002  3.8918e+001 34156 98735,98891,98839
 4.2000e+000 99009 -9.4062e+001 -2.7143e+002  1.6339e+001 34156 98709,98891,98735
 4.2000e+000 98986 -3.1981e+001 -2.3220e+002  3.5840e+001 34156 98735,98813,98787
 4.2000e+000 98963 -3.8912e+001 -2.5440e+002  3.0349e+001 34156 98735,98839,98813
 4.2000e+000 98940  1.6657e+001 -3.4777e+002  4.0687e+001 34156 98735,98787,98761
 4.2000e+000 98917 -1.0066e+002 -2.2798e+002  2.3535e+001 34156 98839,98891,98865
 4.2000e+000 99231 -3.2312e+001 -1.3836e+002  1.2501e+001 33766 99055,99133,99107
 4.2000e+000 99208 -5.9398e+001 -1.8511e+002  2.5727e+001 33766 99055,99159,99133
 4.2000e+000 99185 -1.3538e+001 -1.5788e+002  3.2247e+001 33766 99055,99107,99081
 4.2000e+000 99818 -6.1703e+001 -1.9275e+002  4.1328e+000 33248 99521,99651,99573
 4.2000e+000 99795 -6.4168e+001 -1.8581e+002  1.8072e+001 33248 99521,99677,99651
 4.2000e+000 99772 -9.4342e+001 -2.3216e+002 -1.2169e+001 33248 99573,99651,99599
 4.2000e+000 99749 -6.5804e+001 -2.3213e+002  2.0454e+001 33248 99495,99677,99521
 4.2000e+000 99726 -4.0394e+001 -1.9548e+002 -4.7061e+001 33248 99599,99651,99625
 4.2000e+000 99703 -8.0743e+001 -2.2990e+002  1.3960e+001 33248 99521,99573,99547
 4.2000e+000 100196 -6.8899e+001 -2.1360e+002 -4.1441e+001 32794 100219,99948,99922
 4.2000e+000 100173 -8.1435e+001 -2.4038e+002 -2.0513e+001 32794 100219,99922,100052
 4.2000e+000 100150 -1.1162e+002 -2.2008e+002  1.3377e+001 32794 99974,100052,100026
 4.2000e+000 100127 -1.0016e+002 -1.9330e+002 -3.3196e+001 32794 99922,100078,100052
 4.2000e+000 100104 -1.1563e+002 -2.6582e+002  4.9872e+001 32794 99974,100026,100000
 4.2000e+000 100245 -9.2491e+001 -2.0808e+002 -1.5108e+001 32794 99974,99948,100219
 4.2000e+000 100268 -1.0117e+002 -2.4429e+002  5.9124e+000 32794 99974,100219,100052
 4.2000e+000 100418 -1.5966e+001 -2.0183e+002 -2.1260e+001 32504 100571,100343,100317
 4.2000e+000 100395 -8.1686e+001 -2.3167e+002  2.0155e+001 32504 100571,100317,100441
 4.2000e+000 100467  5.4431e+001 -1.1373e+002 -5.9678e+001 32504 100291,100369,100441
 4.2000e+000 100597  1.2844e+001 -1.7061e+002 -7.2460e+001 32504 100369,100343,100571
 4.2000e+000 100620 -1.6679e+001 -1.5961e+002 -3.6769e+001 32504 100369,100571,100441
 4.2000e+000 101020 -2.8373e+001 -1.6932e+002  6.5221e+000 32142 100772,100902,100876
 4.2000e+000 100997 -1.8149e+001 -1.5179e+002  1.0812e+001 32142 100746,100902,100772
 4.2000e+000 100974 -2.9827e+000 -1.8596e+002  2.2288e+001 32142 101043,100824,100798
 4.2000e+000 100951 -3.2434e+001 -1.9967e+002  1.6616e+001 32142 101043,100798,100772
 4.2000e+000 100928 -1.0775e+002 -2.3390e+002 -5.7526e+001 32142 101115,100876,100850
 4.2000e+000 101069  3.3009e+001 -2.0275e+002 -2.1002e+001 32142 100850,100824,101043
 4.2000e+000 101092 -5.3927e+001 -2.4008e+002 -2.7791e+001 32142 101115,100850,101043
 4.2000e+000 101141 -4.1756e+001 -1.9765e+002 -2.0724e+001 32142 100772,100876,101115
 4.2000e+000 101164 -4.8190e-001 -2.0212e+002  1.1800e+001 32142 100772,101115,101043
 4.2000e+000 101719 -1.1296e+002 -2.6993e+002  3.6371e+001 31538 101742,101477,101399
 4.2000e+000 101696 -1.3832e+002 -3.2844e+002  8.4377e+000 31538 101814,101742,101399
 4.2000e+000 101673 -1.5878e+002 -2.8284e+002 -2.2494e+001 31538 101814,101399,101373
 4.2000e+000 101650 -1.1209e+002 -1.9464e+002  2.3763e+001 31538 101425,101477,101451
 4.2000e+000 101627 -1.0577e+002 -2.2756e+002  6.2505e+000 31538 101399,101477,101425
 4.2000e+000 101604 -7.0252e+001 -3.1253e+002  6.6551e+001 31538 101477,101529,101503
 4.2000e+000 101581 -4.2855e+001 -1.9377e+002 -1.8745e+001 31538 101347,101555,101373
 4.2000e+000 101768 -1.2988e+002 -3.3156e+002  3.6322e+001 31538 101529,101477,101742
 4.2000e+000 101791 -1.1108e+002 -3.3971e+002 -1.1080e+001 31538 101529,101742,101555
 4.2000e+000 101840 -8.6643e+001 -2.8190e+002 -1.2880e+001 31538 101555,101742,101814
 4.2000e+000 101863 -1.1633e+002 -2.4480e+002 -4.1177e+001 31538 101555,101814,101373
 4.2000e+000 102111 -1.6591e+002 -4.2497e+002  5.3962e+001 31112 101886,101990,101912
 4.2000e+000 102088 -6.2967e+001 -2.5602e+002  3.5234e+000 31112 101886,102016,101990
 4.2000e+000 102065 -7.8816e+001 -4.1599e+002  8.7249e+001 31112 101912,101990,101964
 4.2000e+000 102042 -1.2515e+002 -5.2758e+002  1.0252e+002 31112 101912,101964,101938
 4.2000e+000 102408 -3.8843e+001 -2.6092e+002  2.0792e+001 30658 102431,102186,102160
 4.2000e+000 102385 -8.6196e+001 -2.5837e+002  6.5417e-002 30658 102431,102160,102264
 4.2000e+000 102362 -8.2928e+001 -2.8214e+002  4.0327e+000 30658 102186,102238,102212
 4.2000e+000 102339 -9.3540e+001 -2.7407e+002 -1.6537e+001 30658 102134,102264,102160
 4.2000e+000 102316 -6.4714e+001 -2.2963e+002 -7.5753e+001 30658 102134,102290,102264
 4.2000e+000 102457 -7.8614e+001 -2.7481e+002  1.0746e+001 30658 102238,102186,102431
 4.2000e+000 102480 -1.2922e+002 -2.7676e+002 -1.1912e+001 30658 102238,102431,102264
 4.2000e+000 102681 -3.3120e+001 -3.1460e+002  4.8293e+001 30004 102704,102557,102505
 4.2000e+000 102658 -4.2907e+001 -3.1409e+002  4.8053e+001 30004 102704,102505,102609
 4.2000e+000 102635  6.2938e+000 -2.7135e+002  1.2682e+001 30004 102505,102557,102531
 4.2000e+000 102730 -4.0563e+001 -3.0758e+002  4.3361e+001 30004 102583,102557,102704
 4.2000e+000 102753 -6.1313e+001 -3.1442e+002  4.3682e+001 30004 102583,102704,102609
 4.2000e+000 103003 -3.5902e+001 -2.5290e+002 -2.0283e+001 29564 103026,102804,102778
 4.2000e+000 102980 -4.5538e+001 -3.0117e+002 -3.1471e+001 29564 103026,102778,102908
 4.2000e+000 102957 -4.7315e+001 -2.5708e+002 -3.7732e+000 29564 102856,102908,102882
 4.2000e+000 102934 -6.2894e+001 -2.2775e+002  1.5465e+001 29564 102804,102856,102830
 4.2000e+000 103052 -3.1691e+001 -2.2888e+002  1.2430e+001 29564 102856,102804,103026
 4.2000e+000 103075 -4.5320e+001 -2.6809e+002 -3.2595e+000 29564 102856,103026,102908
 4.2000e+000 103634 -1.1409e+002 -2.8209e+002 -3.4242e+001 29160 103657,103418,103392
 4.2000e+000 103611 -1.0927e+002 -2.7351e+002 -1.7388e+001 29160 103657,103392,103314
 4.2000e+000 103588 -8.0295e+001 -2.3880e+002 -2.9829e+001 29160 103314,103392,103366
 4.2000e+000 103565 -7.2094e+001 -2.5356e+002 -3.3520e+001 29160 103314,103366,103340
 4.2000e+000 103542 -1.3825e+002 -2.7183e+002 -2.9829e+001 29160 103262,103444,103314
 4.2000e+000 103519 -1.6353e+002 -3.2432e+002 -3.9836e+001 29160 103262,103314,103288
 4.2000e+000 103496 -1.0700e+002 -2.9802e+002 -1.0627e+001 29160 103262,103470,103444
 4.2000e+000 103683 -1.3937e+002 -3.0089e+002 -5.0962e+001 29160 103444,103418,103657
 4.2000e+000 103706 -1.1979e+002 -2.7297e+002 -3.1629e+001 29160 103444,103657,103314
 4.2000e+000 104035 -7.4824e+001 -2.7198e+002  2.5978e+001 28770 103836,103914,103862
 4.2000e+000 104012 -7.2917e+001 -2.6045e+002  3.4057e+001 28770 103810,103914,103836
 4.2000e+000 103989  1.6795e+001 -2.3688e+002  4.2875e+001 28770 103810,103940,103914
 4.2000e+000 103966 -1.6107e+001 -2.1743e+002  5.2205e+001 28770 103862,103914,103888
 4.2000e+000 104185 -2.8968e+001 -2.5197e+002  4.8003e+001 28366 104208,104110,104084
 4.2000e+000 104162 -2.5299e+001 -2.1399e+002  3.8485e+001 28366 104280,104208,104084
 4.2000e+000 104234  4.9798e+001 -2.4948e+002  3.1167e+001 28366 104610,104208,104136
 4.2000e+000 104257 -4.7609e+001 -2.3785e+002  3.0452e+001 28366 104538,104410,104208
 4.2000e+000 104306 -7.8897e+001 -2.4045e+002  2.9646e+001 28366 104538,104208,104280
 4.2000e+000 104436 -1.8857e+001 -2.5774e+002  4.6284e+000 28366 104136,104208,104410
 4.2000e+000 104564 -8.0342e+001 -2.3671e+002  1.3944e+001 28366 104058,104410,104538
 4.2000e+000 104587 -9.9733e+001 -2.3214e+002  1.1007e+001 28366 104058,104538,104280
 4.2000e+000 104636  3.7114e+001 -2.5352e+002  3.7599e+001 28366 104110,104208,104610
 4.2000e+000 105349 -6.1855e+001 -2.2805e+002 -2.4352e+001 27976 105516,105372,105107
 4.2000e+000 105326 -9.4128e+001 -2.2664e+002  5.3694e+000 27976 105588,105372,105055
 4.2000e+000 105303 -1.0062e+002 -2.2117e+002 -2.1041e+001 27976 105444,105159,105133
 4.2000e+000 105280 -3.5402e+001 -2.3765e+002 -1.4302e+001 27976 105516,105107,105081
 4.2000e+000 105257 -8.6555e+001 -2.5157e+002  2.1985e+001 27976 105588,105055,105029
 4.2000e+000 105234 -4.7996e+001 -1.9426e+002  1.7578e+000 27976 105003,105185,105159
 4.2000e+000 105211 -6.6702e+001 -1.5803e+002  2.7004e+001 27976 104977,105185,105003
 4.2000e+000 105398 -4.9221e+001 -2.2616e+002 -3.0966e+001 27976 105133,105107,105372
 4.2000e+000 105421 -8.1993e+001 -2.3476e+002 -1.3010e+001 27976 105444,105133,105372
 4.2000e+000 105470 -8.2945e+001 -1.9749e+002 -1.1723e+001 27976 105003,105159,105444
 4.2000e+000 105493 -7.0078e+001 -2.1364e+002 -7.7276e+000 27976 105003,105444,105372
 4.2000e+000 105542 -4.4080e+001 -2.2409e+002 -2.9985e+000 27976 105055,105372,105516
 4.2000e+000 105565 -5.1358e+000 -2.2895e+002  4.4702e+000 27976 105055,105516,105081
 4.2000e+000 105614 -1.0969e+002 -2.5121e+002  1.7259e+001 27976 105003,105372,105588
 4.2000e+000 105637 -1.0620e+002 -2.7593e+002  3.5350e+001 27976 105003,105588,105029
 4.2000e+000 106143 -1.0830e+002 -3.4192e+002  2.0118e+001 27664 106166,105846,105820
 4.2000e+000 106120 -7.6225e+001 -2.6340e+002  8.4984e+000 27664 106310,106166,105820
 4.2000e+000 106097 -3.7877e+001 -3.0369e+002 -6.3516e+001 27664 106382,106238,105950
 4.2000e+000 106074 -5.0453e+001 -2.5863e+002  9.2517e+000 27664 106310,105820,106002
 4.2000e+000 106051  1.9430e+001 -2.7463e+002 -5.3554e+001 27664 106382,105950,105924
 4.2000e+000 106028 -2.1265e+001 -4.7454e+002 -2.0553e+001 27664 105846,105898,105872
 4.2000e+000 106192 -9.7185e+001 -3.7973e+002 -4.8677e+001 27664 105898,105846,106166
 4.2000e+000 106215 -6.0514e+001 -3.1713e+002 -2.0410e+001 27664 106238,105898,106166
 4.2000e+000 106264 -1.7255e+002 -3.4010e+002 -8.1554e+001 27664 105976,105950,106238
 4.2000e+000 106287 -6.1566e+001 -3.1631e+002 -2.0546e+001 27664 105976,106238,106166
 4.2000e+000 106336 -5.0372e+001 -2.7736e+002  3.1992e+001 27664 105976,106166,106310
 4.2000e+000 106359 -2.0839e+001 -2.7061e+002  3.1757e+001 27664 105976,106310,106002
 4.2000e+000 106408 -6.5330e+001 -2.6064e+002  4.2067e-001 27664 105898,106238,106382
 4.2000e+000 106431 -2.9443e+001 -2.4414e+002  5.1576e+000 27664 105898,106382,105924
 4.2000e+000 106728 -2.8375e+001 -1.8543e+002  3.3639e+001 27153 106751,106506,106454
 4.2000e+000 106705 -2.7204e+001 -1.8759e+002  2.8264e+001 27153 106751,106454,106610
 4.2000e+000 106682 -4.7181e+001 -1.3593e+002  4.3473e+000 27153 106454,106506,106480
 4.2000e+000 106659 -4.2308e+001 -1.8093e+002  1.9034e+001 27153 106532,106610,106584
 4.2000e+000 106636 -7.3916e+001 -1.0860e+002  3.7945e+001 27153 106532,106584,106558
 4.2000e+000 106777 -2.1330e+001 -1.8333e+002  3.5018e+001 27153 106532,106506,106751
 4.2000e+000 106800 -2.1668e+001 -1.8594e+002  2.8691e+001 27153 106532,106751,106610
 4.2000e+000 107180 -3.4015e+001 -2.1809e+002  1.6254e+001 26642 107203,106984,106958
 4.2000e+000 107157 -1.1299e+002 -2.5426e+002  5.4365e+000 26642 107203,106958,106932
 4.2000e+000 107134 -1.2914e+002 -2.7783e+002 -4.1955e+001 26642 107275,107036,107010
 4.2000e+000 107111 -8.2931e+001 -2.8011e+002 -4.9133e+001 26642 106932,107062,107036
 4.2000e+000 107088 -3.4010e+000 -2.2070e+002  2.6898e+001 26642 106906,107062,106932
 4.2000e+000 107229  3.3916e+000 -2.0671e+002 -6.6700e+001 26642 107010,106984,107203
 4.2000e+000 107252 -1.1515e+002 -2.5849e+002 -4.9280e+001 26642 107275,107010,107203
 4.2000e+000 107301 -1.1251e+002 -2.7549e+002 -5.2392e+001 26642 106932,107036,107275
 4.2000e+000 107324 -1.0808e+002 -2.7565e+002 -5.4567e+001 26642 106932,107275,107203
 4.2000e+000 107675 -5.9404e+001 -1.6911e+002  1.6490e+001 26045 107450,107554,107476
 4.2000e+000 107652 -4.5743e+001 -1.4668e+002  3.9221e+000 26045 107450,107580,107554
 4.2000e+000 107629 -1.7649e+001 -1.5830e+002  7.6457e+000 26045 107476,107528,107502
 4.2000e+000 107606 -1.6841e+001 -1.6003e+002  8.2344e+000 26045 107476,107554,107528
 4.2000e+000 107874 -4.3424e+001 -2.5602e+002  6.4306e+001 25641 107750,107802,107776
 4.2000e+000 107851 -5.3216e+001 -1.7435e+002  3.4595e+001 25641 107724,107802,107750
 4.2000e+000 107828 -4.9489e+001 -1.7650e+002  3.0076e+001 25641 107698,107802,107724
 4.2000e+000 108431 -2.3220e+001 -2.7313e+002  4.8131e+001 25023 108526,108267,108241
 4.2000e+000 108408 -1.6563e-001 -2.6177e+002  8.7047e+000 25023 108059,108267,108085
 4.2000e+000 108385 -3.7220e+001 -2.7582e+002  4.9539e+001 25023 108454,108163,108111
 4.2000e+000 108362 -1.2247e+002 -2.7994e+002  8.0234e+001 25023 108454,108111,108085
 4.2000e+000 108339 -9.8618e+001 -3.6653e+002  8.7613e+001 25023 108111,108163,108137
 4.2000e+000 108316 -6.4256e+001 -2.0014e+002 -1.1264e+001 25023 108163,108241,108215
 4.2000e+000 108293  2.8179e+001 -1.5941e+002 -3.6633e+000 25023 108163,108215,108189
 4.2000e+000 108480 -8.9624e+000 -2.4821e+002  4.5748e+000 25023 108241,108163,108454
 4.2000e+000 108503 -4.1230e+001 -2.6459e+002  4.6006e+001 25023 108526,108241,108454
 4.2000e+000 108552 -4.4103e+001 -2.7746e+002  3.8374e+001 25023 108085,108267,108526
 4.2000e+000 108575 -6.3253e+001 -2.7026e+002  3.5768e+001 25023 108085,108526,108454
 4.2000e+000 108823 -1.2445e+000 -2.0039e+002  2.7963e+001 24461 108624,108728,108650
 4.2000e+000 108800 -3.1184e+001 -4.1009e+002 -2.7770e+001 24461 108598,108728,108624
 4.2000e+000 108777  3.4169e-001 -2.6860e+002  2.1402e+001 24461 108650,108728,108676
 4.2000e+000 108754 -1.1938e+002 -7.6318e+002  6.4686e+001 24461 108676,108728,108702
 4.2000e+000 109022 -7.2263e+001 -2.0699e+002  2.8191e+001 24121 108872,108924,108898
 4.2000e+000 108999 -5.1046e+001 -2.0000e+002  3.2906e+001 24121 108846,108924,108872
 4.2000e+000 108976 -8.4128e+001 -2.1438e+002  3.4720e+001 24121 108846,108950,108924
 4.2000e+000 109483 -8.4515e+001 -2.8040e+002 -2.5896e+001 23717 109209,109339,109235
 4.2000e+000 109460 -3.1856e+001 -3.1873e+002 -6.3767e+001 23717 109209,109365,109339
 4.2000e+000 109437 -1.3662e+000 -3.5931e+002 -2.1194e+001 23717 109287,109339,109313
 4.2000e+000 109414 -1.6181e+002 -3.5772e+002  2.2537e+001 23717 109235,109339,109287
 4.2000e+000 109391  1.9891e-001 -4.0600e+002  1.4908e+002 23717 109235,109287,109261
 4.2000e+000 109910 -1.1407e+002 -3.2727e+002 -3.5471e+001 23305 109613,109743,109717
 4.2000e+000 109887 -1.1147e+002 -3.2921e+002 -1.8021e+001 23305 109613,109769,109743
 4.2000e+000 109864 -1.3326e+002 -3.1892e+002 -3.1259e+001 23305 109613,109717,109639
 4.2000e+000 109841 -8.8445e+001 -3.0543e+002 -6.8072e+000 23305 109587,109769,109613
 4.2000e+000 109818  2.3198e+000 -2.6089e+002  2.5079e+001 23305 109639,109717,109691
 4.2000e+000 109795 -2.8911e+001 -2.0920e+002 -4.8365e+001 23305 109639,109691,109665
 4.2000e+000 110180 -5.3840e+000 -9.2537e+001 -2.1669e+001 22851 110007,110059,110033
 4.2000e+000 110157 -6.4759e+001 -2.5494e+002  1.1679e+001 22851 109981,110059,110007
 4.2000e+000 110134 -9.1978e+001 -2.7579e+002  1.7238e+000 22851 109955,110059,109981
 4.2000e+000 110111 -3.7037e+001 -3.0402e+002 -2.3159e+001 22851 109955,110085,110059
 4.2000e+000 110737 -3.8895e+001 -2.8906e+002 -7.7640e+001 22333 110760,110469,110391
 4.2000e+000 110714 -1.0864e+001 -3.3725e+002 -5.8098e+001 22333 110760,110391,110365
 4.2000e+000 110691 -2.5664e+001 -2.6605e+002 -6.5487e+001 22333 110832,110521,110469
 4.2000e+000 110668 -6.5342e+001 -5.3285e+002  4.3004e+001 22333 110417,110469,110443
 4.2000e+000 110645 -1.3620e+002 -4.5548e+002  1.9575e+001 22333 110391,110469,110417
 4.2000e+000 110622 -3.7249e+000 -2.6857e+002 -3.1994e+001 22333 110469,110521,110495
 4.2000e+000 110599 -1.9961e+001 -1.8415e+002  2.1961e+001 22333 110365,110573,110547
 4.2000e+000 110786 -2.1504e+001 -2.7073e+002 -7.0413e+001 22333 110832,110469,110760
 4.2000e+000 110809  2.0113e+001 -2.8853e+002 -4.4643e+001 22333 110547,110760,110365
 4.2000e+000 110858 -2.1022e+001 -2.7725e+002 -6.5703e+001 22333 110547,110521,110832
 4.2000e+000 110881 -2.4237e+001 -2.8892e+002 -7.2657e+001 22333 110547,110832,110760
 4.2000e+000 111308 -1.5016e+002 -3.5437e+002  2.1113e+001 21829 111331,111063,111011
 4.2000e+000 111285 -1.3234e+002 -3.2822e+002 -5.5121e+000 21829 111331,111011,111167
 4.2000e+000 111262 -1.5391e+002 -3.4950e+002  2.2880e+001 21829 111403,111089,111063
 4.2000e+000 111239 -1.9054e+002 -3.6906e+002  5.3875e+001 21829 111011,111063,111037
 4.2000e+000 111216 -8.6874e+001 -2.3899e+002  1.2934e+001 21829 110985,111167,111011
 4.2000e+000 111193 -1.7344e+002 -5.6627e+002  1.2671e+002 21829 111089,111141,111115
 4.2000e+000 111357 -1.4831e+002 -3.5396e+002  2.2870e+001 21829 111403,111063,111331
 4.2000e+000 111380 -1.5262e+002 -3.7083e+002  2.8460e-001 21829 111141,111331,111167
 4.2000e+000 111429 -1.6023e+002 -3.5599e+002  2.8408e+001 21829 111141,111089,111403
 4.2000e+000 111452 -1.5359e+002 -3.6357e+002  2.6051e+001 21829 111141,111403,111331
 4.2000e+000 112056  1.1191e+002 -2.5681e+002  6.9246e+000 21489 111687,111765,111739
 4.2000e+000 112033  2.8588e+001 -2.9638e+002  3.1047e+001 21489 112151,112079,111687
 4.2000e+000 112010 -9.1200e-002 -4.6611e+002  3.1787e+001 21489 111791,111843,111817
 4.2000e+000 111987 -7.7877e+001 -3.6882e+002 -2.8527e+001 21489 112079,111843,111791
 4.2000e+000 111964  7.3567e+001 -2.7430e+002  5.7581e+001 21489 112151,111687,111661
 4.2000e+000 111941 -1.8441e+001 -2.0158e+002  4.7867e+001 21489 111661,111869,111843
 4.2000e+000 111918  1.0896e+002 -2.8020e+002  4.1823e+001 21489 111687,111739,111713
 4.2000e+000 111895  2.6721e+001 -9.6623e+001  1.5930e+001 21489 111635,111869,111661
 4.2000e+000 112105 -4.1193e+001 -3.2385e+002  1.7291e+001 21489 111765,111687,112079
 4.2000e+000 112128 -3.6978e+001 -3.0604e+002  1.6934e+001 21489 111765,112079,111791
 4.2000e+000 112177 -4.7881e+001 -2.9149e+002 -7.5452e+000 21489 111843,112079,112151
 4.2000e+000 112200 -6.6688e+000 -2.8276e+002  1.4000e+001 21489 111843,112151,111661
 4.2000e+000 112578 -6.2948e+001 -3.7350e+002  1.7553e+001 21177 112382,112434,112408
 4.2000e+000 112555 -8.0906e+001 -3.7170e+002  8.3128e-001 21177 112330,112434,112382
 4.2000e+000 112532 -5.9477e+001 -3.1522e+002  5.8777e+001 21177 112304,112434,112330
 4.2000e+000 112509 -8.0645e+001 -3.5394e+002  0.0000e+000 21177 112330,112382,112356
 4.2000e+000 112486 -1.7449e+001 -1.8808e+002  1.0382e+001 21177 112304,112460,112434
 4.2000e+000 112679 -4.7427e+000 -2.2131e+002 -4.6116e+001 20666 112601,112653,112627
 4.2000e+000 112927 -1.1221e+002 -3.6955e+002  1.3196e+001 19762 112702,112754,112728
 4.2000e+000 112904 -4.2709e+001 -3.5682e+002 -2.5523e+000 19762 112702,112832,112754
 4.2000e+000 112881 -9.5475e+001 -3.8419e+002  6.2467e+001 19762 112754,112832,112806
 4.2000e+000 112858 -1.3263e+002 -4.7734e+002  6.0430e+001 19762 112754,112806,112780
 4.2000e+000 113297 -1.0205e+002 -4.4991e+002  2.8841e+001 19308 112974,113052,113026
 4.2000e+000 113274 -6.9003e+001 -3.7731e+002  9.8056e+000 19308 112974,113156,113052
 4.2000e+000 113251 -3.5857e+001 -4.9829e+002 -5.9984e+001 19308 113052,113130,113104
 4.2000e+000 113228 -7.4813e+001 -3.7583e+002 -1.8930e-001 19308 113052,113156,113130
 4.2000e+000 113205 -7.0753e+001 -4.3465e+002  0.0000e+000 19308 113052,113104,113078
 4.2000e+000 113182 -1.4487e+002 -4.6878e+002 -1.3541e+000 19308 112974,113026,113000
 4.2000e+000 113547 -3.3778e+000 -4.0730e+002 -2.8149e+001 18711 113570,113374,113348
 4.2000e+000 113524 -1.7256e+001 -3.7147e+002 -1.6341e+001 18711 113570,113348,113452
 4.2000e+000 113501 -7.3828e+000 -2.8289e+002 -8.0704e+001 18711 113322,113452,113348
 4.2000e+000 113478 -3.6731e+001 -3.6266e+002 -1.3653e+002 18711 113374,113426,113400
 4.2000e+000 113596 -6.7566e-001 -3.6792e+002 -3.7227e+001 18711 113426,113374,113570
 4.2000e+000 113619 -1.7557e+001 -3.3807e+002 -1.7985e+001 18711 113426,113570,113452
 4.2000e+000 113771 -2.0781e+002 -5.1099e+002 -2.6837e+001 18307 113670,113722,113696
 4.2000e+000 113748 -1.6237e+002 -4.8343e+002 -1.2781e+001 18307 113644,113722,113670
 4.2000e+000 113972 -9.0318e+001 -4.3008e+002  8.7443e+000 17945 113822,113874,113848
 4.2000e+000 113949 -9.2476e+001 -4.2812e+002  1.0387e+001 17945 113822,113900,113874
 4.2000e+000 113926 -1.2601e+002 -3.4023e+002  1.7817e+002 17945 113796,113900,113822
 4.2000e+000 114075 -6.4046e+001 -6.3371e+002  6.7695e+001 17482 113997,114049,114023
 4.2000e+000 114479 -2.2611e+001 -3.4743e+002 -5.3243e+001 17042 114257,114361,114335
 4.2000e+000 114456 -8.1818e+001 -3.3819e+002 -8.2891e+000 17042 114205,114361,114257
 4.2000e+000 114433 -9.5313e+001 -3.9029e+002  1.4873e+001 17042 114205,114257,114231
 4.2000e+000 114410  8.0485e+001 -5.1384e+002 -3.3329e+001 17042 114283,114335,114309
 4.2000e+000 114387 -3.3102e+000 -4.4727e+002 -2.2474e+001 17042 114257,114335,114283
 4.2000e+000 114879 -1.9677e+002 -3.6080e+002 -2.0134e+000 16638 114631,114683,114657
 4.2000e+000 114856 -3.9279e+001 -2.9502e+002  4.1597e+000 16638 114605,114683,114631
 4.2000e+000 114833  4.4967e+001 -1.6525e+002 -3.7287e+001 16638 114605,114761,114683
 4.2000e+000 114810 -1.6343e+001 -4.0324e+002 -2.0166e+001 16638 114683,114735,114709
 4.2000e+000 114787 -3.6711e+001 -4.2078e+002 -2.8934e+001 16638 114683,114761,114735
 4.2000e+000 115078 -1.7471e+002 -3.9137e+002  1.0461e+001 16232 114954,115006,114980
 4.2000e+000 115055 -1.7342e+002 -4.3209e+002  1.9147e+001 16232 114928,115006,114954
 4.2000e+000 115032 -8.4264e+001 -5.3726e+002  3.6320e+001 16232 114902,115006,114928
 4.2000e+000 115228 -1.0129e+002 -3.8901e+002  1.2390e+001 15482 115101,115153,115127
 4.2000e+000 115205 -9.0029e+001 -3.6818e+002 -4.2073e+000 15482 115101,115179,115153
 4.2000e+000 115331 -7.8536e+001 -3.5673e+002 -4.4577e+001 15163 115253,115305,115279
 4.2000e+000 115434 -1.2394e+002 -3.8824e+002  6.8452e+001 421 115356,115408,115382
 4.3000e+000 68213 -2.2098e+001 -2.0470e+002 -2.0975e+001 67888 68112,68164,68138
 4.3000e+000 68190 -2.4850e+002 -2.7029e+002 -3.6603e+001 67888 68086,68164,68112
 4.3000e+000 68314 -2.4206e+001 -2.9051e+002  2.7562e+001 67576 68236,68288,68262
 4.3000e+000 68584 -1.0641e+002 -5.2696e+002  2.5268e+001 67378 68385,68489,68463
 4.3000e+000 68561 -4.0930e+001 -4.9430e+002  1.2060e+001 67378 68359,68489,68385
 4.3000e+000 68538 -7.9906e+001 -4.5261e+002  3.6537e+001 67378 68385,68463,68411
 4.3000e+000 68515 -4.0855e+001 -2.9547e+002  2.2505e+001 67378 68411,68463,68437
 4.3000e+000 68964 -1.1819e+002 -4.6531e+002  6.7759e+001 67130 68690,68820,68716
 4.3000e+000 68941  8.3908e+001 -4.7887e+002  1.2690e+002 67130 68690,68846,68820
 4.3000e+000 68918 -1.0594e+002 -3.1336e+002  6.3639e+000 67130 68742,68820,68794
 4.3000e+000 68895 -2.8865e+001 -3.1383e+002  2.7560e+001 67130 68716,68820,68742
 4.3000e+000 68872 -7.2834e+001 -2.6863e+002 -3.2154e+001 67130 68742,68794,68768
 4.3000e+000 69065 -8.5913e+001 -2.7934e+002  4.5894e+000 66926 68987,69039,69013
 4.3000e+000 69445 -4.9838e+001 -2.5712e+002 -1.2976e+001 66614 69223,69301,69275
 4.3000e+000 69422 -7.6793e+001 -2.7262e+002 -5.1526e+000 66614 69171,69301,69223
 4.3000e+000 69399 -8.9129e+001 -2.7957e+002  6.3950e-001 66614 69171,69327,69301
 4.3000e+000 69376 -1.8735e+001 -1.2524e+002  3.7725e+000 66614 69223,69275,69249
 4.3000e+000 69353 -7.0152e+001 -2.9031e+002 -6.1877e+000 66614 69171,69223,69197
 4.3000e+000 69546 -8.5517e+001 -4.2656e+002  2.2110e+001 66416 69468,69520,69494
 4.3000e+000 69997 -7.7747e+001 -4.3229e+002 -3.3768e+001 66104 69700,69830,69726
 4.3000e+000 69974 -1.1335e+002 -5.2895e+002 -7.0375e+001 66104 69700,69856,69830
 4.3000e+000 69951 -8.1085e+001 -3.3495e+002 -2.4130e+001 66104 69726,69804,69778
 4.3000e+000 69928 -6.7053e+001 -4.0433e+002 -3.4188e+001 66104 69726,69830,69804
 4.3000e+000 69905 -8.5424e+001 -3.2063e+002 -1.2786e+001 66104 69726,69778,69752
 4.3000e+000 69882 -3.6187e+001 -7.2412e+002 -1.3157e+002 66104 69674,69856,69700
 4.3000e+000 70326 -7.6539e+001 -2.0115e+002  6.6292e+000 65814 70349,70153,70127
 4.3000e+000 70303 -4.9089e+001 -1.9704e+002  1.0302e+001 65814 70349,70127,70101
 4.3000e+000 70280 -4.4629e+001 -1.8283e+002  7.2949e+001 65814 70101,70231,70205
 4.3000e+000 70257  1.0801e+001 -2.2444e+002  2.4869e+001 65814 70153,70205,70179
 4.3000e+000 70375 -6.4000e+001 -2.1241e+002  2.8743e+001 65814 70205,70153,70349
 4.3000e+000 70398 -2.1704e+001 -2.0128e+002  2.9182e+001 65814 70205,70349,70101
 4.3000e+000 70904 -3.5515e+001 -1.1482e+002 -3.2679e+001 65502 70607,70737,70685
 4.3000e+000 70881 -4.6799e+001 -9.4321e+001 -4.3098e+001 65502 70581,70737,70607
 4.3000e+000 70858 -4.5457e+001 -3.5671e+001 -1.1266e+001 65502 70581,70763,70737
 4.3000e+000 70835 -5.1595e+001 -1.2566e+002 -4.7654e+001 65502 70685,70737,70711
 4.3000e+000 70812 -1.6744e+002 -1.4570e+002 -4.0375e+000 65502 70607,70659,70633
 4.3000e+000 70789 -5.6129e+001 -1.5235e+002 -3.4143e-001 65502 70607,70685,70659
 4.3000e+000 71103 -4.7630e+001 -3.7415e+002 -1.1073e+001 65304 71126,70979,70953
 4.3000e+000 71080 -8.9268e+001 -3.7294e+002 -4.5576e+000 65304 71126,70953,70927
 4.3000e+000 71057 -1.2311e+002 -3.7723e+002  2.7667e+001 65304 70927,71031,71005
 4.3000e+000 71152 -8.8920e+001 -3.5391e+002 -2.3109e+001 65304 71005,70979,71126
 4.3000e+000 71175 -1.3617e+002 -3.5929e+002 -7.1939e+000 65304 71005,71126,70927
 4.3000e+000 71374 -5.0293e+001 -3.6241e+002  1.8307e+001 65106 71198,71276,71224
 4.3000e+000 71351 -1.0723e+002 -3.8808e+002  8.0125e+000 65106 71198,71302,71276
 4.3000e+000 71328 -2.7081e+001 -3.0182e+002  4.4654e+001 65106 71224,71276,71250
 4.3000e+000 71756 -4.5867e+001 -2.5843e+002 -1.6570e+001 64652 71508,71638,71534
 4.3000e+000 71733  3.2326e-003 -2.3866e+002  1.8188e+000 64652 71482,71638,71508
 4.3000e+000 71710 -8.6822e+001 -2.4491e+002 -1.7303e+001 64652 71534,71586,71560
 4.3000e+000 71687 -7.5273e+001 -2.7408e+002 -3.9609e+001 64652 71534,71612,71586
 4.3000e+000 71664 -1.2004e+002 -2.8580e+002 -4.3453e+001 64652 71534,71638,71612
 4.3000e+000 72085 -1.1112e+002 -2.8379e+002 -3.3489e+001 64248 71886,71964,71912
 4.3000e+000 72062 -8.9799e+001 -2.7545e+002 -3.4866e+001 64248 71860,71964,71886
 4.3000e+000 72039 -4.8327e+001 -3.0535e+002 -2.3123e+001 64248 71912,71964,71938
 4.3000e+000 72016 -8.6261e+001 -2.5826e+002 -3.7466e+001 64248 71860,71990,71964
 4.3000e+000 72235 -7.4280e+000 -1.8315e+002 -2.4514e+001 63858 72588,72258,72134
 4.3000e+000 72212 -3.5219e+001 -1.5988e+002  6.2064e+000 63858 72330,72258,72108
 4.3000e+000 72284 -2.4890e+001 -1.3636e+002 -1.7580e+001 63858 72160,72134,72258
 4.3000e+000 72307 -9.0551e+001 -1.7793e+002 -2.7962e+001 63858 72460,72258,72186
 4.3000e+000 72356 -7.5771e+001 -1.7220e+002 -2.7299e+001 63858 72186,72258,72330
 4.3000e+000 72486 -2.9936e+001 -1.6128e+002 -2.9690e+001 63858 72160,72258,72460
 4.3000e+000 72614 -9.5353e+000 -1.9311e+002 -1.4675e-001 63858 72108,72258,72588
 4.3000e+000 73248 -5.9997e+001 -2.6432e+002  7.1243e+001 63404 72902,72954,72928
 4.3000e+000 73225 -1.4526e+002 -3.0338e+002  3.3442e+001 63404 73271,72954,72902
 4.3000e+000 73202 -1.2837e+002 -2.5637e+002  2.7923e+001 63404 73271,72902,73032
 4.3000e+000 73179 -8.1503e+001 -2.2255e+002  9.3044e+000 63404 72902,73058,73032
 4.3000e+000 73156 -9.9307e+001 -2.6783e+002  2.1489e+001 63404 72980,73032,73006
 4.3000e+000 73133 -7.4522e+001 -2.3213e+002  5.3577e+000 63404 72876,73058,72902
 4.3000e+000 73110 -3.0572e+001 -1.1538e+002 -6.0148e+001 63404 72876,73084,73058
 4.3000e+000 73297 -1.2441e+002 -3.0870e+002  3.6567e+000 63404 72980,72954,73271
 4.3000e+000 73320 -1.1990e+002 -2.8420e+002  2.7521e+000 63404 72980,73271,73032
 4.3000e+000 73470 -1.0622e+002 -6.8933e+002  7.3224e+001 63014 73343,73395,73369
 4.3000e+000 73447 -3.2519e+002 -8.3907e+002 -1.4550e+001 63014 73343,73421,73395
 4.3000e+000 73929  3.2923e+000 -3.2078e+002  1.8854e+001 62702 73759,73811,73785
 4.3000e+000 73906  2.2687e+001 -3.1102e+002  2.2878e+001 62702 73655,73811,73759
 4.3000e+000 73883 -3.0537e+001 -3.5765e+002 -1.4394e+000 62702 73655,73759,73681
 4.3000e+000 73860  1.5202e+001 -2.6541e+002 -5.6746e+001 62702 73681,73759,73707
 4.3000e+000 73837 -1.4067e+002 -3.1108e+002  5.9143e+000 62702 73707,73759,73733
 4.3000e+000 74209 -1.8943e+002 -3.1302e+002  2.6522e+000 62404 74059,74137,74085
 4.3000e+000 74186 -2.2737e+002 -4.0507e+002  4.6477e+001 62404 74033,74137,74059
 4.3000e+000 74163 -2.0497e+002 -2.9105e+002 -3.2410e-001 62404 74085,74137,74111
 4.3000e+000 74408 -9.3840e+000 -2.6818e+002  1.5190e+001 62000 74258,74336,74284
 4.3000e+000 74385 -8.8202e+000 -2.6321e+002  2.8304e+001 62000 74232,74336,74258
 4.3000e+000 74362 -6.4698e+001 -2.6934e+002 -3.9230e+000 62000 74284,74336,74310
 4.3000e+000 74509 -2.4618e+001 -3.0707e+002  2.3764e+001 61802 74431,74483,74457
 4.3000e+000 74759 -9.9148e+001 -2.7740e+002  3.1934e+000 61554 74782,74586,74560
 4.3000e+000 74736 -6.1916e+001 -2.5795e+002  1.0314e+001 61554 74782,74560,74664
 4.3000e+000 74713 -8.5933e+001 -2.0605e+002  7.0053e+001 61554 74854,74612,74586
 4.3000e+000 74690 -7.8846e+001 -2.8206e+002  1.3066e+000 61554 74534,74664,74560
 4.3000e+000 74808 -1.1883e+002 -2.5535e+002  1.9951e+001 61554 74854,74586,74782
 4.3000e+000 74831 -7.3592e+001 -3.2226e+002  1.7737e+001 61554 74638,74782,74664
 4.3000e+000 74880 -2.0790e+001 -2.5759e+002  7.6823e+001 61554 74638,74612,74854
 4.3000e+000 74903 -2.2574e+001 -2.5474e+002  3.9959e+001 61554 74638,74854,74782
 4.3000e+000 75285 -4.3836e+001 -2.8421e+002  3.3187e+000 61356 75063,75167,75115
 4.3000e+000 75262 -5.7933e+001 -3.0071e+002 -1.6727e+001 61356 75037,75167,75063
 4.3000e+000 75239  2.1243e+001 -2.9296e+002 -2.4312e+000 61356 75115,75167,75141
 4.3000e+000 75216 -1.0981e+001 -2.6430e+002  1.1682e+001 61356 75063,75115,75089
 4.3000e+000 75193 -1.2713e+002 -2.3768e+002  1.8533e+001 61356 75011,75167,75037
 4.3000e+000 75631 -1.8227e+001 -2.2551e+002  6.4171e+000 60952 75654,75412,75360
 4.3000e+000 75608 -4.1598e+001 -2.5871e+002 -6.8656e+000 60952 75654,75360,75334
 4.3000e+000 75585 -4.1556e+001 -3.3135e+002  1.7939e+001 60952 75726,75438,75412
 4.3000e+000 75562 -3.6856e+001 -2.6595e+002 -4.3054e+001 60952 75308,75490,75334
 4.3000e+000 75539 -2.6438e+001 -2.2630e+002 -1.0753e-001 60952 75360,75412,75386
 4.3000e+000 75516 -6.3162e+001 -4.0632e+002 -1.0790e+001 60952 75438,75490,75464
 4.3000e+000 75680 -1.6506e+001 -2.7682e+002  6.3797e+000 60952 75726,75412,75654
 4.3000e+000 75703 -1.6793e+001 -2.6235e+002 -1.0891e+001 60952 75490,75654,75334
 4.3000e+000 75752 -1.6249e+001 -2.6794e+002 -7.1564e-001 60952 75490,75438,75726
 4.3000e+000 75775 -1.7537e+001 -2.6298e+002 -1.1183e+001 60952 75490,75726,75654
 4.3000e+000 76155 -4.3329e+001 -2.6494e+002  1.1766e+000 60754 75933,75985,75959
 4.3000e+000 76132 -7.0891e+001 -2.8175e+002  2.8168e+001 60754 75933,76037,75985
 4.3000e+000 76109  5.0694e+000 -2.7520e+002  8.7348e+000 60754 75985,76037,76011
 4.3000e+000 76086 -1.0659e+002 -2.3409e+002  8.0220e+000 60754 75881,76037,75933
 4.3000e+000 76063 -1.5027e+002 -2.0527e+002  6.3020e+001 60754 75881,75933,75907
 4.3000e+000 76612 -4.9956e+001 -2.5393e+002  7.6710e+000 60350 76635,76442,76390
 4.3000e+000 76589 -2.5610e+000 -2.8152e+002  1.8726e+001 60350 76635,76390,76364
 4.3000e+000 76566 -2.0479e+001 -3.5558e+002 -2.6512e+001 60350 76364,76494,76468
 4.3000e+000 76543 -4.2480e+000 -2.3037e+002  2.2407e+001 60350 76390,76442,76416
 4.3000e+000 76520 -1.2547e+002 -2.3548e+002 -5.6181e+001 60350 76338,76494,76364
 4.3000e+000 76661 -7.6972e+001 -2.7216e+002  1.5601e+001 60350 76468,76442,76635
 4.3000e+000 76684 -4.2825e+001 -3.0599e+002  2.9150e+001 60350 76468,76635,76364
 4.3000e+000 76932 -9.7834e+001 -2.9776e+002  4.0665e+000 59946 76955,76733,76707
 4.3000e+000 76909 -9.7213e+001 -2.9500e+002  9.6073e+000 59946 77027,76955,76707
 4.3000e+000 76886 -9.1842e+001 -2.9537e+002  7.7293e+000 59946 77027,76707,76837
 4.3000e+000 76863 -4.3725e+001 -3.2841e+002 -2.9584e+001 59946 76733,76785,76759
 4.3000e+000 76981 -1.1067e+002 -2.9816e+002 -2.8527e+000 59946 76785,76733,76955
 4.3000e+000 77004 -1.0069e+002 -2.9036e+002  5.6787e+000 59946 76785,76955,76811
 4.3000e+000 77053 -8.9781e+001 -2.9445e+002  8.5655e+000 59946 76811,76955,77027
 4.3000e+000 77076 -8.5596e+001 -2.9463e+002  5.7912e+000 59946 76811,77027,76837
 4.3000e+000 77226 -1.3009e+002 -3.1059e+002  7.1722e+000 59542 77099,77151,77125
 4.3000e+000 77203 -1.5353e+002 -3.5822e+002  1.4772e+001 59542 77099,77177,77151
 4.3000e+000 77427 -1.5468e+002 -3.1808e+002 -2.1216e+001 59030 77450,77277,77251
 4.3000e+000 77404 -9.3937e+001 -2.5040e+002 -8.5062e+001 59030 77450,77251,77355
 4.3000e+000 77381 -1.8207e+001 -3.7789e+002 -5.0958e+000 59030 77277,77329,77303
 4.3000e+000 77476 -8.2252e+001 -3.3218e+002 -6.1264e+001 59030 77329,77277,77450
 4.3000e+000 77499 -1.9247e+001 -2.9955e+002 -1.1130e+002 59030 77329,77450,77355
 4.3000e+000 77749 -1.2687e+002 -3.9690e+002  2.9437e+001 58426 77772,77628,77602
 4.3000e+000 77726 -9.1593e+001 -4.9574e+002  1.2351e+002 58426 77524,77654,77628
 4.3000e+000 77703 -1.0542e+002 -3.9207e+002  2.1309e+001 58426 77772,77602,77550
 4.3000e+000 77680 -5.8788e+001 -3.6651e+002 -1.4551e+001 58426 77550,77602,77576
 4.3000e+000 77798 -1.0165e+002 -4.0008e+002  2.8431e+001 58426 77524,77628,77772
 4.3000e+000 77821 -9.0234e+001 -4.0037e+002  1.7998e+001 58426 77524,77772,77550
 4.3000e+000 78071 -1.6638e+002 -3.6106e+002  3.8304e+001 57922 78094,77924,77898
 4.3000e+000 78048 -1.9327e+002 -3.6742e+002  5.6989e+000 57922 78094,77898,77872
 4.3000e+000 78025 -1.5926e+002 -3.3620e+002  3.7042e+001 57922 78166,77846,77950
 4.3000e+000 78002 -8.2457e+001 -3.2950e+002  4.3477e+001 57922 77846,77976,77950
 4.3000e+000 78120 -1.3907e+002 -3.6345e+002  2.6676e+001 57922 77950,77924,78094
 4.3000e+000 78143 -1.5987e+002 -3.4136e+002  2.7265e+001 57922 78166,77950,78094
 4.3000e+000 78192 -1.5362e+002 -3.5097e+002  2.9265e+001 57922 77872,77846,78166
 4.3000e+000 78215 -1.6215e+002 -3.6664e+002  1.9051e+001 57922 77872,78166,78094
 4.3000e+000 78416  3.2986e+001 -3.0384e+002 -1.5406e+001 57468 78439,78292,78240
 4.3000e+000 78393 -1.6990e+001 -2.8590e+002  8.3241e-001 57468 78439,78240,78344
 4.3000e+000 78370  1.2009e+001 -4.1100e+002 -1.1249e+001 57468 78240,78292,78266
 4.3000e+000 78465 -1.5611e+001 -3.2868e+002 -2.6324e+001 57468 78318,78292,78439
 4.3000e+000 78488 -3.6094e+001 -2.9891e+002 -5.2487e+000 57468 78318,78439,78344
 4.3000e+000 78689  3.7971e+001 -3.6965e+002 -4.4943e+001 57014 78712,78539,78513
 4.3000e+000 78666 -1.8512e+001 -3.6744e+002 -8.2680e+000 57014 78712,78513,78617
 4.3000e+000 78643 -8.4075e+001 -3.7858e+002  3.6348e+001 57014 78565,78617,78591
 4.3000e+000 78738 -3.4792e+001 -3.0756e+002 -4.5085e+001 57014 78565,78539,78712
 4.3000e+000 78761 -1.1928e+002 -3.5710e+002  1.4779e+001 57014 78565,78712,78617
 4.3000e+000 79241 -1.1944e+002 -3.2748e+002  2.6678e+001 56652 79264,78895,78869
 4.3000e+000 79218 -5.5404e+001 -4.2885e+002 -2.4999e+001 56652 79264,78869,79051
 4.3000e+000 79195 -8.3411e+001 -3.7491e+002 -8.6720e+001 56652 78869,79077,79051
 4.3000e+000 79172 -9.4570e+001 -2.1385e+002 -5.0598e+001 56652 78895,78973,78947
 4.3000e+000 79149 -1.5658e+002 -6.2617e+002 -5.2176e+001 56652 78973,79051,78999
 4.3000e+000 79126 -8.2469e+001 -2.0707e+002 -5.5009e+001 56652 78895,78947,78921
 4.3000e+000 79103 -1.3530e+002 -4.3818e+002  1.0288e+002 56652 78999,79051,79025
 4.3000e+000 79290 -7.0938e+001 -2.6357e+002  6.2046e+001 56652 78973,78895,79264
 4.3000e+000 79313 -2.2627e+000 -3.7179e+002  1.3926e+001 56652 78973,79264,79051
 4.3000e+000 79512 -4.4012e+001 -4.7115e+002  4.3814e+001 56062 79388,79440,79414
 4.3000e+000 79489 -1.9772e+002 -2.5263e+002  6.3902e+001 56062 79336,79440,79388
 4.3000e+000 79466 -8.6055e+001 -2.4123e+002  9.2776e+001 56062 79336,79388,79362
 4.3000e+000 79941 -5.4344e+001 -2.6429e+002  4.1618e+001 55658 79964,79670,79644
 4.3000e+000 79918 -8.2057e+001 -2.6947e+002  4.7207e+001 55658 79964,79644,79800
 4.3000e+000 79895 -7.5799e+001 -2.8414e+002  2.3332e+001 55658 80036,79696,79670
 4.3000e+000 79872 -8.9008e+001 -2.4479e+002 -3.1406e+000 55658 80108,79722,79696
 4.3000e+000 79849 -1.2994e+002 -2.4367e+002  1.0909e+001 55658 79722,79774,79748
 4.3000e+000 79826 -1.1302e+000 -2.4060e+002  1.2512e+001 55658 79618,79800,79644
 4.3000e+000 79990 -8.5064e+001 -2.8665e+002  3.1072e+001 55658 80036,79670,79964
 4.3000e+000 80013 -7.4284e+001 -2.4905e+002  5.0006e+001 55658 79774,79964,79800
 4.3000e+000 80062 -6.5005e+001 -2.6077e+002  1.9257e+001 55658 80108,79696,80036
 4.3000e+000 80085 -8.2562e+001 -2.5143e+002  4.2545e+001 55658 79774,80036,79964
 4.3000e+000 80134 -1.3546e+002 -2.6111e+002  6.3702e+000 55658 79774,79722,80108
 4.3000e+000 80157 -1.2189e+002 -2.8358e+002  2.8483e+001 55658 79774,80108,80036
 4.3000e+000 80307 -1.4215e+002 -2.5748e+002  3.2322e+001 55254 80402,80330,80206
 4.3000e+000 80284 -1.3821e+002 -3.4822e+002  3.3165e+001 55254 80330,80180,80258
 4.3000e+000 80356 -1.6703e+002 -3.1441e+002  6.6018e+001 55254 80232,80206,80330
 4.3000e+000 80379 -4.7167e+001 -2.6046e+002  9.4784e+001 55254 80232,80330,80258
 4.3000e+000 80428 -1.9631e+002 -3.1470e+002  8.7276e+000 55254 80180,80330,80402
 4.3000e+000 80659 -6.9807e+001 -3.6332e+002 -3.0244e+001 54850 80558,80610,80584
 4.3000e+000 80636  5.1240e+000 -3.4601e+002 -3.8795e+001 54850 80532,80610,80558
 4.3000e+000 80760 -2.4130e+001 -2.6124e+002 -2.1329e+001 54652 80682,80734,80708
 4.3000e+000 81164 -1.9776e+001 -2.7901e+002 -5.6078e+000 54248 81187,80942,80890
 4.3000e+000 81141 -2.4613e+001 -2.8252e+002 -3.6846e+000 54248 81187,80890,81046
 4.3000e+000 81118 -2.8795e+001 -2.9274e+002  6.0343e+001 54248 80942,81020,80994
 4.3000e+000 81095 -1.6924e+001 -2.8135e+002  1.3265e+000 54248 80890,80942,80916
 4.3000e+000 81072 -3.8280e+001 -1.6196e+002  8.1270e+000 54248 80942,80994,80968
 4.3000e+000 81213 -2.5546e+001 -2.7571e+002 -5.1411e+000 54248 81020,80942,81187
 4.3000e+000 81236 -2.9112e+001 -2.7761e+002 -3.9226e+000 54248 81020,81187,81046
 4.3000e+000 81663 -1.5235e+002 -2.9011e+002  2.4251e+001 53594 81340,81444,81366
 4.3000e+000 81640 -1.4464e+002 -4.1086e+002  1.1277e+001 53594 81340,81470,81444
 4.3000e+000 81617 -5.3413e+001 -3.6100e+002 -1.8167e+001 53594 81340,81522,81470
 4.3000e+000 81594 -8.3116e+001 -2.1319e+002 -2.3480e+001 53594 81392,81444,81418
 4.3000e+000 81571 -1.1101e+002 -2.5128e+002 -3.6358e+001 53594 81366,81444,81392
 4.3000e+000 81548  1.8359e+001 -5.8247e+002  1.3548e+002 53594 81470,81522,81496
 4.3000e+000 81943 -3.8933e+001 -1.9905e+002 -2.5017e+001 53104 81966,81845,81819
 4.3000e+000 81920 -5.7672e+001 -1.6666e+002 -3.0662e+001 53104 81966,81819,81767
 4.3000e+000 81897 -5.8396e+001 -1.6624e+002 -3.3371e+001 53104 81767,81819,81793
 4.3000e+000 81992 -2.6208e+001 -1.7873e+002 -3.0467e+001 53104 81871,81845,81966
 4.3000e+000 82015 -3.5959e+001 -1.3324e+002 -4.0533e+001 53104 81871,81966,81767
 4.3000e+000 82491 -3.4333e+001 -2.0222e+002 -1.4381e+001 52650 82145,82249,82171
 4.3000e+000 82468 -1.6633e+002 -2.3535e+002 -2.7297e+001 52650 82145,82301,82249
 4.3000e+000 82445 -1.7451e+002 -3.6127e+002 -6.3081e+001 52650 82249,82301,82275
 4.3000e+000 82422 -7.1673e+001 -4.4913e+002 -8.1739e+001 52650 82119,82301,82145
 4.3000e+000 82399 -5.3937e+001 -1.6571e+002  2.1429e+001 52650 82171,82249,82223
 4.3000e+000 82376  2.3961e+001 -4.1165e+002 -6.4300e+001 52650 82119,82327,82301
 4.3000e+000 82353 -1.4906e+001 -8.2137e+001 -3.4601e+001 52650 82171,82223,82197
 4.3000e+000 82739 -4.5158e+001 -1.9054e+002  4.7277e+000 52246 82762,82540,82514
 4.3000e+000 82716 -2.9154e+001 -7.3758e+001 -1.3027e+001 52246 82762,82514,82644
 4.3000e+000 82693 -9.1200e+001 -2.1748e+002  4.8812e+001 52246 82540,82618,82592
 4.3000e+000 82670 -1.0834e+002 -2.1202e+002  4.2808e+001 52246 82540,82592,82566
 4.3000e+000 82788 -2.8067e+001 -2.4463e+002  1.4861e+001 52246 82618,82540,82762
 4.3000e+000 82811 -6.2406e+001 -2.0812e+002 -1.8304e+001 52246 82618,82762,82644
 4.3000e+000 83059 -3.1742e+001 -2.7254e+002  2.5071e+001 51578 82860,82964,82938
 4.3000e+000 83036 -1.4795e+000 -1.7702e+002 -5.8168e+001 51578 82834,82964,82860
 4.3000e+000 83013 -1.2245e+001 -2.0968e+002  5.5890e+001 51578 82860,82938,82886
 4.3000e+000 82990 -9.1595e+000 -1.2994e+002  9.1212e+000 51578 82886,82938,82912
 4.3000e+000 83309 -4.9251e+001 -1.5521e+002  4.2407e+001 51138 83332,83162,83136
 4.3000e+000 83286 -1.7511e+001 -2.0073e+002  1.3631e+001 51138 83332,83136,83110
 4.3000e+000 83263 -7.6716e+001 -2.0771e+002 -1.1354e+001 51138 83404,83214,83188
 4.3000e+000 83240 -1.0140e+000 -1.3097e+002  1.2387e+001 51138 83084,83214,83110
 4.3000e+000 83358 -7.9176e+001 -2.1124e+002  5.5249e+001 51138 83188,83162,83332
 4.3000e+000 83381 -5.3690e+001 -2.2917e+002  8.9380e+000 51138 83404,83188,83332
 4.3000e+000 83430 -4.9506e+001 -1.5452e+002  6.8485e-001 51138 83110,83214,83404
 4.3000e+000 83453 -2.9511e+001 -1.8756e+002  1.9893e+001 51138 83110,83404,83332
 4.3000e+000 83835 -4.4314e+001 -2.5502e+002 -1.7945e+000 50734 83613,83717,83691
 4.3000e+000 83812 -4.8536e+001 -2.7102e+002 -5.6127e+001 50734 83561,83717,83613
 4.3000e+000 83789 -2.1503e+001 -1.4089e+002 -8.0372e+001 50734 83561,83613,83587
 4.3000e+000 83766 -9.7738e+001 -1.7062e+002  1.8164e-001 50734 83613,83691,83639
 4.3000e+000 83743 -1.0367e+002 -1.7329e+002  3.5473e+001 50734 83639,83691,83665
 4.3000e+000 84034 -6.5457e+001 -1.6229e+002  9.1801e+000 50230 84057,83884,83858
 4.3000e+000 84011 -6.5104e+001 -1.7667e+002 -1.6619e+001 50230 84129,84057,83858
 4.3000e+000 83988 -2.0244e+001 -1.8846e+002 -2.7982e+001 50230 84129,83858,83962
 4.3000e+000 84083 -2.4401e+001 -1.4729e+002  1.4448e+001 50230 83910,83884,84057
 4.3000e+000 84106 -4.0293e+001 -1.7322e+002  5.9221e+000 50230 83910,84057,83936
 4.3000e+000 84155 -6.4746e+000 -1.5074e+002 -3.8356e+000 50230 83936,84057,84129
 4.3000e+000 84178  1.0591e+001 -1.8230e+002 -2.1527e+001 50230 83936,84129,83962
 4.3000e+000 84558 -7.0694e+001 -2.1229e+002 -3.3735e+001 49768 84581,84388,84362
 4.3000e+000 84535 -1.4352e+002 -2.1506e+002 -1.3166e+001 49768 84581,84362,84310
 4.3000e+000 84512  2.3653e+000 -2.3160e+002 -3.5993e+001 49768 84653,84440,84414
 4.3000e+000 84489 -1.1253e+002 -2.3205e+002  1.6504e+001 49768 84310,84362,84336
 4.3000e+000 84466 -5.2983e+000 -1.7033e+002  2.3797e+001 49768 84284,84440,84310
 4.3000e+000 84607 -1.8248e+001 -1.7810e+002 -5.8017e+001 49768 84414,84388,84581
 4.3000e+000 84630 -2.6647e+001 -2.1732e+002 -2.5600e+001 49768 84653,84414,84581
 4.3000e+000 84679 -3.6510e+001 -2.1943e+002 -4.9161e+001 49768 84310,84440,84653
 4.3000e+000 84702 -7.8341e+001 -2.1961e+002 -5.0106e+001 49768 84310,84653,84581
 4.3000e+000 85159 -1.1103e+002 -2.9210e+002 -8.2004e+001 49192 84885,84937,84911
 4.3000e+000 85136 -1.1310e+002 -2.4217e+002 -6.0432e+001 49192 84885,85041,84937
 4.3000e+000 85113 -8.2810e+001 -2.0705e+002 -2.8581e+001 49192 84963,85041,84989
 4.3000e+000 85090 -7.4327e+001 -1.9389e+002 -4.3070e+001 49192 84937,85041,84963
 4.3000e+000 85067 -6.7592e+001 -2.0789e+002 -2.3697e+001 49192 84989,85041,85015
 4.3000e+000 85714 -1.1925e+002 -1.9928e+002 -1.1570e+000 48638 85368,85498,85394
 4.3000e+000 85691 -1.4787e+002 -2.3306e+002  1.1420e+001 48638 85368,85524,85498
 4.3000e+000 85668 -1.3331e+002 -1.9108e+002  5.0124e+001 48638 85737,85420,85394
 4.3000e+000 85645 -1.1363e+002 -2.1818e+002  2.6511e+001 48638 85737,85394,85498
 4.3000e+000 85622 -9.0841e+001 -2.2443e+002  4.4689e+001 48638 85446,85498,85472
 4.3000e+000 85599 -3.8436e+001 -1.9153e+002  2.1466e+001 48638 85342,85524,85368
 4.3000e+000 85576 -1.4543e+002 -2.1495e+002  2.0237e+001 48638 85342,85550,85524
 4.3000e+000 85763 -9.7095e+001 -1.7137e+002  6.7169e+001 48638 85446,85420,85737
 4.3000e+000 85786 -9.8654e+001 -1.9742e+002  3.9824e+001 48638 85446,85737,85498
 4.3000e+000 86371 -1.0015e+002 -1.4974e+002 -8.8814e+000 48084 86100,86230,86178
 4.3000e+000 86348 -1.2192e+002 -1.8957e+002 -2.0367e+001 48084 86048,86230,86100
 4.3000e+000 86325 -1.0156e+002 -1.4026e+002  3.6237e+001 48084 86100,86178,86126
 4.3000e+000 86302 -6.1095e+001 -4.6065e+001 -3.7737e+001 48084 86048,86100,86074
 4.3000e+000 86279 -1.2872e+002 -2.3902e+002 -3.2127e+000 48084 86178,86230,86204
 4.3000e+000 86256 -9.2535e+001 -1.5958e+002  3.4708e+001 48084 86126,86178,86152
 4.3000e+000 86619 -7.5429e+001 -1.6751e+002  1.4132e+001 47630 86642,86446,86420
 4.3000e+000 86596 -9.1909e+001 -1.8645e+002 -2.0887e+001 47630 86642,86420,86394
 4.3000e+000 86573 -1.1807e+002 -2.2067e+002 -3.0317e+001 47630 86394,86524,86498
 4.3000e+000 86550 -4.6726e+001 -1.9084e+002  1.2085e+001 47630 86446,86498,86472
 4.3000e+000 86668 -9.3516e+001 -2.0749e+002 -4.8601e-001 47630 86498,86446,86642
 4.3000e+000 86691 -1.0267e+002 -2.1419e+002 -3.4765e+001 47630 86498,86642,86394
 4.3000e+000 87022 -7.5698e+000 -1.2247e+002 -6.9227e+001 47226 87045,86875,86849
 4.3000e+000 86999 -2.3588e+000 -1.3730e+002 -6.5394e+001 47226 87045,86849,86797
 4.3000e+000 86976  2.9668e-001 -6.4732e+001 -1.5373e+001 47226 86797,86849,86823
 4.3000e+000 86953  5.7815e+000 -8.7310e+001 -3.5790e+001 47226 86875,86927,86901
 4.3000e+000 87071 -1.6212e+001 -1.3326e+002 -6.5491e+001 47226 86927,86875,87045
 4.3000e+000 87094 -7.0486e+000 -1.4339e+002 -6.3275e+001 47226 86927,87045,86797
 4.3000e+000 87244 -1.2753e+001 -2.3404e+002  6.1285e+001 46814 87267,87169,87143
 4.3000e+000 87221 -1.0978e+002 -2.1159e+002 -1.2343e+001 46814 87267,87143,87117
 4.3000e+000 87293 -1.2213e+001 -1.7553e+002  3.8194e+001 46814 87339,87267,87195
 4.3000e+000 87316 -9.1934e+000 -1.6865e+002  5.4560e+000 46814 87469,87267,87117
 4.3000e+000 87365  6.5371e+000 -1.6538e+002  4.4062e+001 46814 87169,87267,87339
 4.3000e+000 87495 -1.0397e+000 -1.7990e+001 -2.1856e+000 46814 87195,87267,87469
 4.3000e+000 88001 -7.0415e+001 -1.6757e+002  4.0974e+001 46310 88024,87834,87808
 4.3000e+000 87978 -8.5383e+001 -1.7065e+002  2.4842e+001 46310 88024,87808,87756
 4.3000e+000 87955 -4.5793e+001 -2.2063e+002  1.1357e+001 46310 88096,87730,87860
 4.3000e+000 87932 -6.3085e+001 -2.2069e+002  2.5226e+001 46310 87756,87808,87782
 4.3000e+000 87909 -5.8976e+001 -2.6424e+002  9.7367e+000 46310 87678,87860,87730
 4.3000e+000 87886 -8.8944e+001 -4.2817e+002 -2.3367e+001 46310 87678,87730,87704
 4.3000e+000 88050 -6.0248e+001 -1.4530e+002  2.5287e+001 46310 87860,87834,88024
 4.3000e+000 88073 -4.6697e+001 -1.6053e+002  3.0395e+001 46310 88096,87860,88024
 4.3000e+000 88122 -5.9366e+001 -2.4932e+002 -9.3186e+000 46310 87756,87730,88096
 4.3000e+000 88145 -9.7314e+001 -2.2542e+002  1.4432e+000 46310 87756,88096,88024
 4.3000e+000 88572 -4.5159e+001 -2.1819e+002  1.2068e+001 45856 88249,88405,88275
 4.3000e+000 88549 -3.9878e+001 -7.0669e+001 -4.4304e+001 45856 88249,88431,88405
 4.3000e+000 88526 -1.0714e+002 -3.0073e+002 -3.9543e+001 45856 88327,88405,88353
 4.3000e+000 88503 -4.9112e+001 -2.6248e+002 -1.7903e+001 45856 88275,88405,88327
 4.3000e+000 88480 -8.8030e+001 -2.5848e+002 -4.3770e+001 45856 88353,88405,88379
 4.3000e+000 88457 -2.0266e+002 -5.4692e+002  4.5464e+001 45856 88275,88327,88301
 4.3000e+000 88950 -3.5943e+001 -1.2684e+002 -1.7356e+000 45658 88973,88754,88728
 4.3000e+000 88927 -3.5105e+001 -1.3220e+002 -2.3846e+000 45658 88973,88728,88676
 4.3000e+000 88904 -3.7561e+001 -1.6039e+002  4.8812e+001 45658 88676,88832,88806
 4.3000e+000 88881 -6.1131e+001 -1.8226e+002  1.6903e+001 45658 88676,88728,88702
 4.3000e+000 88858 -4.6937e+001 -1.1948e+002 -2.2437e+001 45658 88754,88806,88780
 4.3000e+000 88999 -3.7599e+001 -1.3144e+002 -1.1641e+000 45658 88806,88754,88973
 4.3000e+000 89022 -3.5193e+001 -1.3458e+002 -2.1085e+000 45658 88806,88973,88676
 4.3000e+000 89351 -6.3702e+001 -2.1533e+002 -9.8947e+000 45254 89152,89230,89204
 4.3000e+000 89328 -5.8760e+001 -2.1328e+002 -9.9822e+000 45254 89152,89256,89230
 4.3000e+000 89305 -1.9713e+001 -2.2590e+002 -2.7513e+001 45254 89126,89256,89152
 4.3000e+000 89282  2.8758e+000 -2.1819e+002 -3.8241e+001 45254 89152,89204,89178
 4.3000e+000 89523 -2.7216e+001 -1.5735e+002 -2.0734e-001 45006 89422,89474,89448
 4.3000e+000 89500 -2.0356e+001 -1.5444e+002  5.2767e+000 45006 89396,89474,89422
 4.3000e+000 89673 -1.7805e+002 -3.1128e+002  2.6867e+001 44495 89572,89624,89598
 4.3000e+000 89650 -1.8197e+002 -3.1016e+002  1.7132e+001 44495 89546,89624,89572
 4.3000e+000 90104 -1.7994e+001 -2.2904e+002 -1.1957e+001 44005 90199,90127,89937
 4.3000e+000 90081 -4.6285e+001 -2.2612e+002  3.4595e+000 44005 90271,90127,89859
 4.3000e+000 90058 -3.1955e+000 -2.3702e+002 -1.2965e+001 44005 90199,89937,89885
 4.3000e+000 90035 -6.3915e+001 -2.1453e+002  1.3506e+001 44005 90271,89859,89807
 4.3000e+000 90012 -3.3506e+001 -2.6117e+002 -3.0906e+001 44005 89885,89937,89911
 4.3000e+000 89989 -2.0857e+001 -2.3256e+002  4.0859e+001 44005 89807,89859,89833
 4.3000e+000 90153 -4.7695e+001 -2.3933e+002 -6.2636e+000 44005 89963,89937,90127
 4.3000e+000 90176 -5.1945e+001 -2.5753e+002  5.9805e+000 44005 89963,90127,89781
 4.3000e+000 90225 -5.1115e+001 -2.2934e+002 -3.7881e+000 44005 89859,90127,90199
 4.3000e+000 90248 -2.1764e+001 -2.2833e+002  8.3008e-001 44005 89859,90199,89885
 4.3000e+000 90297 -7.0066e+001 -2.4035e+002 -2.5160e+000 44005 89781,90127,90271
 4.3000e+000 90320 -8.0313e+001 -2.2488e+002  9.0720e+000 44005 89781,90271,89807
 4.3000e+000 90470 -3.8966e+001 -2.4834e+002 -7.9474e+000 43601 90493,90369,90343
 4.3000e+000 90447 -6.6732e+001 -1.9975e+002  1.5716e+001 43601 90493,90343,90421
 4.3000e+000 90519 -8.1876e+001 -3.3866e+002 -3.9465e+001 43601 90395,90369,90493
 4.3000e+000 90542 -6.4401e+001 -2.3544e+002 -9.3381e+000 43601 90395,90493,90421
 4.3000e+000 90922 -8.7223e+001 -2.6185e+002  1.7748e+001 43154 90945,90700,90674
 4.3000e+000 90899 -7.7194e+001 -2.6668e+002 -2.9549e+001 43154 90945,90674,90648
 4.3000e+000 90876 -9.2980e+001 -2.1253e+002 -1.8692e+001 43154 90648,90778,90752
 4.3000e+000 90853 -4.8652e+001 -4.3360e+002  1.2311e+001 43154 90700,90752,90726
 4.3000e+000 90830 -5.7157e+001 -2.1500e+002 -6.1251e+000 43154 90648,90804,90778
 4.3000e+000 90971 -1.0051e+002 -3.0311e+002  2.6007e+001 43154 90752,90700,90945
 4.3000e+000 90994 -8.7164e+001 -2.9156e+002 -2.0059e+001 43154 90752,90945,90648
 4.3000e+000 91451 -2.2011e+001 -2.0357e+002 -3.6153e+001 42650 91203,91255,91229
 4.3000e+000 91428  2.1632e+001 -1.8448e+002 -1.7783e+001 42650 91203,91333,91255
 4.3000e+000 91405 -1.6588e+000 -2.9774e+002 -5.0813e+001 42650 91177,91333,91203
 4.3000e+000 91382 -9.2144e+001 -3.1754e+002  4.2072e+001 42650 91255,91333,91281
 4.3000e+000 91359 -2.1501e+001 -2.7206e+002  2.0454e+001 42650 91281,91333,91307
 4.3000e+000 91721 -1.3422e+002 -3.0437e+002  2.0891e+001 42288 91496,91600,91522
 4.3000e+000 91698 -7.2115e+001 -1.7687e+002 -7.5852e+000 42288 91496,91626,91600
 4.3000e+000 91675 -8.5286e+001 -2.7726e+002  2.3995e+001 42288 91522,91574,91548
 4.3000e+000 91652 -6.9915e+001 -2.7946e+002  2.1672e+001 42288 91522,91600,91574
 4.3000e+000 92199 -1.9895e+002 -3.2983e+002 -8.0201e+000 41898 92222,91983,91879
 4.3000e+000 92176 -2.0281e+002 -3.5882e+002 -1.9486e+001 41898 92294,92222,91879
 4.3000e+000 92153 -2.1272e+002 -3.5379e+002 -2.6945e+001 41898 92294,91879,91853
 4.3000e+000 92130 -1.7508e+002 -2.0542e+002  2.1446e+001 41898 91879,91957,91931
 4.3000e+000 92107 -1.8026e+002 -3.2271e+002 -6.9389e-001 41898 91879,91983,91957
 4.3000e+000 92084 -1.8475e+002 -1.8456e+002  3.6772e+001 41898 91879,91931,91905
 4.3000e+000 92061 -1.8965e+002 -3.2010e+002 -2.1818e+001 41898 91827,92035,91853
 4.3000e+000 92248 -1.9603e+002 -3.6559e+002 -5.2536e-001 41898 92009,91983,92222
 4.3000e+000 92271 -1.9285e+002 -3.7311e+002 -2.6993e+001 41898 92009,92222,92035
 4.3000e+000 92320 -1.8590e+002 -3.5115e+002 -2.1558e+001 41898 92035,92222,92294
 4.3000e+000 92343 -1.9332e+002 -3.4513e+002 -2.8643e+001 41898 92035,92294,91853
 4.3000e+000 92770 -6.0529e+001 -2.8372e+002 -1.9538e+001 41437 92865,92793,92525
 4.3000e+000 92747 -8.8041e+001 -3.3624e+002 -2.9667e+001 41437 92793,92473,92629
 4.3000e+000 92724 -2.8889e+001 -2.8827e+002 -3.6442e+001 41437 92865,92525,92499
 4.3000e+000 92701 -9.8108e+001 -2.6098e+002 -4.5302e+001 41437 92525,92603,92577
 4.3000e+000 92678  6.2044e-001 -3.2364e+002 -2.5849e+001 41437 92447,92629,92473
 4.3000e+000 92655 -1.5264e+002 -2.3420e+002 -2.6882e+001 41437 92525,92577,92551
 4.3000e+000 92819 -7.1886e+001 -3.0965e+002 -4.5008e+001 41437 92603,92525,92793
 4.3000e+000 92842 -1.3766e+002 -3.3189e+002 -8.4282e+001 41437 92603,92793,92629
 4.3000e+000 92891  3.9460e+000 -3.1558e+002 -2.8232e+001 41437 92473,92793,92865
 4.3000e+000 92914  5.1581e+001 -2.9772e+002 -5.3738e+001 41437 92473,92865,92499
 4.3000e+000 93243 -4.6908e+001 -4.3254e+002  1.5917e+002 41097 93044,93096,93070
 4.3000e+000 93220 -8.4028e+001 -3.8065e+002  8.4616e+001 41097 93044,93122,93096
 4.3000e+000 93197  1.7394e+001 -2.5344e+002  3.4174e+001 41097 93044,93148,93122
 4.3000e+000 93174 -7.3787e+001 -2.0485e+002  7.2464e+001 41097 93018,93148,93044
 4.3000e+000 93393 -8.1948e+000 -3.2309e+002  2.2530e+001 40643 93416,93292,93344
 4.3000e+000 93370 -1.4420e+001 -3.0198e+002  2.4954e+001 40643 93266,93344,93292
 4.3000e+000 93442 -1.2365e+001 -3.1973e+002  2.9995e+001 40643 93318,93292,93416
 4.3000e+000 93901 -9.6665e+001 -2.9528e+002 -1.9895e+001 40132 93924,93731,93705
 4.3000e+000 93878 -1.0168e+002 -3.0399e+002 -2.2300e+001 40132 93996,93924,93705
 4.3000e+000 93855 -1.2031e+002 -3.4965e+002 -7.8963e+000 40132 93996,93705,93653
 4.3000e+000 93832 -5.0337e+001 -3.3710e+002 -1.9319e+001 40132 93653,93705,93679
 4.3000e+000 93809 -9.7493e+001 -2.9341e+002  3.7580e+000 40132 93627,93783,93757
 4.3000e+000 93950 -9.2793e+001 -3.1308e+002 -2.3800e+001 40132 93757,93731,93924
 4.3000e+000 93973 -1.0513e+002 -2.7802e+002 -5.5395e+000 40132 93757,93924,93627
 4.3000e+000 94022 -1.3496e+002 -3.3261e+002  1.0659e+001 40132 93627,93924,93996
 4.3000e+000 94045 -1.2554e+002 -3.4850e+002  2.1233e+001 40132 93627,93996,93653
 4.3000e+000 94423 -2.0069e+001 -3.4251e+002 -4.7315e+001 39514 94149,94227,94175
 4.3000e+000 94400 -3.5249e+001 -3.2389e+002  3.7235e+001 39514 94149,94305,94227
 4.3000e+000 94377  9.8106e+000 -4.0489e+002 -4.5350e+001 39514 94175,94227,94201
 4.3000e+000 94354 -1.0056e+002 -3.0089e+002  1.6463e+001 39514 94227,94305,94279
 4.3000e+000 94331 -4.2487e+001 -2.7391e+002  2.9900e+001 39514 94227,94279,94253
 4.3000e+000 94573 -2.4352e+001 -1.9440e+002 -4.0513e+001 38822 94596,94498,94472
 4.3000e+000 94550  4.1766e+001 -2.1152e+002  4.6299e+001 38822 94596,94472,94446
 4.3000e+000 94622 -1.0093e+002 -2.2725e+002 -3.9514e+001 38822 94524,94498,94596
 4.3000e+000 94645 -8.6853e+001 -2.6845e+002  5.6498e+001 38822 94524,94596,94446
 4.3000e+000 95025 -1.5289e+001 -2.5492e+002 -1.7828e+001 38418 95048,94829,94777
 4.3000e+000 95002 -2.5086e+001 -2.7061e+002 -3.2300e+001 38418 95120,95048,94777
 4.3000e+000 94979 -1.8761e+001 -2.6595e+002 -2.9953e+001 38418 95120,94777,94751
 4.3000e+000 94956 -1.6847e+001 -2.3752e+002 -3.5294e+001 38418 95192,94881,94855
 4.3000e+000 94933 -7.8731e+001 -2.2707e+002 -1.0106e+001 38418 94777,94829,94803
 4.3000e+000 95074 -4.4949e+001 -3.4197e+002 -6.8870e+000 38418 94855,94829,95048
 4.3000e+000 95097 -2.3285e+001 -2.6684e+002 -3.9650e+001 38418 95192,94855,95048
 4.3000e+000 95146 -4.7682e+001 -2.5499e+002 -2.5826e+001 38418 94907,95048,95120
 4.3000e+000 95169 -2.8942e+001 -2.3980e+002 -1.8960e+001 38418 94907,95120,94751
 4.3000e+000 95218 -2.3855e+001 -1.8484e+002 -3.0824e+001 38418 94907,94881,95192
 4.3000e+000 95241 -3.9287e+001 -2.3071e+002 -2.7743e+001 38418 94907,95192,95048
 4.3000e+000 95511 -8.6468e+001 -2.7467e+002  1.2895e+001 38049 95312,95390,95364
 4.3000e+000 95488 -5.9256e+001 -2.6353e+002  1.3592e+001 38049 95312,95416,95390
 4.3000e+000 95465 -3.0196e+001 -2.6344e+002 -1.6292e+001 38049 95312,95364,95338
 4.3000e+000 95442 -2.4664e+001 -2.4605e+002  2.4019e+001 38049 95286,95416,95312
 4.3000e+000 95808 -8.1788e+001 -3.1774e+002 -6.6163e+000 37437 95831,95586,95560
 4.3000e+000 95785  3.1710e+001 -3.3768e+002 -1.5121e+001 37437 95831,95560,95534
 4.3000e+000 95762 -1.6577e+002 -3.0723e+002  7.4399e+000 37437 95586,95664,95638
 4.3000e+000 95739 -2.7486e+001 -1.5562e+002 -8.3799e+001 37437 95534,95690,95664
 4.3000e+000 95716 -1.5079e+002 -2.2260e+002  8.9680e+000 37437 95586,95638,95612
 4.3000e+000 95857 -1.5456e+002 -3.1193e+002  3.8878e+001 37437 95664,95586,95831
 4.3000e+000 95880 -3.4055e+001 -3.2845e+002  3.1863e+001 37437 95664,95831,95534
 4.3000e+000 96390 -1.1034e+002 -2.4134e+002 -1.2965e+001 36883 96413,96145,96093
 4.3000e+000 96367 -9.0818e+001 -2.3156e+002 -7.1017e+000 36883 96413,96093,96067
 4.3000e+000 96344 -6.5902e+001 -2.8111e+002  1.3265e+000 36883 96067,96249,96171
 4.3000e+000 96321 -9.7096e+001 -2.8077e+002 -3.0334e+000 36883 96093,96145,96119
 4.3000e+000 96298 -1.3710e+002 -4.6140e+002  4.3309e+001 36883 96171,96249,96197
 4.3000e+000 96275 -4.0590e+001 -3.6730e+002 -7.0742e+000 36883 96197,96249,96223
 4.3000e+000 96439 -1.0468e+002 -2.3380e+002  4.4856e+000 36883 96171,96145,96413
 4.3000e+000 96462 -8.8616e+001 -2.2987e+002  8.7790e+000 36883 96171,96413,96067
 4.3000e+000 96781 -8.7561e+001 -2.7379e+002 -3.9036e+001 36215 96559,96663,96637
 4.3000e+000 96758 -1.0982e+002 -3.0029e+002 -5.0029e+001 36215 96507,96663,96559
 4.3000e+000 96735 -1.0804e+002 -2.0384e+002  1.9989e+001 36215 96585,96637,96611
 4.3000e+000 96712 -2.2609e+002 -3.1658e+002 -3.3779e+001 36215 96559,96637,96585
 4.3000e+000 96689 -4.3199e+001 -3.5429e+002 -1.0914e+001 36215 96507,96559,96533
 4.3000e+000 97161  5.4286e+000 -1.4921e+002 -8.0281e+000 35818 97184,96965,96939
 4.3000e+000 97138 -1.3610e+001 -1.7862e+002 -1.6475e+001 35818 97184,96939,96887
 4.3000e+000 97115 -5.2375e+000 -1.8768e+002  3.4927e+001 35818 96965,97043,97017
 4.3000e+000 97092 -6.7331e+000 -1.7345e+002 -2.0239e+001 35818 96887,96939,96913
 4.3000e+000 97069 -9.8145e+001 -1.9086e+002  2.1890e+001 35818 96965,97017,96991
 4.3000e+000 97210  2.5691e+001 -1.7427e+002  8.1324e+000 35818 97043,96965,97184
 4.3000e+000 97233  1.1110e+001 -1.9536e+002  1.5718e+000 35818 97043,97184,96887
 4.3000e+000 97739 -8.9126e+001 -2.7503e+002 -6.5223e+001 35214 97416,97468,97442
 4.3000e+000 97716 -1.0586e+002 -1.9960e+002 -2.0916e+001 35214 97416,97598,97468
 4.3000e+000 97693 -9.5136e+001 -1.8991e+002 -8.3482e+000 35214 97762,97520,97468
 4.3000e+000 97670 -9.7312e+001 -1.9472e+002 -1.6878e+001 35214 97762,97468,97598
 4.3000e+000 97647 -7.2975e+001 -1.8869e+002 -2.5701e+001 35214 97546,97598,97572
 4.3000e+000 97624 -5.7495e+001 -1.9803e+002 -1.1190e+001 35214 97468,97520,97494
 4.3000e+000 97788 -9.8562e+001 -1.9959e+002 -1.1381e+001 35214 97546,97520,97762
 4.3000e+000 97811 -9.8867e+001 -2.0346e+002 -1.9373e+001 35214 97546,97762,97598
 4.3000e+000 98189 -1.5204e+001 -1.4633e+002 -1.3460e+001 34760 98356,98212,97967
 4.3000e+000 98166 -3.3846e+001 -1.7898e+002 -2.8391e+001 34760 98284,98212,97941
 4.3000e+000 98143 -6.4889e+001 -1.6146e+002 -1.4444e+001 34760 98284,97941,97915
 4.3000e+000 98120 -1.9086e+001 -1.9969e+002 -6.0494e+000 34760 98484,97993,97967
 4.3000e+000 98097 -1.5876e+001 -1.6686e+002 -5.1321e+000 34760 98556,98045,98019
 4.3000e+000 98238 -2.8838e+001 -1.8707e+002 -6.4956e+000 34760 98484,97967,98212
 4.3000e+000 98261 -6.8943e-001 -1.7247e+002 -1.2943e+001 34760 98556,98019,98212
 4.3000e+000 98310 -7.5476e+000 -1.4714e+002 -4.0667e+001 34760 98071,98212,98284
 4.3000e+000 98333 -2.7848e+001 -1.0384e+002 -3.2934e+001 34760 98071,98284,97915
 4.3000e+000 98382 -9.0267e+001 -1.9842e+002 -3.6815e+001 34760 97941,98212,98356
 4.3000e+000 98510 -3.6843e+000 -1.8886e+002 -1.1510e+001 34760 98019,97993,98484
 4.3000e+000 98533 -1.9337e+001 -1.8107e+002 -1.0610e+001 34760 98019,98484,98212
 4.3000e+000 98582  3.4830e+000 -1.5860e+002 -1.9875e+000 34760 98071,98045,98556
 4.3000e+000 98605  9.9143e+000 -1.6969e+002 -1.1294e+001 34760 98071,98556,98212
 4.3000e+000 99032 -1.0996e+002 -2.5333e+002  3.7647e+001 34156 98735,98891,98839
 4.3000e+000 99009 -9.0353e+001 -2.6171e+002  1.5932e+001 34156 98709,98891,98735
 4.3000e+000 98986 -3.0877e+001 -2.2395e+002  3.4882e+001 34156 98735,98813,98787
 4.3000e+000 98963 -3.7496e+001 -2.4538e+002  2.9401e+001 34156 98735,98839,98813
 4.3000e+000 98940  1.5518e+001 -3.3539e+002  3.9397e+001 34156 98735,98787,98761
 4.3000e+000 98917 -9.6879e+001 -2.2007e+002  2.2983e+001 34156 98839,98891,98865
 4.3000e+000 99231 -3.0902e+001 -1.3290e+002  1.2295e+001 33766 99055,99133,99107
 4.3000e+000 99208 -5.6566e+001 -1.7775e+002  2.4892e+001 33766 99055,99159,99133
 4.3000e+000 99185 -1.3099e+001 -1.5246e+002  3.1287e+001 33766 99055,99107,99081
 4.3000e+000 99818 -5.9215e+001 -1.8441e+002  3.8193e+000 33248 99521,99651,99573
 4.3000e+000 99795 -6.1102e+001 -1.7736e+002  1.7536e+001 33248 99521,99677,99651
 4.3000e+000 99772 -9.0933e+001 -2.2269e+002 -1.2027e+001 33248 99573,99651,99599
 4.3000e+000 99749 -6.2536e+001 -2.2068e+002  1.9822e+001 33248 99495,99677,99521
 4.3000e+000 99726 -3.8533e+001 -1.8777e+002 -4.6079e+001 33248 99599,99651,99625
 4.3000e+000 99703 -7.6769e+001 -2.2033e+002  1.3075e+001 33248 99521,99573,99547
 4.3000e+000 100196 -6.6137e+001 -2.0561e+002 -3.9349e+001 32794 100219,99948,99922
 4.3000e+000 100173 -7.8029e+001 -2.3098e+002 -1.9288e+001 32794 100219,99922,100052
 4.3000e+000 100150 -1.0666e+002 -2.1172e+002  1.2744e+001 32794 99974,100052,100026
 4.3000e+000 100127 -9.6097e+001 -1.8529e+002 -3.1623e+001 32794 99922,100078,100052
 4.3000e+000 100104 -1.1047e+002 -2.5545e+002  4.7616e+001 32794 99974,100026,100000
 4.3000e+000 100245 -8.8777e+001 -2.0056e+002 -1.4524e+001 32794 99974,99948,100219
 4.3000e+000 100268 -9.6876e+001 -2.3475e+002  5.6340e+000 32794 99974,100219,100052
 4.3000e+000 100418 -1.5535e+001 -1.9468e+002 -2.0701e+001 32504 100571,100343,100317
 4.3000e+000 100395 -7.9069e+001 -2.2352e+002  1.9311e+001 32504 100571,100317,100441
 4.3000e+000 100467  5.2092e+001 -1.0973e+002 -5.7912e+001 32504 100291,100369,100441
 4.3000e+000 100597  1.2341e+001 -1.6451e+002 -7.0292e+001 32504 100369,100343,100571
 4.3000e+000 100620 -1.6208e+001 -1.5390e+002 -3.5802e+001 32504 100369,100571,100441
 4.3000e+000 101020 -2.6836e+001 -1.6262e+002  6.4746e+000 32142 100772,100902,100876
 4.3000e+000 100997 -1.8007e+001 -1.4550e+002  1.0053e+001 32142 100746,100902,100772
 4.3000e+000 100974 -1.8039e+000 -1.7829e+002  2.1776e+001 32142 101043,100824,100798
 4.3000e+000 100951 -3.0163e+001 -1.9134e+002  1.6381e+001 32142 101043,100798,100772
 4.3000e+000 100928 -1.0265e+002 -2.2429e+002 -5.4960e+001 32142 101115,100876,100850
 4.3000e+000 101069  3.2945e+001 -1.9432e+002 -1.9967e+001 32142 100850,100824,101043
 4.3000e+000 101092 -5.0850e+001 -2.3021e+002 -2.6391e+001 32142 101115,100850,101043
 4.3000e+000 101141 -3.9117e+001 -1.8948e+002 -1.9512e+001 32142 100772,100876,101115
 4.3000e+000 101164  6.1669e-001 -1.9375e+002  1.1750e+001 32142 100772,101115,101043
 4.3000e+000 101719 -1.0874e+002 -2.6003e+002  3.4982e+001 31538 101742,101477,101399
 4.3000e+000 101696 -1.3334e+002 -3.1647e+002  8.0392e+000 31538 101814,101742,101399
 4.3000e+000 101673 -1.5318e+002 -2.7251e+002 -2.1863e+001 31538 101814,101399,101373
 4.3000e+000 101650 -1.0747e+002 -1.8734e+002  2.2724e+001 31538 101425,101477,101451
 4.3000e+000 101627 -1.0179e+002 -2.1906e+002  5.8658e+000 31538 101399,101477,101425
 4.3000e+000 101604 -6.7161e+001 -3.0238e+002  6.4305e+001 31538 101477,101529,101503
 4.3000e+000 101581 -4.1075e+001 -1.8647e+002 -1.8089e+001 31538 101347,101555,101373
 4.3000e+000 101768 -1.2503e+002 -3.1953e+002  3.4897e+001 31538 101529,101477,101742
 4.3000e+000 101791 -1.0692e+002 -3.2734e+002 -1.0715e+001 31538 101529,101742,101555
 4.3000e+000 101840 -8.3371e+001 -2.7166e+002 -1.2466e+001 31538 101555,101742,101814
 4.3000e+000 101863 -1.1211e+002 -2.3588e+002 -3.9822e+001 31538 101555,101814,101373
 4.3000e+000 102111 -1.6088e+002 -4.1042e+002  5.1973e+001 31112 101886,101990,101912
 4.3000e+000 102088 -6.1477e+001 -2.4756e+002  3.1475e+000 31112 101886,102016,101990
 4.3000e+000 102065 -7.5011e+001 -4.0042e+002  8.3199e+001 31112 101912,101990,101964
 4.3000e+000 102042 -1.1947e+002 -5.0619e+002  9.7993e+001 31112 101912,101964,101938
 4.3000e+000 102408 -3.7522e+001 -2.5091e+002  2.0019e+001 30658 102431,102186,102160
 4.3000e+000 102385 -8.2878e+001 -2.4840e+002  6.5376e-002 30658 102431,102160,102264
 4.3000e+000 102362 -7.9821e+001 -2.7117e+002  4.0448e+000 30658 102186,102238,102212
 4.3000e+000 102339 -8.9814e+001 -2.6344e+002 -1.5871e+001 30658 102134,102264,102160
 4.3000e+000 102316 -6.2521e+001 -2.2105e+002 -7.2624e+001 30658 102134,102290,102264
 4.3000e+000 102457 -7.5673e+001 -2.6421e+002  1.0385e+001 30658 102238,102186,102431
 4.3000e+000 102480 -1.2414e+002 -2.6602e+002 -1.1422e+001 30658 102238,102431,102264
 4.3000e+000 102681 -3.1791e+001 -3.0273e+002  4.6159e+001 30004 102704,102557,102505
 4.3000e+000 102658 -4.0907e+001 -3.0310e+002  4.6307e+001 30004 102704,102505,102609
 4.3000e+000 102635  6.0331e+000 -2.6083e+002  1.2220e+001 30004 102505,102557,102531
 4.3000e+000 102730 -3.8951e+001 -2.9517e+002  4.1338e+001 30004 102583,102557,102704
 4.3000e+000 102753 -5.8557e+001 -3.0235e+002  4.2290e+001 30004 102583,102704,102609
 4.3000e+000 103003 -3.4185e+001 -2.4366e+002 -1.9442e+001 29564 103026,102804,102778
 4.3000e+000 102980 -4.3456e+001 -2.9009e+002 -3.0202e+001 29564 103026,102778,102908
 4.3000e+000 102957 -4.5383e+001 -2.4765e+002 -3.6383e+000 29564 102856,102908,102882
 4.3000e+000 102934 -6.0970e+001 -2.1957e+002  1.5076e+001 29564 102804,102856,102830
 4.3000e+000 103052 -3.0128e+001 -2.2055e+002  1.2032e+001 29564 102856,102804,103026
 4.3000e+000 103075 -4.3250e+001 -2.5828e+002 -3.0614e+000 29564 102856,103026,102908
 4.3000e+000 103634 -1.0934e+002 -2.7202e+002 -3.3183e+001 29160 103657,103418,103392
 4.3000e+000 103611 -1.0456e+002 -2.6347e+002 -1.6821e+001 29160 103657,103392,103314
 4.3000e+000 103588 -7.5380e+001 -2.2958e+002 -2.9220e+001 29160 103314,103392,103366
 4.3000e+000 103565 -6.8030e+001 -2.4331e+002 -3.2531e+001 29160 103314,103366,103340
 4.3000e+000 103542 -1.3224e+002 -2.6112e+002 -2.8957e+001 29160 103262,103444,103314
 4.3000e+000 103519 -1.5673e+002 -3.1099e+002 -3.9907e+001 29160 103262,103314,103288
 4.3000e+000 103496 -1.0148e+002 -2.8507e+002 -1.1174e+001 29160 103262,103470,103444
 4.3000e+000 103683 -1.3396e+002 -2.9049e+002 -4.9776e+001 29160 103444,103418,103657
 4.3000e+000 103706 -1.1470e+002 -2.6279e+002 -3.0984e+001 29160 103444,103657,103314
 4.3000e+000 104035 -7.1628e+001 -2.6174e+002  2.4873e+001 28770 103836,103914,103862
 4.3000e+000 104012 -6.9804e+001 -2.5051e+002  3.2752e+001 28770 103810,103914,103836
 4.3000e+000 103989  1.6697e+001 -2.2790e+002  4.1375e+001 28770 103810,103940,103914
 4.3000e+000 103966 -1.5187e+001 -2.0898e+002  5.0077e+001 28770 103862,103914,103888
 4.3000e+000 104185 -2.7125e+001 -2.4068e+002  4.5731e+001 28366 104208,104110,104084
 4.3000e+000 104162 -2.4220e+001 -2.0481e+002  3.6148e+001 28366 104280,104208,104084
 4.3000e+000 104234  4.8643e+001 -2.3833e+002  2.9705e+001 28366 104610,104208,104136
 4.3000e+000 104257 -4.5181e+001 -2.2716e+002  2.9042e+001 28366 104538,104410,104208
 4.3000e+000 104306 -7.5259e+001 -2.2967e+002  2.8264e+001 28366 104538,104208,104280
 4.3000e+000 104436 -1.7281e+001 -2.4515e+002  4.2616e+000 28366 104136,104208,104410
 4.3000e+000 104564 -7.6635e+001 -2.2601e+002  1.3169e+001 28366 104058,104410,104538
 4.3000e+000 104587 -9.5260e+001 -2.2161e+002  1.0340e+001 28366 104058,104538,104280
 4.3000e+000 104636  3.6310e+001 -2.4230e+002  3.5784e+001 28366 104110,104208,104610
 4.3000e+000 105349 -5.9224e+001 -2.1897e+002 -2.3380e+001 27976 105516,105372,105107
 4.3000e+000 105326 -9.0516e+001 -2.1813e+002  5.0652e+000 27976 105588,105372,105055
 4.3000e+000 105303 -9.6762e+001 -2.1283e+002 -2.0650e+001 27976 105444,105159,105133
 4.3000e+000 105280 -3.3956e+001 -2.2802e+002 -1.3864e+001 27976 105516,105107,105081
 4.3000e+000 105257 -8.3299e+001 -2.4212e+002  2.0983e+001 27976 105588,105055,105029
 4.3000e+000 105234 -4.6200e+001 -1.8695e+002  1.8934e+000 27976 105003,105185,105159
 4.3000e+000 105211 -6.4397e+001 -1.5201e+002  2.6276e+001 27976 104977,105185,105003
 4.3000e+000 105398 -4.7253e+001 -2.1784e+002 -2.9692e+001 27976 105133,105107,105372
 4.3000e+000 105421 -7.8684e+001 -2.2619e+002 -1.2771e+001 27976 105444,105133,105372
 4.3000e+000 105470 -7.9657e+001 -1.8964e+002 -1.1541e+001 27976 105003,105159,105444
 4.3000e+000 105493 -6.7109e+001 -2.0543e+002 -7.6346e+000 27976 105003,105444,105372
 4.3000e+000 105542 -4.2247e+001 -2.1546e+002 -2.8476e+000 27976 105055,105372,105516
 4.3000e+000 105565 -4.9213e+000 -2.1990e+002  4.1742e+000 27976 105055,105516,105081
 4.3000e+000 105614 -1.0539e+002 -2.4177e+002  1.6508e+001 27976 105003,105372,105588
 4.3000e+000 105637 -1.0207e+002 -2.6553e+002  3.3844e+001 27976 105003,105588,105029
 4.3000e+000 106143 -1.0360e+002 -3.2870e+002  1.9393e+001 27664 106166,105846,105820
 4.3000e+000 106120 -7.2535e+001 -2.5243e+002  8.1598e+000 27664 106310,106166,105820
 4.3000e+000 106097 -3.5301e+001 -2.9191e+002 -6.1640e+001 27664 106382,106238,105950
 4.3000e+000 106074 -4.8085e+001 -2.4767e+002  8.7128e+000 27664 106310,105820,106002
 4.3000e+000 106051  1.9888e+001 -2.6387e+002 -5.1984e+001 27664 106382,105950,105924
 4.3000e+000 106028 -1.8830e+001 -4.5804e+002 -1.9774e+001 27664 105846,105898,105872
 4.3000e+000 106192 -9.2805e+001 -3.6536e+002 -4.7294e+001 27664 105898,105846,106166
 4.3000e+000 106215 -5.7356e+001 -3.0470e+002 -2.0090e+001 27664 106238,105898,106166
 4.3000e+000 106264 -1.6496e+002 -3.2689e+002 -7.9084e+001 27664 105976,105950,106238
 4.3000e+000 106287 -5.8072e+001 -3.0362e+002 -2.0339e+001 27664 105976,106238,106166
 4.3000e+000 106336 -4.7969e+001 -2.6612e+002  3.0583e+001 27664 105976,106166,106310
 4.3000e+000 106359 -1.9905e+001 -2.5945e+002  3.0190e+001 27664 105976,106310,106002
 4.3000e+000 106408 -6.1699e+001 -2.5029e+002 -2.8529e-002 27664 105898,106238,106382
 4.3000e+000 106431 -2.7183e+001 -2.3440e+002  4.6031e+000 27664 105898,106382,105924
 4.3000e+000 106728 -2.7121e+001 -1.7738e+002  3.2066e+001 27153 106751,106506,106454
 4.3000e+000 106705 -2.6044e+001 -1.7958e+002  2.6905e+001 27153 106751,106454,106610
 4.3000e+000 106682 -4.4882e+001 -1.3074e+002  4.4343e+000 27153 106454,106506,106480
 4.3000e+000 106659 -4.0091e+001 -1.7305e+002  1.8337e+001 27153 106532,106610,106584
 4.3000e+000 106636 -7.0823e+001 -1.0393e+002  3.6369e+001 27153 106532,106584,106558
 4.3000e+000 106777 -2.0379e+001 -1.7519e+002  3.3441e+001 27153 106532,106506,106751
 4.3000e+000 106800 -2.0788e+001 -1.7791e+002  2.7373e+001 27153 106532,106751,106610
 4.3000e+000 107180 -3.2712e+001 -2.1064e+002  1.4819e+001 26642 107203,106984,106958
 4.3000e+000 107157 -1.0868e+002 -2.4534e+002  4.7526e+000 26642 107203,106958,106932
 4.3000e+000 107134 -1.2415e+002 -2.6765e+002 -4.0973e+001 26642 107275,107036,107010
 4.3000e+000 107111 -8.0042e+001 -2.6961e+002 -4.7880e+001 26642 106932,107062,107036
 4.3000e+000 107088 -3.1781e+000 -2.1243e+002  2.5254e+001 26642 106906,107062,106932
 4.3000e+000 107229  3.4418e+000 -1.9917e+002 -6.5076e+001 26642 107010,106984,107203
 4.3000e+000 107252 -1.1079e+002 -2.4942e+002 -4.8050e+001 26642 107275,107010,107203
 4.3000e+000 107301 -1.0820e+002 -2.6535e+002 -5.0894e+001 26642 106932,107036,107275
 4.3000e+000 107324 -1.0387e+002 -2.6561e+002 -5.3032e+001 26642 106932,107275,107203
 4.3000e+000 107675 -5.7474e+001 -1.6306e+002  1.5756e+001 26045 107450,107554,107476
 4.3000e+000 107652 -4.3994e+001 -1.4134e+002  3.6222e+000 26045 107450,107580,107554
 4.3000e+000 107629 -1.7283e+001 -1.5058e+002  6.8204e+000 26045 107476,107528,107502
 4.3000e+000 107606 -1.5392e+001 -1.5383e+002  7.9068e+000 26045 107476,107554,107528
 4.3000e+000 107874 -4.1425e+001 -2.4517e+002  6.1506e+001 25641 107750,107802,107776
 4.3000e+000 107851 -5.0721e+001 -1.6757e+002  3.3281e+001 25641 107724,107802,107750
 4.3000e+000 107828 -4.7842e+001 -1.6971e+002  2.9173e+001 25641 107698,107802,107724
 4.3000e+000 108431 -2.2291e+001 -2.6249e+002  4.6348e+001 25023 108526,108267,108241
 4.3000e+000 108408 -3.0427e-001 -2.5138e+002  8.4917e+000 25023 108059,108267,108085
 4.3000e+000 108385 -3.5626e+001 -2.6540e+002  4.7787e+001 25023 108454,108163,108111
 4.3000e+000 108362 -1.1805e+002 -2.6927e+002  7.7538e+001 25023 108454,108111,108085
 4.3000e+000 108339 -9.4982e+001 -3.5219e+002  8.4247e+001 25023 108111,108163,108137
 4.3000e+000 108316 -6.1608e+001 -1.9220e+002 -1.0991e+001 25023 108163,108241,108215
 4.3000e+000 108293  2.7388e+001 -1.5292e+002 -3.3465e+000 25023 108163,108215,108189
 4.3000e+000 108480 -8.2345e+000 -2.3864e+002  4.3102e+000 25023 108241,108163,108454
 4.3000e+000 108503 -3.9529e+001 -2.5449e+002  4.4377e+001 25023 108526,108241,108454
 4.3000e+000 108552 -4.2367e+001 -2.6639e+002  3.6961e+001 25023 108085,108267,108526
 4.3000e+000 108575 -6.0687e+001 -2.5966e+002  3.4533e+001 25023 108085,108526,108454
 4.3000e+000 108823 -6.6832e-001 -1.9386e+002  2.7244e+001 24461 108624,108728,108650
 4.3000e+000 108800 -2.9877e+001 -3.9677e+002 -2.6773e+001 24461 108598,108728,108624
 4.3000e+000 108777  6.9686e-001 -2.5969e+002  2.0838e+001 24461 108650,108728,108676
 4.3000e+000 108754 -1.1482e+002 -7.3628e+002  6.2395e+001 24461 108676,108728,108702
 4.3000e+000 109022 -6.9491e+001 -1.9830e+002  2.7267e+001 24121 108872,108924,108898
 4.3000e+000 108999 -4.8699e+001 -1.9238e+002  3.1638e+001 24121 108846,108924,108872
 4.3000e+000 108976 -8.1330e+001 -2.0663e+002  3.3594e+001 24121 108846,108950,108924
 4.3000e+000 109483 -8.1160e+001 -2.7014e+002 -2.5266e+001 23717 109209,109339,109235
 4.3000e+000 109460 -3.0560e+001 -3.0692e+002 -6.1716e+001 23717 109209,109365,109339
 4.3000e+000 109437 -1.6426e+000 -3.4633e+002 -2.0820e+001 23717 109287,109339,109313
 4.3000e+000 109414 -1.5594e+002 -3.4475e+002  2.1365e+001 23717 109235,109339,109287
 4.3000e+000 109391  3.6747e-001 -3.9255e+002  1.4360e+002 23717 109235,109287,109261
 4.3000e+000 109910 -1.0899e+002 -3.1475e+002 -3.4100e+001 23305 109613,109743,109717
 4.3000e+000 109887 -1.0713e+002 -3.1680e+002 -1.7872e+001 23305 109613,109769,109743
 4.3000e+000 109864 -1.2854e+002 -3.0542e+002 -2.9907e+001 23305 109613,109717,109639
 4.3000e+000 109841 -8.4738e+001 -2.9466e+002 -6.8692e+000 23305 109587,109769,109613
 4.3000e+000 109818  2.1323e+000 -2.4956e+002  2.4254e+001 23305 109639,109717,109691
 4.3000e+000 109795 -2.7762e+001 -1.9995e+002 -4.6089e+001 23305 109639,109691,109665
 4.3000e+000 110180 -5.0360e+000 -8.8989e+001 -2.0822e+001 22851 110007,110059,110033
 4.3000e+000 110157 -6.2279e+001 -2.4553e+002  1.1275e+001 22851 109981,110059,110007
 4.3000e+000 110134 -8.8529e+001 -2.6563e+002  1.6822e+000 22851 109955,110059,109981
 4.3000e+000 110111 -3.5561e+001 -2.9280e+002 -2.2307e+001 22851 109955,110085,110059
 4.3000e+000 110737 -3.6387e+001 -2.7773e+002 -7.5548e+001 22333 110760,110469,110391
 4.3000e+000 110714 -9.1422e+000 -3.2286e+002 -5.7300e+001 22333 110760,110391,110365
 4.3000e+000 110691 -2.4050e+001 -2.5400e+002 -6.2645e+001 22333 110832,110521,110469
 4.3000e+000 110668 -6.2446e+001 -5.1306e+002  4.1776e+001 22333 110417,110469,110443
 4.3000e+000 110645 -1.3074e+002 -4.3878e+002  1.9331e+001 22333 110391,110469,110417
 4.3000e+000 110622 -3.7990e+000 -2.5667e+002 -3.0808e+001 22333 110469,110521,110495
 4.3000e+000 110599 -1.8835e+001 -1.7444e+002  2.0951e+001 22333 110365,110573,110547
 4.3000e+000 110786 -1.8957e+001 -2.5927e+002 -6.8297e+001 22333 110832,110469,110760
 4.3000e+000 110809  2.0049e+001 -2.7792e+002 -4.4446e+001 22333 110547,110760,110365
 4.3000e+000 110858 -2.0276e+001 -2.6637e+002 -6.2479e+001 22333 110547,110521,110832
 4.3000e+000 110881 -2.2599e+001 -2.7900e+002 -7.0166e+001 22333 110547,110832,110760
 4.3000e+000 111308 -1.4302e+002 -3.3991e+002  2.1532e+001 21829 111331,111063,111011
 4.3000e+000 111285 -1.2605e+002 -3.1334e+002 -6.0655e+000 21829 111331,111011,111167
 4.3000e+000 111262 -1.4733e+002 -3.3600e+002  2.2975e+001 21829 111403,111089,111063
 4.3000e+000 111239 -1.8138e+002 -3.5545e+002  5.2191e+001 21829 111011,111063,111037
 4.3000e+000 111216 -8.2261e+001 -2.2962e+002  1.1840e+001 21829 110985,111167,111011
 4.3000e+000 111193 -1.7002e+002 -5.5301e+002  1.2332e+002 21829 111089,111141,111115
 4.3000e+000 111357 -1.4182e+002 -3.4044e+002  2.2952e+001 21829 111403,111063,111331
 4.3000e+000 111380 -1.4651e+002 -3.5660e+002 -3.6184e-001 21829 111141,111331,111167
 4.3000e+000 111429 -1.5474e+002 -3.4248e+002  2.7945e+001 21829 111141,111089,111403
 4.3000e+000 111452 -1.4738e+002 -3.4915e+002  2.5954e+001 21829 111141,111403,111331
 4.3000e+000 112056  1.0804e+002 -2.4741e+002  5.3161e+000 21489 111687,111765,111739
 4.3000e+000 112033  2.8622e+001 -2.8600e+002  3.0008e+001 21489 112151,112079,111687
 4.3000e+000 112010  3.9850e-001 -4.4917e+002  3.0592e+001 21489 111791,111843,111817
 4.3000e+000 111987 -7.3890e+001 -3.5577e+002 -2.7262e+001 21489 112079,111843,111791
 4.3000e+000 111964  7.2030e+001 -2.6487e+002  5.5647e+001 21489 112151,111687,111661
 4.3000e+000 111941 -1.7403e+001 -1.9509e+002  4.6377e+001 21489 111661,111869,111843
 4.3000e+000 111918  1.0654e+002 -2.7072e+002  4.0952e+001 21489 111687,111739,111713
 4.3000e+000 111895  2.6709e+001 -9.2602e+001  1.5188e+001 21489 111635,111869,111661
 4.3000e+000 112105 -3.8695e+001 -3.1229e+002  1.6816e+001 21489 111765,111687,112079
 4.3000e+000 112128 -3.4693e+001 -2.9541e+002  1.6473e+001 21489 111765,112079,111791
 4.3000e+000 112177 -4.5106e+001 -2.8149e+002 -6.9898e+000 21489 111843,112079,112151
 4.3000e+000 112200 -5.3033e+000 -2.7317e+002  1.3844e+001 21489 111843,112151,111661
 4.3000e+000 112578 -5.9990e+001 -3.6077e+002  1.6914e+001 21177 112382,112434,112408
 4.3000e+000 112555 -7.6841e+001 -3.5741e+002  7.5136e-001 21177 112330,112434,112382
 4.3000e+000 112532 -5.5794e+001 -3.0248e+002  5.7045e+001 21177 112304,112434,112330
 4.3000e+000 112509 -7.6751e+001 -3.4001e+002  0.0000e+000 21177 112330,112382,112356
 4.3000e+000 112486 -1.6102e+001 -1.7922e+002  1.0200e+001 21177 112304,112460,112434
 4.3000e+000 112679 -3.9084e+000 -2.1031e+002 -4.4511e+001 20666 112601,112653,112627
 4.3000e+000 112927 -1.0788e+002 -3.5531e+002  1.2757e+001 19762 112702,112754,112728
 4.3000e+000 112904 -4.0874e+001 -3.4310e+002 -2.4160e+000 19762 112702,112832,112754
 4.3000e+000 112881 -9.1457e+001 -3.6925e+002  5.9963e+001 19762 112754,112832,112806
 4.3000e+000 112858 -1.2762e+002 -4.6072e+002  5.8428e+001 19762 112754,112806,112780
 4.3000e+000 113297 -9.8204e+001 -4.3346e+002  2.7824e+001 19308 112974,113052,113026
 4.3000e+000 113274 -6.6291e+001 -3.6333e+002  9.4397e+000 19308 112974,113156,113052
 4.3000e+000 113251 -3.4451e+001 -4.8017e+002 -5.7849e+001 19308 113052,113130,113104
 4.3000e+000 113228 -7.1946e+001 -3.6204e+002 -1.9542e-001 19308 113052,113156,113130
 4.3000e+000 113205 -6.8059e+001 -4.1874e+002  0.0000e+000 19308 113052,113104,113078
 4.3000e+000 113182 -1.3970e+002 -4.5171e+002 -1.4283e+000 19308 112974,113026,113000
 4.3000e+000 113547 -2.7377e+000 -3.9339e+002 -2.7006e+001 18711 113570,113374,113348
 4.3000e+000 113524 -1.5520e+001 -3.5861e+002 -1.5507e+001 18711 113570,113348,113452
 4.3000e+000 113501 -5.4064e+000 -2.7222e+002 -7.7024e+001 18711 113322,113452,113348
 4.3000e+000 113478 -3.6146e+001 -3.5009e+002 -1.3132e+002 18711 113374,113426,113400
 4.3000e+000 113596 -1.3216e+000 -3.5504e+002 -3.5627e+001 18711 113426,113374,113570
 4.3000e+000 113619 -1.6518e+001 -3.2572e+002 -1.6869e+001 18711 113426,113570,113452
 4.3000e+000 113771 -2.0009e+002 -4.9235e+002 -2.6288e+001 18307 113670,113722,113696
 4.3000e+000 113748 -1.5611e+002 -4.6527e+002 -1.2588e+001 18307 113644,113722,113670
 4.3000e+000 113972 -8.6934e+001 -4.1442e+002  8.3491e+000 17945 113822,113874,113848
 4.3000e+000 113949 -8.8589e+001 -4.1254e+002  9.8622e+000 17945 113822,113900,113874
 4.3000e+000 113926 -1.2109e+002 -3.2783e+002  1.7167e+002 17945 113796,113900,113822
 4.3000e+000 114075 -6.1336e+001 -6.1035e+002  6.5363e+001 17482 113997,114049,114023
 4.3000e+000 114479 -2.1597e+001 -3.3467e+002 -5.1456e+001 17042 114257,114361,114335
 4.3000e+000 114456 -7.8901e+001 -3.2568e+002 -7.9323e+000 17042 114205,114361,114257
 4.3000e+000 114433 -9.1505e+001 -3.7565e+002  1.4282e+001 17042 114205,114257,114231
 4.3000e+000 114410  7.7706e+001 -4.9537e+002 -3.2095e+001 17042 114283,114335,114309
 4.3000e+000 114387 -2.8720e+000 -4.3112e+002 -2.1681e+001 17042 114257,114335,114283
 4.3000e+000 114879 -1.8998e+002 -3.4723e+002 -4.9039e+000 16638 114631,114683,114657
 4.3000e+000 114856 -3.8047e+001 -2.8450e+002  4.4569e+000 16638 114605,114683,114631
 4.3000e+000 114833  4.3960e+001 -1.5861e+002 -3.6038e+001 16638 114605,114761,114683
 4.3000e+000 114810 -1.4516e+001 -3.8745e+002 -1.9108e+001 16638 114683,114735,114709
 4.3000e+000 114787 -3.3968e+001 -4.0410e+002 -2.7407e+001 16638 114683,114761,114735
 4.3000e+000 115078 -1.6730e+002 -3.7613e+002  1.0225e+001 16232 114954,115006,114980
 4.3000e+000 115055 -1.6662e+002 -4.1547e+002  1.8722e+001 16232 114928,115006,114954
 4.3000e+000 115032 -8.0776e+001 -5.1658e+002  3.5304e+001 16232 114902,115006,114928
 4.3000e+000 115228 -9.6179e+001 -3.7400e+002  1.2324e+001 15482 115101,115153,115127
 4.3000e+000 115205 -8.6254e+001 -3.5406e+002 -3.8227e+000 15482 115101,115179,115153
 4.3000e+000 115331 -7.4997e+001 -3.4426e+002 -4.3135e+001 15163 115253,115305,115279
 4.3000e+000 115434 -1.2049e+002 -3.7594e+002  6.3677e+001 421 115356,115408,115382
 4.4000e+000 68213 -2.2190e+001 -1.9623e+002 -2.0095e+001 67888 68112,68164,68138
 4.4000e+000 68190 -2.3938e+002 -2.5995e+002 -3.4278e+001 67888 68086,68164,68112
 4.4000e+000 68314 -2.7476e+001 -2.8078e+002  2.6685e+001 67576 68236,68288,68262
 4.4000e+000 68584 -1.0092e+002 -5.0590e+002  2.4393e+001 67378 68385,68489,68463
 4.4000e+000 68561 -4.0634e+001 -4.7579e+002  1.2126e+001 67378 68359,68489,68385
 4.4000e+000 68538 -7.5463e+001 -4.3500e+002  3.5224e+001 67378 68385,68463,68411
 4.4000e+000 68515 -3.9323e+001 -2.8390e+002  2.2414e+001 67378 68411,68463,68437
 4.4000e+000 68964 -1.1374e+002 -4.4887e+002  6.5254e+001 67130 68690,68820,68716
 4.4000e+000 68941  8.2309e+001 -4.6214e+002  1.2260e+002 67130 68690,68846,68820
 4.4000e+000 68918 -1.0187e+002 -3.0164e+002  6.2409e+000 67130 68742,68820,68794
 4.4000e+000 68895 -2.7528e+001 -3.0182e+002  2.6431e+001 67130 68716,68820,68742
 4.4000e+000 68872 -6.9874e+001 -2.5854e+002 -3.1152e+001 67130 68742,68794,68768
 4.4000e+000 69065 -8.3567e+001 -2.7004e+002  4.3259e+000 66926 68987,69039,69013
 4.4000e+000 69445 -4.8049e+001 -2.4735e+002 -1.1943e+001 66614 69223,69301,69275
 4.4000e+000 69422 -7.4645e+001 -2.6191e+002 -5.3554e+000 66614 69171,69301,69223
 4.4000e+000 69399 -8.7949e+001 -2.7072e+002  8.4081e-001 66614 69171,69327,69301
 4.4000e+000 69376 -1.6269e+001 -1.2073e+002  1.9606e+000 66614 69223,69275,69249
 4.4000e+000 69353 -6.7601e+001 -2.7789e+002 -6.0297e+000 66614 69171,69223,69197
 4.4000e+000 69546 -8.2282e+001 -4.1005e+002  2.1155e+001 66416 69468,69520,69494
 4.4000e+000 69997 -7.5678e+001 -4.1677e+002 -3.2217e+001 66104 69700,69830,69726
 4.4000e+000 69974 -1.0965e+002 -5.0771e+002 -6.6672e+001 66104 69700,69856,69830
 4.4000e+000 69951 -7.8172e+001 -3.2210e+002 -2.3230e+001 66104 69726,69804,69778
 4.4000e+000 69928 -6.4739e+001 -3.8864e+002 -3.2877e+001 66104 69726,69830,69804
 4.4000e+000 69905 -8.2558e+001 -3.0830e+002 -1.2256e+001 66104 69726,69778,69752
 4.4000e+000 69882 -3.4265e+001 -6.9341e+002 -1.2599e+002 66104 69674,69856,69700
 4.4000e+000 70326 -7.3992e+001 -1.9375e+002  5.6891e+000 65814 70349,70153,70127
 4.4000e+000 70303 -4.6756e+001 -1.9002e+002  9.6341e+000 65814 70349,70127,70101
 4.4000e+000 70280 -4.3191e+001 -1.7861e+002  7.0927e+001 65814 70101,70231,70205
 4.4000e+000 70257  9.2540e+000 -2.1627e+002  2.3586e+001 65814 70153,70205,70179
 4.4000e+000 70375 -6.1479e+001 -2.0433e+002  2.7455e+001 65814 70205,70153,70349
 4.4000e+000 70398 -1.9695e+001 -1.9378e+002  2.8242e+001 65814 70205,70349,70101
 4.4000e+000 70904 -3.3491e+001 -1.0994e+002 -3.1317e+001 65502 70607,70737,70685
 4.4000e+000 70881 -4.4326e+001 -9.0262e+001 -4.1307e+001 65502 70581,70737,70607
 4.4000e+000 70858 -4.3352e+001 -3.3267e+001 -9.8448e+000 65502 70581,70763,70737
 4.4000e+000 70835 -4.8227e+001 -1.1994e+002 -4.5353e+001 65502 70685,70737,70711
 4.4000e+000 70812 -1.6134e+002 -1.4030e+002 -3.6611e+000 65502 70607,70659,70633
 4.4000e+000 70789 -5.3543e+001 -1.4656e+002 -4.7954e-002 65502 70607,70685,70659
 4.4000e+000 71103 -4.5841e+001 -3.6199e+002 -1.0223e+001 65304 71126,70979,70953
 4.4000e+000 71080 -8.6249e+001 -3.6053e+002 -3.9691e+000 65304 71126,70953,70927
 4.4000e+000 71057 -1.1929e+002 -3.6532e+002  2.6856e+001 65304 70927,71031,71005
 4.4000e+000 71152 -8.5867e+001 -3.4275e+002 -2.1918e+001 65304 71005,70979,71126
 4.4000e+000 71175 -1.3157e+002 -3.4750e+002 -6.5589e+000 65304 71005,71126,70927
 4.4000e+000 71374 -4.9512e+001 -3.4834e+002  1.7469e+001 65106 71198,71276,71224
 4.4000e+000 71351 -1.0408e+002 -3.7335e+002  7.3984e+000 65106 71198,71302,71276
 4.4000e+000 71328 -2.7998e+001 -2.9193e+002  4.2637e+001 65106 71224,71276,71250
 4.4000e+000 71756 -4.4450e+001 -2.4755e+002 -1.5586e+001 64652 71508,71638,71534
 4.4000e+000 71733  7.0652e-001 -2.2814e+002  6.8230e-001 64652 71482,71638,71508
 4.4000e+000 71710 -8.5006e+001 -2.3810e+002 -1.7822e+001 64652 71534,71586,71560
 4.4000e+000 71687 -7.4727e+001 -2.6448e+002 -3.7820e+001 64652 71534,71612,71586
 4.4000e+000 71664 -1.1570e+002 -2.7505e+002 -4.1509e+001 64652 71534,71638,71612
 4.4000e+000 72085 -1.0814e+002 -2.7420e+002 -3.2261e+001 64248 71886,71964,71912
 4.4000e+000 72062 -8.6325e+001 -2.6573e+002 -3.3613e+001 64248 71860,71964,71886
 4.4000e+000 72039 -4.7083e+001 -2.9488e+002 -2.2123e+001 64248 71912,71964,71938
 4.4000e+000 72016 -8.3844e+001 -2.4886e+002 -3.5840e+001 64248 71860,71990,71964
 4.4000e+000 72235 -7.7360e+000 -1.7725e+002 -2.3811e+001 63858 72588,72258,72134
 4.4000e+000 72212 -3.4325e+001 -1.5329e+002  6.3322e+000 63858 72330,72258,72108
 4.4000e+000 72284 -2.4100e+001 -1.3117e+002 -1.6840e+001 63858 72160,72134,72258
 4.4000e+000 72307 -8.8564e+001 -1.7204e+002 -2.7182e+001 63858 72460,72258,72186
 4.4000e+000 72356 -7.3914e+001 -1.6605e+002 -2.6183e+001 63858 72186,72258,72330
 4.4000e+000 72486 -2.9565e+001 -1.5654e+002 -2.8388e+001 63858 72160,72258,72460
 4.4000e+000 72614 -9.3955e+000 -1.8691e+002  2.7736e-001 63858 72108,72258,72588
 4.4000e+000 73248 -5.8664e+001 -2.5866e+002  6.8393e+001 63404 72902,72954,72928
 4.4000e+000 73225 -1.4040e+002 -2.9369e+002  3.2122e+001 63404 73271,72954,72902
 4.4000e+000 73202 -1.2433e+002 -2.4736e+002  2.6999e+001 63404 73271,72902,73032
 4.4000e+000 73179 -7.9220e+001 -2.1463e+002  8.8981e+000 63404 72902,73058,73032
 4.4000e+000 73156 -9.7121e+001 -2.6028e+002  2.0354e+001 63404 72980,73032,73006
 4.4000e+000 73133 -7.2061e+001 -2.2312e+002  5.4159e+000 63404 72876,73058,72902
 4.4000e+000 73110 -2.9575e+001 -1.1066e+002 -5.7725e+001 63404 72876,73084,73058
 4.4000e+000 73297 -1.2047e+002 -2.9912e+002  2.9402e+000 63404 72980,72954,73271
 4.4000e+000 73320 -1.1650e+002 -2.7482e+002  2.3008e+000 63404 72980,73271,73032
 4.4000e+000 73470 -1.0168e+002 -6.6540e+002  7.0752e+001 63014 73343,73395,73369
 4.4000e+000 73447 -3.1391e+002 -8.1176e+002 -1.4410e+001 63014 73343,73421,73395
 4.4000e+000 73929 -5.6420e-001 -3.0900e+002  1.7567e+001 62702 73759,73811,73785
 4.4000e+000 73906  1.9945e+001 -2.9887e+002  2.1315e+001 62702 73655,73811,73759
 4.4000e+000 73883 -3.0028e+001 -3.4487e+002 -1.4371e+000 62702 73655,73759,73681
 4.4000e+000 73860  1.3895e+001 -2.5630e+002 -5.4706e+001 62702 73681,73759,73707
 4.4000e+000 73837 -1.3560e+002 -2.9998e+002  5.3958e+000 62702 73707,73759,73733
 4.4000e+000 74209 -1.8230e+002 -3.0218e+002  2.5605e+000 62404 74059,74137,74085
 4.4000e+000 74186 -2.1769e+002 -3.8999e+002  4.4391e+001 62404 74033,74137,74059
 4.4000e+000 74163 -1.9734e+002 -2.8094e+002 -3.1385e-001 62404 74085,74137,74111
 4.4000e+000 74408 -9.7565e+000 -2.5810e+002  1.4468e+001 62000 74258,74336,74284
 4.4000e+000 74385 -8.5348e+000 -2.5257e+002  2.8333e+001 62000 74232,74336,74258
 4.4000e+000 74362 -6.2832e+001 -2.6052e+002 -3.9788e+000 62000 74284,74336,74310
 4.4000e+000 74509 -2.4856e+001 -2.9634e+002  2.2509e+001 61802 74431,74483,74457
 4.4000e+000 74759 -9.5501e+001 -2.6741e+002  2.9976e+000 61554 74782,74586,74560
 4.4000e+000 74736 -6.0030e+001 -2.4877e+002  9.8649e+000 61554 74782,74560,74664
 4.4000e+000 74713 -8.3287e+001 -1.9976e+002  6.7228e+001 61554 74854,74612,74586
 4.4000e+000 74690 -7.6178e+001 -2.7251e+002  1.5348e+000 61554 74534,74664,74560
 4.4000e+000 74808 -1.1455e+002 -2.4642e+002  1.9154e+001 61554 74854,74586,74782
 4.4000e+000 74831 -7.1046e+001 -3.0956e+002  1.6872e+001 61554 74638,74782,74664
 4.4000e+000 74880 -2.0696e+001 -2.4845e+002  7.3519e+001 61554 74638,74612,74854
 4.4000e+000 74903 -2.2330e+001 -2.4552e+002  3.8080e+001 61554 74638,74854,74782
 4.4000e+000 75285 -4.1603e+001 -2.7260e+002  3.1025e+000 61356 75063,75167,75115
 4.4000e+000 75262 -5.4928e+001 -2.8830e+002 -1.5737e+001 61356 75037,75167,75063
 4.4000e+000 75239  2.0621e+001 -2.8102e+002 -2.3715e+000 61356 75115,75167,75141
 4.4000e+000 75216 -9.7569e+000 -2.5244e+002  1.1807e+001 61356 75063,75115,75089
 4.4000e+000 75193 -1.2131e+002 -2.3026e+002  1.6906e+001 61356 75011,75167,75037
 4.4000e+000 75631 -1.7524e+001 -2.1682e+002  5.6926e+000 60952 75654,75412,75360
 4.4000e+000 75608 -3.8771e+001 -2.4832e+002 -6.8562e+000 60952 75654,75360,75334
 4.4000e+000 75585 -3.9823e+001 -3.1710e+002  1.6529e+001 60952 75726,75438,75412
 4.4000e+000 75562 -3.4225e+001 -2.5516e+002 -4.1146e+001 60952 75308,75490,75334
 4.4000e+000 75539 -2.1652e+001 -2.1620e+002 -1.5251e-001 60952 75360,75412,75386
 4.4000e+000 75516 -6.0898e+001 -3.8969e+002 -1.0935e+001 60952 75438,75490,75464
 4.4000e+000 75680 -1.6085e+001 -2.6537e+002  5.7327e+000 60952 75726,75412,75654
 4.4000e+000 75703 -1.5989e+001 -2.5212e+002 -1.0461e+001 60952 75490,75654,75334
 4.4000e+000 75752 -1.6127e+001 -2.5719e+002 -1.0576e+000 60952 75490,75438,75726
 4.4000e+000 75775 -1.7253e+001 -2.5235e+002 -1.0870e+001 60952 75490,75726,75654
 4.4000e+000 76155 -4.1892e+001 -2.5486e+002  1.0761e+000 60754 75933,75985,75959
 4.4000e+000 76132 -6.8645e+001 -2.7105e+002  2.6828e+001 60754 75933,76037,75985
 4.4000e+000 76109  4.6254e+000 -2.6556e+002  8.2391e+000 60754 75985,76037,76011
 4.4000e+000 76086 -1.0287e+002 -2.2746e+002  7.5864e+000 60754 75881,76037,75933
 4.4000e+000 76063 -1.4309e+002 -1.9745e+002  5.9378e+001 60754 75881,75933,75907
 4.4000e+000 76612 -4.8527e+001 -2.4443e+002  8.0001e+000 60350 76635,76442,76390
 4.4000e+000 76589 -3.6082e+000 -2.7196e+002  1.8321e+001 60350 76635,76390,76364
 4.4000e+000 76566 -1.8882e+001 -3.4396e+002 -2.5260e+001 60350 76364,76494,76468
 4.4000e+000 76543 -4.4991e+000 -2.2195e+002  2.1518e+001 60350 76390,76442,76416
 4.4000e+000 76520 -1.2122e+002 -2.2698e+002 -5.4205e+001 60350 76338,76494,76364
 4.4000e+000 76661 -7.3872e+001 -2.6280e+002  1.6020e+001 60350 76468,76442,76635
 4.4000e+000 76684 -4.1384e+001 -2.9592e+002  2.8896e+001 60350 76468,76635,76364
 4.4000e+000 76932 -9.3761e+001 -2.8651e+002  3.5859e+000 59946 76955,76733,76707
 4.4000e+000 76909 -9.3238e+001 -2.8401e+002  9.0034e+000 59946 77027,76955,76707
 4.4000e+000 76886 -8.8460e+001 -2.8417e+002  7.3215e+000 59946 77027,76707,76837
 4.4000e+000 76863 -4.3289e+001 -3.1597e+002 -2.7789e+001 59946 76733,76785,76759
 4.4000e+000 76981 -1.0596e+002 -2.8705e+002 -2.7614e+000 59946 76785,76733,76955
 4.4000e+000 77004 -9.6563e+001 -2.7984e+002  5.3316e+000 59946 76785,76955,76811
 4.4000e+000 77053 -8.6630e+001 -2.8363e+002  7.9992e+000 59946 76811,76955,77027
 4.4000e+000 77076 -8.2851e+001 -2.8355e+002  5.5289e+000 59946 76811,77027,76837
 4.4000e+000 77226 -1.2446e+002 -2.9926e+002  7.0939e+000 59542 77099,77151,77125
 4.4000e+000 77203 -1.4798e+002 -3.4701e+002  1.4742e+001 59542 77099,77177,77151
 4.4000e+000 77427 -1.4982e+002 -3.0668e+002 -1.9157e+001 59030 77450,77277,77251
 4.4000e+000 77404 -9.0802e+001 -2.4160e+002 -8.1821e+001 59030 77450,77251,77355
 4.4000e+000 77381 -1.8173e+001 -3.6279e+002 -5.3304e+000 59030 77277,77329,77303
 4.4000e+000 77476 -7.9165e+001 -3.2014e+002 -5.7971e+001 59030 77329,77277,77450
 4.4000e+000 77499 -1.7534e+001 -2.8884e+002 -1.0713e+002 59030 77329,77450,77355
 4.4000e+000 77749 -1.2327e+002 -3.8264e+002  2.8638e+001 58426 77772,77628,77602
 4.4000e+000 77726 -8.7858e+001 -4.7540e+002  1.1708e+002 58426 77524,77654,77628
 4.4000e+000 77703 -1.0259e+002 -3.7775e+002  2.0795e+001 58426 77772,77602,77550
 4.4000e+000 77680 -5.8134e+001 -3.5328e+002 -1.4199e+001 58426 77550,77602,77576
 4.4000e+000 77798 -9.8889e+001 -3.8590e+002  2.7596e+001 58426 77524,77628,77772
 4.4000e+000 77821 -8.7799e+001 -3.8587e+002  1.7562e+001 58426 77524,77772,77550
 4.4000e+000 78071 -1.6016e+002 -3.4657e+002  3.7492e+001 57922 78094,77924,77898
 4.4000e+000 78048 -1.8672e+002 -3.5269e+002  5.1639e+000 57922 78094,77898,77872
 4.4000e+000 78025 -1.5252e+002 -3.2318e+002  3.4903e+001 57922 78166,77846,77950
 4.4000e+000 78002 -8.0841e+001 -3.1748e+002  4.1270e+001 57922 77846,77976,77950
 4.4000e+000 78120 -1.3317e+002 -3.4901e+002  2.6009e+001 57922 77950,77924,78094
 4.4000e+000 78143 -1.5403e+002 -3.2810e+002  2.6330e+001 57922 78166,77950,78094
 4.4000e+000 78192 -1.4651e+002 -3.3699e+002  2.7047e+001 57922 77872,77846,78166
 4.4000e+000 78215 -1.5540e+002 -3.5134e+002  1.7916e+001 57922 77872,78166,78094
 4.4000e+000 78416  3.0953e+001 -2.9309e+002 -1.4992e+001 57468 78439,78292,78240
 4.4000e+000 78393 -1.6659e+001 -2.7548e+002  4.4779e-001 57468 78439,78240,78344
 4.4000e+000 78370  1.1083e+001 -3.9774e+002 -1.0500e+001 57468 78240,78292,78266
 4.4000e+000 78465 -1.5195e+001 -3.1683e+002 -2.5717e+001 57468 78318,78292,78439
 4.4000e+000 78488 -3.4703e+001 -2.8809e+002 -5.5661e+000 57468 78318,78439,78344
 4.4000e+000 78689  3.6103e+001 -3.5533e+002 -4.3298e+001 57014 78712,78539,78513
 4.4000e+000 78666 -1.8053e+001 -3.5265e+002 -8.0853e+000 57014 78712,78513,78617
 4.4000e+000 78643 -7.9586e+001 -3.6312e+002  3.4788e+001 57014 78565,78617,78591
 4.4000e+000 78738 -3.3749e+001 -2.9696e+002 -4.3698e+001 57014 78565,78539,78712
 4.4000e+000 78761 -1.1427e+002 -3.4317e+002  1.3631e+001 57014 78565,78712,78617
 4.4000e+000 79241 -1.1494e+002 -3.1487e+002  2.5137e+001 56652 79264,78895,78869
 4.4000e+000 79218 -5.3734e+001 -4.1155e+002 -2.4276e+001 56652 79264,78869,79051
 4.4000e+000 79195 -8.1289e+001 -3.6062e+002 -8.2857e+001 56652 78869,79077,79051
 4.4000e+000 79172 -9.0402e+001 -2.0609e+002 -4.8930e+001 56652 78895,78973,78947
 4.4000e+000 79149 -1.4966e+002 -6.0477e+002 -4.9905e+001 56652 78973,79051,78999
 4.4000e+000 79126 -7.9213e+001 -1.9836e+002 -5.3155e+001 56652 78895,78947,78921
 4.4000e+000 79103 -1.2790e+002 -4.2074e+002  1.0003e+002 56652 78999,79051,79025
 4.4000e+000 79290 -6.8480e+001 -2.5388e+002  5.8861e+001 56652 78973,78895,79264
 4.4000e+000 79313 -2.8594e+000 -3.5715e+002  1.2815e+001 56652 78973,79264,79051
 4.4000e+000 79512 -4.2025e+001 -4.5520e+002  4.1181e+001 56062 79388,79440,79414
 4.4000e+000 79489 -1.8819e+002 -2.4231e+002  6.1421e+001 56062 79336,79440,79388
 4.4000e+000 79466 -8.0840e+001 -2.3935e+002  8.7852e+001 56062 79336,79388,79362
 4.4000e+000 79941 -5.3166e+001 -2.5480e+002  3.9722e+001 55658 79964,79670,79644
 4.4000e+000 79918 -7.9061e+001 -2.5991e+002  4.5005e+001 55658 79964,79644,79800
 4.4000e+000 79895 -7.3021e+001 -2.7341e+002  2.2782e+001 55658 80036,79696,79670
 4.4000e+000 79872 -8.5907e+001 -2.3519e+002 -3.2598e+000 55658 80108,79722,79696
 4.4000e+000 79849 -1.2588e+002 -2.3342e+002  1.1409e+001 55658 79722,79774,79748
 4.4000e+000 79826  5.1920e-001 -2.3129e+002  1.2670e+001 55658 79618,79800,79644
 4.4000e+000 79990 -8.1915e+001 -2.7589e+002  2.9817e+001 55658 80036,79670,79964
 4.4000e+000 80013 -7.0768e+001 -2.4025e+002  4.8125e+001 55658 79774,79964,79800
 4.4000e+000 80062 -6.2558e+001 -2.5088e+002  1.8586e+001 55658 80108,79696,80036
 4.4000e+000 80085 -8.0019e+001 -2.4310e+002  4.0976e+001 55658 79774,80036,79964
 4.4000e+000 80134 -1.3123e+002 -2.5120e+002  6.0369e+000 55658 79774,79722,80108
 4.4000e+000 80157 -1.1805e+002 -2.7320e+002  2.7608e+001 55658 79774,80108,80036
 4.4000e+000 80307 -1.3801e+002 -2.4619e+002  3.0565e+001 55254 80402,80330,80206
 4.4000e+000 80284 -1.3366e+002 -3.3544e+002  3.2087e+001 55254 80330,80180,80258
 4.4000e+000 80356 -1.6228e+002 -3.0163e+002  6.3712e+001 55254 80232,80206,80330
 4.4000e+000 80379 -4.4783e+001 -2.4872e+002  9.1925e+001 55254 80232,80330,80258
 4.4000e+000 80428 -1.8887e+002 -3.0173e+002  7.7796e+000 55254 80180,80330,80402
 4.4000e+000 80659 -6.7063e+001 -3.5120e+002 -2.8730e+001 54850 80558,80610,80584
 4.4000e+000 80636  3.1047e+000 -3.3496e+002 -3.6719e+001 54850 80532,80610,80558
 4.4000e+000 80760 -2.5537e+001 -2.5490e+002 -2.1155e+001 54652 80682,80734,80708
 4.4000e+000 81164 -2.0493e+001 -2.6942e+002 -5.4476e+000 54248 81187,80942,80890
 4.4000e+000 81141 -2.4630e+001 -2.7341e+002 -3.7373e+000 54248 81187,80890,81046
 4.4000e+000 81118 -2.8620e+001 -2.8226e+002  5.7558e+001 54248 80942,81020,80994
 4.4000e+000 81095 -1.9219e+001 -2.7614e+002  1.7967e+000 54248 80890,80942,80916
 4.4000e+000 81072 -3.8243e+001 -1.5720e+002  7.6646e+000 54248 80942,80994,80968
 4.4000e+000 81213 -2.5518e+001 -2.6599e+002 -4.8718e+000 54248 81020,80942,81187
 4.4000e+000 81236 -2.8386e+001 -2.6837e+002 -3.7798e+000 54248 81020,81187,81046
 4.4000e+000 81663 -1.4747e+002 -2.8011e+002  2.3953e+001 53594 81340,81444,81366
 4.4000e+000 81640 -1.3989e+002 -3.9800e+002  1.1220e+001 53594 81340,81470,81444
 4.4000e+000 81617 -5.2818e+001 -3.4953e+002 -1.8895e+001 53594 81340,81522,81470
 4.4000e+000 81594 -8.0016e+001 -2.0599e+002 -2.2360e+001 53594 81392,81444,81418
 4.4000e+000 81571 -1.0717e+002 -2.4236e+002 -3.4780e+001 53594 81366,81444,81392
 4.4000e+000 81548  1.6336e+001 -5.5368e+002  1.2253e+002 53594 81470,81522,81496
 4.4000e+000 81943 -3.7384e+001 -1.9325e+002 -2.4387e+001 53104 81966,81845,81819
 4.4000e+000 81920 -5.5107e+001 -1.6030e+002 -2.9627e+001 53104 81966,81819,81767
 4.4000e+000 81897 -5.5838e+001 -1.5958e+002 -3.2731e+001 53104 81767,81819,81793
 4.4000e+000 81992 -2.5364e+001 -1.7197e+002 -2.9191e+001 53104 81871,81845,81966
 4.4000e+000 82015 -3.4045e+001 -1.2578e+002 -3.8701e+001 53104 81871,81966,81767
 4.4000e+000 82491 -3.2894e+001 -1.9369e+002 -1.4308e+001 52650 82145,82249,82171
 4.4000e+000 82468 -1.6043e+002 -2.2614e+002 -2.6421e+001 52650 82145,82301,82249
 4.4000e+000 82445 -1.6747e+002 -3.4649e+002 -6.1296e+001 52650 82249,82301,82275
 4.4000e+000 82422 -7.0070e+001 -4.3324e+002 -7.8952e+001 52650 82119,82301,82145
 4.4000e+000 82399 -5.1426e+001 -1.5768e+002  2.0741e+001 52650 82171,82249,82223
 4.4000e+000 82376  2.1164e+001 -3.9774e+002 -6.0404e+001 52650 82119,82327,82301
 4.4000e+000 82353 -1.4779e+001 -7.8118e+001 -3.2797e+001 52650 82171,82223,82197
 4.4000e+000 82739 -4.4238e+001 -1.8443e+002  3.9933e+000 52246 82762,82540,82514
 4.4000e+000 82716 -2.9052e+001 -7.3166e+001 -1.2933e+001 52246 82762,82514,82644
 4.4000e+000 82693 -8.8432e+001 -2.0964e+002  4.6031e+001 52246 82540,82618,82592
 4.4000e+000 82670 -1.0246e+002 -2.0106e+002  3.8435e+001 52246 82540,82592,82566
 4.4000e+000 82788 -2.8178e+001 -2.3570e+002  1.3554e+001 52246 82618,82540,82762
 4.4000e+000 82811 -6.0971e+001 -2.0098e+002 -1.8076e+001 52246 82618,82762,82644
 4.4000e+000 83059 -2.8763e+001 -2.6105e+002  2.4662e+001 51578 82860,82964,82938
 4.4000e+000 83036 -5.7876e-001 -1.7148e+002 -5.6342e+001 51578 82834,82964,82860
 4.4000e+000 83013 -1.1573e+001 -2.0066e+002  5.4282e+001 51578 82860,82938,82886
 4.4000e+000 82990 -9.1652e+000 -1.2478e+002  8.7004e+000 51578 82886,82938,82912
 4.4000e+000 83309 -4.7555e+001 -1.4914e+002  4.1274e+001 51138 83332,83162,83136
 4.4000e+000 83286 -1.7426e+001 -1.9295e+002  1.3620e+001 51138 83332,83136,83110
 4.4000e+000 83263 -7.4719e+001 -1.9952e+002 -1.1192e+001 51138 83404,83214,83188
 4.4000e+000 83240 -1.1833e+000 -1.2409e+002  1.1734e+001 51138 83084,83214,83110
 4.4000e+000 83358 -7.6420e+001 -2.0335e+002  5.3569e+001 51138 83188,83162,83332
 4.4000e+000 83381 -5.2190e+001 -2.2080e+002  8.8828e+000 51138 83404,83188,83332
 4.4000e+000 83430 -4.7915e+001 -1.4680e+002  3.9142e-001 51138 83110,83214,83404
 4.4000e+000 83453 -2.8493e+001 -1.7958e+002  1.9432e+001 51138 83110,83404,83332
 4.4000e+000 83835 -4.2960e+001 -2.4605e+002 -1.8086e+000 50734 83613,83717,83691
 4.4000e+000 83812 -4.7348e+001 -2.6228e+002 -5.3701e+001 50734 83561,83717,83613
 4.4000e+000 83789 -2.1873e+001 -1.3681e+002 -7.6943e+001 50734 83561,83613,83587
 4.4000e+000 83766 -9.4583e+001 -1.6468e+002  2.3360e-002 50734 83613,83691,83639
 4.4000e+000 83743 -1.0041e+002 -1.6732e+002  3.4445e+001 50734 83639,83691,83665
 4.4000e+000 84034 -6.2807e+001 -1.5593e+002  8.5914e+000 50230 84057,83884,83858
 4.4000e+000 84011 -6.2885e+001 -1.7065e+002 -1.6036e+001 50230 84129,84057,83858
 4.4000e+000 83988 -2.0062e+001 -1.8279e+002 -2.6781e+001 50230 84129,83858,83962
 4.4000e+000 84083 -2.4415e+001 -1.4191e+002  1.3512e+001 50230 83910,83884,84057
 4.4000e+000 84106 -3.8943e+001 -1.6473e+002  5.2460e+000 50230 83910,84057,83936
 4.4000e+000 84155 -7.2263e+000 -1.4469e+002 -3.4185e+000 50230 83936,84057,84129
 4.4000e+000 84178  8.9773e+000 -1.7575e+002 -2.0404e+001 50230 83936,84129,83962
 4.4000e+000 84558 -6.8152e+001 -2.0427e+002 -3.2707e+001 49768 84581,84388,84362
 4.4000e+000 84535 -1.3862e+002 -2.0700e+002 -1.2863e+001 49768 84581,84362,84310
 4.4000e+000 84512  2.7075e+000 -2.2303e+002 -3.4886e+001 49768 84653,84440,84414
 4.4000e+000 84489 -1.0853e+002 -2.2373e+002  1.6013e+001 49768 84310,84362,84336
 4.4000e+000 84466 -4.5712e+000 -1.6344e+002  2.3436e+001 49768 84284,84440,84310
 4.4000e+000 84607 -1.7795e+001 -1.7150e+002 -5.6020e+001 49768 84414,84388,84581
 4.4000e+000 84630 -2.5425e+001 -2.0912e+002 -2.4807e+001 49768 84653,84414,84581
 4.4000e+000 84679 -3.5024e+001 -2.1124e+002 -4.7658e+001 49768 84310,84440,84653
 4.4000e+000 84702 -7.5598e+001 -2.1137e+002 -4.8584e+001 49768 84310,84653,84581
 4.4000e+000 85159 -1.0778e+002 -2.8399e+002 -7.9859e+001 49192 84885,84937,84911
 4.4000e+000 85136 -1.0788e+002 -2.3062e+002 -5.9147e+001 49192 84885,85041,84937
 4.4000e+000 85113 -7.8782e+001 -1.9832e+002 -2.7583e+001 49192 84963,85041,84989
 4.4000e+000 85090 -6.9520e+001 -1.8327e+002 -4.1943e+001 49192 84937,85041,84963
 4.4000e+000 85067 -6.5067e+001 -1.9726e+002 -2.4819e+001 49192 84989,85041,85015
 4.4000e+000 85714 -1.1472e+002 -1.9172e+002 -1.0610e+000 48638 85368,85498,85394
 4.4000e+000 85691 -1.4239e+002 -2.2397e+002  1.1104e+001 48638 85368,85524,85498
 4.4000e+000 85668 -1.2827e+002 -1.8379e+002  4.8212e+001 48638 85737,85420,85394
 4.4000e+000 85645 -1.0927e+002 -2.0981e+002  2.5454e+001 48638 85737,85394,85498
 4.4000e+000 85622 -8.7268e+001 -2.1491e+002  4.2918e+001 48638 85446,85498,85472
 4.4000e+000 85599 -3.7331e+001 -1.8400e+002  2.0477e+001 48638 85342,85524,85368
 4.4000e+000 85576 -1.3995e+002 -2.0677e+002  1.9505e+001 48638 85342,85550,85524
 4.4000e+000 85763 -9.3374e+001 -1.6480e+002  6.4584e+001 48638 85446,85420,85737
 4.4000e+000 85786 -9.4860e+001 -1.8987e+002  3.8237e+001 48638 85446,85737,85498
 4.4000e+000 86371 -9.6340e+001 -1.4359e+002 -8.3096e+000 48084 86100,86230,86178
 4.4000e+000 86348 -1.1706e+002 -1.8264e+002 -1.9410e+001 48084 86048,86230,86100
 4.4000e+000 86325 -9.6275e+001 -1.3382e+002  3.5254e+001 48084 86100,86178,86126
 4.4000e+000 86302 -5.8050e+001 -4.3406e+001 -3.6635e+001 48084 86048,86100,86074
 4.4000e+000 86279 -1.2309e+002 -2.2949e+002 -3.3318e+000 48084 86178,86230,86204
 4.4000e+000 86256 -8.7600e+001 -1.5175e+002  3.3903e+001 48084 86126,86178,86152
 4.4000e+000 86619 -7.1743e+001 -1.5976e+002  1.4617e+001 47630 86642,86446,86420
 4.4000e+000 86596 -8.7696e+001 -1.7836e+002 -2.0019e+001 47630 86642,86420,86394
 4.4000e+000 86573 -1.1323e+002 -2.1016e+002 -2.9502e+001 47630 86394,86524,86498
 4.4000e+000 86550 -4.6213e+001 -1.8171e+002  1.2538e+001 47630 86446,86498,86472
 4.4000e+000 86668 -8.9579e+001 -1.9922e+002  4.5933e-001 47630 86498,86446,86642
 4.4000e+000 86691 -9.8335e+001 -2.0573e+002 -3.3455e+001 47630 86498,86642,86394
 4.4000e+000 87022 -7.0349e+000 -1.1712e+002 -6.6549e+001 47226 87045,86875,86849
 4.4000e+000 86999 -2.2780e+000 -1.3164e+002 -6.2996e+001 47226 87045,86849,86797
 4.4000e+000 86976  4.1661e-001 -6.2308e+001 -1.5354e+001 47226 86797,86849,86823
 4.4000e+000 86953  5.8798e+000 -8.4364e+001 -3.3969e+001 47226 86875,86927,86901
 4.4000e+000 87071 -1.5102e+001 -1.2796e+002 -6.3021e+001 47226 86927,86875,87045
 4.4000e+000 87094 -6.4722e+000 -1.3785e+002 -6.0974e+001 47226 86927,87045,86797
 4.4000e+000 87244 -1.2576e+001 -2.2495e+002  5.9129e+001 46814 87267,87169,87143
 4.4000e+000 87221 -1.0567e+002 -2.0304e+002 -1.1697e+001 46814 87267,87143,87117
 4.4000e+000 87293 -1.0969e+001 -1.6826e+002  3.7057e+001 46814 87339,87267,87195
 4.4000e+000 87316 -8.6563e+000 -1.6161e+002  5.0423e+000 46814 87469,87267,87117
 4.4000e+000 87365  5.1750e+000 -1.5924e+002  4.2762e+001 46814 87169,87267,87339
 4.4000e+000 87495 -8.2271e-001 -1.7322e+001 -2.3251e+000 46814 87195,87267,87469
 4.4000e+000 88001 -6.8463e+001 -1.6121e+002  3.9908e+001 46310 88024,87834,87808
 4.4000e+000 87978 -8.2997e+001 -1.6412e+002  2.3657e+001 46310 88024,87808,87756
 4.4000e+000 87955 -4.5236e+001 -2.1243e+002  1.1070e+001 46310 88096,87730,87860
 4.4000e+000 87932 -6.1035e+001 -2.1296e+002  2.4127e+001 46310 87756,87808,87782
 4.4000e+000 87909 -5.8579e+001 -2.5488e+002  9.1316e+000 46310 87678,87860,87730
 4.4000e+000 87886 -8.6729e+001 -4.1062e+002 -2.2679e+001 46310 87678,87730,87704
 4.4000e+000 88050 -5.9438e+001 -1.4158e+002  2.5019e+001 46310 87860,87834,88024
 4.4000e+000 88073 -4.6145e+001 -1.5472e+002  2.9366e+001 46310 88096,87860,88024
 4.4000e+000 88122 -5.8217e+001 -2.4008e+002 -8.8689e+000 46310 87756,87730,88096
 4.4000e+000 88145 -9.4767e+001 -2.1723e+002  1.4900e+000 46310 87756,88096,88024
 4.4000e+000 88572 -4.2815e+001 -2.0962e+002  1.1542e+001 45856 88249,88405,88275
 4.4000e+000 88549 -3.7471e+001 -6.7459e+001 -4.2786e+001 45856 88249,88431,88405
 4.4000e+000 88526 -1.0256e+002 -2.8918e+002 -3.8023e+001 45856 88327,88405,88353
 4.4000e+000 88503 -4.6642e+001 -2.5199e+002 -1.7139e+001 45856 88275,88405,88327
 4.4000e+000 88480 -8.4766e+001 -2.4992e+002 -4.2067e+001 45856 88353,88405,88379
 4.4000e+000 88457 -1.9421e+002 -5.2783e+002  4.3618e+001 45856 88275,88327,88301
 4.4000e+000 88950 -3.5069e+001 -1.2422e+002 -1.8821e+000 45658 88973,88754,88728
 4.4000e+000 88927 -3.3839e+001 -1.2852e+002 -2.2669e+000 45658 88973,88728,88676
 4.4000e+000 88904 -3.6612e+001 -1.5520e+002  4.7341e+001 45658 88676,88832,88806
 4.4000e+000 88881 -5.8663e+001 -1.7663e+002  1.5444e+001 45658 88676,88728,88702
 4.4000e+000 88858 -4.6191e+001 -1.1606e+002 -2.2382e+001 45658 88754,88806,88780
 4.4000e+000 88999 -3.6817e+001 -1.2775e+002 -1.1861e+000 45658 88806,88754,88973
 4.4000e+000 89022 -3.4380e+001 -1.3029e+002 -1.9170e+000 45658 88806,88973,88676
 4.4000e+000 89351 -6.0850e+001 -2.0701e+002 -9.8499e+000 45254 89152,89230,89204
 4.4000e+000 89328 -5.6401e+001 -2.0519e+002 -1.0038e+001 45254 89152,89256,89230
 4.4000e+000 89305 -1.8456e+001 -2.1729e+002 -2.6944e+001 45254 89126,89256,89152
 4.4000e+000 89282  3.3788e+000 -2.0935e+002 -3.7211e+001 45254 89152,89204,89178
 4.4000e+000 89523 -2.6576e+001 -1.5277e+002  4.1867e-002 45006 89422,89474,89448
 4.4000e+000 89500 -1.9369e+001 -1.4971e+002  5.8034e+000 45006 89396,89474,89422
 4.4000e+000 89673 -1.7081e+002 -2.9909e+002  2.5972e+001 44495 89572,89624,89598
 4.4000e+000 89650 -1.7458e+002 -2.9827e+002  1.6854e+001 44495 89546,89624,89572
 4.4000e+000 90104 -1.7598e+001 -2.2048e+002 -1.0930e+001 44005 90199,90127,89937
 4.4000e+000 90081 -4.4175e+001 -2.1784e+002  3.5967e+000 44005 90271,90127,89859
 4.4000e+000 90058 -3.7685e+000 -2.2792e+002 -1.1870e+001 44005 90199,89937,89885
 4.4000e+000 90035 -6.1041e+001 -2.0703e+002  1.3187e+001 44005 90271,89859,89807
 4.4000e+000 90012 -3.3523e+001 -2.5024e+002 -2.9756e+001 44005 89885,89937,89911
 4.4000e+000 89989 -1.9054e+001 -2.2321e+002  3.8624e+001 44005 89807,89859,89833
 4.4000e+000 90153 -4.5952e+001 -2.3037e+002 -5.6963e+000 44005 89963,89937,90127
 4.4000e+000 90176 -4.9571e+001 -2.4658e+002  5.7744e+000 44005 89963,90127,89781
 4.4000e+000 90225 -4.8685e+001 -2.2074e+002 -3.2628e+000 44005 89859,90127,90199
 4.4000e+000 90248 -2.1192e+001 -2.1974e+002  1.0781e+000 44005 89859,90199,89885
 4.4000e+000 90297 -6.7086e+001 -2.3118e+002 -1.8702e+000 44005 89781,90127,90271
 4.4000e+000 90320 -7.6904e+001 -2.1665e+002  9.1636e+000 44005 89781,90271,89807
 4.4000e+000 90470 -3.7763e+001 -2.3919e+002 -7.3420e+000 43601 90493,90369,90343
 4.4000e+000 90447 -6.3760e+001 -1.9275e+002  1.4921e+001 43601 90493,90343,90421
 4.4000e+000 90519 -7.7952e+001 -3.2593e+002 -3.7500e+001 43601 90395,90369,90493
 4.4000e+000 90542 -6.0795e+001 -2.2707e+002 -9.2655e+000 43601 90395,90493,90421
 4.4000e+000 90922 -8.2693e+001 -2.5218e+002  1.7074e+001 43154 90945,90700,90674
 4.4000e+000 90899 -7.3562e+001 -2.5704e+002 -2.8238e+001 43154 90945,90674,90648
 4.4000e+000 90876 -8.9596e+001 -2.0421e+002 -1.7780e+001 43154 90648,90778,90752
 4.4000e+000 90853 -4.6284e+001 -4.1512e+002  1.1843e+001 43154 90700,90752,90726
 4.4000e+000 90830 -5.5934e+001 -2.0571e+002 -6.7000e+000 43154 90648,90804,90778
 4.4000e+000 90971 -9.5522e+001 -2.9161e+002  2.4691e+001 43154 90752,90700,90945
 4.4000e+000 90994 -8.3085e+001 -2.8074e+002 -1.9432e+001 43154 90752,90945,90648
 4.4000e+000 91451 -2.1155e+001 -1.9533e+002 -3.5007e+001 42650 91203,91255,91229
 4.4000e+000 91428  2.0403e+001 -1.7716e+002 -1.7069e+001 42650 91203,91333,91255
 4.4000e+000 91405 -2.0048e+000 -2.8584e+002 -4.8789e+001 42650 91177,91333,91203
 4.4000e+000 91382 -8.8307e+001 -3.0509e+002  3.9966e+001 42650 91255,91333,91281
 4.4000e+000 91359 -1.9767e+001 -2.6082e+002  1.8855e+001 42650 91281,91333,91307
 4.4000e+000 91721 -1.2851e+002 -2.9241e+002  2.0188e+001 42288 91496,91600,91522
 4.4000e+000 91698 -6.8832e+001 -1.6986e+002 -7.1279e+000 42288 91496,91626,91600
 4.4000e+000 91675 -8.1632e+001 -2.6605e+002  2.3025e+001 42288 91522,91574,91548
 4.4000e+000 91652 -6.7015e+001 -2.6860e+002  2.0920e+001 42288 91522,91600,91574
 4.4000e+000 92199 -1.9122e+002 -3.1751e+002 -7.6430e+000 41898 92222,91983,91879
 4.4000e+000 92176 -1.9523e+002 -3.4559e+002 -1.8764e+001 41898 92294,92222,91879
 4.4000e+000 92153 -2.0496e+002 -3.4079e+002 -2.6064e+001 41898 92294,91879,91853
 4.4000e+000 92130 -1.6791e+002 -1.9658e+002  2.0942e+001 41898 91879,91957,91931
 4.4000e+000 92107 -1.7276e+002 -3.1044e+002 -7.1138e-001 41898 91879,91983,91957
 4.4000e+000 92084 -1.7714e+002 -1.7737e+002  3.5363e+001 41898 91879,91931,91905
 4.4000e+000 92061 -1.8365e+002 -3.0698e+002 -2.0852e+001 41898 91827,92035,91853
 4.4000e+000 92248 -1.8786e+002 -3.5207e+002 -5.0286e-001 41898 92009,91983,92222
 4.4000e+000 92271 -1.8533e+002 -3.5951e+002 -2.5992e+001 41898 92009,92222,92035
 4.4000e+000 92320 -1.7863e+002 -3.3822e+002 -2.0636e+001 41898 92035,92222,92294
 4.4000e+000 92343 -1.8588e+002 -3.3237e+002 -2.7553e+001 41898 92035,92294,91853
 4.4000e+000 92770 -5.8503e+001 -2.7231e+002 -1.9230e+001 41437 92865,92793,92525
 4.4000e+000 92747 -8.4447e+001 -3.2146e+002 -2.8097e+001 41437 92793,92473,92629
 4.4000e+000 92724 -2.7562e+001 -2.7760e+002 -3.5803e+001 41437 92865,92525,92499
 4.4000e+000 92701 -9.3637e+001 -2.5062e+002 -4.4089e+001 41437 92525,92603,92577
 4.4000e+000 92678  5.1392e-001 -3.1079e+002 -2.5053e+001 41437 92447,92629,92473
 4.4000e+000 92655 -1.4754e+002 -2.2363e+002 -2.5574e+001 41437 92525,92577,92551
 4.4000e+000 92819 -6.8679e+001 -2.9552e+002 -4.3620e+001 41437 92603,92525,92793
 4.4000e+000 92842 -1.3178e+002 -3.1701e+002 -8.0399e+001 41437 92603,92793,92629
 4.4000e+000 92891  3.9022e+000 -3.0128e+002 -2.6921e+001 41437 92473,92793,92865
 4.4000e+000 92914  4.9950e+001 -2.8556e+002 -5.1690e+001 41437 92473,92865,92499
 4.4000e+000 93243 -4.5533e+001 -4.1706e+002  1.5330e+002 41097 93044,93096,93070
 4.4000e+000 93220 -8.1217e+001 -3.6717e+002  8.1630e+001 41097 93044,93122,93096
 4.4000e+000 93197  1.7412e+001 -2.4438e+002  3.2889e+001 41097 93044,93148,93122
 4.4000e+000 93174 -7.0647e+001 -1.9569e+002  7.0940e+001 41097 93018,93148,93044
 4.4000e+000 93393 -7.3151e+000 -3.1068e+002  2.1688e+001 40643 93416,93292,93344
 4.4000e+000 93370 -1.3746e+001 -2.9061e+002  2.3881e+001 40643 93266,93344,93292
 4.4000e+000 93442 -1.1839e+001 -3.0777e+002  2.8677e+001 40643 93318,93292,93416
 4.4000e+000 93901 -9.2954e+001 -2.8324e+002 -1.8980e+001 40132 93924,93731,93705
 4.4000e+000 93878 -9.7892e+001 -2.9264e+002 -2.1424e+001 40132 93996,93924,93705
 4.4000e+000 93855 -1.1579e+002 -3.3651e+002 -7.6995e+000 40132 93996,93705,93653
 4.4000e+000 93832 -4.8937e+001 -3.2427e+002 -1.8685e+001 40132 93653,93705,93679
 4.4000e+000 93809 -9.4942e+001 -2.8327e+002  3.7158e+000 40132 93627,93783,93757
 4.4000e+000 93950 -8.9481e+001 -3.0131e+002 -2.2680e+001 40132 93757,93731,93924
 4.4000e+000 93973 -1.0109e+002 -2.6805e+002 -5.3577e+000 40132 93757,93924,93627
 4.4000e+000 94022 -1.2963e+002 -3.2008e+002  1.0329e+001 40132 93627,93924,93996
 4.4000e+000 94045 -1.2070e+002 -3.3533e+002  2.0393e+001 40132 93627,93996,93653
 4.4000e+000 94423 -1.8679e+001 -3.2981e+002 -4.6213e+001 39514 94149,94227,94175
 4.4000e+000 94400 -3.3338e+001 -3.1151e+002  3.5796e+001 39514 94149,94305,94227
 4.4000e+000 94377  9.6814e+000 -3.8961e+002 -4.4267e+001 39514 94175,94227,94201
 4.4000e+000 94354 -9.6557e+001 -2.8966e+002  1.5639e+001 39514 94227,94305,94279
 4.4000e+000 94331 -4.1021e+001 -2.6381e+002  2.8809e+001 39514 94227,94279,94253
 4.4000e+000 94573 -2.4910e+001 -1.8742e+002 -3.7719e+001 38822 94596,94498,94472
 4.4000e+000 94550  3.8186e+001 -2.0323e+002  4.4999e+001 38822 94596,94472,94446
 4.4000e+000 94622 -9.7848e+001 -2.1867e+002 -3.7285e+001 38822 94524,94498,94596
 4.4000e+000 94645 -8.4169e+001 -2.5709e+002  5.4144e+001 38822 94524,94596,94446
 4.4000e+000 95025 -1.4142e+001 -2.4582e+002 -1.7440e+001 38418 95048,94829,94777
 4.4000e+000 95002 -2.3836e+001 -2.6072e+002 -3.1021e+001 38418 95120,95048,94777
 4.4000e+000 94979 -1.7973e+001 -2.5617e+002 -2.8816e+001 38418 95120,94777,94751
 4.4000e+000 94956 -1.5492e+001 -2.2889e+002 -3.4176e+001 38418 95192,94881,94855
 4.4000e+000 94933 -7.5235e+001 -2.1703e+002 -1.0379e+001 38418 94777,94829,94803
 4.4000e+000 95074 -4.2402e+001 -3.2857e+002 -7.1718e+000 38418 94855,94829,95048
 4.4000e+000 95097 -2.1684e+001 -2.5708e+002 -3.8356e+001 38418 95192,94855,95048
 4.4000e+000 95146 -4.5154e+001 -2.4579e+002 -2.4929e+001 38418 94907,95048,95120
 4.4000e+000 95169 -2.7550e+001 -2.3127e+002 -1.8434e+001 38418 94907,95120,94751
 4.4000e+000 95218 -2.2189e+001 -1.7808e+002 -2.9859e+001 38418 94907,94881,95192
 4.4000e+000 95241 -3.7062e+001 -2.2224e+002 -2.6880e+001 38418 94907,95192,95048
 4.4000e+000 95511 -8.2869e+001 -2.6445e+002  1.2715e+001 38049 95312,95390,95364
 4.4000e+000 95488 -5.6388e+001 -2.5354e+002  1.3185e+001 38049 95312,95416,95390
 4.4000e+000 95465 -2.8582e+001 -2.5324e+002 -1.5420e+001 38049 95312,95364,95338
 4.4000e+000 95442 -2.3175e+001 -2.3640e+002  2.3270e+001 38049 95286,95416,95312
 4.4000e+000 95808 -7.8602e+001 -3.0590e+002 -6.5110e+000 37437 95831,95586,95560
 4.4000e+000 95785  3.0793e+001 -3.2495e+002 -1.4593e+001 37437 95831,95560,95534
 4.4000e+000 95762 -1.5949e+002 -2.9594e+002  7.4292e+000 37437 95586,95664,95638
 4.4000e+000 95739 -2.5490e+001 -1.4931e+002 -8.1017e+001 37437 95534,95690,95664
 4.4000e+000 95716 -1.4572e+002 -2.1457e+002  8.5315e+000 37437 95586,95638,95612
 4.4000e+000 95857 -1.4875e+002 -3.0012e+002  3.7318e+001 37437 95664,95586,95831
 4.4000e+000 95880 -3.2676e+001 -3.1592e+002  3.0685e+001 37437 95664,95831,95534
 4.4000e+000 96390 -1.0618e+002 -2.3214e+002 -1.2277e+001 36883 96413,96145,96093
 4.4000e+000 96367 -8.7860e+001 -2.2289e+002 -6.5390e+000 36883 96413,96093,96067
 4.4000e+000 96344 -6.3460e+001 -2.7089e+002  9.3052e-001 36883 96067,96249,96171
 4.4000e+000 96321 -9.2932e+001 -2.6995e+002 -2.8255e+000 36883 96093,96145,96119
 4.4000e+000 96298 -1.3189e+002 -4.4431e+002  4.1651e+001 36883 96171,96249,96197
 4.4000e+000 96275 -3.8258e+001 -3.5378e+002 -6.6772e+000 36883 96197,96249,96223
 4.4000e+000 96439 -1.0072e+002 -2.2467e+002  3.9997e+000 36883 96171,96145,96413
 4.4000e+000 96462 -8.5735e+001 -2.2116e+002  8.2635e+000 36883 96171,96413,96067
 4.4000e+000 96781 -8.4402e+001 -2.6381e+002 -3.7895e+001 36215 96559,96663,96637
 4.4000e+000 96758 -1.0587e+002 -2.8859e+002 -4.8202e+001 36215 96507,96663,96559
 4.4000e+000 96735 -1.0393e+002 -1.9646e+002  1.9229e+001 36215 96585,96637,96611
 4.4000e+000 96712 -2.1808e+002 -3.0515e+002 -3.2776e+001 36215 96559,96637,96585
 4.4000e+000 96689 -4.1611e+001 -3.3903e+002 -1.0559e+001 36215 96507,96559,96533
 4.4000e+000 97161  5.0065e+000 -1.4388e+002 -7.6882e+000 35818 97184,96965,96939
 4.4000e+000 97138 -1.3110e+001 -1.7217e+002 -1.5664e+001 35818 97184,96939,96887
 4.4000e+000 97115 -5.9439e+000 -1.8170e+002  3.3720e+001 35818 96965,97043,97017
 4.4000e+000 97092 -5.8606e+000 -1.6633e+002 -1.9575e+001 35818 96887,96939,96913
 4.4000e+000 97069 -9.5683e+001 -1.8545e+002  2.0940e+001 35818 96965,97017,96991
 4.4000e+000 97210  2.4230e+001 -1.6794e+002  7.8119e+000 35818 97043,96965,97184
 4.4000e+000 97233  1.0387e+001 -1.8827e+002  1.6303e+000 35818 97043,97184,96887
 4.4000e+000 97739 -8.6479e+001 -2.6557e+002 -6.3119e+001 35214 97416,97468,97442
 4.4000e+000 97716 -1.0227e+002 -1.9153e+002 -2.0277e+001 35214 97416,97598,97468
 4.4000e+000 97693 -9.0400e+001 -1.8161e+002 -7.6855e+000 35214 97762,97520,97468
 4.4000e+000 97670 -9.3339e+001 -1.8666e+002 -1.6049e+001 35214 97762,97468,97598
 4.4000e+000 97647 -6.9195e+001 -1.7998e+002 -2.5617e+001 35214 97546,97598,97572
 4.4000e+000 97624 -5.5121e+001 -1.8987e+002 -1.0177e+001 35214 97468,97520,97494
 4.4000e+000 97788 -9.3713e+001 -1.9129e+002 -1.1220e+001 35214 97546,97520,97762
 4.4000e+000 97811 -9.4503e+001 -1.9527e+002 -1.9030e+001 35214 97546,97762,97598
 4.4000e+000 98189 -1.4434e+001 -1.4037e+002 -1.3611e+001 34760 98356,98212,97967
 4.4000e+000 98166 -3.1882e+001 -1.7059e+002 -2.7639e+001 34760 98284,98212,97941
 4.4000e+000 98143 -6.1385e+001 -1.5380e+002 -1.4300e+001 34760 98284,97941,97915
 4.4000e+000 98120 -1.7765e+001 -1.9164e+002 -6.4259e+000 34760 98484,97993,97967
 4.4000e+000 98097 -1.5289e+001 -1.5868e+002 -5.0251e+000 34760 98556,98045,98019
 4.4000e+000 98238 -2.7291e+001 -1.7902e+002 -6.8185e+000 34760 98484,97967,98212
 4.4000e+000 98261 -4.6592e-001 -1.6460e+002 -1.2665e+001 34760 98556,98019,98212
 4.4000e+000 98310 -7.1695e+000 -1.4013e+002 -3.9116e+001 34760 98071,98212,98284
 4.4000e+000 98333 -2.6256e+001 -9.8619e+001 -3.1641e+001 34760 98071,98284,97915
 4.4000e+000 98382 -8.6549e+001 -1.8945e+002 -3.5733e+001 34760 97941,98212,98356
 4.4000e+000 98510 -2.9830e+000 -1.8062e+002 -1.1766e+001 34760 98019,97993,98484
 4.4000e+000 98533 -1.8180e+001 -1.7265e+002 -1.0767e+001 34760 98019,98484,98212
 4.4000e+000 98582  3.5144e+000 -1.5014e+002 -1.7005e+000 34760 98071,98045,98556
 4.4000e+000 98605  9.7732e+000 -1.6135e+002 -1.0875e+001 34760 98071,98556,98212
 4.4000e+000 99032 -1.0601e+002 -2.4329e+002  3.6216e+001 34156 98735,98891,98839
 4.4000e+000 99009 -8.7927e+001 -2.5145e+002  1.5604e+001 34156 98709,98891,98735
 4.4000e+000 98986 -2.9909e+001 -2.1495e+002  3.3371e+001 34156 98735,98813,98787
 4.4000e+000 98963 -3.6482e+001 -2.3581e+002  2.8348e+001 34156 98735,98839,98813
 4.4000e+000 98940  1.5208e+001 -3.2286e+002  3.7806e+001 34156 98735,98787,98761
 4.4000e+000 98917 -9.3811e+001 -2.1221e+002  2.2341e+001 34156 98839,98891,98865
 4.4000e+000 99231 -2.9618e+001 -1.2749e+002  1.1604e+001 33766 99055,99133,99107
 4.4000e+000 99208 -5.4496e+001 -1.7083e+002  2.3803e+001 33766 99055,99159,99133
 4.4000e+000 99185 -1.2610e+001 -1.4660e+002  2.9873e+001 33766 99055,99107,99081
 4.4000e+000 99818 -5.7355e+001 -1.7783e+002  3.5598e+000 33248 99521,99651,99573
 4.4000e+000 99795 -5.8350e+001 -1.7023e+002  1.7628e+001 33248 99521,99677,99651
 4.4000e+000 99772 -8.8438e+001 -2.1490e+002 -1.2049e+001 33248 99573,99651,99599
 4.4000e+000 99749 -6.0358e+001 -2.1186e+002  1.9488e+001 33248 99495,99677,99521
 4.4000e+000 99726 -3.7878e+001 -1.8310e+002 -4.5336e+001 33248 99599,99651,99625
 4.4000e+000 99703 -7.3530e+001 -2.1332e+002  1.2365e+001 33248 99521,99573,99547
 4.4000e+000 100196 -6.3561e+001 -1.9733e+002 -3.7998e+001 32794 100219,99948,99922
 4.4000e+000 100173 -7.5106e+001 -2.2195e+002 -1.8774e+001 32794 100219,99922,100052
 4.4000e+000 100150 -1.0210e+002 -2.0267e+002  1.2507e+001 32794 99974,100052,100026
 4.4000e+000 100127 -9.2054e+001 -1.7890e+002 -3.0428e+001 32794 99922,100078,100052
 4.4000e+000 100104 -1.0582e+002 -2.4452e+002  4.5861e+001 32794 99974,100026,100000
 4.4000e+000 100245 -8.5162e+001 -1.9226e+002 -1.3885e+001 32794 99974,99948,100219
 4.4000e+000 100268 -9.3132e+001 -2.2549e+002  5.4141e+000 32794 99974,100219,100052
 4.4000e+000 100418 -1.5092e+001 -1.8773e+002 -2.0090e+001 32504 100571,100343,100317
 4.4000e+000 100395 -7.6394e+001 -2.1556e+002  1.8629e+001 32504 100571,100317,100441
 4.4000e+000 100467  5.0530e+001 -1.0546e+002 -5.5868e+001 32504 100291,100369,100441
 4.4000e+000 100597  1.1870e+001 -1.5846e+002 -6.7935e+001 32504 100369,100343,100571
 4.4000e+000 100620 -1.5681e+001 -1.4818e+002 -3.4548e+001 32504 100369,100571,100441
 4.4000e+000 101020 -2.4922e+001 -1.5427e+002  6.0781e+000 32142 100772,100902,100876
 4.4000e+000 100997 -1.6462e+001 -1.3876e+002  9.5641e+000 32142 100746,100902,100772
 4.4000e+000 100974 -8.1191e-001 -1.6948e+002  2.1088e+001 32142 101043,100824,100798
 4.4000e+000 100951 -2.9096e+001 -1.8251e+002  1.5703e+001 32142 101043,100798,100772
 4.4000e+000 100928 -9.7475e+001 -2.1411e+002 -5.3049e+001 32142 101115,100876,100850
 4.4000e+000 101069  3.2470e+001 -1.8553e+002 -1.9143e+001 32142 100850,100824,101043
 4.4000e+000 101092 -4.7968e+001 -2.2007e+002 -2.5405e+001 32142 101115,100850,101043
 4.4000e+000 101141 -3.6669e+001 -1.8031e+002 -1.9178e+001 32142 100772,100876,101115
 4.4000e+000 101164  1.4285e+000 -1.8454e+002  1.1031e+001 32142 100772,101115,101043
 4.4000e+000 101719 -1.0463e+002 -2.5008e+002  3.3668e+001 31538 101742,101477,101399
 4.4000e+000 101696 -1.2832e+002 -3.0421e+002  7.8260e+000 31538 101814,101742,101399
 4.4000e+000 101673 -1.4733e+002 -2.6205e+002 -2.0822e+001 31538 101814,101399,101373
 4.4000e+000 101650 -1.0469e+002 -1.8008e+002  2.2646e+001 31538 101425,101477,101451
 4.4000e+000 101627 -9.8191e+001 -2.1123e+002  6.0339e+000 31538 101399,101477,101425
 4.4000e+000 101604 -6.4335e+001 -2.9239e+002  6.1766e+001 31538 101477,101529,101503
 4.4000e+000 101581 -3.9311e+001 -1.7914e+002 -1.6981e+001 31538 101347,101555,101373
 4.4000e+000 101768 -1.2001e+002 -3.0717e+002  3.3382e+001 31538 101529,101477,101742
 4.4000e+000 101791 -1.0299e+002 -3.1479e+002 -1.0347e+001 31538 101529,101742,101555
 4.4000e+000 101840 -8.0465e+001 -2.6129e+002 -1.1814e+001 31538 101555,101742,101814
 4.4000e+000 101863 -1.0800e+002 -2.2696e+002 -3.8025e+001 31538 101555,101814,101373
 4.4000e+000 102111 -1.5518e+002 -3.9591e+002  5.0320e+001 31112 101886,101990,101912
 4.4000e+000 102088 -5.9084e+001 -2.3886e+002  2.9607e+000 31112 101886,102016,101990
 4.4000e+000 102065 -7.3200e+001 -3.8580e+002  7.9327e+001 31112 101912,101990,101964
 4.4000e+000 102042 -1.1565e+002 -4.8567e+002  9.3569e+001 31112 101912,101964,101938
 4.4000e+000 102408 -3.5888e+001 -2.4141e+002  1.9235e+001 30658 102431,102186,102160
 4.4000e+000 102385 -7.9871e+001 -2.3898e+002 -1.1710e-001 30658 102431,102160,102264
 4.4000e+000 102362 -7.7141e+001 -2.6124e+002  3.8155e+000 30658 102186,102238,102212
 4.4000e+000 102339 -8.7050e+001 -2.5359e+002 -1.5363e+001 30658 102134,102264,102160
 4.4000e+000 102316 -6.0029e+001 -2.1243e+002 -7.0202e+001 30658 102134,102290,102264
 4.4000e+000 102457 -7.2746e+001 -2.5442e+002  9.8889e+000 30658 102238,102186,102431
 4.4000e+000 102480 -1.1974e+002 -2.5618e+002 -1.1257e+001 30658 102238,102431,102264
 4.4000e+000 102681 -3.0563e+001 -2.9155e+002  4.4610e+001 30004 102704,102557,102505
 4.4000e+000 102658 -3.9054e+001 -2.9189e+002  4.4743e+001 30004 102704,102505,102609
 4.4000e+000 102635  6.0385e+000 -2.5104e+002  1.1765e+001 30004 102505,102557,102531
 4.4000e+000 102730 -3.7203e+001 -2.8460e+002  4.0142e+001 30004 102583,102557,102704
 4.4000e+000 102753 -5.5416e+001 -2.9124e+002  4.1006e+001 30004 102583,102704,102609
 4.4000e+000 103003 -3.3146e+001 -2.3384e+002 -1.8570e+001 29564 103026,102804,102778
 4.4000e+000 102980 -4.1963e+001 -2.7847e+002 -2.9030e+001 29564 103026,102778,102908
 4.4000e+000 102957 -4.3334e+001 -2.3756e+002 -3.3787e+000 29564 102856,102908,102882
 4.4000e+000 102934 -5.8648e+001 -2.1104e+002  1.4712e+001 29564 102804,102856,102830
 4.4000e+000 103052 -2.9017e+001 -2.1155e+002  1.1657e+001 29564 102856,102804,103026
 4.4000e+000 103075 -4.1640e+001 -2.4789e+002 -2.9714e+000 29564 102856,103026,102908
 4.4000e+000 103634 -1.0490e+002 -2.6187e+002 -3.2210e+001 29160 103657,103418,103392
 4.4000e+000 103611 -1.0025e+002 -2.5355e+002 -1.6291e+001 29160 103657,103392,103314
 4.4000e+000 103588 -7.2784e+001 -2.2003e+002 -2.8158e+001 29160 103314,103392,103366
 4.4000e+000 103565 -6.5522e+001 -2.3303e+002 -3.1428e+001 29160 103314,103366,103340
 4.4000e+000 103542 -1.2728e+002 -2.5149e+002 -2.8280e+001 29160 103262,103444,103314
 4.4000e+000 103519 -1.5099e+002 -2.9947e+002 -3.9221e+001 29160 103262,103314,103288
 4.4000e+000 103496 -9.7569e+001 -2.7430e+002 -1.1297e+001 29160 103262,103470,103444
 4.4000e+000 103683 -1.2890e+002 -2.7990e+002 -4.8418e+001 29160 103444,103418,103657
 4.4000e+000 103706 -1.1014e+002 -2.5288e+002 -3.0131e+001 29160 103444,103657,103314
 4.4000e+000 104035 -6.8925e+001 -2.5174e+002  2.3979e+001 28770 103836,103914,103862
 4.4000e+000 104012 -6.6715e+001 -2.4085e+002  3.1532e+001 28770 103810,103914,103836
 4.4000e+000 103989  1.5845e+001 -2.1912e+002  3.9596e+001 28770 103810,103940,103914
 4.4000e+000 103966 -1.4566e+001 -2.0114e+002  4.8261e+001 28770 103862,103914,103888
 4.4000e+000 104185 -2.6100e+001 -2.3140e+002  4.3783e+001 28366 104208,104110,104084
 4.4000e+000 104162 -2.3206e+001 -1.9729e+002  3.4792e+001 28366 104280,104208,104084
 4.4000e+000 104234  4.6242e+001 -2.2931e+002  2.8553e+001 28366 104610,104208,104136
 4.4000e+000 104257 -4.3278e+001 -2.1843e+002  2.7908e+001 28366 104538,104410,104208
 4.4000e+000 104306 -7.2144e+001 -2.2109e+002  2.7295e+001 28366 104538,104208,104280
 4.4000e+000 104436 -1.6741e+001 -2.3613e+002  4.2244e+000 28366 104136,104208,104410
 4.4000e+000 104564 -7.3497e+001 -2.1711e+002  1.2642e+001 28366 104058,104410,104538
 4.4000e+000 104587 -9.1322e+001 -2.1311e+002  1.0039e+001 28366 104058,104538,104280
 4.4000e+000 104636  3.4361e+001 -2.3314e+002  3.4363e+001 28366 104110,104208,104610
 4.4000e+000 105349 -5.6754e+001 -2.1047e+002 -2.2396e+001 27976 105516,105372,105107
 4.4000e+000 105326 -8.7373e+001 -2.1028e+002  5.0541e+000 27976 105588,105372,105055
 4.4000e+000 105303 -9.3502e+001 -2.0508e+002 -2.0129e+001 27976 105444,105159,105133
 4.4000e+000 105280 -3.2593e+001 -2.1887e+002 -1.3469e+001 27976 105516,105107,105081
 4.4000e+000 105257 -8.0526e+001 -2.3344e+002  2.0297e+001 27976 105588,105055,105029
 4.4000e+000 105234 -4.4401e+001 -1.7974e+002  1.9537e+000 27976 105003,105185,105159
 4.4000e+000 105211 -6.1933e+001 -1.4600e+002  2.5513e+001 27976 104977,105185,105003
 4.4000e+000 105398 -4.5301e+001 -2.1009e+002 -2.8483e+001 27976 105133,105107,105372
 4.4000e+000 105421 -7.5754e+001 -2.1826e+002 -1.2365e+001 27976 105444,105133,105372
 4.4000e+000 105470 -7.6733e+001 -1.8224e+002 -1.1163e+001 27976 105003,105159,105444
 4.4000e+000 105493 -6.4390e+001 -1.9778e+002 -7.3199e+000 27976 105003,105444,105372
 4.4000e+000 105542 -4.0555e+001 -2.0762e+002 -2.5643e+000 27976 105055,105372,105516
 4.4000e+000 105565 -4.6750e+000 -2.1147e+002  3.9303e+000 27976 105055,105516,105081
 4.4000e+000 105614 -1.0156e+002 -2.3312e+002  1.6118e+001 27976 105003,105372,105588
 4.4000e+000 105637 -9.8436e+001 -2.5602e+002  3.2732e+001 27976 105003,105588,105029
 4.4000e+000 106143 -9.8652e+001 -3.1605e+002  1.8639e+001 27664 106166,105846,105820
 4.4000e+000 106120 -6.9119e+001 -2.4202e+002  8.0754e+000 27664 106310,106166,105820
 4.4000e+000 106097 -3.3748e+001 -2.8124e+002 -5.9293e+001 27664 106382,106238,105950
 4.4000e+000 106074 -4.5844e+001 -2.3730e+002  8.4727e+000 27664 106310,105820,106002
 4.4000e+000 106051  1.9265e+001 -2.5424e+002 -4.9941e+001 27664 106382,105950,105924
 4.4000e+000 106028 -1.7191e+001 -4.4269e+002 -1.8371e+001 27664 105846,105898,105872
 4.4000e+000 106192 -8.8536e+001 -3.5147e+002 -4.5569e+001 27664 105898,105846,106166
 4.4000e+000 106215 -5.4516e+001 -2.9335e+002 -1.9314e+001 27664 106238,105898,106166
 4.4000e+000 106264 -1.5902e+002 -3.1478e+002 -7.6467e+001 27664 105976,105950,106238
 4.4000e+000 106287 -5.5638e+001 -2.9173e+002 -1.9684e+001 27664 105976,106238,106166
 4.4000e+000 106336 -4.5713e+001 -2.5542e+002  2.9515e+001 27664 105976,106166,106310
 4.4000e+000 106359 -1.8963e+001 -2.4885e+002  2.9006e+001 27664 105976,106310,106002
 4.4000e+000 106408 -5.9066e+001 -2.4107e+002 -7.1766e-002 27664 105898,106238,106382
 4.4000e+000 106431 -2.5961e+001 -2.2580e+002  4.4615e+000 27664 105898,106382,105924
 4.4000e+000 106728 -2.6348e+001 -1.7070e+002  3.1054e+001 27153 106751,106506,106454
 4.4000e+000 106705 -2.5313e+001 -1.7285e+002  2.6055e+001 27153 106751,106454,106610
 4.4000e+000 106682 -4.3504e+001 -1.2621e+002  4.5074e+000 27153 106454,106506,106480
 4.4000e+000 106659 -3.9457e+001 -1.6625e+002  1.7468e+001 27153 106532,106610,106584
 4.4000e+000 106636 -6.7449e+001 -9.9634e+001  3.5019e+001 27153 106532,106584,106558
 4.4000e+000 106777 -1.9807e+001 -1.6863e+002  3.2371e+001 27153 106532,106506,106751
 4.4000e+000 106800 -2.0201e+001 -1.7126e+002  2.6489e+001 27153 106532,106751,106610
 4.4000e+000 107180 -3.1248e+001 -2.0278e+002  1.4278e+001 26642 107203,106984,106958
 4.4000e+000 107157 -1.0431e+002 -2.3613e+002  4.6722e+000 26642 107203,106958,106932
 4.4000e+000 107134 -1.1910e+002 -2.5752e+002 -3.9372e+001 26642 107275,107036,107010
 4.4000e+000 107111 -7.6606e+001 -2.5901e+002 -4.6141e+001 26642 106932,107062,107036
 4.4000e+000 107088 -2.9208e+000 -2.0394e+002  2.4953e+001 26642 106906,107062,106932
 4.4000e+000 107229  3.4858e+000 -1.9172e+002 -6.2555e+001 26642 107010,106984,107203
 4.4000e+000 107252 -1.0631e+002 -2.4006e+002 -4.6151e+001 26642 107275,107010,107203
 4.4000e+000 107301 -1.0381e+002 -2.5530e+002 -4.8853e+001 26642 106932,107036,107275
 4.4000e+000 107324 -9.9646e+001 -2.5551e+002 -5.0907e+001 26642 106932,107275,107203
 4.4000e+000 107675 -5.5062e+001 -1.5681e+002  1.5583e+001 26045 107450,107554,107476
 4.4000e+000 107652 -4.2276e+001 -1.3610e+002  4.0006e+000 26045 107450,107580,107554
 4.4000e+000 107629 -1.7029e+001 -1.4322e+002  6.3988e+000 26045 107476,107528,107502
 4.4000e+000 107606 -1.5054e+001 -1.4808e+002  8.0649e+000 26045 107476,107554,107528
 4.4000e+000 107874 -3.9784e+001 -2.3555e+002  5.9205e+001 25641 107750,107802,107776
 4.4000e+000 107851 -4.8934e+001 -1.6129e+002  3.1957e+001 25641 107724,107802,107750
 4.4000e+000 107828 -4.6404e+001 -1.6350e+002  2.7928e+001 25641 107698,107802,107724
 4.4000e+000 108431 -2.1071e+001 -2.5200e+002  4.4630e+001 25023 108526,108267,108241
 4.4000e+000 108408 -5.8161e-002 -2.4114e+002  8.1245e+000 25023 108059,108267,108085
 4.4000e+000 108385 -3.4139e+001 -2.5520e+002  4.5812e+001 25023 108454,108163,108111
 4.4000e+000 108362 -1.1357e+002 -2.5870e+002  7.4699e+001 25023 108454,108111,108085
 4.4000e+000 108339 -9.1081e+001 -3.3879e+002  8.0944e+001 25023 108111,108163,108137
 4.4000e+000 108316 -5.9192e+001 -1.8490e+002 -1.0845e+001 25023 108163,108241,108215
 4.4000e+000 108293  2.6009e+001 -1.4723e+002 -3.1213e+000 25023 108163,108215,108189
 4.4000e+000 108480 -7.6282e+000 -2.2915e+002  3.9923e+000 25023 108241,108163,108454
 4.4000e+000 108503 -3.7727e+001 -2.4440e+002  4.2768e+001 25023 108526,108241,108454
 4.4000e+000 108552 -4.0484e+001 -2.5555e+002  3.5547e+001 25023 108085,108267,108526
 4.4000e+000 108575 -5.8176e+001 -2.4916e+002  3.3246e+001 25023 108085,108526,108454
 4.4000e+000 108823  7.7956e-001 -1.8482e+002  2.6203e+001 24461 108624,108728,108650
 4.4000e+000 108800 -2.7458e+001 -3.8057e+002 -2.5965e+001 24461 108598,108728,108624
 4.4000e+000 108777  1.0860e+000 -2.4749e+002  1.9782e+001 24461 108650,108728,108676
 4.4000e+000 108754 -1.0929e+002 -7.0408e+002  5.9922e+001 24461 108676,108728,108702
 4.4000e+000 109022 -6.6996e+001 -1.9073e+002  2.6038e+001 24121 108872,108924,108898
 4.4000e+000 108999 -4.7000e+001 -1.8459e+002  3.0364e+001 24121 108846,108924,108872
 4.4000e+000 108976 -7.7593e+001 -1.9790e+002  3.2079e+001 24121 108846,108950,108924
 4.4000e+000 109483 -7.8395e+001 -2.5996e+002 -2.4461e+001 23717 109209,109339,109235
 4.4000e+000 109460 -2.9748e+001 -2.9581e+002 -5.9599e+001 23717 109209,109365,109339
 4.4000e+000 109437 -2.2894e+000 -3.3291e+002 -2.0143e+001 23717 109287,109339,109313
 4.4000e+000 109414 -1.4972e+002 -3.3137e+002  2.0216e+001 23717 109235,109339,109287
 4.4000e+000 109391  1.4627e+000 -3.7973e+002  1.3881e+002 23717 109235,109287,109261
 4.4000e+000 109910 -1.0462e+002 -3.0283e+002 -3.2902e+001 23305 109613,109743,109717
 4.4000e+000 109887 -1.0263e+002 -3.0473e+002 -1.7324e+001 23305 109613,109769,109743
 4.4000e+000 109864 -1.2289e+002 -2.9365e+002 -2.9037e+001 23305 109613,109717,109639
 4.4000e+000 109841 -8.1606e+001 -2.8306e+002 -7.0871e+000 23305 109587,109769,109613
 4.4000e+000 109818  2.3236e+000 -2.4015e+002  2.2603e+001 23305 109639,109717,109691
 4.4000e+000 109795 -2.6595e+001 -1.9247e+002 -4.5035e+001 23305 109639,109691,109665
 4.4000e+000 110180 -4.8001e+000 -8.5743e+001 -1.9938e+001 22851 110007,110059,110033
 4.4000e+000 110157 -5.9899e+001 -2.3633e+002  1.0820e+001 22851 109981,110059,110007
 4.4000e+000 110134 -8.5194e+001 -2.5569e+002  1.5837e+000 22851 109955,110059,109981
 4.4000e+000 110111 -3.4120e+001 -2.8177e+002 -2.1546e+001 22851 109955,110085,110059
 4.4000e+000 110737 -3.4509e+001 -2.6779e+002 -7.2702e+001 22333 110760,110469,110391
 4.4000e+000 110714 -8.9136e+000 -3.1113e+002 -5.5199e+001 22333 110760,110391,110365
 4.4000e+000 110691 -2.3385e+001 -2.4425e+002 -6.0054e+001 22333 110832,110521,110469
 4.4000e+000 110668 -5.9864e+001 -4.9157e+002  3.9516e+001 22333 110417,110469,110443
 4.4000e+000 110645 -1.2480e+002 -4.2172e+002  1.8487e+001 22333 110391,110469,110417
 4.4000e+000 110622 -3.6282e+000 -2.4681e+002 -2.9197e+001 22333 110469,110521,110495
 4.4000e+000 110599 -1.8607e+001 -1.6802e+002  1.9974e+001 22333 110365,110573,110547
 4.4000e+000 110786 -1.8097e+001 -2.4957e+002 -6.5801e+001 22333 110832,110469,110760
 4.4000e+000 110809  1.8733e+001 -2.6810e+002 -4.3116e+001 22333 110547,110760,110365
 4.4000e+000 110858 -2.0098e+001 -2.5664e+002 -5.9743e+001 22333 110547,110521,110832
 4.4000e+000 110881 -2.1977e+001 -2.6921e+002 -6.7455e+001 22333 110547,110832,110760
 4.4000e+000 111308 -1.3730e+002 -3.2742e+002  2.0841e+001 21829 111331,111063,111011
 4.4000e+000 111285 -1.2177e+002 -3.0192e+002 -6.0308e+000 21829 111331,111011,111167
 4.4000e+000 111262 -1.4159e+002 -3.2477e+002  2.2015e+001 21829 111403,111089,111063
 4.4000e+000 111239 -1.7443e+002 -3.4363e+002  5.0194e+001 21829 111011,111063,111037
 4.4000e+000 111216 -7.9770e+001 -2.2246e+002  1.1196e+001 21829 110985,111167,111011
 4.4000e+000 111193 -1.6451e+002 -5.3484e+002  1.1785e+002 21829 111089,111141,111115
 4.4000e+000 111357 -1.3667e+002 -3.2881e+002  2.1974e+001 21829 111403,111063,111331
 4.4000e+000 111380 -1.4129e+002 -3.4331e+002 -6.5225e-001 21829 111141,111331,111167
 4.4000e+000 111429 -1.4917e+002 -3.3069e+002  2.6142e+001 21829 111141,111089,111403
 4.4000e+000 111452 -1.4197e+002 -3.3611e+002  2.4591e+001 21829 111141,111403,111331
 4.4000e+000 112056  1.0606e+002 -2.3737e+002  4.7970e+000 21489 111687,111765,111739
 4.4000e+000 112033  2.8186e+001 -2.7533e+002  2.8840e+001 21489 112151,112079,111687
 4.4000e+000 112010  3.1206e-001 -4.3197e+002  2.8599e+001 21489 111791,111843,111817
 4.4000e+000 111987 -7.1009e+001 -3.4296e+002 -2.6552e+001 21489 112079,111843,111791
 4.4000e+000 111964  7.0214e+001 -2.5470e+002  5.3645e+001 21489 112151,111687,111661
 4.4000e+000 111941 -1.5899e+001 -1.8735e+002  4.4469e+001 21489 111661,111869,111843
 4.4000e+000 111918  1.0330e+002 -2.6003e+002  3.8654e+001 21489 111687,111739,111713
 4.4000e+000 111895  2.6453e+001 -8.8969e+001  1.4109e+001 21489 111635,111869,111661
 4.4000e+000 112105 -3.6952e+001 -3.0064e+002  1.6122e+001 21489 111765,111687,112079
 4.4000e+000 112128 -3.3278e+001 -2.8447e+002  1.5894e+001 21489 111765,112079,111791
 4.4000e+000 112177 -4.3056e+001 -2.7087e+002 -7.0576e+000 21489 111843,112079,112151
 4.4000e+000 112200 -4.5613e+000 -2.6269e+002  1.3097e+001 21489 111843,112151,111661
 4.4000e+000 112578 -5.6757e+001 -3.4595e+002  1.6110e+001 21177 112382,112434,112408
 4.4000e+000 112555 -7.3058e+001 -3.4326e+002  6.3351e-001 21177 112330,112434,112382
 4.4000e+000 112532 -5.2963e+001 -2.9033e+002  5.4991e+001 21177 112304,112434,112330
 4.4000e+000 112509 -7.3088e+001 -3.2759e+002  0.0000e+000 21177 112330,112382,112356
 4.4000e+000 112486 -1.4820e+001 -1.7058e+002  9.5237e+000 21177 112304,112460,112434
 4.4000e+000 112679 -3.2869e+000 -1.9800e+002 -4.3113e+001 20666 112601,112653,112627
 4.4000e+000 112927 -1.0366e+002 -3.4196e+002  1.2313e+001 19762 112702,112754,112728
 4.4000e+000 112904 -3.9092e+001 -3.2975e+002 -2.4073e+000 19762 112702,112832,112754
 4.4000e+000 112881 -8.7819e+001 -3.5518e+002  5.7538e+001 19762 112754,112832,112806
 4.4000e+000 112858 -1.2259e+002 -4.4405e+002  5.6605e+001 19762 112754,112806,112780
 4.4000e+000 113297 -9.4351e+001 -4.1724e+002  2.6848e+001 19308 112974,113052,113026
 4.4000e+000 113274 -6.3701e+001 -3.4948e+002  9.1350e+000 19308 112974,113156,113052
 4.4000e+000 113251 -3.3213e+001 -4.6194e+002 -5.5665e+001 19308 113052,113130,113104
 4.4000e+000 113228 -6.9160e+001 -3.4820e+002 -1.7979e-001 19308 113052,113156,113130
 4.4000e+000 113205 -6.5514e+001 -4.0278e+002  0.0000e+000 19308 113052,113104,113078
 4.4000e+000 113182 -1.3440e+002 -4.3468e+002 -1.4189e+000 19308 112974,113026,113000
 4.4000e+000 113547 -2.8658e+000 -3.7706e+002 -2.5933e+001 18711 113570,113374,113348
 4.4000e+000 113524 -1.5510e+001 -3.4388e+002 -1.4990e+001 18711 113570,113348,113452
 4.4000e+000 113501 -5.3451e+000 -2.5951e+002 -7.4304e+001 18711 113322,113452,113348
 4.4000e+000 113478 -3.4536e+001 -3.3678e+002 -1.2616e+002 18711 113374,113426,113400
 4.4000e+000 113596 -7.1109e-001 -3.4056e+002 -3.4293e+001 18711 113426,113374,113570
 4.4000e+000 113619 -1.5982e+001 -3.1280e+002 -1.6452e+001 18711 113426,113570,113452
 4.4000e+000 113771 -1.9189e+002 -4.7314e+002 -2.5057e+001 18307 113670,113722,113696
 4.4000e+000 113748 -1.4995e+002 -4.4682e+002 -1.1875e+001 18307 113644,113722,113670
 4.4000e+000 113972 -8.3186e+001 -3.9809e+002  8.1560e+000 17945 113822,113874,113848
 4.4000e+000 113949 -8.5008e+001 -3.9642e+002  9.5527e+000 17945 113822,113900,113874
 4.4000e+000 113926 -1.1626e+002 -3.1465e+002  1.6505e+002 17945 113796,113900,113822
 4.4000e+000 114075 -5.8411e+001 -5.8671e+002  6.3014e+001 17482 113997,114049,114023
 4.4000e+000 114479 -2.0727e+001 -3.2252e+002 -4.9665e+001 17042 114257,114361,114335
 4.4000e+000 114456 -7.5860e+001 -3.1345e+002 -7.6994e+000 17042 114205,114361,114257
 4.4000e+000 114433 -8.7712e+001 -3.6172e+002  1.3758e+001 17042 114205,114257,114231
 4.4000e+000 114410  7.4287e+001 -4.7761e+002 -3.0664e+001 17042 114283,114335,114309
 4.4000e+000 114387 -2.5104e+000 -4.1513e+002 -2.0917e+001 17042 114257,114335,114283
 4.4000e+000 114879 -1.8267e+002 -3.3434e+002 -4.6156e+000 16638 114631,114683,114657
 4.4000e+000 114856 -3.6347e+001 -2.7385e+002  4.2186e+000 16638 114605,114683,114631
 4.4000e+000 114833  4.2904e+001 -1.5219e+002 -3.4919e+001 16638 114605,114761,114683
 4.4000e+000 114810 -1.3839e+001 -3.7296e+002 -1.8442e+001 16638 114683,114735,114709
 4.4000e+000 114787 -3.2114e+001 -3.8892e+002 -2.6460e+001 16638 114683,114761,114735
 4.4000e+000 115078 -1.6011e+002 -3.6271e+002  9.4578e+000 16232 114954,115006,114980
 4.4000e+000 115055 -1.6027e+002 -4.0086e+002  1.7844e+001 16232 114928,115006,114954
 4.4000e+000 115032 -7.7290e+001 -4.9764e+002  3.3984e+001 16232 114902,115006,114928
 4.4000e+000 115228 -9.3433e+001 -3.6119e+002  1.1579e+001 15482 115101,115153,115127
 4.4000e+000 115205 -8.3940e+001 -3.4239e+002 -3.6143e+000 15482 115101,115179,115153
 4.4000e+000 115331 -7.1665e+001 -3.3092e+002 -4.2362e+001 15163 115253,115305,115279
 4.4000e+000 115434 -1.1501e+002 -3.6162e+002  6.1748e+001 421 115356,115408,115382
 4.5000e+000 68213 -2.1541e+001 -1.8949e+002 -1.9264e+001 67888 68112,68164,68138
 4.5000e+000 68190 -2.2948e+002 -2.5008e+002 -3.3347e+001 67888 68086,68164,68112
 4.5000e+000 68314 -2.2212e+001 -2.6809e+002  2.5638e+001 67576 68236,68288,68262
 4.5000e+000 68584 -9.7603e+001 -4.8817e+002  2.3074e+001 67378 68385,68489,68463
 4.5000e+000 68561 -3.8664e+001 -4.5898e+002  1.1638e+001 67378 68359,68489,68385
 4.5000e+000 68538 -7.3157e+001 -4.1987e+002  3.3478e+001 67378 68385,68463,68411
 4.5000e+000 68515 -3.8805e+001 -2.7518e+002  2.1342e+001 67378 68411,68463,68437
 4.5000e+000 68964 -1.0927e+002 -4.3201e+002  6.3177e+001 67130 68690,68820,68716
 4.5000e+000 68941  7.9051e+001 -4.4550e+002  1.1818e+002 67130 68690,68846,68820
 4.5000e+000 68918 -9.7077e+001 -2.8966e+002  6.2299e+000 67130 68742,68820,68794
 4.5000e+000 68895 -2.6108e+001 -2.9009e+002  2.5731e+001 67130 68716,68820,68742
 4.5000e+000 68872 -6.5855e+001 -2.4741e+002 -3.0073e+001 67130 68742,68794,68768
 4.5000e+000 69065 -8.6163e+001 -2.5767e+002  5.1548e+000 66926 68987,69039,69013
 4.5000e+000 69445 -4.7031e+001 -2.3499e+002 -1.2767e+001 66614 69223,69301,69275
 4.5000e+000 69422 -7.4470e+001 -2.5059e+002 -5.0720e+000 66614 69171,69301,69223
 4.5000e+000 69399 -8.5304e+001 -2.5530e+002  6.8174e-002 66614 69171,69327,69301
 4.5000e+000 69376 -1.7527e+001 -1.1387e+002  1.5157e+000 66614 69223,69275,69249
 4.5000e+000 69353 -6.5634e+001 -2.6469e+002 -5.0102e+000 66614 69171,69223,69197
 4.5000e+000 69546 -7.9387e+001 -3.9460e+002  2.0807e+001 66416 69468,69520,69494
 4.5000e+000 69997 -7.2280e+001 -3.9988e+002 -3.1365e+001 66104 69700,69830,69726
 4.5000e+000 69974 -1.0490e+002 -4.8886e+002 -6.5025e+001 66104 69700,69856,69830
 4.5000e+000 69951 -7.5564e+001 -3.0929e+002 -2.2384e+001 66104 69726,69804,69778
 4.5000e+000 69928 -6.2394e+001 -3.7400e+002 -3.1736e+001 66104 69726,69830,69804
 4.5000e+000 69905 -7.9889e+001 -2.9583e+002 -1.1668e+001 66104 69726,69778,69752
 4.5000e+000 69882 -3.2773e+001 -6.7060e+002 -1.2217e+002 66104 69674,69856,69700
 4.5000e+000 70326 -7.1944e+001 -1.8669e+002  4.9718e+000 65814 70349,70153,70127
 4.5000e+000 70303 -4.5378e+001 -1.8290e+002  8.6962e+000 65814 70349,70127,70101
 4.5000e+000 70280 -4.0634e+001 -1.6989e+002  6.8065e+001 65814 70101,70231,70205
 4.5000e+000 70257  8.6263e+000 -2.0713e+002  2.3326e+001 65814 70153,70205,70179
 4.5000e+000 70375 -5.9729e+001 -1.9726e+002  2.6349e+001 65814 70205,70153,70349
 4.5000e+000 70398 -1.8844e+001 -1.8674e+002  2.6967e+001 65814 70205,70349,70101
 4.5000e+000 70904 -3.1715e+001 -1.0507e+002 -3.0470e+001 65502 70607,70737,70685
 4.5000e+000 70881 -4.2677e+001 -8.6128e+001 -4.0100e+001 65502 70581,70737,70607
 4.5000e+000 70858 -4.1978e+001 -3.0542e+001 -9.0193e+000 65502 70581,70763,70737
 4.5000e+000 70835 -4.6062e+001 -1.1476e+002 -4.3956e+001 65502 70685,70737,70711
 4.5000e+000 70812 -1.5563e+002 -1.3432e+002 -3.4977e+000 65502 70607,70659,70633
 4.5000e+000 70789 -5.1101e+001 -1.4044e+002 -3.3661e-002 65502 70607,70685,70659
 4.5000e+000 71103 -4.4704e+001 -3.4872e+002 -1.0459e+001 65304 71126,70979,70953
 4.5000e+000 71080 -8.3681e+001 -3.4757e+002 -4.3613e+000 65304 71126,70953,70927
 4.5000e+000 71057 -1.1555e+002 -3.5158e+002  2.5478e+001 65304 70927,71031,71005
 4.5000e+000 71152 -8.3355e+001 -3.2972e+002 -2.1706e+001 65304 71005,70979,71126
 4.5000e+000 71175 -1.2756e+002 -3.3474e+002 -6.8056e+000 65304 71005,71126,70927
 4.5000e+000 71374 -4.7785e+001 -3.3652e+002  1.6622e+001 65106 71198,71276,71224
 4.5000e+000 71351 -1.0029e+002 -3.6010e+002  7.1784e+000 65106 71198,71302,71276
 4.5000e+000 71328 -2.7492e+001 -2.8277e+002  4.2682e+001 65106 71224,71276,71250
 4.5000e+000 71756 -4.2261e+001 -2.3992e+002 -1.5125e+001 64652 71508,71638,71534
 4.5000e+000 71733  2.0644e+000 -2.2089e+002  6.6924e-001 64652 71482,71638,71508
 4.5000e+000 71710 -8.1811e+001 -2.2935e+002 -1.7360e+001 64652 71534,71586,71560
 4.5000e+000 71687 -7.1007e+001 -2.5491e+002 -3.7628e+001 64652 71534,71612,71586
 4.5000e+000 71664 -1.1206e+002 -2.6630e+002 -4.0476e+001 64652 71534,71638,71612
 4.5000e+000 72085 -1.0405e+002 -2.6372e+002 -3.1956e+001 64248 71886,71964,71912
 4.5000e+000 72062 -8.4280e+001 -2.5706e+002 -3.2219e+001 64248 71860,71964,71886
 4.5000e+000 72039 -4.5198e+001 -2.8192e+002 -2.1889e+001 64248 71912,71964,71938
 4.5000e+000 72016 -8.0749e+001 -2.4034e+002 -3.4776e+001 64248 71860,71990,71964
 4.5000e+000 72235 -7.3359e+000 -1.6996e+002 -2.2860e+001 63858 72588,72258,72134
 4.5000e+000 72212 -3.4165e+001 -1.4849e+002  5.2971e+000 63858 72330,72258,72108
 4.5000e+000 72284 -2.3772e+001 -1.2485e+002 -1.6127e+001 63858 72160,72134,72258
 4.5000e+000 72307 -8.6194e+001 -1.6501e+002 -2.6494e+001 63858 72460,72258,72186
 4.5000e+000 72356 -7.1616e+001 -1.5935e+002 -2.5825e+001 63858 72186,72258,72330
 4.5000e+000 72486 -2.9771e+001 -1.5096e+002 -2.7115e+001 63858 72160,72258,72460
 4.5000e+000 72614 -1.0248e+001 -1.7945e+002 -5.9985e-001 63858 72108,72258,72588
 4.5000e+000 73248 -5.4112e+001 -2.5143e+002  6.6312e+001 63404 72902,72954,72928
 4.5000e+000 73225 -1.3506e+002 -2.8236e+002  3.0351e+001 63404 73271,72954,72902
 4.5000e+000 73202 -1.1971e+002 -2.3719e+002  2.5527e+001 63404 73271,72902,73032
 4.5000e+000 73179 -7.7501e+001 -2.0623e+002  8.2314e+000 63404 72902,73058,73032
 4.5000e+000 73156 -9.5375e+001 -2.5260e+002  1.7997e+001 63404 72980,73032,73006
 4.5000e+000 73133 -7.0378e+001 -2.1417e+002  4.9857e+000 63404 72876,73058,72902
 4.5000e+000 73110 -2.8768e+001 -1.0673e+002 -5.5295e+001 63404 72876,73084,73058
 4.5000e+000 73297 -1.1597e+002 -2.8778e+002  1.9880e+000 63404 72980,72954,73271
 4.5000e+000 73320 -1.1237e+002 -2.6401e+002  1.5023e+000 63404 72980,73271,73032
 4.5000e+000 73470 -9.8068e+001 -6.4082e+002  6.8111e+001 63014 73343,73395,73369
 4.5000e+000 73447 -3.0224e+002 -7.8158e+002 -1.3840e+001 63014 73343,73421,73395
 4.5000e+000 73929 -1.6706e+000 -2.9892e+002  1.6925e+001 62702 73759,73811,73785
 4.5000e+000 73906  1.8873e+001 -2.8871e+002  2.0831e+001 62702 73655,73811,73759
 4.5000e+000 73883 -3.0300e+001 -3.3202e+002 -1.6299e+000 62702 73655,73759,73681
 4.5000e+000 73860  1.2189e+001 -2.4613e+002 -5.2577e+001 62702 73681,73759,73707
 4.5000e+000 73837 -1.3198e+002 -2.8891e+002  5.4260e+000 62702 73707,73759,73733
 4.5000e+000 74209 -1.7697e+002 -2.8938e+002  2.5928e+000 62404 74059,74137,74085
 4.5000e+000 74186 -2.1072e+002 -3.7365e+002  4.2738e+001 62404 74033,74137,74059
 4.5000e+000 74163 -1.9022e+002 -2.6657e+002  4.3794e-001 62404 74085,74137,74111
 4.5000e+000 74408 -8.8068e+000 -2.4859e+002  1.3959e+001 62000 74258,74336,74284
 4.5000e+000 74385 -7.9332e+000 -2.4372e+002  2.6483e+001 62000 74232,74336,74258
 4.5000e+000 74362 -6.0078e+001 -2.5000e+002 -3.7822e+000 62000 74284,74336,74310
 4.5000e+000 74509 -2.2406e+001 -2.8029e+002  2.0403e+001 61802 74431,74483,74457
 4.5000e+000 74759 -9.2255e+001 -2.5642e+002  4.0537e+000 61554 74782,74586,74560
 4.5000e+000 74736 -5.9801e+001 -2.3920e+002  1.0468e+001 61554 74782,74560,74664
 4.5000e+000 74713 -7.8498e+001 -1.9006e+002  6.4192e+001 61554 74854,74612,74586
 4.5000e+000 74690 -7.4235e+001 -2.5956e+002  2.7288e+000 61554 74534,74664,74560
 4.5000e+000 74808 -1.0906e+002 -2.3650e+002  1.8525e+001 61554 74854,74586,74782
 4.5000e+000 74831 -6.8784e+001 -2.9941e+002  1.6687e+001 61554 74638,74782,74664
 4.5000e+000 74880 -1.9307e+001 -2.3883e+002  7.0946e+001 61554 74638,74612,74854
 4.5000e+000 74903 -2.1137e+001 -2.3675e+002  3.7430e+001 61554 74638,74854,74782
 4.5000e+000 75285 -3.9780e+001 -2.5972e+002  3.0521e+000 61356 75063,75167,75115
 4.5000e+000 75262 -5.3087e+001 -2.7620e+002 -1.4864e+001 61356 75037,75167,75063
 4.5000e+000 75239  1.7939e+001 -2.6951e+002 -1.4643e+000 61356 75115,75167,75141
 4.5000e+000 75216 -9.8680e+000 -2.4192e+002  1.0435e+001 61356 75063,75115,75089
 4.5000e+000 75193 -1.1856e+002 -2.1878e+002  1.7412e+001 61356 75011,75167,75037
 4.5000e+000 75631 -1.6848e+001 -2.0759e+002  5.6930e+000 60952 75654,75412,75360
 4.5000e+000 75608 -3.8304e+001 -2.3816e+002 -6.5376e+000 60952 75654,75360,75334
 4.5000e+000 75585 -3.8620e+001 -3.0602e+002  1.6038e+001 60952 75726,75438,75412
 4.5000e+000 75562 -3.1694e+001 -2.4361e+002 -3.9622e+001 60952 75308,75490,75334
 4.5000e+000 75539 -2.1648e+001 -2.0727e+002 -9.3727e-002 60952 75360,75412,75386
 4.5000e+000 75516 -5.8000e+001 -3.7334e+002 -1.1277e+001 60952 75438,75490,75464
 4.5000e+000 75680 -1.5293e+001 -2.5509e+002  5.6645e+000 60952 75726,75412,75654
 4.5000e+000 75703 -1.5716e+001 -2.4133e+002 -1.0237e+001 60952 75490,75654,75334
 4.5000e+000 75752 -1.5778e+001 -2.4709e+002 -1.1762e+000 60952 75490,75438,75726
 4.5000e+000 75775 -1.6885e+001 -2.4241e+002 -1.0705e+001 60952 75490,75726,75654
 4.5000e+000 76155 -4.1842e+001 -2.4546e+002  7.7751e-001 60754 75933,75985,75959
 4.5000e+000 76132 -6.6589e+001 -2.6061e+002  2.5532e+001 60754 75933,76037,75985
 4.5000e+000 76109  4.7094e+000 -2.5295e+002  7.0712e+000 60754 75985,76037,76011
 4.5000e+000 76086 -9.9852e+001 -2.1803e+002  6.8194e+000 60754 75881,76037,75933
 4.5000e+000 76063 -1.3834e+002 -1.9134e+002  5.5642e+001 60754 75881,75933,75907
 4.5000e+000 76612 -4.6364e+001 -2.3454e+002  8.2816e+000 60350 76635,76442,76390
 4.5000e+000 76589 -4.1686e+000 -2.6151e+002  1.7856e+001 60350 76635,76390,76364
 4.5000e+000 76566 -1.7835e+001 -3.3128e+002 -2.4051e+001 60350 76364,76494,76468
 4.5000e+000 76543 -4.2233e+000 -2.1324e+002  2.0512e+001 60350 76390,76442,76416
 4.5000e+000 76520 -1.1717e+002 -2.1777e+002 -5.2199e+001 60350 76338,76494,76364
 4.5000e+000 76661 -6.9975e+001 -2.5268e+002  1.6226e+001 60350 76468,76442,76635
 4.5000e+000 76684 -3.9356e+001 -2.8465e+002  2.8354e+001 60350 76468,76635,76364
 4.5000e+000 76932 -8.8943e+001 -2.7349e+002  2.0123e+000 59946 76955,76733,76707
 4.5000e+000 76909 -8.9489e+001 -2.7334e+002  8.0603e+000 59946 77027,76955,76707
 4.5000e+000 76886 -8.5102e+001 -2.7406e+002  6.5502e+000 59946 77027,76707,76837
 4.5000e+000 76863 -4.1325e+001 -3.0325e+002 -2.7485e+001 59946 76733,76785,76759
 4.5000e+000 76981 -1.0231e+002 -2.7527e+002 -3.1135e+000 59946 76785,76733,76955
 4.5000e+000 77004 -9.2756e+001 -2.6820e+002  5.2161e+000 59946 76785,76955,76811
 4.5000e+000 77053 -8.3555e+001 -2.7204e+002  7.8667e+000 59946 76811,76955,77027
 4.5000e+000 77076 -8.0419e+001 -2.7306e+002  5.6607e+000 59946 76811,77027,76837
 4.5000e+000 77226 -1.1887e+002 -2.8754e+002  6.7983e+000 59542 77099,77151,77125
 4.5000e+000 77203 -1.4220e+002 -3.3509e+002  1.4286e+001 59542 77099,77177,77151
 4.5000e+000 77427 -1.4415e+002 -2.9471e+002 -1.9052e+001 59030 77450,77277,77251
 4.5000e+000 77404 -8.7902e+001 -2.3366e+002 -7.9602e+001 59030 77450,77251,77355
 4.5000e+000 77381 -1.6318e+001 -3.4740e+002 -5.7456e+000 59030 77277,77329,77303
 4.5000e+000 77476 -7.6510e+001 -3.0735e+002 -5.5947e+001 59030 77329,77277,77450
 4.5000e+000 77499 -1.7220e+001 -2.7812e+002 -1.0350e+002 59030 77329,77450,77355
 4.5000e+000 77749 -1.1854e+002 -3.6860e+002  2.7608e+001 58426 77772,77628,77602
 4.5000e+000 77726 -8.2773e+001 -4.5349e+002  1.0892e+002 58426 77524,77654,77628
 4.5000e+000 77703 -9.8717e+001 -3.6389e+002  2.0097e+001 58426 77772,77602,77550
 4.5000e+000 77680 -5.7255e+001 -3.4084e+002 -1.4185e+001 58426 77550,77602,77576
 4.5000e+000 77798 -9.5206e+001 -3.7187e+002  2.6562e+001 58426 77524,77628,77772
 4.5000e+000 77821 -8.4559e+001 -3.7180e+002  1.6956e+001 58426 77524,77772,77550
 4.5000e+000 78071 -1.5468e+002 -3.3557e+002  3.5894e+001 57922 78094,77924,77898
 4.5000e+000 78048 -1.7867e+002 -3.3843e+002  5.3324e+000 57922 78094,77898,77872
 4.5000e+000 78025 -1.4683e+002 -3.0964e+002  3.3704e+001 57922 78166,77846,77950
 4.5000e+000 78002 -7.7702e+001 -3.0346e+002  3.9387e+001 57922 77846,77976,77950
 4.5000e+000 78120 -1.2898e+002 -3.3507e+002  2.4947e+001 57922 77950,77924,78094
 4.5000e+000 78143 -1.4858e+002 -3.1451e+002  2.5434e+001 57922 78166,77950,78094
 4.5000e+000 78192 -1.4059e+002 -3.2295e+002  2.5769e+001 57922 77872,77846,78166
 4.5000e+000 78215 -1.4958e+002 -3.3697e+002  1.6917e+001 57922 77872,78166,78094
 4.5000e+000 78416  3.2049e+001 -2.8226e+002 -1.5124e+001 57468 78439,78292,78240
 4.5000e+000 78393 -1.5839e+001 -2.6639e+002  5.5024e-001 57468 78439,78240,78344
 4.5000e+000 78370  1.2351e+001 -3.8139e+002 -1.1505e+001 57468 78240,78292,78266
 4.5000e+000 78465 -1.4639e+001 -3.0565e+002 -2.4607e+001 57468 78318,78292,78439
 4.5000e+000 78488 -3.4255e+001 -2.7801e+002 -4.5754e+000 57468 78318,78439,78344
 4.5000e+000 78689  3.4050e+001 -3.4246e+002 -4.1349e+001 57014 78712,78539,78513
 4.5000e+000 78666 -1.7562e+001 -3.4033e+002 -7.8446e+000 57014 78712,78513,78617
 4.5000e+000 78643 -7.5401e+001 -3.5120e+002  3.3856e+001 57014 78565,78617,78591
 4.5000e+000 78738 -3.2423e+001 -2.8609e+002 -4.1517e+001 57014 78565,78539,78712
 4.5000e+000 78761 -1.0934e+002 -3.3095e+002  1.3101e+001 57014 78565,78712,78617
 4.5000e+000 79241 -1.1055e+002 -3.0340e+002  2.4622e+001 56652 79264,78895,78869
 4.5000e+000 79218 -5.1559e+001 -3.9682e+002 -2.3103e+001 56652 79264,78869,79051
 4.5000e+000 79195 -7.7100e+001 -3.4605e+002 -8.0789e+001 56652 78869,79077,79051
 4.5000e+000 79172 -8.7448e+001 -1.9878e+002 -4.6370e+001 56652 78895,78973,78947
 4.5000e+000 79149 -1.4411e+002 -5.8239e+002 -4.7770e+001 56652 78973,79051,78999
 4.5000e+000 79126 -7.6739e+001 -1.9182e+002 -5.0368e+001 56652 78895,78947,78921
 4.5000e+000 79103 -1.2170e+002 -4.0275e+002  9.5500e+001 56652 78999,79051,79025
 4.5000e+000 79290 -6.5750e+001 -2.4446e+002  5.7237e+001 56652 78973,78895,79264
 4.5000e+000 79313 -2.5442e+000 -3.4434e+002  1.2759e+001 56652 78973,79264,79051
 4.5000e+000 79512 -3.8583e+001 -4.3850e+002  3.9106e+001 56062 79388,79440,79414
 4.5000e+000 79489 -1.7813e+002 -2.3156e+002  5.9275e+001 56062 79336,79440,79388
 4.5000e+000 79466 -7.5365e+001 -2.3705e+002  8.3192e+001 56062 79336,79388,79362
 4.5000e+000 79941 -5.1740e+001 -2.4393e+002  3.8700e+001 55658 79964,79670,79644
 4.5000e+000 79918 -7.5623e+001 -2.4814e+002  4.3443e+001 55658 79964,79644,79800
 4.5000e+000 79895 -6.9392e+001 -2.6226e+002  2.2101e+001 55658 80036,79696,79670
 4.5000e+000 79872 -8.1617e+001 -2.2461e+002 -3.2797e+000 55658 80108,79722,79696
 4.5000e+000 79849 -1.2064e+002 -2.2485e+002  1.1050e+001 55658 79722,79774,79748
 4.5000e+000 79826 -1.4991e+000 -2.2167e+002  1.2280e+001 55658 79618,79800,79644
 4.5000e+000 79990 -7.8235e+001 -2.6469e+002  2.9295e+001 55658 80036,79670,79964
 4.5000e+000 80013 -6.7476e+001 -2.3040e+002  4.6610e+001 55658 79774,79964,79800
 4.5000e+000 80062 -5.9089e+001 -2.4012e+002  1.7880e+001 55658 80108,79696,80036
 4.5000e+000 80085 -7.6121e+001 -2.3303e+002  3.9736e+001 55658 79774,80036,79964
 4.5000e+000 80134 -1.2530e+002 -2.4075e+002  5.9059e+000 55658 79774,79722,80108
 4.5000e+000 80157 -1.1254e+002 -2.6221e+002  2.6851e+001 55658 79774,80108,80036
 4.5000e+000 80307 -1.3408e+002 -2.3807e+002  2.9174e+001 55254 80402,80330,80206
 4.5000e+000 80284 -1.2987e+002 -3.2266e+002  3.0964e+001 55254 80330,80180,80258
 4.5000e+000 80356 -1.5690e+002 -2.9016e+002  6.0589e+001 55254 80232,80206,80330
 4.5000e+000 80379 -4.5635e+001 -2.4002e+002  8.7534e+001 55254 80232,80330,80258
 4.5000e+000 80428 -1.8161e+002 -2.9032e+002  7.7608e+000 55254 80180,80330,80402
 4.5000e+000 80659 -6.4977e+001 -3.3793e+002 -2.7533e+001 54850 80558,80610,80584
 4.5000e+000 80636  2.5423e+000 -3.2224e+002 -3.5138e+001 54850 80532,80610,80558
 4.5000e+000 80760 -2.2010e+001 -2.4092e+002 -1.9763e+001 54652 80682,80734,80708
 4.5000e+000 81164 -1.8532e+001 -2.5760e+002 -5.3353e+000 54248 81187,80942,80890
 4.5000e+000 81141 -2.3257e+001 -2.6223e+002 -3.3773e+000 54248 81187,80890,81046
 4.5000e+000 81118 -2.6684e+001 -2.6894e+002  5.5171e+001 54248 80942,81020,80994
 4.5000e+000 81095 -1.6011e+001 -2.6013e+002  1.1474e+000 54248 80890,80942,80916
 4.5000e+000 81072 -3.6770e+001 -1.4886e+002  7.3061e+000 54248 80942,80994,80968
 4.5000e+000 81213 -2.4314e+001 -2.5358e+002 -4.6489e+000 54248 81020,80942,81187
 4.5000e+000 81236 -2.7563e+001 -2.5632e+002 -3.4055e+000 54248 81020,81187,81046
 4.5000e+000 81663 -1.4221e+002 -2.6961e+002  2.3221e+001 53594 81340,81444,81366
 4.5000e+000 81640 -1.3455e+002 -3.8421e+002  1.0662e+001 53594 81340,81470,81444
 4.5000e+000 81617 -5.2210e+001 -3.3749e+002 -1.9883e+001 53594 81340,81522,81470
 4.5000e+000 81594 -7.7535e+001 -1.9733e+002 -2.1941e+001 53594 81392,81444,81418
 4.5000e+000 81571 -1.0341e+002 -2.3304e+002 -3.3951e+001 53594 81366,81444,81392
 4.5000e+000 81548  1.4061e+001 -5.2478e+002  1.0975e+002 53594 81470,81522,81496
 4.5000e+000 81943 -3.6161e+001 -1.8501e+002 -2.3018e+001 53104 81966,81845,81819
 4.5000e+000 81920 -5.3358e+001 -1.5433e+002 -2.8171e+001 53104 81966,81819,81767
 4.5000e+000 81897 -5.4042e+001 -1.5395e+002 -3.0717e+001 53104 81767,81819,81793
 4.5000e+000 81992 -2.4531e+001 -1.6568e+002 -2.7874e+001 53104 81871,81845,81966
 4.5000e+000 82015 -3.3262e+001 -1.2264e+002 -3.7125e+001 53104 81871,81966,81767
 4.5000e+000 82491 -3.3116e+001 -1.8685e+002 -1.4623e+001 52650 82145,82249,82171
 4.5000e+000 82468 -1.5437e+002 -2.1812e+002 -2.5786e+001 52650 82145,82301,82249
 4.5000e+000 82445 -1.6181e+002 -3.3390e+002 -5.8482e+001 52650 82249,82301,82275
 4.5000e+000 82422 -7.1296e+001 -4.1740e+002 -7.6337e+001 52650 82119,82301,82145
 4.5000e+000 82399 -4.9415e+001 -1.5153e+002  1.9209e+001 52650 82171,82249,82223
 4.5000e+000 82376  1.8112e+001 -3.8275e+002 -5.6712e+001 52650 82119,82327,82301
 4.5000e+000 82353 -1.3911e+001 -7.5456e+001 -3.1975e+001 52650 82171,82223,82197
 4.5000e+000 82739 -4.3151e+001 -1.7687e+002  4.5560e+000 52246 82762,82540,82514
 4.5000e+000 82716 -2.8100e+001 -7.0143e+001 -1.1872e+001 52246 82762,82514,82644
 4.5000e+000 82693 -8.4171e+001 -2.0155e+002  4.4847e+001 52246 82540,82618,82592
 4.5000e+000 82670 -9.8170e+001 -1.9527e+002  3.8719e+001 52246 82540,82592,82566
 4.5000e+000 82788 -2.7208e+001 -2.2640e+002  1.4037e+001 52246 82618,82540,82762
 4.5000e+000 82811 -5.8071e+001 -1.9302e+002 -1.6325e+001 52246 82618,82762,82644
 4.5000e+000 83059 -2.8674e+001 -2.5186e+002  2.3840e+001 51578 82860,82964,82938
 4.5000e+000 83036 -1.5285e+000 -1.6628e+002 -5.3359e+001 51578 82834,82964,82860
 4.5000e+000 83013 -1.0559e+001 -1.9394e+002  5.2107e+001 51578 82860,82938,82886
 4.5000e+000 82990 -7.9414e+000 -1.2060e+002  8.3393e+000 51578 82886,82938,82912
 4.5000e+000 83309 -4.5647e+001 -1.4282e+002  3.9475e+001 51138 83332,83162,83136
 4.5000e+000 83286 -1.6877e+001 -1.8514e+002  1.2798e+001 51138 83332,83136,83110
 4.5000e+000 83263 -7.0964e+001 -1.9144e+002 -1.0572e+001 51138 83404,83214,83188
 4.5000e+000 83240 -5.1924e-001 -1.1886e+002  1.1305e+001 51138 83084,83214,83110
 4.5000e+000 83358 -7.3749e+001 -1.9531e+002  5.1616e+001 51138 83188,83162,83332
 4.5000e+000 83381 -4.9691e+001 -2.1182e+002  8.6150e+000 51138 83404,83188,83332
 4.5000e+000 83430 -4.5467e+001 -1.4082e+002  3.3555e-002 51138 83110,83214,83404
 4.5000e+000 83453 -2.7326e+001 -1.7225e+002  1.8288e+001 51138 83110,83404,83332
 4.5000e+000 83835 -4.1878e+001 -2.3619e+002 -1.7642e+000 50734 83613,83717,83691
 4.5000e+000 83812 -4.6573e+001 -2.5303e+002 -5.1216e+001 50734 83561,83717,83613
 4.5000e+000 83789 -2.1820e+001 -1.3150e+002 -7.3790e+001 50734 83561,83613,83587
 4.5000e+000 83766 -9.0795e+001 -1.5917e+002 -9.8853e-002 50734 83613,83691,83639
 4.5000e+000 83743 -9.6184e+001 -1.6105e+002  3.3252e+001 50734 83639,83691,83665
 4.5000e+000 84034 -6.0251e+001 -1.4972e+002  8.4518e+000 50230 84057,83884,83858
 4.5000e+000 84011 -6.0272e+001 -1.6349e+002 -1.4746e+001 50230 84129,84057,83858
 4.5000e+000 83988 -1.9601e+001 -1.7488e+002 -2.4969e+001 50230 84129,83858,83962
 4.5000e+000 84083 -2.4294e+001 -1.3648e+002  1.2791e+001 50230 83910,83884,84057
 4.5000e+000 84106 -3.7714e+001 -1.5774e+002  5.2492e+000 50230 83910,84057,83936
 4.5000e+000 84155 -7.3591e+000 -1.3903e+002 -2.8260e+000 50230 83936,84057,84129
 4.5000e+000 84178  8.0556e+000 -1.6837e+002 -1.8945e+001 50230 83936,84129,83962
 4.5000e+000 84558 -6.5493e+001 -1.9657e+002 -3.1679e+001 49768 84581,84388,84362
 4.5000e+000 84535 -1.3397e+002 -1.9933e+002 -1.2517e+001 49768 84581,84362,84310
 4.5000e+000 84512  3.4482e+000 -2.1485e+002 -3.3844e+001 49768 84653,84440,84414
 4.5000e+000 84489 -1.0476e+002 -2.1570e+002  1.5552e+001 49768 84310,84362,84336
 4.5000e+000 84466 -4.4685e+000 -1.5696e+002  2.3223e+001 49768 84284,84440,84310
 4.5000e+000 84607 -1.7359e+001 -1.6554e+002 -5.3968e+001 49768 84414,84388,84581
 4.5000e+000 84630 -2.3978e+001 -2.0143e+002 -2.4008e+001 49768 84653,84414,84581
 4.5000e+000 84679 -3.3352e+001 -2.0327e+002 -4.6289e+001 49768 84310,84440,84653
 4.5000e+000 84702 -7.2838e+001 -2.0345e+002 -4.7162e+001 49768 84310,84653,84581
 4.5000e+000 85159 -1.0441e+002 -2.7472e+002 -7.6921e+001 49192 84885,84937,84911
 4.5000e+000 85136 -1.0460e+002 -2.2248e+002 -5.6550e+001 49192 84885,85041,84937
 4.5000e+000 85113 -7.6029e+001 -1.9053e+002 -2.6440e+001 49192 84963,85041,84989
 4.5000e+000 85090 -6.6917e+001 -1.7533e+002 -3.9684e+001 49192 84937,85041,84963
 4.5000e+000 85067 -6.0598e+001 -1.8851e+002 -2.4054e+001 49192 84989,85041,85015
 4.5000e+000 85714 -1.1055e+002 -1.8438e+002 -1.0376e+000 48638 85368,85498,85394
 4.5000e+000 85691 -1.3735e+002 -2.1563e+002  1.0743e+001 48638 85368,85524,85498
 4.5000e+000 85668 -1.2354e+002 -1.7665e+002  4.6505e+001 48638 85737,85420,85394
 4.5000e+000 85645 -1.0515e+002 -2.0174e+002  2.4521e+001 48638 85737,85394,85498
 4.5000e+000 85622 -8.4069e+001 -2.0669e+002  4.1278e+001 48638 85446,85498,85472
 4.5000e+000 85599 -3.5095e+001 -1.7674e+002  1.9935e+001 48638 85342,85524,85368
 4.5000e+000 85576 -1.3375e+002 -1.9837e+002  1.8806e+001 48638 85342,85550,85524
 4.5000e+000 85763 -8.9787e+001 -1.5830e+002  6.2293e+001 48638 85446,85420,85737
 4.5000e+000 85786 -9.1215e+001 -1.8251e+002  3.6845e+001 48638 85446,85737,85498
 4.5000e+000 86371 -9.2787e+001 -1.3827e+002 -8.4124e+000 48084 86100,86230,86178
 4.5000e+000 86348 -1.1317e+002 -1.7635e+002 -1.9279e+001 48084 86048,86230,86100
 4.5000e+000 86325 -9.2850e+001 -1.2888e+002  3.3534e+001 48084 86100,86178,86126
 4.5000e+000 86302 -5.6449e+001 -4.2554e+001 -3.5718e+001 48084 86048,86100,86074
 4.5000e+000 86279 -1.1897e+002 -2.2150e+002 -3.4074e+000 48084 86178,86230,86204
 4.5000e+000 86256 -8.4062e+001 -1.4547e+002  3.2458e+001 48084 86126,86178,86152
 4.5000e+000 86619 -6.8778e+001 -1.5368e+002  1.4156e+001 47630 86642,86446,86420
 4.5000e+000 86596 -8.3988e+001 -1.7142e+002 -1.8843e+001 47630 86642,86420,86394
 4.5000e+000 86573 -1.0833e+002 -2.0138e+002 -2.7946e+001 47630 86394,86524,86498
 4.5000e+000 86550 -4.4850e+001 -1.7514e+002  1.1985e+001 47630 86446,86498,86472
 4.5000e+000 86668 -8.5778e+001 -1.9130e+002  6.5916e-001 47630 86498,86446,86642
 4.5000e+000 86691 -9.4118e+001 -1.9750e+002 -3.1649e+001 47630 86498,86642,86394
 4.5000e+000 87022 -7.4095e+000 -1.1249e+002 -6.3933e+001 47226 87045,86875,86849
 4.5000e+000 86999 -2.6567e+000 -1.2635e+002 -6.0441e+001 47226 87045,86849,86797
 4.5000e+000 86976  2.9557e-001 -5.9487e+001 -1.5043e+001 47226 86797,86849,86823
 4.5000e+000 86953  4.8513e+000 -8.0593e+001 -3.3261e+001 47226 86875,86927,86901
 4.5000e+000 87071 -1.5369e+001 -1.2266e+002 -6.0480e+001 47226 86927,86875,87045
 4.5000e+000 87094 -6.9322e+000 -1.3213e+002 -5.8473e+001 47226 86927,87045,86797
 4.5000e+000 87244 -1.2289e+001 -2.1652e+002  5.7033e+001 46814 87267,87169,87143
 4.5000e+000 87221 -1.0228e+002 -1.9610e+002 -1.1425e+001 46814 87267,87143,87117
 4.5000e+000 87293 -1.1007e+001 -1.6188e+002  3.5761e+001 46814 87339,87267,87195
 4.5000e+000 87316 -7.4637e+000 -1.5560e+002  4.6380e+000 46814 87469,87267,87117
 4.5000e+000 87365  3.5353e+000 -1.5348e+002  4.1543e+001 46814 87169,87267,87339
 4.5000e+000 87495 -8.8728e-001 -1.5976e+001 -2.1414e+000 46814 87195,87267,87469
 4.5000e+000 88001 -6.5357e+001 -1.5344e+002  3.8087e+001 46310 88024,87834,87808
 4.5000e+000 87978 -7.9369e+001 -1.5637e+002  2.2989e+001 46310 88024,87808,87756
 4.5000e+000 87955 -4.2346e+001 -2.0286e+002  1.0401e+001 46310 88096,87730,87860
 4.5000e+000 87932 -5.7921e+001 -2.0316e+002  2.3585e+001 46310 87756,87808,87782
 4.5000e+000 87909 -5.4322e+001 -2.4139e+002  8.7432e+000 46310 87678,87860,87730
 4.5000e+000 87886 -8.1624e+001 -3.9229e+002 -2.2044e+001 46310 87678,87730,87704
 4.5000e+000 88050 -5.6127e+001 -1.3332e+002  2.3562e+001 46310 87860,87834,88024
 4.5000e+000 88073 -4.3370e+001 -1.4714e+002  2.8192e+001 46310 88096,87860,88024
 4.5000e+000 88122 -5.4959e+001 -2.2950e+002 -8.7798e+000 46310 87756,87730,88096
 4.5000e+000 88145 -9.0506e+001 -2.0746e+002  1.2984e+000 46310 87756,88096,88024
 4.5000e+000 88572 -4.1735e+001 -2.0134e+002  1.1119e+001 45856 88249,88405,88275
 4.5000e+000 88549 -3.5585e+001 -6.4591e+001 -4.1178e+001 45856 88249,88431,88405
 4.5000e+000 88526 -9.8827e+001 -2.7776e+002 -3.6591e+001 45856 88327,88405,88353
 4.5000e+000 88503 -4.5196e+001 -2.4218e+002 -1.6573e+001 45856 88275,88405,88327
 4.5000e+000 88480 -8.1673e+001 -2.4059e+002 -4.1233e+001 45856 88353,88405,88379
 4.5000e+000 88457 -1.8683e+002 -5.0708e+002  4.1720e+001 45856 88275,88327,88301
 4.5000e+000 88950 -3.3119e+001 -1.1771e+002 -2.1979e+000 45658 88973,88754,88728
 4.5000e+000 88927 -3.1030e+001 -1.2120e+002 -2.2430e+000 45658 88973,88728,88676
 4.5000e+000 88904 -3.4479e+001 -1.4608e+002  4.5455e+001 45658 88676,88832,88806
 4.5000e+000 88881 -5.4929e+001 -1.6723e+002  1.5221e+001 45658 88676,88728,88702
 4.5000e+000 88858 -4.5901e+001 -1.1146e+002 -2.2519e+001 45658 88754,88806,88780
 4.5000e+000 88999 -3.5298e+001 -1.2014e+002 -1.1943e+000 45658 88806,88754,88973
 4.5000e+000 89022 -3.2332e+001 -1.2224e+002 -1.7372e+000 45658 88806,88973,88676
 4.5000e+000 89351 -5.8471e+001 -1.9902e+002 -9.4843e+000 45254 89152,89230,89204
 4.5000e+000 89328 -5.3982e+001 -1.9717e+002 -9.6169e+000 45254 89152,89256,89230
 4.5000e+000 89305 -1.7801e+001 -2.0910e+002 -2.6035e+001 45254 89126,89256,89152
 4.5000e+000 89282  3.4423e+000 -2.0103e+002 -3.5872e+001 45254 89152,89204,89178
 4.5000e+000 89523 -2.5155e+001 -1.4429e+002  4.0760e-001 45006 89422,89474,89448
 4.5000e+000 89500 -1.9527e+001 -1.4191e+002  4.9043e+000 45006 89396,89474,89422
 4.5000e+000 89673 -1.6443e+002 -2.8715e+002  2.4624e+001 44495 89572,89624,89598
 4.5000e+000 89650 -1.6834e+002 -2.8716e+002  1.5933e+001 44495 89546,89624,89572
 4.5000e+000 90104 -1.7180e+001 -2.1248e+002 -1.0949e+001 44005 90199,90127,89937
 4.5000e+000 90081 -4.2593e+001 -2.0970e+002  3.0185e+000 44005 90271,90127,89859
 4.5000e+000 90058 -4.2376e+000 -2.1916e+002 -1.1739e+001 44005 90199,89937,89885
 4.5000e+000 90035 -5.8740e+001 -1.9915e+002  1.2211e+001 44005 90271,89859,89807
 4.5000e+000 90012 -3.2156e+001 -2.4191e+002 -2.8155e+001 44005 89885,89937,89911
 4.5000e+000 89989 -1.7778e+001 -2.1404e+002  3.6237e+001 44005 89807,89859,89833
 4.5000e+000 90153 -4.4113e+001 -2.2184e+002 -5.8682e+000 44005 89963,89937,90127
 4.5000e+000 90176 -4.7855e+001 -2.3816e+002  5.3132e+000 44005 89963,90127,89781
 4.5000e+000 90225 -4.6872e+001 -2.1218e+002 -3.7121e+000 44005 89859,90127,90199
 4.5000e+000 90248 -2.0666e+001 -2.1050e+002  6.1086e-001 44005 89859,90199,89885
 4.5000e+000 90297 -6.4450e+001 -2.2264e+002 -2.3644e+000 44005 89781,90127,90271
 4.5000e+000 90320 -7.3835e+001 -2.0853e+002  8.2285e+000 44005 89781,90271,89807
 4.5000e+000 90470 -3.6585e+001 -2.2906e+002 -6.8926e+000 43601 90493,90369,90343
 4.5000e+000 90447 -6.1746e+001 -1.8432e+002  1.4621e+001 43601 90493,90343,90421
 4.5000e+000 90519 -7.5337e+001 -3.1277e+002 -3.5990e+001 43601 90395,90369,90493
 4.5000e+000 90542 -5.8856e+001 -2.1747e+002 -8.7245e+000 43601 90395,90493,90421
 4.5000e+000 90922 -7.9517e+001 -2.4172e+002  1.6208e+001 43154 90945,90700,90674
 4.5000e+000 90899 -7.0155e+001 -2.4614e+002 -2.7315e+001 43154 90945,90674,90648
 4.5000e+000 90876 -8.5121e+001 -1.9526e+002 -1.7147e+001 43154 90648,90778,90752
 4.5000e+000 90853 -4.4369e+001 -3.9756e+002  1.1708e+001 43154 90700,90752,90726
 4.5000e+000 90830 -5.2118e+001 -1.9695e+002 -6.0640e+000 43154 90648,90804,90778
 4.5000e+000 90971 -9.1693e+001 -2.7960e+002  2.3876e+001 43154 90752,90700,90945
 4.5000e+000 90994 -7.9319e+001 -2.6899e+002 -1.8516e+001 43154 90752,90945,90648
 4.5000e+000 91451 -2.1429e+001 -1.8784e+002 -3.3699e+001 42650 91203,91255,91229
 4.5000e+000 91428  1.9823e+001 -1.6983e+002 -1.6583e+001 42650 91203,91333,91255
 4.5000e+000 91405 -8.7601e-001 -2.7450e+002 -4.7025e+001 42650 91177,91333,91203
 4.5000e+000 91382 -8.5287e+001 -2.9356e+002  3.8570e+001 42650 91255,91333,91281
 4.5000e+000 91359 -1.9680e+001 -2.5022e+002  1.7428e+001 42650 91281,91333,91307
 4.5000e+000 91721 -1.2407e+002 -2.8174e+002  1.9359e+001 42288 91496,91600,91522
 4.5000e+000 91698 -6.6503e+001 -1.6372e+002 -7.2687e+000 42288 91496,91626,91600
 4.5000e+000 91675 -7.8523e+001 -2.5590e+002  2.2131e+001 42288 91522,91574,91548
 4.5000e+000 91652 -6.4249e+001 -2.5855e+002  2.0111e+001 42288 91522,91600,91574
 4.5000e+000 92199 -1.8416e+002 -3.0532e+002 -7.4621e+000 41898 92222,91983,91879
 4.5000e+000 92176 -1.8783e+002 -3.3251e+002 -1.8226e+001 41898 92294,92222,91879
 4.5000e+000 92153 -1.9715e+002 -3.2782e+002 -2.5233e+001 41898 92294,91879,91853
 4.5000e+000 92130 -1.6137e+002 -1.8862e+002  1.9910e+001 41898 91879,91957,91931
 4.5000e+000 92107 -1.6614e+002 -2.9839e+002 -8.8693e-001 41898 91879,91983,91957
 4.5000e+000 92084 -1.7227e+002 -1.7176e+002  3.5192e+001 41898 91879,91931,91905
 4.5000e+000 92061 -1.7697e+002 -2.9583e+002 -2.0454e+001 41898 91827,92035,91853
 4.5000e+000 92248 -1.8119e+002 -3.3889e+002 -4.8001e-001 41898 92009,91983,92222
 4.5000e+000 92271 -1.7850e+002 -3.4603e+002 -2.5279e+001 41898 92009,92222,92035
 4.5000e+000 92320 -1.7200e+002 -3.2540e+002 -2.0098e+001 41898 92035,92222,92294
 4.5000e+000 92343 -1.7896e+002 -3.1974e+002 -2.6751e+001 41898 92035,92294,91853
 4.5000e+000 92770 -5.6250e+001 -2.6216e+002 -1.8469e+001 41437 92865,92793,92525
 4.5000e+000 92747 -8.1050e+001 -3.0872e+002 -2.7276e+001 41437 92793,92473,92629
 4.5000e+000 92724 -2.6453e+001 -2.6734e+002 -3.4435e+001 41437 92865,92525,92499
 4.5000e+000 92701 -9.0302e+001 -2.4008e+002 -4.2195e+001 41437 92525,92603,92577
 4.5000e+000 92678  9.6845e-001 -2.9776e+002 -2.3998e+001 41437 92447,92629,92473
 4.5000e+000 92655 -1.4083e+002 -2.1480e+002 -2.4813e+001 41437 92525,92577,92551
 4.5000e+000 92819 -6.6046e+001 -2.8450e+002 -4.1853e+001 41437 92603,92525,92793
 4.5000e+000 92842 -1.2677e+002 -3.0514e+002 -7.7570e+001 41437 92603,92793,92629
 4.5000e+000 92891  3.7979e+000 -2.8983e+002 -2.5780e+001 41437 92473,92793,92865
 4.5000e+000 92914  4.8116e+001 -2.7485e+002 -4.9620e+001 41437 92473,92865,92499
 4.5000e+000 93243 -4.4170e+001 -4.0137e+002  1.4732e+002 41097 93044,93096,93070
 4.5000e+000 93220 -7.8409e+001 -3.5334e+002  7.8440e+001 41097 93044,93122,93096
 4.5000e+000 93197  1.6457e+001 -2.3511e+002  3.1518e+001 41097 93044,93148,93122
 4.5000e+000 93174 -6.9492e+001 -1.8705e+002  6.8989e+001 41097 93018,93148,93044
 4.5000e+000 93393 -7.4188e+000 -2.9830e+002  2.0829e+001 40643 93416,93292,93344
 4.5000e+000 93370 -1.3486e+001 -2.7885e+002  2.2992e+001 40643 93266,93344,93292
 4.5000e+000 93442 -1.1436e+001 -2.9528e+002  2.7705e+001 40643 93318,93292,93416
 4.5000e+000 93901 -8.9156e+001 -2.7203e+002 -1.8607e+001 40132 93924,93731,93705
 4.5000e+000 93878 -9.3318e+001 -2.8096e+002 -2.0762e+001 40132 93996,93924,93705
 4.5000e+000 93855 -1.1053e+002 -3.2319e+002 -7.2132e+000 40132 93996,93705,93653
 4.5000e+000 93832 -4.7364e+001 -3.1179e+002 -1.7538e+001 40132 93653,93705,93679
 4.5000e+000 93809 -9.0890e+001 -2.7118e+002  2.3790e+000 40132 93627,93783,93757
 4.5000e+000 93950 -8.5874e+001 -2.8938e+002 -2.2126e+001 40132 93757,93731,93924
 4.5000e+000 93973 -9.7101e+001 -2.5779e+002 -5.6629e+000 40132 93757,93924,93627
 4.5000e+000 94022 -1.2452e+002 -3.0755e+002  9.6093e+000 40132 93627,93924,93996
 4.5000e+000 94045 -1.1556e+002 -3.2221e+002  1.9576e+001 40132 93627,93996,93653
 4.5000e+000 94423 -1.8118e+001 -3.1743e+002 -4.4572e+001 39514 94149,94227,94175
 4.5000e+000 94400 -3.2316e+001 -2.9989e+002  3.4493e+001 39514 94149,94305,94227
 4.5000e+000 94377  9.2517e+000 -3.7515e+002 -4.2704e+001 39514 94175,94227,94201
 4.5000e+000 94354 -9.2862e+001 -2.7882e+002  1.5183e+001 39514 94227,94305,94279
 4.5000e+000 94331 -3.8852e+001 -2.5368e+002  2.7952e+001 39514 94227,94279,94253
 4.5000e+000 94573 -2.3463e+001 -1.7974e+002 -3.7262e+001 38822 94596,94498,94472
 4.5000e+000 94550  3.7534e+001 -1.9487e+002  4.2689e+001 38822 94596,94472,94446
 4.5000e+000 94622 -9.4012e+001 -2.0995e+002 -3.7099e+001 38822 94524,94498,94596
 4.5000e+000 94645 -8.0705e+001 -2.4677e+002  5.1250e+001 38822 94524,94596,94446
 4.5000e+000 95025 -1.3907e+001 -2.3509e+002 -1.6782e+001 38418 95048,94829,94777
 4.5000e+000 95002 -2.2740e+001 -2.4926e+002 -2.9854e+001 38418 95120,95048,94777
 4.5000e+000 94979 -1.6836e+001 -2.4552e+002 -2.7740e+001 38418 95120,94777,94751
 4.5000e+000 94956 -1.4297e+001 -2.1940e+002 -3.2689e+001 38418 95192,94881,94855
 4.5000e+000 94933 -7.2841e+001 -2.0821e+002 -9.8179e+000 38418 94777,94829,94803
 4.5000e+000 95074 -4.0915e+001 -3.1464e+002 -6.5758e+000 38418 94855,94829,95048
 4.5000e+000 95097 -2.0320e+001 -2.4615e+002 -3.6473e+001 38418 95192,94855,95048
 4.5000e+000 95146 -4.3373e+001 -2.3573e+002 -2.3896e+001 38418 94907,95048,95120
 4.5000e+000 95169 -2.6283e+001 -2.2255e+002 -1.7755e+001 38418 94907,95120,94751
 4.5000e+000 95218 -2.0979e+001 -1.7091e+002 -2.8670e+001 38418 94907,94881,95192
 4.5000e+000 95241 -3.5468e+001 -2.1302e+002 -2.5610e+001 38418 94907,95192,95048
 4.5000e+000 95511 -7.9115e+001 -2.5376e+002  1.2400e+001 38049 95312,95390,95364
 4.5000e+000 95488 -5.3613e+001 -2.4312e+002  1.2421e+001 38049 95312,95416,95390
 4.5000e+000 95465 -2.6716e+001 -2.4264e+002 -1.4737e+001 38049 95312,95364,95338
 4.5000e+000 95442 -2.2619e+001 -2.2593e+002  2.2069e+001 38049 95286,95416,95312
 4.5000e+000 95808 -7.5334e+001 -2.9445e+002 -6.4021e+000 37437 95831,95586,95560
 4.5000e+000 95785  2.9390e+001 -3.1191e+002 -1.3748e+001 37437 95831,95560,95534
 4.5000e+000 95762 -1.5253e+002 -2.8365e+002  7.2724e+000 37437 95586,95664,95638
 4.5000e+000 95739 -2.2969e+001 -1.4430e+002 -7.6510e+001 37437 95534,95690,95664
 4.5000e+000 95716 -1.4017e+002 -2.0545e+002  7.8253e+000 37437 95586,95638,95612
 4.5000e+000 95857 -1.4258e+002 -2.8818e+002  3.5654e+001 37437 95664,95586,95831
 4.5000e+000 95880 -3.1522e+001 -3.0255e+002  2.9717e+001 37437 95664,95831,95534
 4.5000e+000 96390 -1.0194e+002 -2.2331e+002 -1.1978e+001 36883 96413,96145,96093
 4.5000e+000 96367 -8.4310e+001 -2.1436e+002 -6.1872e+000 36883 96413,96093,96067
 4.5000e+000 96344 -6.0212e+001 -2.6037e+002  7.4554e-001 36883 96067,96249,96171
 4.5000e+000 96321 -8.9447e+001 -2.5908e+002 -3.0470e+000 36883 96093,96145,96119
 4.5000e+000 96298 -1.2615e+002 -4.2762e+002  4.0224e+001 36883 96171,96249,96197
 4.5000e+000 96275 -3.6003e+001 -3.4083e+002 -6.0411e+000 36883 96197,96249,96223
 4.5000e+000 96439 -9.6492e+001 -2.1570e+002  3.6585e+000 36883 96171,96145,96413
 4.5000e+000 96462 -8.2192e+001 -2.1252e+002  8.0298e+000 36883 96171,96413,96067
 4.5000e+000 96781 -8.0986e+001 -2.5394e+002 -3.6375e+001 36215 96559,96663,96637
 4.5000e+000 96758 -1.0177e+002 -2.7715e+002 -4.6059e+001 36215 96507,96663,96559
 4.5000e+000 96735 -9.9891e+001 -1.8890e+002  1.8729e+001 36215 96585,96637,96611
 4.5000e+000 96712 -2.1000e+002 -2.9384e+002 -3.1434e+001 36215 96559,96637,96585
 4.5000e+000 96689 -3.9652e+001 -3.2444e+002 -9.7572e+000 36215 96507,96559,96533
 4.5000e+000 97161  4.6536e+000 -1.3809e+002 -7.3957e+000 35818 97184,96965,96939
 4.5000e+000 97138 -1.2770e+001 -1.6520e+002 -1.5087e+001 35818 97184,96939,96887
 4.5000e+000 97115 -6.2757e+000 -1.7477e+002  3.2612e+001 35818 96965,97043,97017
 4.5000e+000 97092 -6.1509e+000 -1.5936e+002 -1.8587e+001 35818 96887,96939,96913
 4.5000e+000 97069 -9.1627e+001 -1.7836e+002  2.0449e+001 35818 96965,97017,96991
 4.5000e+000 97210  2.3109e+001 -1.6114e+002  7.4663e+000 35818 97043,96965,97184
 4.5000e+000 97233  9.7762e+000 -1.8062e+002  1.4957e+000 35818 97043,97184,96887
 4.5000e+000 97739 -8.2823e+001 -2.5451e+002 -6.0525e+001 35214 97416,97468,97442
 4.5000e+000 97716 -9.8459e+001 -1.8415e+002 -1.9159e+001 35214 97416,97598,97468
 4.5000e+000 97693 -8.7183e+001 -1.7417e+002 -7.3883e+000 35214 97762,97520,97468
 4.5000e+000 97670 -9.0482e+001 -1.7922e+002 -1.5406e+001 35214 97762,97468,97598
 4.5000e+000 97647 -6.7055e+001 -1.7434e+002 -2.4202e+001 35214 97546,97598,97572
 4.5000e+000 97624 -5.2648e+001 -1.8051e+002 -1.0295e+001 35214 97468,97520,97494
 4.5000e+000 97788 -9.0304e+001 -1.8352e+002 -1.1143e+001 35214 97546,97520,97762
 4.5000e+000 97811 -9.1338e+001 -1.8745e+002 -1.8616e+001 35214 97546,97762,97598
 4.5000e+000 98189 -1.3473e+001 -1.3526e+002 -1.3081e+001 34760 98356,98212,97967
 4.5000e+000 98166 -3.0627e+001 -1.6412e+002 -2.6588e+001 34760 98284,98212,97941
 4.5000e+000 98143 -5.9510e+001 -1.4769e+002 -1.3523e+001 34760 98284,97941,97915
 4.5000e+000 98120 -1.7292e+001 -1.8369e+002 -6.2278e+000 34760 98484,97993,97967
 4.5000e+000 98097 -1.4406e+001 -1.5234e+002 -4.6253e+000 34760 98556,98045,98019
 4.5000e+000 98238 -2.5789e+001 -1.7230e+002 -6.5600e+000 34760 98484,97967,98212
 4.5000e+000 98261  1.1458e-001 -1.5831e+002 -1.2117e+001 34760 98556,98019,98212
 4.5000e+000 98310 -6.3658e+000 -1.3415e+002 -3.7849e+001 34760 98071,98212,98284
 4.5000e+000 98333 -2.5045e+001 -9.3485e+001 -3.0517e+001 34760 98071,98284,97915
 4.5000e+000 98382 -8.2812e+001 -1.8216e+002 -3.4254e+001 34760 97941,98212,98356
 4.5000e+000 98510 -4.1543e+000 -1.7371e+002 -1.1003e+001 34760 98019,97993,98484
 4.5000e+000 98533 -1.7693e+001 -1.6645e+002 -1.0068e+001 34760 98019,98484,98212
 4.5000e+000 98582  3.9687e+000 -1.4386e+002 -1.3057e+000 34760 98071,98045,98556
 4.5000e+000 98605  1.0082e+001 -1.5502e+002 -1.0326e+001 34760 98071,98556,98212
 4.5000e+000 99032 -1.0110e+002 -2.3329e+002  3.4841e+001 34156 98735,98891,98839
 4.5000e+000 99009 -8.3922e+001 -2.4137e+002  1.4808e+001 34156 98709,98891,98735
 4.5000e+000 98986 -2.8434e+001 -2.0650e+002  3.1851e+001 34156 98735,98813,98787
 4.5000e+000 98963 -3.4785e+001 -2.2628e+002  2.7372e+001 34156 98735,98839,98813
 4.5000e+000 98940  1.4666e+001 -3.0953e+002  3.6099e+001 34156 98735,98787,98761
 4.5000e+000 98917 -8.9625e+001 -2.0399e+002  2.1442e+001 34156 98839,98891,98865
 4.5000e+000 99231 -2.8681e+001 -1.2256e+002  1.1511e+001 33766 99055,99133,99107
 4.5000e+000 99208 -5.1826e+001 -1.6330e+002  2.2913e+001 33766 99055,99159,99133
 4.5000e+000 99185 -1.2938e+001 -1.4139e+002  2.8716e+001 33766 99055,99107,99081
 4.5000e+000 99818 -5.4968e+001 -1.7057e+002  3.6299e+000 33248 99521,99651,99573
 4.5000e+000 99795 -5.6067e+001 -1.6367e+002  1.6520e+001 33248 99521,99677,99651
 4.5000e+000 99772 -8.4839e+001 -2.0667e+002 -1.1289e+001 33248 99573,99651,99599
 4.5000e+000 99749 -5.7782e+001 -2.0386e+002  1.8443e+001 33248 99495,99677,99521
 4.5000e+000 99726 -3.6772e+001 -1.7490e+002 -4.2579e+001 33248 99599,99651,99625
 4.5000e+000 99703 -7.0719e+001 -2.0459e+002  1.2146e+001 33248 99521,99573,99547
 4.5000e+000 100196 -6.1196e+001 -1.8935e+002 -3.6218e+001 32794 100219,99948,99922
 4.5000e+000 100173 -7.1908e+001 -2.1210e+002 -1.7836e+001 32794 100219,99922,100052
 4.5000e+000 100150 -9.7377e+001 -1.9436e+002  1.1054e+001 32794 99974,100052,100026
 4.5000e+000 100127 -8.8099e+001 -1.7094e+002 -2.9004e+001 32794 99922,100078,100052
 4.5000e+000 100104 -1.0077e+002 -2.3553e+002  4.3924e+001 32794 99974,100026,100000
 4.5000e+000 100245 -8.1909e+001 -1.8500e+002 -1.4012e+001 32794 99974,99948,100219
 4.5000e+000 100268 -8.9013e+001 -2.1555e+002  4.4715e+000 32794 99974,100219,100052
 4.5000e+000 100418 -1.4256e+001 -1.8031e+002 -1.9261e+001 32504 100571,100343,100317
 4.5000e+000 100395 -7.3259e+001 -2.0709e+002  1.7961e+001 32504 100571,100317,100441
 4.5000e+000 100467  4.9367e+001 -1.0105e+002 -5.3801e+001 32504 100291,100369,100441
 4.5000e+000 100597  1.1713e+001 -1.5217e+002 -6.5416e+001 32504 100369,100343,100571
 4.5000e+000 100620 -1.4817e+001 -1.4231e+002 -3.3311e+001 32504 100369,100571,100441
 4.5000e+000 101020 -2.4530e+001 -1.4900e+002  5.9176e+000 32142 100772,100902,100876
 4.5000e+000 100997 -1.6810e+001 -1.3401e+002  9.0447e+000 32142 100746,100902,100772
 4.5000e+000 100974 -1.0644e+000 -1.6348e+002  2.0424e+001 32142 101043,100824,100798
 4.5000e+000 100951 -2.7974e+001 -1.7610e+002  1.5189e+001 32142 101043,100798,100772
 4.5000e+000 100928 -9.3897e+001 -2.0657e+002 -5.0909e+001 32142 101115,100876,100850
 4.5000e+000 101069  3.0718e+001 -1.7910e+002 -1.8099e+001 32142 100850,100824,101043
 4.5000e+000 101092 -4.6342e+001 -2.1235e+002 -2.4308e+001 32142 101115,100850,101043
 4.5000e+000 101141 -3.5428e+001 -1.7390e+002 -1.8358e+001 32142 100772,100876,101115
 4.5000e+000 101164  1.2149e+000 -1.7797e+002  1.0703e+001 32142 100772,101115,101043
 4.5000e+000 101719 -1.0048e+002 -2.4065e+002  3.2361e+001 31538 101742,101477,101399
 4.5000e+000 101696 -1.2335e+002 -2.9236e+002  7.6748e+000 31538 101814,101742,101399
 4.5000e+000 101673 -1.4160e+002 -2.5169e+002 -1.9872e+001 31538 101814,101399,101373
 4.5000e+000 101650 -9.9653e+001 -1.7318e+002  2.1468e+001 31538 101425,101477,101451
 4.5000e+000 101627 -9.4007e+001 -2.0296e+002  5.6121e+000 31538 101399,101477,101425
 4.5000e+000 101604 -6.1362e+001 -2.8249e+002  5.9325e+001 31538 101477,101529,101503
 4.5000e+000 101581 -3.7808e+001 -1.7160e+002 -1.6143e+001 31538 101347,101555,101373
 4.5000e+000 101768 -1.1495e+002 -2.9510e+002  3.1917e+001 31538 101529,101477,101742
 4.5000e+000 101791 -9.9092e+001 -3.0258e+002 -9.9936e+000 31538 101529,101742,101555
 4.5000e+000 101840 -7.7393e+001 -2.5094e+002 -1.1298e+001 31538 101555,101742,101814
 4.5000e+000 101863 -1.0387e+002 -2.1781e+002 -3.6508e+001 31538 101555,101814,101373
 4.5000e+000 102111 -1.4904e+002 -3.8117e+002  4.8861e+001 31112 101886,101990,101912
 4.5000e+000 102088 -5.6145e+001 -2.2953e+002  2.9964e+000 31112 101886,102016,101990
 4.5000e+000 102065 -6.9185e+001 -3.7035e+002  7.5766e+001 31112 101912,101990,101964
 4.5000e+000 102042 -1.0979e+002 -4.6482e+002  8.9503e+001 31112 101912,101964,101938
 4.5000e+000 102408 -3.5229e+001 -2.3235e+002  1.8285e+001 30658 102431,102186,102160
 4.5000e+000 102385 -7.7229e+001 -2.3008e+002 -1.7235e-001 30658 102431,102160,102264
 4.5000e+000 102362 -7.4428e+001 -2.5124e+002  3.4351e+000 30658 102186,102238,102212
 4.5000e+000 102339 -8.4261e+001 -2.4411e+002 -1.4744e+001 30658 102134,102264,102160
 4.5000e+000 102316 -5.7950e+001 -2.0464e+002 -6.7184e+001 30658 102134,102290,102264
 4.5000e+000 102457 -7.0520e+001 -2.4473e+002  9.3532e+000 30658 102238,102186,102431
 4.5000e+000 102480 -1.1537e+002 -2.4643e+002 -1.0816e+001 30658 102238,102431,102264
 4.5000e+000 102681 -2.9090e+001 -2.7990e+002  4.2000e+001 30004 102704,102557,102505
 4.5000e+000 102658 -3.7096e+001 -2.8124e+002  4.2574e+001 30004 102704,102505,102609
 4.5000e+000 102635  5.9919e+000 -2.4013e+002  1.1093e+001 30004 102505,102557,102531
 4.5000e+000 102730 -3.5594e+001 -2.7223e+002  3.7541e+001 30004 102583,102557,102704
 4.5000e+000 102753 -5.3042e+001 -2.7944e+002  3.9123e+001 30004 102583,102704,102609
 4.5000e+000 103003 -3.1818e+001 -2.2489e+002 -1.8462e+001 29564 103026,102804,102778
 4.5000e+000 102980 -4.0626e+001 -2.6834e+002 -2.8346e+001 29564 103026,102778,102908
 4.5000e+000 102957 -4.2344e+001 -2.2909e+002 -3.4429e+000 29564 102856,102908,102882
 4.5000e+000 102934 -5.7916e+001 -2.0296e+002  1.4034e+001 29564 102804,102856,102830
 4.5000e+000 103052 -2.8255e+001 -2.0338e+002  1.0950e+001 29564 102856,102804,103026
 4.5000e+000 103075 -4.0566e+001 -2.3866e+002 -2.9841e+000 29564 102856,103026,102908
 4.5000e+000 103634 -1.0098e+002 -2.5162e+002 -3.0230e+001 29160 103657,103418,103392
 4.5000e+000 103611 -9.6146e+001 -2.4276e+002 -1.4927e+001 29160 103657,103392,103314
 4.5000e+000 103588 -6.9680e+001 -2.1125e+002 -2.6266e+001 29160 103314,103392,103366
 4.5000e+000 103565 -6.2528e+001 -2.2403e+002 -2.9483e+001 29160 103314,103366,103340
 4.5000e+000 103542 -1.2161e+002 -2.4063e+002 -2.7862e+001 29160 103262,103444,103314
 4.5000e+000 103519 -1.4502e+002 -2.8830e+002 -3.8292e+001 29160 103262,103314,103288
 4.5000e+000 103496 -9.3031e+001 -2.6387e+002 -1.0752e+001 29160 103262,103470,103444
 4.5000e+000 103683 -1.2433e+002 -2.6972e+002 -4.7085e+001 29160 103444,103418,103657
 4.5000e+000 103706 -1.0538e+002 -2.4160e+002 -2.9427e+001 29160 103444,103657,103314
 4.5000e+000 104035 -6.6464e+001 -2.4180e+002  2.2945e+001 28770 103836,103914,103862
 4.5000e+000 104012 -6.4549e+001 -2.3110e+002  3.0414e+001 28770 103810,103914,103836
 4.5000e+000 103989  1.4731e+001 -2.1018e+002  3.8092e+001 28770 103810,103940,103914
 4.5000e+000 103966 -1.3811e+001 -1.9338e+002  4.6478e+001 28770 103862,103914,103888
 4.5000e+000 104185 -2.4705e+001 -2.2137e+002  4.2417e+001 28366 104208,104110,104084
 4.5000e+000 104162 -2.2441e+001 -1.8972e+002  3.3619e+001 28366 104280,104208,104084
 4.5000e+000 104234  4.4531e+001 -2.2180e+002  2.6576e+001 28366 104610,104208,104136
 4.5000e+000 104257 -4.1506e+001 -2.1025e+002  2.6513e+001 28366 104538,104410,104208
 4.5000e+000 104306 -6.9429e+001 -2.1287e+002  2.5938e+001 28366 104538,104208,104280
 4.5000e+000 104436 -1.5408e+001 -2.2637e+002  3.4934e+000 28366 104136,104208,104410
 4.5000e+000 104564 -7.0777e+001 -2.0874e+002  1.1707e+001 28366 104058,104410,104538
 4.5000e+000 104587 -8.7960e+001 -2.0488e+002  9.1868e+000 28366 104058,104538,104280
 4.5000e+000 104636  3.2857e+001 -2.2520e+002  3.3990e+001 28366 104110,104208,104610
 4.5000e+000 105349 -5.4325e+001 -2.0191e+002 -2.1358e+001 27976 105516,105372,105107
 4.5000e+000 105326 -8.3851e+001 -2.0207e+002  4.9315e+000 27976 105588,105372,105055
 4.5000e+000 105303 -8.9923e+001 -1.9704e+002 -1.9585e+001 27976 105444,105159,105133
 4.5000e+000 105280 -3.1219e+001 -2.0983e+002 -1.2895e+001 27976 105516,105107,105081
 4.5000e+000 105257 -7.7268e+001 -2.2421e+002  1.9546e+001 27976 105588,105055,105029
 4.5000e+000 105234 -4.2531e+001 -1.7253e+002  2.0758e+000 27976 105003,105185,105159
 4.5000e+000 105211 -5.9297e+001 -1.4023e+002  2.4644e+001 27976 104977,105185,105003
 4.5000e+000 105398 -4.3492e+001 -2.0203e+002 -2.7147e+001 27976 105133,105107,105372
 4.5000e+000 105421 -7.2685e+001 -2.0994e+002 -1.1993e+001 27976 105444,105133,105372
 4.5000e+000 105470 -7.3687e+001 -1.7473e+002 -1.0837e+001 27976 105003,105159,105444
 4.5000e+000 105493 -6.1652e+001 -1.8989e+002 -7.0919e+000 27976 105003,105444,105372
 4.5000e+000 105542 -3.8839e+001 -1.9938e+002 -2.2968e+000 27976 105055,105372,105516
 4.5000e+000 105565 -4.4346e+000 -2.0289e+002  3.8198e+000 27976 105055,105516,105081
 4.5000e+000 105614 -9.7465e+001 -2.2390e+002  1.5505e+001 27976 105003,105372,105588
 4.5000e+000 105637 -9.4450e+001 -2.4580e+002  3.1428e+001 27976 105003,105588,105029
 4.5000e+000 106143 -9.4484e+001 -3.0315e+002  1.8187e+001 27664 106166,105846,105820
 4.5000e+000 106120 -6.5706e+001 -2.3111e+002  7.8858e+000 27664 106310,106166,105820
 4.5000e+000 106097 -3.1994e+001 -2.7003e+002 -5.6624e+001 27664 106382,106238,105950
 4.5000e+000 106074 -4.3772e+001 -2.2593e+002  7.7662e+000 27664 106310,105820,106002
 4.5000e+000 106051  1.8801e+001 -2.4397e+002 -4.7453e+001 27664 106382,105950,105924
 4.5000e+000 106028 -1.6014e+001 -4.2557e+002 -1.7436e+001 27664 105846,105898,105872
 4.5000e+000 106192 -8.4622e+001 -3.3733e+002 -4.3788e+001 27664 105898,105846,106166
 4.5000e+000 106215 -5.1836e+001 -2.8137e+002 -1.8384e+001 27664 106238,105898,106166
 4.5000e+000 106264 -1.5195e+002 -3.0208e+002 -7.3157e+001 27664 105976,105950,106238
 4.5000e+000 106287 -5.2861e+001 -2.7994e+002 -1.8707e+001 27664 105976,106238,106166
 4.5000e+000 106336 -4.3535e+001 -2.4514e+002  2.8496e+001 27664 105976,106166,106310
 4.5000e+000 106359 -1.8204e+001 -2.3811e+002  2.7494e+001 27664 105976,106310,106002
 4.5000e+000 106408 -5.6068e+001 -2.3100e+002  1.4249e-001 27664 105898,106238,106382
 4.5000e+000 106431 -2.4446e+001 -2.1634e+002  4.7031e+000 27664 105898,106382,105924
 4.5000e+000 106728 -2.5006e+001 -1.6341e+002  2.9548e+001 27153 106751,106506,106454
 4.5000e+000 106705 -2.4078e+001 -1.6575e+002  2.4616e+001 27153 106751,106454,106610
 4.5000e+000 106682 -4.1074e+001 -1.2022e+002  4.2885e+000 27153 106454,106506,106480
 4.5000e+000 106659 -3.7559e+001 -1.5891e+002  1.6656e+001 27153 106532,106610,106584
 4.5000e+000 106636 -6.4264e+001 -9.5000e+001  3.3516e+001 27153 106532,106584,106558
 4.5000e+000 106777 -1.8627e+001 -1.6077e+002  3.1020e+001 27153 106532,106506,106751
 4.5000e+000 106800 -1.9233e+001 -1.6386e+002  2.5247e+001 27153 106532,106751,106610
 4.5000e+000 107180 -3.0221e+001 -1.9482e+002  1.3599e+001 26642 107203,106984,106958
 4.5000e+000 107157 -9.9812e+001 -2.2659e+002  4.4335e+000 26642 107203,106958,106932
 4.5000e+000 107134 -1.1486e+002 -2.4776e+002 -3.7303e+001 26642 107275,107036,107010
 4.5000e+000 107111 -7.3230e+001 -2.4781e+002 -4.4770e+001 26642 106932,107062,107036
 4.5000e+000 107088 -2.9307e+000 -1.9508e+002  2.3889e+001 26642 106906,107062,106932
 4.5000e+000 107229  3.4436e+000 -1.8331e+002 -6.0138e+001 26642 107010,106984,107203
 4.5000e+000 107252 -1.0217e+002 -2.3037e+002 -4.3998e+001 26642 107275,107010,107203
 4.5000e+000 107301 -9.9719e+001 -2.4557e+002 -4.6737e+001 26642 106932,107036,107275
 4.5000e+000 107324 -9.5633e+001 -2.4577e+002 -4.8754e+001 26642 106932,107275,107203
 4.5000e+000 107675 -5.3341e+001 -1.5072e+002  1.5191e+001 26045 107450,107554,107476
 4.5000e+000 107652 -4.1201e+001 -1.3102e+002  4.1742e+000 26045 107450,107580,107554
 4.5000e+000 107629 -1.6719e+001 -1.3569e+002  5.8666e+000 26045 107476,107528,107502
 4.5000e+000 107606 -1.4564e+001 -1.4211e+002  8.0918e+000 26045 107476,107554,107528
 4.5000e+000 107874 -3.8128e+001 -2.2587e+002  5.6836e+001 25641 107750,107802,107776
 4.5000e+000 107851 -4.6870e+001 -1.5460e+002  3.0709e+001 25641 107724,107802,107750
 4.5000e+000 107828 -4.5068e+001 -1.5699e+002  2.6793e+001 25641 107698,107802,107724
 4.5000e+000 108431 -2.0289e+001 -2.4239e+002  4.3019e+001 25023 108526,108267,108241
 4.5000e+000 108408 -2.3394e-001 -2.3169e+002  8.2656e+000 25023 108059,108267,108085
 4.5000e+000 108385 -3.3027e+001 -2.4589e+002  4.3997e+001 25023 108454,108163,108111
 4.5000e+000 108362 -1.0948e+002 -2.4904e+002  7.1994e+001 25023 108454,108111,108085
 4.5000e+000 108339 -8.7590e+001 -3.2507e+002  7.7307e+001 25023 108111,108163,108137
 4.5000e+000 108316 -5.7163e+001 -1.7799e+002 -1.0489e+001 25023 108163,108241,108215
 4.5000e+000 108293  2.4533e+001 -1.4179e+002 -2.6729e+000 25023 108163,108215,108189
 4.5000e+000 108480 -7.4189e+000 -2.2060e+002  3.8454e+000 25023 108241,108163,108454
 4.5000e+000 108503 -3.6331e+001 -2.3524e+002  4.1290e+001 25023 108526,108241,108454
 4.5000e+000 108552 -3.9021e+001 -2.4554e+002  3.4247e+001 25023 108085,108267,108526
 4.5000e+000 108575 -5.6051e+001 -2.3955e+002  3.2097e+001 25023 108085,108526,108454
 4.5000e+000 108823  8.8840e-001 -1.7856e+002  2.5200e+001 24461 108624,108728,108650
 4.5000e+000 108800 -2.6663e+001 -3.6710e+002 -2.5149e+001 24461 108598,108728,108624
 4.5000e+000 108777  8.6855e-001 -2.3854e+002  1.8939e+001 24461 108650,108728,108676
 4.5000e+000 108754 -1.0539e+002 -6.7690e+002  5.7206e+001 24461 108676,108728,108702
 4.5000e+000 109022 -6.4079e+001 -1.8278e+002  2.5351e+001 24121 108872,108924,108898
 4.5000e+000 108999 -4.4861e+001 -1.7739e+002  2.9371e+001 24121 108846,108924,108872
 4.5000e+000 108976 -7.4753e+001 -1.9037e+002  3.0972e+001 24121 108846,108950,108924
 4.5000e+000 109483 -7.5333e+001 -2.4962e+002 -2.3137e+001 23717 109209,109339,109235
 4.5000e+000 109460 -2.8506e+001 -2.8392e+002 -5.6965e+001 23717 109209,109365,109339
 4.5000e+000 109437 -1.1458e+000 -3.1887e+002 -1.9280e+001 23717 109287,109339,109313
 4.5000e+000 109414 -1.4368e+002 -3.1778e+002  1.9418e+001 23717 109235,109339,109287
 4.5000e+000 109391  2.6802e+000 -3.6313e+002  1.3396e+002 23717 109235,109287,109261
 4.5000e+000 109910 -1.0039e+002 -2.9125e+002 -3.1713e+001 23305 109613,109743,109717
 4.5000e+000 109887 -9.8409e+001 -2.9309e+002 -1.6503e+001 23305 109613,109769,109743
 4.5000e+000 109864 -1.1853e+002 -2.8298e+002 -2.7766e+001 23305 109613,109717,109639
 4.5000e+000 109841 -7.7696e+001 -2.7047e+002 -6.5617e+000 23305 109587,109769,109613
 4.5000e+000 109818  2.6353e+000 -2.3124e+002  2.1680e+001 23305 109639,109717,109691
 4.5000e+000 109795 -2.5189e+001 -1.8571e+002 -4.2945e+001 23305 109639,109691,109665
 4.5000e+000 110180 -4.5911e+000 -8.2389e+001 -1.9172e+001 22851 110007,110059,110033
 4.5000e+000 110157 -5.7614e+001 -2.2729e+002  1.0406e+001 22851 109981,110059,110007
 4.5000e+000 110134 -8.1981e+001 -2.4587e+002  1.5556e+000 22851 109955,110059,109981
 4.5000e+000 110111 -3.2931e+001 -2.7079e+002 -2.0656e+001 22851 109955,110085,110059
 4.5000e+000 110737 -3.2940e+001 -2.5675e+002 -6.9903e+001 22333 110760,110469,110391
 4.5000e+000 110714 -8.1422e+000 -2.9838e+002 -5.3125e+001 22333 110760,110391,110365
 4.5000e+000 110691 -2.2062e+001 -2.3416e+002 -5.7680e+001 22333 110832,110521,110469
 4.5000e+000 110668 -5.7040e+001 -4.7062e+002  3.7500e+001 22333 110417,110469,110443
 4.5000e+000 110645 -1.2010e+002 -4.0547e+002  1.8052e+001 22333 110391,110469,110417
 4.5000e+000 110622 -3.2341e+000 -2.3656e+002 -2.8511e+001 22333 110469,110521,110495
 4.5000e+000 110599 -1.7483e+001 -1.6131e+002  1.9316e+001 22333 110365,110573,110547
 4.5000e+000 110786 -1.6987e+001 -2.3928e+002 -6.3216e+001 22333 110832,110469,110760
 4.5000e+000 110809  1.8561e+001 -2.5708e+002 -4.1407e+001 22333 110547,110760,110365
 4.5000e+000 110858 -1.8905e+001 -2.4609e+002 -5.7384e+001 22333 110547,110521,110832
 4.5000e+000 110881 -2.0722e+001 -2.5818e+002 -6.4810e+001 22333 110547,110832,110760
 4.5000e+000 111308 -1.3151e+002 -3.1349e+002  2.0114e+001 21829 111331,111063,111011
 4.5000e+000 111285 -1.1626e+002 -2.8898e+002 -5.5390e+000 21829 111331,111011,111167
 4.5000e+000 111262 -1.3559e+002 -3.1048e+002  2.1334e+001 21829 111403,111089,111063
 4.5000e+000 111239 -1.6725e+002 -3.2976e+002  4.8174e+001 21829 111011,111063,111037
 4.5000e+000 111216 -7.5780e+001 -2.1226e+002  1.1056e+001 21829 110985,111167,111011
 4.5000e+000 111193 -1.5735e+002 -5.1319e+002  1.1448e+002 21829 111089,111141,111115
 4.5000e+000 111357 -1.3070e+002 -3.1449e+002  2.1294e+001 21829 111403,111063,111331
 4.5000e+000 111380 -1.3508e+002 -3.2877e+002 -2.9897e-001 21829 111141,111331,111167
 4.5000e+000 111429 -1.4288e+002 -3.1636e+002  2.5561e+001 21829 111141,111089,111403
 4.5000e+000 111452 -1.3591e+002 -3.2195e+002  2.3934e+001 21829 111141,111403,111331
 4.5000e+000 112056  1.0083e+002 -2.2800e+002  4.1039e+000 21489 111687,111765,111739
 4.5000e+000 112033  2.7527e+001 -2.6426e+002  2.7788e+001 21489 112151,112079,111687
 4.5000e+000 112010  6.7765e-001 -4.1433e+002  2.6880e+001 21489 111791,111843,111817
 4.5000e+000 111987 -6.8039e+001 -3.2960e+002 -2.5664e+001 21489 112079,111843,111791
 4.5000e+000 111964  6.7997e+001 -2.4437e+002  5.1673e+001 21489 112151,111687,111661
 4.5000e+000 111941 -1.4895e+001 -1.7926e+002  4.2803e+001 21489 111661,111869,111843
 4.5000e+000 111918  9.9968e+001 -2.4931e+002  3.6991e+001 21489 111687,111739,111713
 4.5000e+000 111895  2.6286e+001 -8.3604e+001  1.3531e+001 21489 111635,111869,111661
 4.5000e+000 112105 -3.5278e+001 -2.8848e+002  1.5591e+001 21489 111765,111687,112079
 4.5000e+000 112128 -3.1803e+001 -2.7310e+002  1.5386e+001 21489 111765,112079,111791
 4.5000e+000 112177 -4.1007e+001 -2.5988e+002 -6.8767e+000 21489 111843,112079,112151
 4.5000e+000 112200 -3.9805e+000 -2.5203e+002  1.2525e+001 21489 111843,112151,111661
 4.5000e+000 112578 -5.4420e+001 -3.3317e+002  1.5600e+001 21177 112382,112434,112408
 4.5000e+000 112555 -6.9994e+001 -3.3023e+002  7.0903e-001 21177 112330,112434,112382
 4.5000e+000 112532 -5.0705e+001 -2.7934e+002  5.3014e+001 21177 112304,112434,112330
 4.5000e+000 112509 -6.9802e+001 -3.1479e+002  0.0000e+000 21177 112330,112382,112356
 4.5000e+000 112486 -1.4703e+001 -1.6438e+002  9.4166e+000 21177 112304,112460,112434
 4.5000e+000 112679 -2.8180e+000 -1.8984e+002 -4.1569e+001 20666 112601,112653,112627
 4.5000e+000 112927 -9.9411e+001 -3.2858e+002  1.1771e+001 19762 112702,112754,112728
 4.5000e+000 112904 -3.7349e+001 -3.1653e+002 -2.4462e+000 19762 112702,112832,112754
 4.5000e+000 112881 -8.3987e+001 -3.4065e+002  5.5064e+001 19762 112754,112832,112806
 4.5000e+000 112858 -1.1771e+002 -4.2743e+002  5.4493e+001 19762 112754,112806,112780
 4.5000e+000 113297 -9.0552e+001 -4.0104e+002  2.5795e+001 19308 112974,113052,113026
 4.5000e+000 113274 -6.1129e+001 -3.3583e+002  8.7707e+000 19308 112974,113156,113052
 4.5000e+000 113251 -3.1936e+001 -4.4414e+002 -5.3569e+001 19308 113052,113130,113104
 4.5000e+000 113228 -6.6436e+001 -3.3471e+002 -2.0768e-001 19308 113052,113156,113130
 4.5000e+000 113205 -6.2951e+001 -3.8716e+002  0.0000e+000 19308 113052,113104,113078
 4.5000e+000 113182 -1.2917e+002 -4.1778e+002 -1.4596e+000 19308 112974,113026,113000
 4.5000e+000 113547 -1.8340e+000 -3.6243e+002 -2.5027e+001 18711 113570,113374,113348
 4.5000e+000 113524 -1.3975e+001 -3.3040e+002 -1.4464e+001 18711 113570,113348,113452
 4.5000e+000 113501 -3.5315e+000 -2.4800e+002 -7.1076e+001 18711 113322,113452,113348
 4.5000e+000 113478 -3.2373e+001 -3.2370e+002 -1.2139e+002 18711 113374,113426,113400
 4.5000e+000 113596  1.9741e-001 -3.2724e+002 -3.3082e+001 18711 113426,113374,113570
 4.5000e+000 113619 -1.4455e+001 -3.0042e+002 -1.5867e+001 18711 113426,113570,113452
 4.5000e+000 113771 -1.8444e+002 -4.5548e+002 -2.4259e+001 18307 113670,113722,113696
 4.5000e+000 113748 -1.4433e+002 -4.3001e+002 -1.1580e+001 18307 113644,113722,113670
 4.5000e+000 113972 -8.0074e+001 -3.8329e+002  7.9202e+000 17945 113822,113874,113848
 4.5000e+000 113949 -8.1733e+001 -3.8172e+002  9.2296e+000 17945 113822,113900,113874
 4.5000e+000 113926 -1.1235e+002 -3.0365e+002  1.5921e+002 17945 113796,113900,113822
 4.5000e+000 114075 -5.5749e+001 -5.6381e+002  6.0662e+001 17482 113997,114049,114023
 4.5000e+000 114479 -2.0188e+001 -3.1018e+002 -4.7728e+001 17042 114257,114361,114335
 4.5000e+000 114456 -7.3147e+001 -3.0118e+002 -7.3511e+000 17042 114205,114361,114257
 4.5000e+000 114433 -8.3951e+001 -3.4769e+002  1.3331e+001 17042 114205,114257,114231
 4.5000e+000 114410  7.0768e+001 -4.5957e+002 -2.9430e+001 17042 114283,114335,114309
 4.5000e+000 114387 -2.7740e+000 -3.9927e+002 -2.0157e+001 17042 114257,114335,114283
 4.5000e+000 114879 -1.7573e+002 -3.2142e+002 -4.7710e+000 16638 114631,114683,114657
 4.5000e+000 114856 -3.5026e+001 -2.6331e+002  4.0621e+000 16638 114605,114683,114631
 4.5000e+000 114833  4.1189e+001 -1.4618e+002 -3.3537e+001 16638 114605,114761,114683
 4.5000e+000 114810 -1.3645e+001 -3.5855e+002 -1.7651e+001 16638 114683,114735,114709
 4.5000e+000 114787 -3.0987e+001 -3.7391e+002 -2.5413e+001 16638 114683,114761,114735
 4.5000e+000 115078 -1.5393e+002 -3.4765e+002  9.1465e+000 16232 114954,115006,114980
 4.5000e+000 115055 -1.5390e+002 -3.8434e+002  1.7175e+001 16232 114928,115006,114954
 4.5000e+000 115032 -7.4659e+001 -4.7726e+002  3.2562e+001 16232 114902,115006,114928
 4.5000e+000 115228 -8.8700e+001 -3.4471e+002  1.1074e+001 15482 115101,115153,115127
 4.5000e+000 115205 -7.9735e+001 -3.2674e+002 -3.4781e+000 15482 115101,115179,115153
 4.5000e+000 115331 -6.9068e+001 -3.1864e+002 -4.0622e+001 15163 115253,115305,115279
 4.5000e+000 115434 -1.1071e+002 -3.4675e+002  5.8282e+001 421 115356,115408,115382
 4.6000e+000 68213 -1.8332e+001 -1.8197e+002 -1.8853e+001 67888 68112,68164,68138
 4.6000e+000 68190 -2.2214e+002 -2.4209e+002 -3.1906e+001 67888 68086,68164,68112
 4.6000e+000 68314 -2.3640e+001 -2.6117e+002  2.5009e+001 67576 68236,68288,68262
 4.6000e+000 68584 -9.6790e+001 -4.6895e+002  2.2553e+001 67378 68385,68489,68463
 4.6000e+000 68561 -3.5321e+001 -4.3892e+002  1.1548e+001 67378 68359,68489,68385
 4.6000e+000 68538 -7.3424e+001 -4.0267e+002  3.2493e+001 67378 68385,68463,68411
 4.6000e+000 68515 -3.7259e+001 -2.6283e+002  1.9338e+001 67378 68411,68463,68437
 4.6000e+000 68964 -1.0556e+002 -4.1600e+002  6.0937e+001 67130 68690,68820,68716
 4.6000e+000 68941  7.6347e+001 -4.2910e+002  1.1405e+002 67130 68690,68846,68820
 4.6000e+000 68918 -9.4932e+001 -2.7891e+002  6.0030e+000 67130 68742,68820,68794
 4.6000e+000 68895 -2.4668e+001 -2.7848e+002  2.4541e+001 67130 68716,68820,68742
 4.6000e+000 68872 -6.4681e+001 -2.3809e+002 -2.9327e+001 67130 68742,68794,68768
 4.6000e+000 69065 -8.0424e+001 -2.4769e+002  4.4364e+000 66926 68987,69039,69013
 4.6000e+000 69445 -4.5015e+001 -2.2689e+002 -1.2163e+001 66614 69223,69301,69275
 4.6000e+000 69422 -7.0588e+001 -2.4139e+002 -5.0578e+000 66614 69171,69301,69223
 4.6000e+000 69399 -8.2277e+001 -2.4714e+002  4.6254e-001 66614 69171,69327,69301
 4.6000e+000 69376 -1.7154e+001 -1.1071e+002  2.0167e+000 66614 69223,69275,69249
 4.6000e+000 69353 -6.2054e+001 -2.5514e+002 -5.0188e+000 66614 69171,69223,69197
 4.6000e+000 69546 -7.5997e+001 -3.7932e+002  2.0171e+001 66416 69468,69520,69494
 4.6000e+000 69997 -7.0625e+001 -3.8466e+002 -2.9501e+001 66104 69700,69830,69726
 4.6000e+000 69974 -1.0336e+002 -4.7025e+002 -6.1947e+001 66104 69700,69856,69830
 4.6000e+000 69951 -7.3567e+001 -2.9785e+002 -2.1513e+001 66104 69726,69804,69778
 4.6000e+000 69928 -6.0578e+001 -3.5915e+002 -3.0261e+001 66104 69726,69830,69804
 4.6000e+000 69905 -7.7492e+001 -2.8479e+002 -1.1169e+001 66104 69726,69778,69752
 4.6000e+000 69882 -3.2826e+001 -6.4418e+002 -1.1747e+002 66104 69674,69856,69700
 4.6000e+000 70326 -6.8542e+001 -1.7881e+002  4.8397e+000 65814 70349,70153,70127
 4.6000e+000 70303 -4.3076e+001 -1.7538e+002  8.5875e+000 65814 70349,70127,70101
 4.6000e+000 70280 -3.8935e+001 -1.6420e+002  6.4851e+001 65814 70101,70231,70205
 4.6000e+000 70257  9.0906e+000 -1.9829e+002  2.2254e+001 65814 70153,70205,70179
 4.6000e+000 70375 -5.6851e+001 -1.8865e+002  2.5188e+001 65814 70205,70153,70349
 4.6000e+000 70398 -1.7784e+001 -1.7886e+002  2.5989e+001 65814 70205,70349,70101
 4.6000e+000 70904 -3.0441e+001 -1.0035e+002 -2.9445e+001 65502 70607,70737,70685
 4.6000e+000 70881 -4.1283e+001 -8.2246e+001 -3.8653e+001 65502 70581,70737,70607
 4.6000e+000 70858 -3.9928e+001 -2.8376e+001 -9.5425e+000 65502 70581,70763,70737
 4.6000e+000 70835 -4.4757e+001 -1.0977e+002 -4.2031e+001 65502 70685,70737,70711
 4.6000e+000 70812 -1.5142e+002 -1.2910e+002 -3.2204e+000 65502 70607,70659,70633
 4.6000e+000 70789 -4.9293e+001 -1.3475e+002  2.5597e-001 65502 70607,70685,70659
 4.6000e+000 71103 -4.2840e+001 -3.3377e+002 -9.7696e+000 65304 71126,70979,70953
 4.6000e+000 71080 -8.0119e+001 -3.3225e+002 -4.0390e+000 65304 71126,70953,70927
 4.6000e+000 71057 -1.1079e+002 -3.3706e+002  2.3566e+001 65304 70927,71031,71005
 4.6000e+000 71152 -7.9636e+001 -3.1651e+002 -2.0536e+001 65304 71005,70979,71126
 4.6000e+000 71175 -1.2159e+002 -3.2050e+002 -6.4491e+000 65304 71005,71126,70927
 4.6000e+000 71374 -4.5163e+001 -3.2089e+002  1.6292e+001 65106 71198,71276,71224
 4.6000e+000 71351 -9.5057e+001 -3.4410e+002  6.9161e+000 65106 71198,71302,71276
 4.6000e+000 71328 -2.5980e+001 -2.7009e+002  4.0374e+001 65106 71224,71276,71250
 4.6000e+000 71756 -4.0980e+001 -2.2679e+002 -1.4885e+001 64652 71508,71638,71534
 4.6000e+000 71733  4.2296e-001 -2.0897e+002  2.2467e+000 64652 71482,71638,71508
 4.6000e+000 71710 -7.9796e+001 -2.2198e+002 -1.6800e+001 64652 71534,71586,71560
 4.6000e+000 71687 -6.9510e+001 -2.4510e+002 -3.5661e+001 64652 71534,71612,71586
 4.6000e+000 71664 -1.0664e+002 -2.5469e+002 -3.8985e+001 64652 71534,71638,71612
 4.6000e+000 72085 -1.0053e+002 -2.5300e+002 -3.0310e+001 64248 71886,71964,71912
 4.6000e+000 72062 -8.1440e+001 -2.4647e+002 -3.0653e+001 64248 71860,71964,71886
 4.6000e+000 72039 -4.3889e+001 -2.6935e+002 -2.0400e+001 64248 71912,71964,71938
 4.6000e+000 72016 -7.7893e+001 -2.3022e+002 -3.3177e+001 64248 71860,71990,71964
 4.6000e+000 72235 -7.1200e+000 -1.6350e+002 -2.2016e+001 63858 72588,72258,72134
 4.6000e+000 72212 -3.2779e+001 -1.4199e+002  5.6692e+000 63858 72330,72258,72108
 4.6000e+000 72284 -2.3288e+001 -1.2002e+002 -1.5594e+001 63858 72160,72134,72258
 4.6000e+000 72307 -8.3439e+001 -1.5852e+002 -2.5036e+001 63858 72460,72258,72186
 4.6000e+000 72356 -6.9223e+001 -1.5309e+002 -2.4480e+001 63858 72186,72258,72330
 4.6000e+000 72486 -2.9054e+001 -1.4473e+002 -2.5793e+001 63858 72160,72258,72460
 4.6000e+000 72614 -9.0120e+000 -1.7239e+002 -2.0544e-001 63858 72108,72258,72588
 4.6000e+000 73248 -5.2130e+001 -2.4526e+002  6.3778e+001 63404 72902,72954,72928
 4.6000e+000 73225 -1.3013e+002 -2.7190e+002  2.9094e+001 63404 73271,72954,72902
 4.6000e+000 73202 -1.1529e+002 -2.2781e+002  2.4462e+001 63404 73271,72902,73032
 4.6000e+000 73179 -7.3973e+001 -1.9788e+002  7.9129e+000 63404 72902,73058,73032
 4.6000e+000 73156 -9.2685e+001 -2.4381e+002  1.6364e+001 63404 72980,73032,73006
 4.6000e+000 73133 -6.7399e+001 -2.0476e+002  5.1078e+000 63404 72876,73058,72902
 4.6000e+000 73110 -2.6963e+001 -1.0111e+002 -5.3064e+001 63404 72876,73084,73058
 4.6000e+000 73297 -1.1171e+002 -2.7725e+002  1.4784e+000 63404 72980,72954,73271
 4.6000e+000 73320 -1.0829e+002 -2.5400e+002  1.0578e+000 63404 72980,73271,73032
 4.6000e+000 73470 -9.4754e+001 -6.1720e+002  6.5401e+001 63014 73343,73395,73369
 4.6000e+000 73447 -2.9106e+002 -7.5311e+002 -1.3448e+001 63014 73343,73421,73395
 4.6000e+000 73929 -6.5497e-001 -2.8497e+002  1.7471e+001 62702 73759,73811,73785
 4.6000e+000 73906  1.6543e+001 -2.7685e+002  1.9525e+001 62702 73655,73811,73759
 4.6000e+000 73883 -2.9050e+001 -3.1743e+002 -1.2869e+000 62702 73655,73759,73681
 4.6000e+000 73860  1.1436e+001 -2.3569e+002 -5.0295e+001 62702 73681,73759,73707
 4.6000e+000 73837 -1.2634e+002 -2.7668e+002  5.1389e+000 62702 73707,73759,73733
 4.6000e+000 74209 -1.6941e+002 -2.7721e+002  2.7738e+000 62404 74059,74137,74085
 4.6000e+000 74186 -2.0263e+002 -3.5825e+002  4.1343e+001 62404 74033,74137,74059
 4.6000e+000 74163 -1.8331e+002 -2.5762e+002  1.3615e-001 62404 74085,74137,74111
 4.6000e+000 74408 -9.6213e+000 -2.3845e+002  1.3183e+001 62000 74258,74336,74284
 4.6000e+000 74385 -7.4202e+000 -2.3311e+002  2.5481e+001 62000 74232,74336,74258
 4.6000e+000 74362 -5.7331e+001 -2.3956e+002 -3.3264e+000 62000 74284,74336,74310
 4.6000e+000 74509 -2.0867e+001 -2.7034e+002  2.0235e+001 61802 74431,74483,74457
 4.6000e+000 74759 -8.9143e+001 -2.4475e+002  3.7946e+000 61554 74782,74586,74560
 4.6000e+000 74736 -5.7271e+001 -2.2827e+002  9.7598e+000 61554 74782,74560,74664
 4.6000e+000 74713 -7.7087e+001 -1.8277e+002  6.2010e+001 61554 74854,74612,74586
 4.6000e+000 74690 -7.2495e+001 -2.4991e+002  1.6505e+000 61554 74534,74664,74560
 4.6000e+000 74808 -1.0595e+002 -2.2625e+002  1.8041e+001 61554 74854,74586,74782
 4.6000e+000 74831 -6.6807e+001 -2.8598e+002  1.6067e+001 61554 74638,74782,74664
 4.6000e+000 74880 -1.9996e+001 -2.2844e+002  6.8160e+001 61554 74638,74612,74854
 4.6000e+000 74903 -2.1557e+001 -2.2595e+002  3.5781e+001 61554 74638,74854,74782
 4.6000e+000 75285 -3.8207e+001 -2.5142e+002  2.9769e+000 61356 75063,75167,75115
 4.6000e+000 75262 -5.1064e+001 -2.6714e+002 -1.4577e+001 61356 75037,75167,75063
 4.6000e+000 75239  1.7621e+001 -2.6002e+002 -1.6289e+000 61356 75115,75167,75141
 4.6000e+000 75216 -1.0551e+001 -2.3467e+002  1.0009e+001 61356 75063,75115,75089
 4.6000e+000 75193 -1.0988e+002 -2.1150e+002  1.6513e+001 61356 75011,75167,75037
 4.6000e+000 75631 -1.6307e+001 -1.9969e+002  6.0079e+000 60952 75654,75412,75360
 4.6000e+000 75608 -3.7884e+001 -2.2917e+002 -5.8424e+000 60952 75654,75360,75334
 4.6000e+000 75585 -3.6709e+001 -2.9411e+002  1.6041e+001 60952 75726,75438,75412
 4.6000e+000 75562 -3.1287e+001 -2.3475e+002 -3.7673e+001 60952 75308,75490,75334
 4.6000e+000 75539 -2.2359e+001 -1.9972e+002 -1.7521e-001 60952 75360,75412,75386
 4.6000e+000 75516 -5.5440e+001 -3.5897e+002 -9.5837e+000 60952 75438,75490,75464
 4.6000e+000 75680 -1.4390e+001 -2.4549e+002  5.7968e+000 60952 75726,75412,75654
 4.6000e+000 75703 -1.5176e+001 -2.3221e+002 -9.5941e+000 60952 75490,75654,75334
 4.6000e+000 75752 -1.4463e+001 -2.3770e+002 -4.9563e-001 60952 75490,75438,75726
 4.6000e+000 75775 -1.5607e+001 -2.3325e+002 -9.8330e+000 60952 75490,75726,75654
 4.6000e+000 76155 -3.8801e+001 -2.3520e+002  4.0579e-001 60754 75933,75985,75959
 4.6000e+000 76132 -6.3717e+001 -2.5035e+002  2.4975e+001 60754 75933,76037,75985
 4.6000e+000 76109  5.0909e+000 -2.4344e+002  7.2567e+000 60754 75985,76037,76011
 4.6000e+000 76086 -9.5358e+001 -2.0874e+002  7.0956e+000 60754 75881,76037,75933
 4.6000e+000 76063 -1.3267e+002 -1.8411e+002  5.3920e+001 60754 75881,75933,75907
 4.6000e+000 76612 -4.3965e+001 -2.2458e+002  8.1216e+000 60350 76635,76442,76390
 4.6000e+000 76589 -2.9983e+000 -2.5116e+002  1.7377e+001 60350 76635,76390,76364
 4.6000e+000 76566 -1.6495e+001 -3.1911e+002 -2.2965e+001 60350 76364,76494,76468
 4.6000e+000 76543 -3.4089e+000 -2.0404e+002  2.0020e+001 60350 76390,76442,76416
 4.6000e+000 76520 -1.1281e+002 -2.0913e+002 -5.0293e+001 60350 76338,76494,76364
 4.6000e+000 76661 -6.6825e+001 -2.4250e+002  1.5977e+001 60350 76468,76442,76635
 4.6000e+000 76684 -3.7065e+001 -2.7385e+002  2.7765e+001 60350 76468,76635,76364
 4.6000e+000 76932 -8.6664e+001 -2.6333e+002  2.7624e+000 59946 76955,76733,76707
 4.6000e+000 76909 -8.6637e+001 -2.6195e+002  8.3801e+000 59946 77027,76955,76707
 4.6000e+000 76886 -8.1605e+001 -2.6257e+002  6.6367e+000 59946 77027,76707,76837
 4.6000e+000 76863 -3.9789e+001 -2.9042e+002 -2.6812e+001 59946 76733,76785,76759
 4.6000e+000 76981 -9.9084e+001 -2.6428e+002 -3.0867e+000 59946 76785,76733,76955
 4.6000e+000 77004 -8.9650e+001 -2.5739e+002  5.1834e+000 59946 76785,76955,76811
 4.6000e+000 77053 -7.9618e+001 -2.6096e+002  7.7413e+000 59946 76811,76955,77027
 4.6000e+000 77076 -7.5840e+001 -2.6163e+002  5.1648e+000 59946 76811,77027,76837
 4.6000e+000 77226 -1.1294e+002 -2.7545e+002  6.6600e+000 59542 77099,77151,77125
 4.6000e+000 77203 -1.3592e+002 -3.2221e+002  1.4060e+001 59542 77099,77177,77151
 4.6000e+000 77427 -1.3815e+002 -2.8358e+002 -1.8170e+001 59030 77450,77277,77251
 4.6000e+000 77404 -8.4648e+001 -2.2529e+002 -7.5683e+001 59030 77450,77251,77355
 4.6000e+000 77381 -1.9085e+001 -3.3418e+002 -5.9563e+000 59030 77277,77329,77303
 4.6000e+000 77476 -7.3760e+001 -2.9567e+002 -5.3358e+001 59030 77329,77277,77450
 4.6000e+000 77499 -1.7387e+001 -2.6773e+002 -9.8533e+001 59030 77329,77450,77355
 4.6000e+000 77749 -1.1410e+002 -3.5394e+002  2.6689e+001 58426 77772,77628,77602
 4.6000e+000 77726 -7.8709e+001 -4.3118e+002  1.0157e+002 58426 77524,77654,77628
 4.6000e+000 77703 -9.4729e+001 -3.4978e+002  1.9376e+001 58426 77772,77602,77550
 4.6000e+000 77680 -5.4515e+001 -3.2744e+002 -1.3981e+001 58426 77550,77602,77576
 4.6000e+000 77798 -9.1398e+001 -3.5657e+002  2.5907e+001 58426 77524,77628,77772
 4.6000e+000 77821 -8.1130e+001 -3.5710e+002  1.6481e+001 58426 77524,77772,77550
 4.6000e+000 78071 -1.4731e+002 -3.2015e+002  3.4026e+001 57922 78094,77924,77898
 4.6000e+000 78048 -1.7071e+002 -3.2411e+002  4.7573e+000 57922 78094,77898,77872
 4.6000e+000 78025 -1.4000e+002 -2.9581e+002  3.2580e+001 57922 78166,77846,77950
 4.6000e+000 78002 -7.4341e+001 -2.9043e+002  3.8309e+001 57922 77846,77976,77950
 4.6000e+000 78120 -1.2308e+002 -3.2049e+002  2.3726e+001 57922 77950,77924,78094
 4.6000e+000 78143 -1.4138e+002 -3.0052e+002  2.4334e+001 57922 78166,77950,78094
 4.6000e+000 78192 -1.3411e+002 -3.0906e+002  2.4943e+001 57922 77872,77846,78166
 4.6000e+000 78215 -1.4261e+002 -3.2286e+002  1.6162e+001 57922 77872,78166,78094
 4.6000e+000 78416  2.9762e+001 -2.7108e+002 -1.3862e+001 57468 78439,78292,78240
 4.6000e+000 78393 -1.5628e+001 -2.5609e+002  9.9712e-001 57468 78439,78240,78344
 4.6000e+000 78370  1.1235e+001 -3.6509e+002 -1.0317e+001 57468 78240,78292,78266
 4.6000e+000 78465 -1.4388e+001 -2.9321e+002 -2.2843e+001 57468 78318,78292,78439
 4.6000e+000 78488 -3.3002e+001 -2.6708e+002 -3.8563e+000 57468 78318,78439,78344
 4.6000e+000 78689  3.2575e+001 -3.2835e+002 -3.9456e+001 57014 78712,78539,78513
 4.6000e+000 78666 -1.7065e+001 -3.2653e+002 -7.2775e+000 57014 78712,78513,78617
 4.6000e+000 78643 -7.4529e+001 -3.3541e+002  3.2000e+001 57014 78565,78617,78591
 4.6000e+000 78738 -3.1334e+001 -2.7350e+002 -3.9468e+001 57014 78565,78539,78712
 4.6000e+000 78761 -1.0548e+002 -3.1722e+002  1.3070e+001 57014 78565,78712,78617
 4.6000e+000 79241 -1.0595e+002 -2.9161e+002  2.3745e+001 56652 79264,78895,78869
 4.6000e+000 79218 -4.9277e+001 -3.8005e+002 -2.1963e+001 56652 79264,78869,79051
 4.6000e+000 79195 -7.3830e+001 -3.3129e+002 -7.7336e+001 56652 78869,79077,79051
 4.6000e+000 79172 -8.2780e+001 -1.9203e+002 -4.4648e+001 56652 78895,78973,78947
 4.6000e+000 79149 -1.3793e+002 -5.6016e+002 -4.6350e+001 56652 78973,79051,78999
 4.6000e+000 79126 -7.3816e+001 -1.8473e+002 -4.8145e+001 56652 78895,78947,78921
 4.6000e+000 79103 -1.1518e+002 -3.8507e+002  9.1033e+001 56652 78999,79051,79025
 4.6000e+000 79290 -6.2843e+001 -2.3597e+002  5.4414e+001 56652 78973,78895,79264
 4.6000e+000 79313 -2.0605e+000 -3.3041e+002  1.1718e+001 56652 78973,79264,79051
 4.6000e+000 79512 -3.6690e+001 -4.2171e+002  3.6805e+001 56062 79388,79440,79414
 4.6000e+000 79489 -1.6897e+002 -2.2169e+002  5.6812e+001 56062 79336,79440,79388
 4.6000e+000 79466 -7.0431e+001 -2.3361e+002  7.8614e+001 56062 79336,79388,79362
 4.6000e+000 79941 -4.9392e+001 -2.3432e+002  3.6911e+001 55658 79964,79670,79644
 4.6000e+000 79918 -7.2871e+001 -2.3821e+002  4.1512e+001 55658 79964,79644,79800
 4.6000e+000 79895 -6.7259e+001 -2.5190e+002  2.0966e+001 55658 80036,79696,79670
 4.6000e+000 79872 -7.8930e+001 -2.1621e+002 -2.7771e+000 55658 80108,79722,79696
 4.6000e+000 79849 -1.1477e+002 -2.1472e+002  9.1801e+000 55658 79722,79774,79748
 4.6000e+000 79826 -1.4216e+000 -2.1273e+002  1.1363e+001 55658 79618,79800,79644
 4.6000e+000 79990 -7.5342e+001 -2.5406e+002  2.7822e+001 55658 80036,79670,79964
 4.6000e+000 80013 -6.5313e+001 -2.2118e+002  4.4412e+001 55658 79774,79964,79800
 4.6000e+000 80062 -5.7550e+001 -2.3089e+002  1.7291e+001 55658 80108,79696,80036
 4.6000e+000 80085 -7.3539e+001 -2.2372e+002  3.8077e+001 55658 79774,80036,79964
 4.6000e+000 80134 -1.2042e+002 -2.3135e+002  5.8888e+000 55658 79774,79722,80108
 4.6000e+000 80157 -1.0834e+002 -2.5172e+002  2.5738e+001 55658 79774,80108,80036
 4.6000e+000 80307 -1.2812e+002 -2.2759e+002  2.8592e+001 55254 80402,80330,80206
 4.6000e+000 80284 -1.2496e+002 -3.1099e+002  3.0149e+001 55254 80330,80180,80258
 4.6000e+000 80356 -1.5039e+002 -2.7843e+002  5.8137e+001 55254 80232,80206,80330
 4.6000e+000 80379 -4.3852e+001 -2.3037e+002  8.4282e+001 55254 80232,80330,80258
 4.6000e+000 80428 -1.7501e+002 -2.7924e+002  7.4314e+000 55254 80180,80330,80402
 4.6000e+000 80659 -6.2318e+001 -3.2458e+002 -2.5947e+001 54850 80558,80610,80584
 4.6000e+000 80636  1.5807e+000 -3.1005e+002 -3.3477e+001 54850 80532,80610,80558
 4.6000e+000 80760 -2.1516e+001 -2.3123e+002 -1.7994e+001 54652 80682,80734,80708
 4.6000e+000 81164 -1.7934e+001 -2.4677e+002 -4.6213e+000 54248 81187,80942,80890
 4.6000e+000 81141 -2.2557e+001 -2.5035e+002 -2.7682e+000 54248 81187,80890,81046
 4.6000e+000 81118 -2.7066e+001 -2.5906e+002  5.3855e+001 54248 80942,81020,80994
 4.6000e+000 81095 -1.5314e+001 -2.4875e+002  1.6423e+000 54248 80890,80942,80916
 4.6000e+000 81072 -3.5925e+001 -1.4292e+002  7.5685e+000 54248 80942,80994,80968
 4.6000e+000 81213 -2.3385e+001 -2.4354e+002 -4.1459e+000 54248 81020,80942,81187
 4.6000e+000 81236 -2.6777e+001 -2.4555e+002 -2.9594e+000 54248 81020,81187,81046
 4.6000e+000 81663 -1.3683e+002 -2.5879e+002  2.2458e+001 53594 81340,81444,81366
 4.6000e+000 81640 -1.2927e+002 -3.7009e+002  1.0162e+001 53594 81340,81470,81444
 4.6000e+000 81617 -5.1394e+001 -3.2514e+002 -2.0483e+001 53594 81340,81522,81470
 4.6000e+000 81594 -7.4350e+001 -1.8911e+002 -2.0974e+001 53594 81392,81444,81418
 4.6000e+000 81571 -9.9091e+001 -2.2346e+002 -3.2489e+001 53594 81366,81444,81392
 4.6000e+000 81548  1.2318e+001 -4.9814e+002  9.9150e+001 53594 81470,81522,81496
 4.6000e+000 81943 -3.3797e+001 -1.7656e+002 -2.2382e+001 53104 81966,81845,81819
 4.6000e+000 81920 -5.0299e+001 -1.4684e+002 -2.7326e+001 53104 81966,81819,81767
 4.6000e+000 81897 -5.1092e+001 -1.4696e+002 -2.9576e+001 53104 81767,81819,81793
 4.6000e+000 81992 -2.2732e+001 -1.5776e+002 -2.6935e+001 53104 81871,81845,81966
 4.6000e+000 82015 -3.1031e+001 -1.1607e+002 -3.5817e+001 53104 81871,81966,81767
 4.6000e+000 82491 -3.0942e+001 -1.7901e+002 -1.4143e+001 52650 82145,82249,82171
 4.6000e+000 82468 -1.4785e+002 -2.0966e+002 -2.4443e+001 52650 82145,82301,82249
 4.6000e+000 82445 -1.5476e+002 -3.2047e+002 -5.5841e+001 52650 82249,82301,82275
 4.6000e+000 82422 -6.8733e+001 -4.0145e+002 -7.2871e+001 52650 82119,82301,82145
 4.6000e+000 82399 -4.7880e+001 -1.4473e+002  1.8904e+001 52650 82171,82249,82223
 4.6000e+000 82376  1.7909e+001 -3.6783e+002 -5.3555e+001 52650 82119,82327,82301
 4.6000e+000 82353 -1.3696e+001 -7.1967e+001 -3.0087e+001 52650 82171,82223,82197
 4.6000e+000 82739 -4.0948e+001 -1.6757e+002  3.5838e+000 52246 82762,82540,82514
 4.6000e+000 82716 -2.6616e+001 -6.5868e+001 -1.2113e+001 52246 82762,82514,82644
 4.6000e+000 82693 -8.0855e+001 -1.9130e+002  4.1820e+001 52246 82540,82618,82592
 4.6000e+000 82670 -9.0945e+001 -1.8424e+002  3.5707e+001 52246 82540,82592,82566
 4.6000e+000 82788 -2.5939e+001 -2.1475e+002  1.2568e+001 52246 82618,82540,82762
 4.6000e+000 82811 -5.5366e+001 -1.8302e+002 -1.6402e+001 52246 82618,82762,82644
 4.6000e+000 83059 -2.6364e+001 -2.4033e+002  2.2648e+001 51578 82860,82964,82938
 4.6000e+000 83036 -1.6102e-001 -1.5844e+002 -5.1058e+001 51578 82834,82964,82860
 4.6000e+000 83013 -1.0604e+001 -1.8583e+002  4.9229e+001 51578 82860,82938,82886
 4.6000e+000 82990 -7.9157e+000 -1.1793e+002  8.9602e+000 51578 82886,82938,82912
 4.6000e+000 83309 -4.3611e+001 -1.3780e+002  3.8047e+001 51138 83332,83162,83136
 4.6000e+000 83286 -1.6188e+001 -1.7828e+002  1.2544e+001 51138 83332,83136,83110
 4.6000e+000 83263 -6.8058e+001 -1.8409e+002 -1.0265e+001 51138 83404,83214,83188
 4.6000e+000 83240 -2.5501e-001 -1.1270e+002  1.0679e+001 51138 83084,83214,83110
 4.6000e+000 83358 -7.0900e+001 -1.8844e+002  5.0047e+001 51138 83188,83162,83332
 4.6000e+000 83381 -4.7437e+001 -2.0423e+002  8.6346e+000 51138 83404,83188,83332
 4.6000e+000 83430 -4.3029e+001 -1.3371e+002 -4.4993e-001 51138 83110,83214,83404
 4.6000e+000 83453 -2.5730e+001 -1.6486e+002  1.7608e+001 51138 83110,83404,83332
 4.6000e+000 83835 -4.0643e+001 -2.2696e+002 -1.4992e+000 50734 83613,83717,83691
 4.6000e+000 83812 -4.4986e+001 -2.4290e+002 -4.9272e+001 50734 83561,83717,83613
 4.6000e+000 83789 -2.0684e+001 -1.2551e+002 -7.1219e+001 50734 83561,83613,83587
 4.6000e+000 83766 -8.7061e+001 -1.5257e+002  2.6046e-001 50734 83613,83691,83639
 4.6000e+000 83743 -9.2156e+001 -1.5416e+002  3.2200e+001 50734 83639,83691,83665
 4.6000e+000 84034 -5.7477e+001 -1.4303e+002  7.6290e+000 50230 84057,83884,83858
 4.6000e+000 84011 -5.7636e+001 -1.5661e+002 -1.4647e+001 50230 84129,84057,83858
 4.6000e+000 83988 -1.8046e+001 -1.6784e+002 -2.4573e+001 50230 84129,83858,83962
 4.6000e+000 84083 -2.3350e+001 -1.3041e+002  1.1630e+001 50230 83910,83884,84057
 4.6000e+000 84106 -3.5860e+001 -1.5035e+002  4.6571e+000 50230 83910,84057,83936
 4.6000e+000 84155 -6.1389e+000 -1.3261e+002 -2.9736e+000 50230 83936,84057,84129
 4.6000e+000 84178  8.8479e+000 -1.6134e+002 -1.8671e+001 50230 83936,84129,83962
 4.6000e+000 84558 -6.2804e+001 -1.8855e+002 -3.0426e+001 49768 84581,84388,84362
 4.6000e+000 84535 -1.2883e+002 -1.9131e+002 -1.2044e+001 49768 84581,84362,84310
 4.6000e+000 84512  3.6194e+000 -2.0618e+002 -3.2646e+001 49768 84653,84440,84414
 4.6000e+000 84489 -1.0104e+002 -2.0753e+002  1.4827e+001 49768 84310,84362,84336
 4.6000e+000 84466 -4.0834e+000 -1.5023e+002  2.2673e+001 49768 84284,84440,84310
 4.6000e+000 84607 -1.6640e+001 -1.5908e+002 -5.1807e+001 49768 84414,84388,84581
 4.6000e+000 84630 -2.2829e+001 -1.9336e+002 -2.3151e+001 49768 84653,84414,84581
 4.6000e+000 84679 -3.1872e+001 -1.9494e+002 -4.4633e+001 49768 84310,84440,84653
 4.6000e+000 84702 -6.9884e+001 -1.9515e+002 -4.5448e+001 49768 84310,84653,84581
 4.6000e+000 85159 -9.9651e+001 -2.6227e+002 -7.4447e+001 49192 84885,84937,84911
 4.6000e+000 85136 -1.0077e+002 -2.1309e+002 -5.4255e+001 49192 84885,85041,84937
 4.6000e+000 85113 -7.2650e+001 -1.8210e+002 -2.5160e+001 49192 84963,85041,84989
 4.6000e+000 85090 -6.3103e+001 -1.6544e+002 -3.7425e+001 49192 84937,85041,84963
 4.6000e+000 85067 -6.0081e+001 -1.7997e+002 -2.3666e+001 49192 84989,85041,85015
 4.6000e+000 85714 -1.0616e+002 -1.7675e+002 -8.5186e-001 48638 85368,85498,85394
 4.6000e+000 85691 -1.3167e+002 -2.0651e+002  1.0359e+001 48638 85368,85524,85498
 4.6000e+000 85668 -1.1931e+002 -1.6981e+002  4.5159e+001 48638 85737,85420,85394
 4.6000e+000 85645 -1.0114e+002 -1.9350e+002  2.3721e+001 48638 85737,85394,85498
 4.6000e+000 85622 -8.0484e+001 -1.9758e+002  3.9679e+001 48638 85446,85498,85472
 4.6000e+000 85599 -3.3827e+001 -1.6924e+002  1.9020e+001 48638 85342,85524,85368
 4.6000e+000 85576 -1.2900e+002 -1.9034e+002  1.8075e+001 48638 85342,85550,85524
 4.6000e+000 85763 -8.6282e+001 -1.5198e+002  6.0071e+001 48638 85446,85420,85737
 4.6000e+000 85786 -8.7553e+001 -1.7522e+002  3.5353e+001 48638 85446,85737,85498
 4.6000e+000 86371 -8.8578e+001 -1.3221e+002 -7.6652e+000 48084 86100,86230,86178
 4.6000e+000 86348 -1.0931e+002 -1.6890e+002 -1.8403e+001 48084 86048,86230,86100
 4.6000e+000 86325 -8.8778e+001 -1.2325e+002  3.2571e+001 48084 86100,86178,86126
 4.6000e+000 86302 -5.5308e+001 -4.1612e+001 -3.3388e+001 48084 86048,86100,86074
 4.6000e+000 86279 -1.1375e+002 -2.1244e+002 -2.8681e+000 48084 86178,86230,86204
 4.6000e+000 86256 -8.0647e+001 -1.3814e+002  3.1662e+001 48084 86126,86178,86152
 4.6000e+000 86619 -6.6354e+001 -1.4849e+002  1.3224e+001 47630 86642,86446,86420
 4.6000e+000 86596 -8.0706e+001 -1.6528e+002 -1.8019e+001 47630 86642,86420,86394
 4.6000e+000 86573 -1.0361e+002 -1.9202e+002 -2.6930e+001 47630 86394,86524,86498
 4.6000e+000 86550 -4.3552e+001 -1.6845e+002  1.1355e+001 47630 86446,86498,86472
 4.6000e+000 86668 -8.2472e+001 -1.8417e+002  5.1067e-001 47630 86498,86446,86642
 4.6000e+000 86691 -9.0320e+001 -1.9003e+002 -3.0076e+001 47630 86498,86642,86394
 4.6000e+000 87022 -7.1935e+000 -1.0717e+002 -6.0871e+001 47226 87045,86875,86849
 4.6000e+000 86999 -2.5086e+000 -1.2060e+002 -5.7458e+001 47226 87045,86849,86797
 4.6000e+000 86976  8.5836e-001 -5.6446e+001 -1.4799e+001 47226 86797,86849,86823
 4.6000e+000 86953  4.4326e+000 -7.6591e+001 -3.2048e+001 47226 86875,86927,86901
 4.6000e+000 87071 -1.4952e+001 -1.1696e+002 -5.7511e+001 47226 86927,86875,87045
 4.6000e+000 87094 -6.6971e+000 -1.2613e+002 -5.5552e+001 47226 86927,87045,86797
 4.6000e+000 87244 -1.2121e+001 -2.0753e+002  5.4917e+001 46814 87267,87169,87143
 4.6000e+000 87221 -9.7699e+001 -1.8743e+002 -1.0395e+001 46814 87267,87143,87117
 4.6000e+000 87293 -1.0063e+001 -1.5431e+002  3.4746e+001 46814 87339,87267,87195
 4.6000e+000 87316 -6.5685e+000 -1.4849e+002  4.4965e+000 46814 87469,87267,87117
 4.6000e+000 87365  1.4573e+000 -1.4721e+002  4.0389e+001 46814 87169,87267,87339
 4.6000e+000 87495 -6.7749e-001 -1.4910e+001 -1.8548e+000 46814 87195,87267,87469
 4.6000e+000 88001 -6.2452e+001 -1.4781e+002  3.6980e+001 46310 88024,87834,87808
 4.6000e+000 87978 -7.6266e+001 -1.5082e+002  2.2622e+001 46310 88024,87808,87756
 4.6000e+000 87955 -4.1329e+001 -1.9487e+002  1.0483e+001 46310 88096,87730,87860
 4.6000e+000 87932 -5.6014e+001 -1.9447e+002  2.3286e+001 46310 87756,87808,87782
 4.6000e+000 87909 -5.2747e+001 -2.3234e+002  9.0344e+000 46310 87678,87860,87730
 4.6000e+000 87886 -7.9041e+001 -3.7774e+002 -2.0664e+001 46310 87678,87730,87704
 4.6000e+000 88050 -5.3834e+001 -1.2911e+002  2.2821e+001 46310 87860,87834,88024
 4.6000e+000 88073 -4.2166e+001 -1.4209e+002  2.7194e+001 46310 88096,87860,88024
 4.6000e+000 88122 -5.3214e+001 -2.2000e+002 -7.6085e+000 46310 87756,87730,88096
 4.6000e+000 88145 -8.6595e+001 -1.9904e+002  1.8172e+000 46310 87756,88096,88024
 4.6000e+000 88572 -3.9552e+001 -1.9277e+002  1.0820e+001 45856 88249,88405,88275
 4.6000e+000 88549 -3.4297e+001 -6.2734e+001 -3.8882e+001 45856 88249,88431,88405
 4.6000e+000 88526 -9.5136e+001 -2.6718e+002 -3.5200e+001 45856 88327,88405,88353
 4.6000e+000 88503 -4.3329e+001 -2.3211e+002 -1.5792e+001 45856 88275,88405,88327
 4.6000e+000 88480 -7.8511e+001 -2.3164e+002 -4.0240e+001 45856 88353,88405,88379
 4.6000e+000 88457 -1.7996e+002 -4.8848e+002  4.0389e+001 45856 88275,88327,88301
 4.6000e+000 88950 -3.1934e+001 -1.1321e+002 -1.7803e+000 45658 88973,88754,88728
 4.6000e+000 88927 -2.9905e+001 -1.1560e+002 -1.6624e+000 45658 88973,88728,88676
 4.6000e+000 88904 -3.3923e+001 -1.3920e+002  4.3822e+001 45658 88676,88832,88806
 4.6000e+000 88881 -5.3824e+001 -1.6220e+002  1.4838e+001 45658 88676,88728,88702
 4.6000e+000 88858 -4.4468e+001 -1.0660e+002 -2.1880e+001 45658 88754,88806,88780
 4.6000e+000 88999 -3.3925e+001 -1.1489e+002 -8.2640e-001 45658 88806,88754,88973
 4.6000e+000 89022 -3.1330e+001 -1.1631e+002 -1.1540e+000 45658 88806,88973,88676
 4.6000e+000 89351 -5.6248e+001 -1.9099e+002 -9.1292e+000 45254 89152,89230,89204
 4.6000e+000 89328 -5.2190e+001 -1.8935e+002 -9.3792e+000 45254 89152,89256,89230
 4.6000e+000 89305 -1.7322e+001 -2.0062e+002 -2.5025e+001 45254 89126,89256,89152
 4.6000e+000 89282  3.2013e+000 -1.9267e+002 -3.4479e+001 45254 89152,89204,89178
 4.6000e+000 89523 -2.3175e+001 -1.3576e+002  6.3141e-001 45006 89422,89474,89448
 4.6000e+000 89500 -1.8409e+001 -1.3374e+002  4.4377e+000 45006 89396,89474,89422
 4.6000e+000 89673 -1.5722e+002 -2.7502e+002  2.3439e+001 44495 89572,89624,89598
 4.6000e+000 89650 -1.6117e+002 -2.7551e+002  1.5093e+001 44495 89546,89624,89572
 4.6000e+000 90104 -1.6273e+001 -2.0410e+002 -1.0004e+001 44005 90199,90127,89937
 4.6000e+000 90081 -3.9921e+001 -2.0088e+002  3.4000e+000 44005 90271,90127,89859
 4.6000e+000 90058 -3.9842e+000 -2.1051e+002 -1.0777e+001 44005 90199,89937,89885
 4.6000e+000 90035 -5.5994e+001 -1.9036e+002  1.2551e+001 44005 90271,89859,89807
 4.6000e+000 90012 -3.0665e+001 -2.3123e+002 -2.6668e+001 44005 89885,89937,89911
 4.6000e+000 89989 -1.7558e+001 -2.0564e+002  3.6237e+001 44005 89807,89859,89833
 4.6000e+000 90153 -4.2109e+001 -2.1326e+002 -5.6281e+000 44005 89963,89937,90127
 4.6000e+000 90176 -4.5227e+001 -2.2768e+002  4.9167e+000 44005 89963,90127,89781
 4.6000e+000 90225 -4.4312e+001 -2.0384e+002 -3.1640e+000 44005 89859,90127,90199
 4.6000e+000 90248 -1.9520e+001 -2.0239e+002  8.9205e-001 44005 89859,90199,89885
 4.6000e+000 90297 -6.1719e+001 -2.1381e+002 -1.9855e+000 44005 89781,90127,90271
 4.6000e+000 90320 -7.1060e+001 -1.9975e+002  8.5611e+000 44005 89781,90271,89807
 4.6000e+000 90470 -3.4648e+001 -2.1938e+002 -6.5007e+000 43601 90493,90369,90343
 4.6000e+000 90447 -5.9073e+001 -1.7708e+002  1.4234e+001 43601 90493,90343,90421
 4.6000e+000 90519 -7.2102e+001 -2.9776e+002 -3.3868e+001 43601 90395,90369,90493
 4.6000e+000 90542 -5.7179e+001 -2.0811e+002 -7.4645e+000 43601 90395,90493,90421
 4.6000e+000 90922 -7.5698e+001 -2.3180e+002  1.5505e+001 43154 90945,90700,90674
 4.6000e+000 90899 -6.6987e+001 -2.3619e+002 -2.6213e+001 43154 90945,90674,90648
 4.6000e+000 90876 -8.1367e+001 -1.8696e+002 -1.6693e+001 43154 90648,90778,90752
 4.6000e+000 90853 -4.3118e+001 -3.7998e+002  1.1112e+001 43154 90700,90752,90726
 4.6000e+000 90830 -4.9623e+001 -1.8901e+002 -5.6130e+000 43154 90648,90804,90778
 4.6000e+000 90971 -8.7487e+001 -2.6819e+002  2.2668e+001 43154 90752,90700,90945
 4.6000e+000 90994 -7.5814e+001 -2.5814e+002 -1.7955e+001 43154 90752,90945,90648
 4.6000e+000 91451 -2.0223e+001 -1.8049e+002 -3.2933e+001 42650 91203,91255,91229
 4.6000e+000 91428  1.8052e+001 -1.6376e+002 -1.5787e+001 42650 91203,91333,91255
 4.6000e+000 91405 -2.4513e+000 -2.6378e+002 -4.4993e+001 42650 91177,91333,91203
 4.6000e+000 91382 -8.1787e+001 -2.8190e+002  3.6485e+001 42650 91255,91333,91281
 4.6000e+000 91359 -1.8302e+001 -2.3994e+002  1.6011e+001 42650 91281,91333,91307
 4.6000e+000 91721 -1.1898e+002 -2.7027e+002  1.8662e+001 42288 91496,91600,91522
 4.6000e+000 91698 -6.3761e+001 -1.5726e+002 -7.1487e+000 42288 91496,91626,91600
 4.6000e+000 91675 -7.4984e+001 -2.4447e+002  2.1106e+001 42288 91522,91574,91548
 4.6000e+000 91652 -6.1449e+001 -2.4796e+002  1.9404e+001 42288 91522,91600,91574
 4.6000e+000 92199 -1.7686e+002 -2.9322e+002 -6.9525e+000 41898 92222,91983,91879
 4.6000e+000 92176 -1.8075e+002 -3.1956e+002 -1.7395e+001 41898 92294,92222,91879
 4.6000e+000 92153 -1.9003e+002 -3.1489e+002 -2.4363e+001 41898 92294,91879,91853
 4.6000e+000 92130 -1.5452e+002 -1.8019e+002  1.9591e+001 41898 91879,91957,91931
 4.6000e+000 92107 -1.5905e+002 -2.8636e+002 -6.0249e-001 41898 91879,91983,91957
 4.6000e+000 92084 -1.6520e+002 -1.6418e+002  3.4406e+001 41898 91879,91931,91905
 4.6000e+000 92061 -1.6921e+002 -2.8393e+002 -1.9713e+001 41898 91827,92035,91853
 4.6000e+000 92248 -1.7362e+002 -3.2563e+002 -2.8462e-001 41898 92009,91983,92222
 4.6000e+000 92271 -1.7133e+002 -3.3264e+002 -2.4249e+001 41898 92009,92222,92035
 4.6000e+000 92320 -1.6494e+002 -3.1247e+002 -1.9252e+001 41898 92035,92222,92294
 4.6000e+000 92343 -1.7187e+002 -3.0684e+002 -2.5864e+001 41898 92035,92294,91853
 4.6000e+000 92770 -5.4072e+001 -2.5227e+002 -1.8097e+001 41437 92865,92793,92525
 4.6000e+000 92747 -7.7521e+001 -2.9545e+002 -2.6160e+001 41437 92793,92473,92629
 4.6000e+000 92724 -2.5123e+001 -2.5802e+002 -3.3644e+001 41437 92865,92525,92499
 4.6000e+000 92701 -8.6160e+001 -2.2907e+002 -4.0716e+001 41437 92525,92603,92577
 4.6000e+000 92678  1.0465e+000 -2.8514e+002 -2.3071e+001 41437 92447,92629,92473
 4.6000e+000 92655 -1.3575e+002 -2.0616e+002 -2.4677e+001 41437 92525,92577,92551
 4.6000e+000 92819 -6.2966e+001 -2.7255e+002 -4.0527e+001 41437 92603,92525,92793
 4.6000e+000 92842 -1.2151e+002 -2.9254e+002 -7.4418e+001 41437 92603,92793,92629
 4.6000e+000 92891  3.8835e+000 -2.7749e+002 -2.4574e+001 41437 92473,92793,92865
 4.6000e+000 92914  4.6555e+001 -2.6431e+002 -4.7616e+001 41437 92473,92865,92499
 4.6000e+000 93243 -4.3351e+001 -3.8650e+002  1.4169e+002 41097 93044,93096,93070
 4.6000e+000 93220 -7.6191e+001 -3.4021e+002  7.5505e+001 41097 93044,93122,93096
 4.6000e+000 93197  1.6072e+001 -2.2639e+002  3.0264e+001 41097 93044,93148,93122
 4.6000e+000 93174 -6.7917e+001 -1.7880e+002  6.7270e+001 41097 93018,93148,93044
 4.6000e+000 93393 -7.1876e+000 -2.8590e+002  1.9860e+001 40643 93416,93292,93344
 4.6000e+000 93370 -1.2628e+001 -2.6719e+002  2.2028e+001 40643 93266,93344,93292
 4.6000e+000 93442 -1.0371e+001 -2.8276e+002  2.6429e+001 40643 93318,93292,93416
 4.6000e+000 93901 -8.5810e+001 -2.6109e+002 -1.7855e+001 40132 93924,93731,93705
 4.6000e+000 93878 -9.0079e+001 -2.6941e+002 -1.9985e+001 40132 93996,93924,93705
 4.6000e+000 93855 -1.0668e+002 -3.1010e+002 -7.0894e+000 40132 93996,93705,93653
 4.6000e+000 93832 -4.5718e+001 -2.9984e+002 -1.6829e+001 40132 93653,93705,93679
 4.6000e+000 93809 -8.6993e+001 -2.6064e+002  3.2198e+000 40132 93627,93783,93757
 4.6000e+000 93950 -8.2547e+001 -2.7741e+002 -2.1265e+001 40132 93757,93731,93924
 4.6000e+000 93973 -9.3349e+001 -2.4659e+002 -5.2068e+000 40132 93757,93924,93627
 4.6000e+000 94022 -1.1984e+002 -2.9492e+002  9.3273e+000 40132 93627,93924,93996
 4.6000e+000 94045 -1.1139e+002 -3.0908e+002  1.8791e+001 40132 93627,93996,93653
 4.6000e+000 94423 -1.7570e+001 -3.0473e+002 -4.3181e+001 39514 94149,94227,94175
 4.6000e+000 94400 -3.1250e+001 -2.8764e+002  3.3174e+001 39514 94149,94305,94227
 4.6000e+000 94377  8.3779e+000 -3.6015e+002 -4.1313e+001 39514 94175,94227,94201
 4.6000e+000 94354 -8.8980e+001 -2.6766e+002  1.4740e+001 39514 94227,94305,94279
 4.6000e+000 94331 -3.6760e+001 -2.4338e+002  2.6960e+001 39514 94227,94279,94253
 4.6000e+000 94573 -2.3377e+001 -1.7297e+002 -3.5576e+001 38822 94596,94498,94472
 4.6000e+000 94550  3.4591e+001 -1.8719e+002  4.0418e+001 38822 94596,94472,94446
 4.6000e+000 94622 -9.0362e+001 -2.0165e+002 -3.5494e+001 38822 94524,94498,94596
 4.6000e+000 94645 -7.7702e+001 -2.3643e+002  4.8442e+001 38822 94524,94596,94446
 4.6000e+000 95025 -1.4069e+001 -2.2621e+002 -1.6165e+001 38418 95048,94829,94777
 4.6000e+000 95002 -2.2137e+001 -2.3953e+002 -2.8556e+001 38418 95120,95048,94777
 4.6000e+000 94979 -1.6147e+001 -2.3640e+002 -2.6497e+001 38418 95120,94777,94751
 4.6000e+000 94956 -1.4067e+001 -2.1153e+002 -3.1359e+001 38418 95192,94881,94855
 4.6000e+000 94933 -6.9524e+001 -1.9944e+002 -9.8979e+000 38418 94777,94829,94803
 4.6000e+000 95074 -3.9573e+001 -3.0159e+002 -6.3317e+000 38418 94855,94829,95048
 4.6000e+000 95097 -1.9918e+001 -2.3664e+002 -3.4686e+001 38418 95192,94855,95048
 4.6000e+000 95146 -4.2256e+001 -2.2711e+002 -2.2689e+001 38418 94907,95048,95120
 4.6000e+000 95169 -2.5508e+001 -2.1497e+002 -1.6809e+001 38418 94907,95120,94751
 4.6000e+000 95218 -2.0709e+001 -1.6558e+002 -2.7649e+001 38418 94907,94881,95192
 4.6000e+000 95241 -3.4796e+001 -2.0541e+002 -2.4487e+001 38418 94907,95192,95048
 4.6000e+000 95511 -7.5575e+001 -2.4208e+002  1.2135e+001 38049 95312,95390,95364
 4.6000e+000 95488 -5.0642e+001 -2.3159e+002  1.1898e+001 38049 95312,95416,95390
 4.6000e+000 95465 -2.5256e+001 -2.3055e+002 -1.3870e+001 38049 95312,95364,95338
 4.6000e+000 95442 -2.1476e+001 -2.1513e+002  2.1037e+001 38049 95286,95416,95312
 4.6000e+000 95808 -7.2690e+001 -2.8338e+002 -6.3283e+000 37437 95831,95586,95560
 4.6000e+000 95785  2.7923e+001 -2.9991e+002 -1.3237e+001 37437 95831,95560,95534
 4.6000e+000 95762 -1.4695e+002 -2.7316e+002  7.1146e+000 37437 95586,95664,95638
 4.6000e+000 95739 -2.4058e+001 -1.3941e+002 -7.3511e+001 37437 95534,95690,95664
 4.6000e+000 95716 -1.3525e+002 -1.9731e+002  7.4806e+000 37437 95586,95638,95612
 4.6000e+000 95857 -1.3737e+002 -2.7708e+002  3.4109e+001 37437 95664,95586,95831
 4.6000e+000 95880 -3.0727e+001 -2.9068e+002  2.8569e+001 37437 95664,95831,95534
 4.6000e+000 96390 -9.7877e+001 -2.1393e+002 -1.1917e+001 36883 96413,96145,96093
 4.6000e+000 96367 -8.0828e+001 -2.0527e+002 -6.3338e+000 36883 96413,96093,96067
 4.6000e+000 96344 -5.7237e+001 -2.4972e+002  2.4161e-001 36883 96067,96249,96171
 4.6000e+000 96321 -8.5608e+001 -2.4783e+002 -3.5128e+000 36883 96093,96145,96119
 4.6000e+000 96298 -1.2052e+002 -4.1047e+002  3.8761e+001 36883 96171,96249,96197
 4.6000e+000 96275 -3.3855e+001 -3.2756e+002 -5.3374e+000 36883 96197,96249,96223
 4.6000e+000 96439 -9.2622e+001 -2.0660e+002  3.2019e+000 36883 96171,96145,96413
 4.6000e+000 96462 -7.8781e+001 -2.0351e+002  7.4125e+000 36883 96171,96413,96067
 4.6000e+000 96781 -7.7734e+001 -2.4365e+002 -3.4950e+001 36215 96559,96663,96637
 4.6000e+000 96758 -9.7981e+001 -2.6566e+002 -4.4155e+001 36215 96507,96663,96559
 4.6000e+000 96735 -9.5839e+001 -1.8072e+002  1.8081e+001 36215 96585,96637,96611
 4.6000e+000 96712 -2.0190e+002 -2.8199e+002 -3.0230e+001 36215 96559,96637,96585
 4.6000e+000 96689 -3.7267e+001 -3.0872e+002 -8.8734e+000 36215 96507,96559,96533
 4.6000e+000 97161  4.2096e+000 -1.3264e+002 -6.8276e+000 35818 97184,96965,96939
 4.6000e+000 97138 -1.2523e+001 -1.5801e+002 -1.4349e+001 35818 97184,96939,96887
 4.6000e+000 97115 -5.9871e+000 -1.6798e+002  3.0910e+001 35818 96965,97043,97017
 4.6000e+000 97092 -5.7451e+000 -1.5191e+002 -1.7912e+001 35818 96887,96939,96913
 4.6000e+000 97069 -8.7584e+001 -1.7131e+002  1.9306e+001 35818 96965,97017,96991
 4.6000e+000 97210  2.2046e+001 -1.5427e+002  7.1639e+000 35818 97043,96965,97184
 4.6000e+000 97233  9.1541e+000 -1.7244e+002  1.2895e+000 35818 97043,97184,96887
 4.6000e+000 97739 -8.0461e+001 -2.4512e+002 -5.7791e+001 35214 97416,97468,97442
 4.6000e+000 97716 -9.5247e+001 -1.7746e+002 -1.8290e+001 35214 97416,97598,97468
 4.6000e+000 97693 -8.3927e+001 -1.6814e+002 -6.7988e+000 35214 97762,97520,97468
 4.6000e+000 97670 -8.7055e+001 -1.7293e+002 -1.4412e+001 35214 97762,97468,97598
 4.6000e+000 97647 -6.4041e+001 -1.6662e+002 -2.3572e+001 35214 97546,97598,97572
 4.6000e+000 97624 -5.1320e+001 -1.7485e+002 -9.3458e+000 35214 97468,97520,97494
 4.6000e+000 97788 -8.6922e+001 -1.7710e+002 -1.0369e+001 35214 97546,97520,97762
 4.6000e+000 97811 -8.7893e+001 -1.8083e+002 -1.7461e+001 35214 97546,97762,97598
 4.6000e+000 98189 -1.2438e+001 -1.2862e+002 -1.2806e+001 34760 98356,98212,97967
 4.6000e+000 98166 -2.8357e+001 -1.5618e+002 -2.5542e+001 34760 98284,98212,97941
 4.6000e+000 98143 -5.5774e+001 -1.4053e+002 -1.3100e+001 34760 98284,97941,97915
 4.6000e+000 98120 -1.5396e+001 -1.7378e+002 -6.3770e+000 34760 98484,97993,97967
 4.6000e+000 98097 -1.4479e+001 -1.4569e+002 -4.2567e+000 34760 98556,98045,98019
 4.6000e+000 98238 -2.3791e+001 -1.6281e+002 -6.7520e+000 34760 98484,97967,98212
 4.6000e+000 98261 -3.1977e-001 -1.5056e+002 -1.1515e+001 34760 98556,98019,98212
 4.6000e+000 98310 -5.5693e+000 -1.2754e+002 -3.6067e+001 34760 98071,98212,98284
 4.6000e+000 98333 -2.3139e+001 -8.8733e+001 -2.9020e+001 34760 98071,98284,97915
 4.6000e+000 98382 -7.9376e+001 -1.7374e+002 -3.3195e+001 34760 97941,98212,98356
 4.6000e+000 98510 -2.2231e+000 -1.6423e+002 -1.1091e+001 34760 98019,97993,98484
 4.6000e+000 98533 -1.5657e+001 -1.5738e+002 -1.0275e+001 34760 98019,98484,98212
 4.6000e+000 98582  3.4908e+000 -1.3837e+002 -1.5178e+000 34760 98071,98045,98556
 4.6000e+000 98605  9.5311e+000 -1.4836e+002 -1.0118e+001 34760 98071,98556,98212
 4.6000e+000 99032 -9.7494e+001 -2.2393e+002  3.3363e+001 34156 98735,98891,98839
 4.6000e+000 99009 -8.1007e+001 -2.3170e+002  1.4127e+001 34156 98709,98891,98735
 4.6000e+000 98986 -2.7930e+001 -1.9838e+002  3.0928e+001 34156 98735,98813,98787
 4.6000e+000 98963 -3.3888e+001 -2.1739e+002  2.6257e+001 34156 98735,98839,98813
 4.6000e+000 98940  1.3682e+001 -2.9756e+002  3.5056e+001 34156 98735,98787,98761
 4.6000e+000 98917 -8.6723e+001 -1.9645e+002  2.1010e+001 34156 98839,98891,98865
 4.6000e+000 99231 -2.7156e+001 -1.1721e+002  1.0709e+001 33766 99055,99133,99107
 4.6000e+000 99208 -4.9819e+001 -1.5695e+002  2.1860e+001 33766 99055,99159,99133
 4.6000e+000 99185 -1.2047e+001 -1.3628e+002  2.7477e+001 33766 99055,99107,99081
 4.6000e+000 99818 -5.2232e+001 -1.6343e+002  3.4956e+000 33248 99521,99651,99573
 4.6000e+000 99795 -5.3379e+001 -1.5651e+002  1.6447e+001 33248 99521,99677,99651
 4.6000e+000 99772 -8.1453e+001 -1.9847e+002 -1.1151e+001 33248 99573,99651,99599
 4.6000e+000 99749 -5.4869e+001 -1.9268e+002  1.8215e+001 33248 99495,99677,99521
 4.6000e+000 99726 -3.5599e+001 -1.6860e+002 -4.1096e+001 33248 99599,99651,99625
 4.6000e+000 99703 -6.7288e+001 -1.9600e+002  1.1643e+001 33248 99521,99573,99547
 4.6000e+000 100196 -5.8945e+001 -1.8282e+002 -3.4464e+001 32794 100219,99948,99922
 4.6000e+000 100173 -6.9139e+001 -2.0440e+002 -1.6632e+001 32794 100219,99922,100052
 4.6000e+000 100150 -9.3250e+001 -1.8637e+002  1.1246e+001 32794 99974,100052,100026
 4.6000e+000 100127 -8.4401e+001 -1.6337e+002 -2.7867e+001 32794 99922,100078,100052
 4.6000e+000 100104 -9.6211e+001 -2.2458e+002  4.1798e+001 32794 99974,100026,100000
 4.6000e+000 100245 -7.9060e+001 -1.7888e+002 -1.3414e+001 32794 99974,99948,100219
 4.6000e+000 100268 -8.5643e+001 -2.0778e+002  4.5343e+000 32794 99974,100219,100052
 4.6000e+000 100418 -1.3349e+001 -1.7280e+002 -1.8514e+001 32504 100571,100343,100317
 4.6000e+000 100395 -7.0185e+001 -1.9859e+002  1.7396e+001 32504 100571,100317,100441
 4.6000e+000 100467  4.7514e+001 -9.6465e+001 -5.1781e+001 32504 100291,100369,100441
 4.6000e+000 100597  1.1712e+001 -1.4559e+002 -6.2992e+001 32504 100369,100343,100571
 4.6000e+000 100620 -1.3853e+001 -1.3609e+002 -3.2010e+001 32504 100369,100571,100441
 4.6000e+000 101020 -2.2631e+001 -1.4160e+002  5.3566e+000 32142 100772,100902,100876
 4.6000e+000 100997 -1.5299e+001 -1.2555e+002  8.2099e+000 32142 100746,100902,100772
 4.6000e+000 100974 -2.3641e-001 -1.5615e+002  1.9566e+001 32142 101043,100824,100798
 4.6000e+000 100951 -2.6316e+001 -1.6813e+002  1.4612e+001 32142 101043,100798,100772
 4.6000e+000 100928 -8.9300e+001 -1.9720e+002 -4.9101e+001 32142 101115,100876,100850
 4.6000e+000 101069  3.0293e+001 -1.7103e+002 -1.7402e+001 32142 100850,100824,101043
 4.6000e+000 101092 -4.3725e+001 -2.0297e+002 -2.3353e+001 32142 101115,100850,101043
 4.6000e+000 101141 -3.3234e+001 -1.6554e+002 -1.7927e+001 32142 100772,100876,101115
 4.6000e+000 101164  1.9840e+000 -1.6955e+002  1.0173e+001 32142 100772,101115,101043
 4.6000e+000 101719 -9.6245e+001 -2.3054e+002  3.0905e+001 31538 101742,101477,101399
 4.6000e+000 101696 -1.1829e+002 -2.8027e+002  7.1621e+000 31538 101814,101742,101399
 4.6000e+000 101673 -1.3588e+002 -2.4130e+002 -1.9300e+001 31538 101814,101399,101373
 4.6000e+000 101650 -9.5593e+001 -1.6540e+002  2.1044e+001 31538 101425,101477,101451
 4.6000e+000 101627 -9.0253e+001 -1.9471e+002  5.4478e+000 31538 101399,101477,101425
 4.6000e+000 101604 -5.8717e+001 -2.7209e+002  5.6731e+001 31538 101477,101529,101503
 4.6000e+000 101581 -3.6284e+001 -1.6410e+002 -1.5422e+001 31538 101347,101555,101373
 4.6000e+000 101768 -1.1008e+002 -2.8297e+002  3.0398e+001 31538 101529,101477,101742
 4.6000e+000 101791 -9.4914e+001 -2.9016e+002 -9.8106e+000 31538 101529,101742,101555
 4.6000e+000 101840 -7.4133e+001 -2.4061e+002 -1.0990e+001 31538 101555,101742,101814
 4.6000e+000 101863 -9.9592e+001 -2.0885e+002 -3.5207e+001 31538 101555,101814,101373
 4.6000e+000 102111 -1.4315e+002 -3.6593e+002  4.7012e+001 31112 101886,101990,101912
 4.6000e+000 102088 -5.3818e+001 -2.2011e+002  2.9066e+000 31112 101886,102016,101990
 4.6000e+000 102065 -6.6549e+001 -3.5497e+002  7.2019e+001 31112 101912,101990,101964
 4.6000e+000 102042 -1.0499e+002 -4.4344e+002  8.5131e+001 31112 101912,101964,101938
 4.6000e+000 102408 -3.4341e+001 -2.2268e+002  1.7826e+001 30658 102431,102186,102160
 4.6000e+000 102385 -7.4234e+001 -2.2016e+002 -1.1997e-001 30658 102431,102160,102264
 4.6000e+000 102362 -7.1605e+001 -2.4128e+002  3.5580e+000 30658 102186,102238,102212
 4.6000e+000 102339 -8.1102e+001 -2.3374e+002 -1.4174e+001 30658 102134,102264,102160
 4.6000e+000 102316 -5.6348e+001 -1.9605e+002 -6.4618e+001 30658 102134,102290,102264
 4.6000e+000 102457 -6.7680e+001 -2.3496e+002  9.2515e+000 30658 102238,102186,102431
 4.6000e+000 102480 -1.1032e+002 -2.3628e+002 -1.0332e+001 30658 102238,102431,102264
 4.6000e+000 102681 -2.8228e+001 -2.6864e+002  4.0431e+001 30004 102704,102557,102505
 4.6000e+000 102658 -3.5694e+001 -2.7032e+002  4.1152e+001 30004 102704,102505,102609
 4.6000e+000 102635  5.7709e+000 -2.2989e+002  1.0624e+001 30004 102505,102557,102531
 4.6000e+000 102730 -3.4431e+001 -2.6104e+002  3.6147e+001 30004 102583,102557,102704
 4.6000e+000 102753 -5.0839e+001 -2.6816e+002  3.7944e+001 30004 102583,102704,102609
 4.6000e+000 103003 -3.0235e+001 -2.1565e+002 -1.7280e+001 29564 103026,102804,102778
 4.6000e+000 102980 -3.8451e+001 -2.5687e+002 -2.6844e+001 29564 103026,102778,102908
 4.6000e+000 102957 -4.0166e+001 -2.1928e+002 -3.3046e+000 29564 102856,102908,102882
 4.6000e+000 102934 -5.4707e+001 -1.9463e+002  1.3516e+001 29564 102804,102856,102830
 4.6000e+000 103052 -2.6582e+001 -1.9513e+002  1.0622e+001 29564 102856,102804,103026
 4.6000e+000 103075 -3.8267e+001 -2.2870e+002 -2.7945e+000 29564 102856,103026,102908
 4.6000e+000 103634 -9.6920e+001 -2.4188e+002 -2.9152e+001 29160 103657,103418,103392
 4.6000e+000 103611 -9.2223e+001 -2.3325e+002 -1.4462e+001 29160 103657,103392,103314
 4.6000e+000 103588 -6.6934e+001 -2.0230e+002 -2.5399e+001 29160 103314,103392,103366
 4.6000e+000 103565 -5.9370e+001 -2.1398e+002 -2.8795e+001 29160 103314,103366,103340
 4.6000e+000 103542 -1.1625e+002 -2.3111e+002 -2.7062e+001 29160 103262,103444,103314
 4.6000e+000 103519 -1.3948e+002 -2.7844e+002 -3.7377e+001 29160 103262,103314,103288
 4.6000e+000 103496 -8.9633e+001 -2.5362e+002 -1.0612e+001 29160 103262,103470,103444
 4.6000e+000 103683 -1.1936e+002 -2.5935e+002 -4.5511e+001 29160 103444,103418,103657
 4.6000e+000 103706 -1.0104e+002 -2.3205e+002 -2.8551e+001 29160 103444,103657,103314
 4.6000e+000 104035 -6.4359e+001 -2.3247e+002  2.2019e+001 28770 103836,103914,103862
 4.6000e+000 104012 -6.1730e+001 -2.2222e+002  2.9028e+001 28770 103810,103914,103836
 4.6000e+000 103989  1.4228e+001 -2.0215e+002  3.6346e+001 28770 103810,103940,103914
 4.6000e+000 103966 -1.3676e+001 -1.8646e+002  4.4686e+001 28770 103862,103914,103888
 4.6000e+000 104185 -2.3642e+001 -2.1240e+002  4.0457e+001 28366 104208,104110,104084
 4.6000e+000 104162 -2.1214e+001 -1.8112e+002  3.1948e+001 28366 104280,104208,104084
 4.6000e+000 104234  4.3336e+001 -2.1180e+002  2.5061e+001 28366 104610,104208,104136
 4.6000e+000 104257 -4.0170e+001 -2.0103e+002  2.5104e+001 28366 104538,104410,104208
 4.6000e+000 104306 -6.6592e+001 -2.0348e+002  2.4539e+001 28366 104538,104208,104280
 4.6000e+000 104436 -1.4512e+001 -2.1525e+002  2.8145e+000 28366 104136,104208,104410
 4.6000e+000 104564 -6.7849e+001 -1.9973e+002  1.1102e+001 28366 104058,104410,104538
 4.6000e+000 104587 -8.4127e+001 -1.9607e+002  8.7095e+000 28366 104058,104538,104280
 4.6000e+000 104636  3.1339e+001 -2.1538e+002  3.2259e+001 28366 104110,104208,104610
 4.6000e+000 105349 -5.1907e+001 -1.9345e+002 -2.0323e+001 27976 105516,105372,105107
 4.6000e+000 105326 -8.0573e+001 -1.9405e+002  4.8391e+000 27976 105588,105372,105055
 4.6000e+000 105303 -8.6324e+001 -1.8912e+002 -1.8971e+001 27976 105444,105159,105133
 4.6000e+000 105280 -2.9891e+001 -2.0085e+002 -1.2355e+001 27976 105516,105107,105081
 4.6000e+000 105257 -7.4346e+001 -2.1536e+002  1.8794e+001 27976 105588,105055,105029
 4.6000e+000 105234 -4.0618e+001 -1.6541e+002  2.2815e+000 27976 105003,105185,105159
 4.6000e+000 105211 -5.6911e+001 -1.3419e+002  2.4122e+001 27976 104977,105185,105003
 4.6000e+000 105398 -4.1617e+001 -1.9414e+002 -2.5861e+001 27976 105133,105107,105372
 4.6000e+000 105421 -6.9613e+001 -2.0179e+002 -1.1536e+001 27976 105444,105133,105372
 4.6000e+000 105470 -7.0642e+001 -1.6732e+002 -1.0435e+001 27976 105003,105159,105444
 4.6000e+000 105493 -5.8919e+001 -1.8212e+002 -6.7795e+000 27976 105003,105444,105372
 4.6000e+000 105542 -3.7158e+001 -1.9132e+002 -2.0287e+000 27976 105055,105372,105516
 4.6000e+000 105565 -4.2526e+000 -1.9444e+002  3.6746e+000 27976 105055,105516,105081
 4.6000e+000 105614 -9.3506e+001 -2.1506e+002  1.5024e+001 27976 105003,105372,105588
 4.6000e+000 105637 -9.0668e+001 -2.3610e+002  3.0240e+001 27976 105003,105588,105029
 4.6000e+000 106143 -9.0209e+001 -2.8989e+002  1.7555e+001 27664 106166,105846,105820
 4.6000e+000 106120 -6.2249e+001 -2.2009e+002  7.5308e+000 27664 106310,106166,105820
 4.6000e+000 106097 -3.0087e+001 -2.5866e+002 -5.4117e+001 27664 106382,106238,105950
 4.6000e+000 106074 -4.1401e+001 -2.1462e+002  7.0526e+000 27664 106310,105820,106002
 4.6000e+000 106051  1.8610e+001 -2.3339e+002 -4.4989e+001 27664 106382,105950,105924
 4.6000e+000 106028 -1.4989e+001 -4.0968e+002 -1.5939e+001 27664 105846,105898,105872
 4.6000e+000 106192 -8.0588e+001 -3.2272e+002 -4.2057e+001 27664 105898,105846,106166
 4.6000e+000 106215 -4.9133e+001 -2.6914e+002 -1.7523e+001 27664 106238,105898,106166
 4.6000e+000 106264 -1.4506e+002 -2.8921e+002 -7.0179e+001 27664 105976,105950,106238
 4.6000e+000 106287 -4.9905e+001 -2.6767e+002 -1.7887e+001 27664 105976,106238,106166
 4.6000e+000 106336 -4.1132e+001 -2.3435e+002  2.7363e+001 27664 105976,106166,106310
 4.6000e+000 106359 -1.6978e+001 -2.2706e+002  2.6028e+001 27664 105976,106310,106002
 4.6000e+000 106408 -5.2929e+001 -2.2049e+002  3.7217e-001 27664 105898,106238,106382
 4.6000e+000 106431 -2.2775e+001 -2.0640e+002  5.0915e+000 27664 105898,106382,105924
 4.6000e+000 106728 -2.3924e+001 -1.5660e+002  2.8502e+001 27153 106751,106506,106454
 4.6000e+000 106705 -2.3074e+001 -1.5898e+002  2.3741e+001 27153 106751,106454,106610
 4.6000e+000 106682 -3.9753e+001 -1.1668e+002  4.3051e+000 27153 106454,106506,106480
 4.6000e+000 106659 -3.5976e+001 -1.5325e+002  1.6184e+001 27153 106532,106610,106584
 4.6000e+000 106636 -6.2051e+001 -9.0861e+001  3.2647e+001 27153 106532,106584,106558
 4.6000e+000 106777 -1.7823e+001 -1.5397e+002  2.9940e+001 27153 106532,106506,106751
 4.6000e+000 106800 -1.8478e+001 -1.5713e+002  2.4373e+001 27153 106532,106751,106610
 4.6000e+000 107180 -2.8986e+001 -1.8698e+002  1.2967e+001 26642 107203,106984,106958
 4.6000e+000 107157 -9.5672e+001 -2.1753e+002  3.7646e+000 26642 107203,106958,106932
 4.6000e+000 107134 -1.1042e+002 -2.3768e+002 -3.6041e+001 26642 107275,107036,107010
 4.6000e+000 107111 -7.0520e+001 -2.3758e+002 -4.3233e+001 26642 106932,107062,107036
 4.6000e+000 107088 -2.6102e+000 -1.8691e+002  2.2593e+001 26642 106906,107062,106932
 4.6000e+000 107229  2.8390e+000 -1.7683e+002 -5.7626e+001 26642 107010,106984,107203
 4.6000e+000 107252 -9.8182e+001 -2.2118e+002 -4.2593e+001 26642 107275,107010,107203
 4.6000e+000 107301 -9.5748e+001 -2.3549e+002 -4.5071e+001 26642 106932,107036,107275
 4.6000e+000 107324 -9.1671e+001 -2.3579e+002 -4.7089e+001 26642 106932,107275,107203
 4.6000e+000 107675 -5.1022e+001 -1.4454e+002  1.4800e+001 26045 107450,107554,107476
 4.6000e+000 107652 -3.9602e+001 -1.2569e+002  4.2348e+000 26045 107450,107580,107554
 4.6000e+000 107629 -1.6619e+001 -1.2864e+002  5.2755e+000 26045 107476,107528,107502
 4.6000e+000 107606 -1.3976e+001 -1.3637e+002  7.9476e+000 26045 107476,107554,107528
 4.6000e+000 107874 -3.6819e+001 -2.1617e+002  5.4526e+001 25641 107750,107802,107776
 4.6000e+000 107851 -4.5217e+001 -1.4899e+002  2.9748e+001 25641 107724,107802,107750
 4.6000e+000 107828 -4.3663e+001 -1.5102e+002  2.6413e+001 25641 107698,107802,107724
 4.6000e+000 108431 -1.9270e+001 -2.3215e+002  4.1265e+001 25023 108526,108267,108241
 4.6000e+000 108408 -1.6973e-001 -2.2148e+002  7.4824e+000 25023 108059,108267,108085
 4.6000e+000 108385 -3.1560e+001 -2.3620e+002  4.2043e+001 25023 108454,108163,108111
 4.6000e+000 108362 -1.0504e+002 -2.3893e+002  6.9229e+001 25023 108454,108111,108085
 4.6000e+000 108339 -8.4227e+001 -3.1172e+002  7.3850e+001 25023 108111,108163,108137
 4.6000e+000 108316 -5.4849e+001 -1.7105e+002 -1.0262e+001 25023 108163,108241,108215
 4.6000e+000 108293  2.3310e+001 -1.3631e+002 -2.2278e+000 25023 108163,108215,108189
 4.6000e+000 108480 -6.8652e+000 -2.1164e+002  3.6164e+000 25023 108241,108163,108454
 4.6000e+000 108503 -3.4581e+001 -2.2567e+002  3.9733e+001 25023 108526,108241,108454
 4.6000e+000 108552 -3.7273e+001 -2.3467e+002  3.2820e+001 25023 108085,108267,108526
 4.6000e+000 108575 -5.3511e+001 -2.2926e+002  3.0893e+001 25023 108085,108526,108454
 4.6000e+000 108823  1.3879e+000 -1.7009e+002  2.4453e+001 24461 108624,108728,108650
 4.6000e+000 108800 -2.4809e+001 -3.5209e+002 -2.4131e+001 24461 108598,108728,108624
 4.6000e+000 108777  5.7987e-001 -2.2760e+002  1.8192e+001 24461 108650,108728,108676
 4.6000e+000 108754 -1.0028e+002 -6.4534e+002  5.5087e+001 24461 108676,108728,108702
 4.6000e+000 109022 -6.1808e+001 -1.7555e+002  2.4251e+001 24121 108872,108924,108898
 4.6000e+000 108999 -4.3174e+001 -1.7041e+002  2.8131e+001 24121 108846,108924,108872
 4.6000e+000 108976 -7.1870e+001 -1.8286e+002  2.9662e+001 24121 108846,108950,108924
 4.6000e+000 109483 -7.1977e+001 -2.3907e+002 -2.2724e+001 23717 109209,109339,109235
 4.6000e+000 109460 -2.7451e+001 -2.7271e+002 -5.5068e+001 23717 109209,109365,109339
 4.6000e+000 109437 -1.2835e+000 -3.0546e+002 -1.7718e+001 23717 109287,109339,109313
 4.6000e+000 109414 -1.3758e+002 -3.0515e+002  1.8680e+001 23717 109235,109339,109287
 4.6000e+000 109391  2.9408e+000 -3.4989e+002  1.2886e+002 23717 109235,109287,109261
 4.6000e+000 109910 -9.6742e+001 -2.7976e+002 -2.9807e+001 23305 109613,109743,109717
 4.6000e+000 109887 -9.4783e+001 -2.8131e+002 -1.6369e+001 23305 109613,109769,109743
 4.6000e+000 109864 -1.1359e+002 -2.7147e+002 -2.6216e+001 23305 109613,109717,109639
 4.6000e+000 109841 -7.4539e+001 -2.6036e+002 -6.5299e+000 23305 109587,109769,109613
 4.6000e+000 109818  2.4525e+000 -2.2195e+002  2.1096e+001 23305 109639,109717,109691
 4.6000e+000 109795 -2.2767e+001 -1.7731e+002 -4.1374e+001 23305 109639,109691,109665
 4.6000e+000 110180 -4.4118e+000 -7.9148e+001 -1.8273e+001 22851 110007,110059,110033
 4.6000e+000 110157 -5.5302e+001 -2.1816e+002  1.0005e+001 22851 109981,110059,110007
 4.6000e+000 110134 -7.8665e+001 -2.3596e+002  1.5252e+000 22851 109955,110059,109981
 4.6000e+000 110111 -3.1573e+001 -2.5979e+002 -1.9799e+001 22851 109955,110085,110059
 4.6000e+000 110737 -3.1341e+001 -2.4669e+002 -6.7002e+001 22333 110760,110469,110391
 4.6000e+000 110714 -7.8131e+000 -2.8623e+002 -5.1093e+001 22333 110760,110391,110365
 4.6000e+000 110691 -2.1260e+001 -2.2477e+002 -5.5110e+001 22333 110832,110521,110469
 4.6000e+000 110668 -5.4715e+001 -4.5032e+002  3.5769e+001 22333 110417,110469,110443
 4.6000e+000 110645 -1.1511e+002 -3.8953e+002  1.7742e+001 22333 110391,110469,110417
 4.6000e+000 110622 -3.2607e+000 -2.2716e+002 -2.7016e+001 22333 110469,110521,110495
 4.6000e+000 110599 -1.7307e+001 -1.5513e+002  1.8678e+001 22333 110365,110573,110547
 4.6000e+000 110786 -1.6129e+001 -2.2982e+002 -6.0608e+001 22333 110832,110469,110760
 4.6000e+000 110809  1.7567e+001 -2.4707e+002 -3.9942e+001 22333 110547,110760,110365
 4.6000e+000 110858 -1.8544e+001 -2.3648e+002 -5.4707e+001 22333 110547,110521,110832
 4.6000e+000 110881 -1.9975e+001 -2.4828e+002 -6.2002e+001 22333 110547,110832,110760
 4.6000e+000 111308 -1.2591e+002 -3.0030e+002  1.9515e+001 21829 111331,111063,111011
 4.6000e+000 111285 -1.1117e+002 -2.7651e+002 -5.3961e+000 21829 111331,111011,111167
 4.6000e+000 111262 -1.2977e+002 -2.9782e+002  2.0750e+001 21829 111403,111089,111063
 4.6000e+000 111239 -1.6044e+002 -3.1722e+002  4.6286e+001 21829 111011,111063,111037
 4.6000e+000 111216 -7.2737e+001 -2.0357e+002  1.0358e+001 21829 110985,111167,111011
 4.6000e+000 111193 -1.5183e+002 -4.9471e+002  1.1002e+002 21829 111089,111141,111115
 4.6000e+000 111357 -1.2522e+002 -3.0163e+002  2.0696e+001 21829 111403,111063,111331
 4.6000e+000 111380 -1.2943e+002 -3.1487e+002 -1.8941e-001 21829 111141,111331,111167
 4.6000e+000 111429 -1.3714e+002 -3.0340e+002  2.4529e+001 21829 111141,111089,111403
 4.6000e+000 111452 -1.3028e+002 -3.0834e+002  2.3129e+001 21829 111141,111403,111331
 4.6000e+000 112056  9.8317e+001 -2.1937e+002  5.8815e+000 21489 111687,111765,111739
 4.6000e+000 112033  2.7385e+001 -2.5256e+002  2.6761e+001 21489 112151,112079,111687
 4.6000e+000 112010  1.2746e+000 -3.9535e+002  2.5341e+001 21489 111791,111843,111817
 4.6000e+000 111987 -6.4486e+001 -3.1491e+002 -2.4561e+001 21489 112079,111843,111791
 4.6000e+000 111964  6.6404e+001 -2.3324e+002  4.9777e+001 21489 112151,111687,111661
 4.6000e+000 111941 -1.4024e+001 -1.7173e+002  4.0520e+001 21489 111661,111869,111843
 4.6000e+000 111918  9.7481e+001 -2.3946e+002  3.6913e+001 21489 111687,111739,111713
 4.6000e+000 111895  2.5274e+001 -8.0444e+001  1.2844e+001 21489 111635,111869,111661
 4.6000e+000 112105 -3.3007e+001 -2.7678e+002  1.4692e+001 21489 111765,111687,112079
 4.6000e+000 112128 -2.9541e+001 -2.6094e+002  1.4554e+001 21489 111765,112079,111791
 4.6000e+000 112177 -3.8616e+001 -2.4823e+002 -6.7839e+000 21489 111843,112079,112151
 4.6000e+000 112200 -2.9664e+000 -2.4058e+002  1.1905e+001 21489 111843,112151,111661
 4.6000e+000 112578 -5.1540e+001 -3.1919e+002  1.5170e+001 21177 112382,112434,112408
 4.6000e+000 112555 -6.6799e+001 -3.1679e+002  7.1534e-001 21177 112330,112434,112382
 4.6000e+000 112532 -4.7918e+001 -2.6787e+002  5.0884e+001 21177 112304,112434,112330
 4.6000e+000 112509 -6.6593e+001 -3.0133e+002  0.0000e+000 21177 112330,112382,112356
 4.6000e+000 112486 -1.3738e+001 -1.5579e+002  8.4533e+000 21177 112304,112460,112434
 4.6000e+000 112679 -3.2433e+000 -1.8206e+002 -4.0090e+001 20666 112601,112653,112627
 4.6000e+000 112927 -9.5203e+001 -3.1636e+002  1.1358e+001 19762 112702,112754,112728
 4.6000e+000 112904 -3.5966e+001 -3.0389e+002 -2.4211e+000 19762 112702,112832,112754
 4.6000e+000 112881 -8.0628e+001 -3.2694e+002  5.2682e+001 19762 112754,112832,112806
 4.6000e+000 112858 -1.1319e+002 -4.1103e+002  5.2312e+001 19762 112754,112806,112780
 4.6000e+000 113297 -8.6819e+001 -3.8484e+002  2.4779e+001 19308 112974,113052,113026
 4.6000e+000 113274 -5.8602e+001 -3.2212e+002  8.4273e+000 19308 112974,113156,113052
 4.6000e+000 113251 -3.0796e+001 -4.2622e+002 -5.1416e+001 19308 113052,113130,113104
 4.6000e+000 113228 -6.3740e+001 -3.2114e+002 -1.9907e-001 19308 113052,113156,113130
 4.6000e+000 113205 -6.0502e+001 -3.7148e+002  0.0000e+000 19308 113052,113104,113078
 4.6000e+000 113182 -1.2389e+002 -4.0060e+002 -1.4489e+000 19308 112974,113026,113000
 4.6000e+000 113547 -2.0960e+000 -3.4798e+002 -2.4301e+001 18711 113570,113374,113348
 4.6000e+000 113524 -1.3868e+001 -3.1744e+002 -1.4241e+001 18711 113570,113348,113452
 4.6000e+000 113501 -4.5879e+000 -2.4068e+002 -6.7951e+001 18711 113322,113452,113348
 4.6000e+000 113478 -3.0696e+001 -3.1002e+002 -1.1677e+002 18711 113374,113426,113400
 4.6000e+000 113596  1.5074e-001 -3.1440e+002 -3.2049e+001 18711 113426,113374,113570
 4.6000e+000 113619 -1.4132e+001 -2.8889e+002 -1.5647e+001 18711 113426,113570,113452
 4.6000e+000 113771 -1.7711e+002 -4.3712e+002 -2.3449e+001 18307 113670,113722,113696
 4.6000e+000 113748 -1.3822e+002 -4.1255e+002 -1.1185e+001 18307 113644,113722,113670
 4.6000e+000 113972 -7.6736e+001 -3.6787e+002  7.3733e+000 17945 113822,113874,113848
 4.6000e+000 113949 -7.8525e+001 -3.6627e+002  8.7167e+000 17945 113822,113900,113874
 4.6000e+000 113926 -1.0809e+002 -2.9109e+002  1.5305e+002 17945 113796,113900,113822
 4.6000e+000 114075 -5.2850e+001 -5.4053e+002  5.8389e+001 17482 113997,114049,114023
 4.6000e+000 114479 -1.9622e+001 -2.9780e+002 -4.6000e+001 17042 114257,114361,114335
 4.6000e+000 114456 -7.0403e+001 -2.8888e+002 -7.2224e+000 17042 114205,114361,114257
 4.6000e+000 114433 -8.1149e+001 -3.3362e+002  1.2670e+001 17042 114205,114257,114231
 4.6000e+000 114410  6.7612e+001 -4.4140e+002 -2.8162e+001 17042 114283,114335,114309
 4.6000e+000 114387 -2.6521e+000 -3.8317e+002 -1.9387e+001 17042 114257,114335,114283
 4.6000e+000 114879 -1.6774e+002 -3.0720e+002 -2.5838e+000 16638 114631,114683,114657
 4.6000e+000 114856 -3.3212e+001 -2.5113e+002  3.6143e+000 16638 114605,114683,114631
 4.6000e+000 114833  3.9520e+001 -1.4003e+002 -3.2510e+001 16638 114605,114761,114683
 4.6000e+000 114810 -1.3280e+001 -3.4400e+002 -1.7175e+001 16638 114683,114735,114709
 4.6000e+000 114787 -2.9511e+001 -3.5847e+002 -2.4503e+001 16638 114683,114761,114735
 4.6000e+000 115078 -1.4757e+002 -3.3320e+002  8.7557e+000 16232 114954,115006,114980
 4.6000e+000 115055 -1.4754e+002 -3.6840e+002  1.6459e+001 16232 114928,115006,114954
 4.6000e+000 115032 -7.1690e+001 -4.5847e+002  3.1096e+001 16232 114902,115006,114928
 4.6000e+000 115228 -8.5259e+001 -3.3194e+002  1.0754e+001 15482 115101,115153,115127
 4.6000e+000 115205 -7.7272e+001 -3.1437e+002 -3.7169e+000 15482 115101,115179,115153
 4.6000e+000 115331 -6.4932e+001 -3.0462e+002 -3.8839e+001 15163 115253,115305,115279
 4.6000e+000 115434 -1.0557e+002 -3.3292e+002  5.8940e+001 421 115356,115408,115382
 4.7000e+000 68213 -2.1115e+001 -1.7534e+002 -1.7531e+001 67888 68112,68164,68138
 4.7000e+000 68190 -2.1099e+002 -2.3237e+002 -2.8676e+001 67888 68086,68164,68112
 4.7000e+000 68314 -2.2752e+001 -2.4551e+002  2.4343e+001 67576 68236,68288,68262
 4.7000e+000 68584 -8.9520e+001 -4.4714e+002  2.1452e+001 67378 68385,68489,68463
 4.7000e+000 68561 -3.5991e+001 -4.2058e+002  1.0956e+001 67378 68359,68489,68385
 4.7000e+000 68538 -6.6793e+001 -3.8390e+002  3.1133e+001 67378 68385,68463,68411
 4.7000e+000 68515 -3.4209e+001 -2.5096e+002  1.9494e+001 67378 68411,68463,68437
 4.7000e+000 68964 -1.0148e+002 -3.9928e+002  5.8513e+001 67130 68690,68820,68716
 4.7000e+000 68941  7.2561e+001 -4.1250e+002  1.0926e+002 67130 68690,68846,68820
 4.7000e+000 68918 -9.1459e+001 -2.6723e+002  6.1996e+000 67130 68742,68820,68794
 4.7000e+000 68895 -2.4572e+001 -2.6685e+002  2.3850e+001 67130 68716,68820,68742
 4.7000e+000 68872 -6.2706e+001 -2.2800e+002 -2.6954e+001 67130 68742,68794,68768
 4.7000e+000 69065 -7.3833e+001 -2.3622e+002  4.6239e+000 66926 68987,69039,69013
 4.7000e+000 69445 -4.4635e+001 -2.1840e+002 -1.0888e+001 66614 69223,69301,69275
 4.7000e+000 69422 -6.7706e+001 -2.3128e+002 -4.7857e+000 66614 69171,69301,69223
 4.7000e+000 69399 -7.8535e+001 -2.3621e+002  3.4413e-001 66614 69171,69327,69301
 4.7000e+000 69376 -1.7025e+001 -1.0680e+002  1.7766e+000 66614 69223,69275,69249
 4.7000e+000 69353 -6.0997e+001 -2.4504e+002 -5.2048e+000 66614 69171,69223,69197
 4.7000e+000 69546 -7.5046e+001 -3.6344e+002  1.9461e+001 66416 69468,69520,69494
 4.7000e+000 69997 -6.8294e+001 -3.6796e+002 -2.8572e+001 66104 69700,69830,69726
 4.7000e+000 69974 -9.8316e+001 -4.4972e+002 -5.9476e+001 66104 69700,69856,69830
 4.7000e+000 69951 -7.2165e+001 -2.8485e+002 -2.0828e+001 66104 69726,69804,69778
 4.7000e+000 69928 -5.8872e+001 -3.4342e+002 -2.8994e+001 66104 69726,69830,69804
 4.7000e+000 69905 -7.5675e+001 -2.7217e+002 -1.0836e+001 66104 69726,69778,69752
 4.7000e+000 69882 -3.0709e+001 -6.1582e+002 -1.1266e+002 66104 69674,69856,69700
 4.7000e+000 70326 -6.6317e+001 -1.7097e+002  4.1792e+000 65814 70349,70153,70127
 4.7000e+000 70303 -4.1384e+001 -1.6743e+002  7.6995e+000 65814 70349,70127,70101
 4.7000e+000 70280 -3.7085e+001 -1.5714e+002  6.2415e+001 65814 70101,70231,70205
 4.7000e+000 70257  7.6313e+000 -1.8975e+002  2.1630e+001 65814 70153,70205,70179
 4.7000e+000 70375 -5.4898e+001 -1.8094e+002  2.4253e+001 65814 70205,70153,70349
 4.7000e+000 70398 -1.6510e+001 -1.7106e+002  2.4859e+001 65814 70205,70349,70101
 4.7000e+000 70904 -2.8172e+001 -9.5135e+001 -2.8563e+001 65502 70607,70737,70685
 4.7000e+000 70881 -3.8948e+001 -7.8127e+001 -3.7225e+001 65502 70581,70737,70607
 4.7000e+000 70858 -3.8500e+001 -2.6943e+001 -8.2789e+000 65502 70581,70763,70737
 4.7000e+000 70835 -4.2084e+001 -1.0411e+002 -4.0161e+001 65502 70685,70737,70711
 4.7000e+000 70812 -1.4506e+002 -1.2377e+002 -2.9334e+000 65502 70607,70659,70633
 4.7000e+000 70789 -4.6456e+001 -1.2841e+002  6.8657e-001 65502 70607,70685,70659
 4.7000e+000 71103 -4.1395e+001 -3.2025e+002 -9.2294e+000 65304 71126,70979,70953
 4.7000e+000 71080 -7.6950e+001 -3.1855e+002 -3.8224e+000 65304 71126,70953,70927
 4.7000e+000 71057 -1.0673e+002 -3.2432e+002  2.2332e+001 65304 70927,71031,71005
 4.7000e+000 71152 -7.6601e+001 -3.0403e+002 -1.9547e+001 65304 71005,70979,71126
 4.7000e+000 71175 -1.1654e+002 -3.0747e+002 -6.1584e+000 65304 71005,71126,70927
 4.7000e+000 71374 -4.5062e+001 -3.0849e+002  1.5226e+001 65106 71198,71276,71224
 4.7000e+000 71351 -9.1560e+001 -3.3033e+002  6.3833e+000 65106 71198,71302,71276
 4.7000e+000 71328 -2.6221e+001 -2.5901e+002  3.6604e+001 65106 71224,71276,71250
 4.7000e+000 71756 -3.9044e+001 -2.1882e+002 -1.3490e+001 64652 71508,71638,71534
 4.7000e+000 71733  4.8922e-002 -2.0205e+002  1.7069e+000 64652 71482,71638,71508
 4.7000e+000 71710 -7.6867e+001 -2.1279e+002 -1.6157e+001 64652 71534,71586,71560
 4.7000e+000 71687 -6.6466e+001 -2.3438e+002 -3.4600e+001 64652 71534,71612,71586
 4.7000e+000 71664 -1.0346e+002 -2.4478e+002 -3.7025e+001 64652 71534,71638,71612
 4.7000e+000 72085 -9.5805e+001 -2.4165e+002 -2.9369e+001 64248 71886,71964,71912
 4.7000e+000 72062 -7.7738e+001 -2.3575e+002 -2.9438e+001 64248 71860,71964,71886
 4.7000e+000 72039 -4.0319e+001 -2.5823e+002 -1.9759e+001 64248 71912,71964,71938
 4.7000e+000 72016 -7.5510e+001 -2.2102e+002 -3.1401e+001 64248 71860,71990,71964
 4.7000e+000 72235 -6.6240e+000 -1.5611e+002 -2.0807e+001 63858 72588,72258,72134
 4.7000e+000 72212 -3.2396e+001 -1.3593e+002  5.1745e+000 63858 72330,72258,72108
 4.7000e+000 72284 -2.2663e+001 -1.1398e+002 -1.4667e+001 63858 72160,72134,72258
 4.7000e+000 72307 -8.0665e+001 -1.5157e+002 -2.4186e+001 63858 72460,72258,72186
 4.7000e+000 72356 -6.7244e+001 -1.4648e+002 -2.3694e+001 63858 72186,72258,72330
 4.7000e+000 72486 -2.8967e+001 -1.3939e+002 -2.4272e+001 63858 72160,72258,72460
 4.7000e+000 72614 -1.0253e+001 -1.6525e+002 -2.1448e-001 63858 72108,72258,72588
 4.7000e+000 73248 -4.8580e+001 -2.3844e+002  6.1155e+001 63404 72902,72954,72928
 4.7000e+000 73225 -1.2435e+002 -2.6123e+002  2.7425e+001 63404 73271,72954,72902
 4.7000e+000 73202 -1.1068e+002 -2.1814e+002  2.3365e+001 63404 73271,72902,73032
 4.7000e+000 73179 -7.0954e+001 -1.8944e+002  7.5243e+000 63404 72902,73058,73032
 4.7000e+000 73156 -8.9717e+001 -2.3517e+002  1.5712e+001 63404 72980,73032,73006
 4.7000e+000 73133 -6.5057e+001 -1.9531e+002  5.1365e+000 63404 72876,73058,72902
 4.7000e+000 73110 -2.5935e+001 -9.7044e+001 -5.0000e+001 63404 72876,73084,73058
 4.7000e+000 73297 -1.0721e+002 -2.6674e+002  6.3149e-001 63404 72980,72954,73271
 4.7000e+000 73320 -1.0460e+002 -2.4384e+002  6.0242e-001 63404 72980,73271,73032
 4.7000e+000 73470 -9.0077e+001 -5.9263e+002  6.3401e+001 63014 73343,73395,73369
 4.7000e+000 73447 -2.8008e+002 -7.2381e+002 -1.2913e+001 63014 73343,73421,73395
 4.7000e+000 73929 -2.9920e+000 -2.7513e+002  1.5407e+001 62702 73759,73811,73785
 4.7000e+000 73906  1.5701e+001 -2.6582e+002  1.8932e+001 62702 73655,73811,73759
 4.7000e+000 73883 -2.8136e+001 -3.0471e+002 -1.0858e+000 62702 73655,73759,73681
 4.7000e+000 73860  1.0965e+001 -2.2571e+002 -4.8296e+001 62702 73681,73759,73707
 4.7000e+000 73837 -1.2137e+002 -2.6563e+002  4.9677e+000 62702 73707,73759,73733
 4.7000e+000 74209 -1.6325e+002 -2.6722e+002  2.5641e+000 62404 74059,74137,74085
 4.7000e+000 74186 -1.9585e+002 -3.4534e+002  3.9716e+001 62404 74033,74137,74059
 4.7000e+000 74163 -1.7363e+002 -2.4809e+002  1.0334e+000 62404 74085,74137,74111
 4.7000e+000 74408 -9.1481e+000 -2.2777e+002  1.2568e+001 62000 74258,74336,74284
 4.7000e+000 74385 -7.7956e+000 -2.2280e+002  2.4785e+001 62000 74232,74336,74258
 4.7000e+000 74362 -5.5265e+001 -2.3020e+002 -3.4938e+000 62000 74284,74336,74310
 4.7000e+000 74509 -1.9988e+001 -2.6015e+002  1.9005e+001 61802 74431,74483,74457
 4.7000e+000 74759 -8.5305e+001 -2.3486e+002  2.8335e+000 61554 74782,74586,74560
 4.7000e+000 74736 -5.2773e+001 -2.1879e+002  8.3182e+000 61554 74782,74560,74664
 4.7000e+000 74713 -7.4379e+001 -1.7524e+002  5.9792e+001 61554 74854,74612,74586
 4.7000e+000 74690 -6.7555e+001 -2.4027e+002  6.1160e-001 61554 74534,74664,74560
 4.7000e+000 74808 -1.0209e+002 -2.1671e+002  1.6999e+001 61554 74854,74586,74782
 4.7000e+000 74831 -6.3538e+001 -2.7487e+002  1.5004e+001 61554 74638,74782,74664
 4.7000e+000 74880 -1.8870e+001 -2.1861e+002  6.5492e+001 61554 74638,74612,74854
 4.7000e+000 74903 -2.0321e+001 -2.1601e+002  3.3873e+001 61554 74638,74854,74782
 4.7000e+000 75285 -3.6536e+001 -2.3832e+002  2.3307e+000 61356 75063,75167,75115
 4.7000e+000 75262 -4.8553e+001 -2.5341e+002 -1.3630e+001 61356 75037,75167,75063
 4.7000e+000 75239  1.5967e+001 -2.4610e+002 -2.0834e+000 61356 75115,75167,75141
 4.7000e+000 75216 -1.0161e+001 -2.2195e+002  9.3191e+000 61356 75063,75115,75089
 4.7000e+000 75193 -1.0708e+002 -2.0016e+002  1.6260e+001 61356 75011,75167,75037
 4.7000e+000 75631 -1.4643e+001 -1.9054e+002  5.4392e+000 60952 75654,75412,75360
 4.7000e+000 75608 -3.5018e+001 -2.1941e+002 -6.1185e+000 60952 75654,75360,75334
 4.7000e+000 75585 -3.4599e+001 -2.8306e+002  1.4132e+001 60952 75726,75438,75412
 4.7000e+000 75562 -3.0348e+001 -2.2517e+002 -3.5467e+001 60952 75308,75490,75334
 4.7000e+000 75539 -2.2363e+001 -1.9136e+002 -5.1882e-001 60952 75360,75412,75386
 4.7000e+000 75516 -5.2560e+001 -3.4190e+002 -1.0851e+001 60952 75438,75490,75464
 4.7000e+000 75680 -1.2772e+001 -2.3511e+002  5.2322e+000 60952 75726,75412,75654
 4.7000e+000 75703 -1.3666e+001 -2.2202e+002 -9.6986e+000 60952 75490,75654,75334
 4.7000e+000 75752 -1.4184e+001 -2.2756e+002 -1.8837e+000 60952 75490,75438,75726
 4.7000e+000 75775 -1.5143e+001 -2.2339e+002 -1.0290e+001 60952 75490,75726,75654
 4.7000e+000 76155 -3.6782e+001 -2.2514e+002  1.2051e+000 60754 75933,75985,75959
 4.7000e+000 76132 -6.1678e+001 -2.3994e+002  2.4021e+001 60754 75933,76037,75985
 4.7000e+000 76109  3.5546e+000 -2.3412e+002  7.3536e+000 60754 75985,76037,76011
 4.7000e+000 76086 -9.2712e+001 -2.0151e+002  6.5791e+000 60754 75881,76037,75933
 4.7000e+000 76063 -1.2900e+002 -1.7782e+002  5.1986e+001 60754 75881,75933,75907
 4.7000e+000 76612 -4.2257e+001 -2.1455e+002  8.4910e+000 60350 76635,76442,76390
 4.7000e+000 76589 -2.9264e+000 -2.4057e+002  1.7321e+001 60350 76635,76390,76364
 4.7000e+000 76566 -1.5716e+001 -3.0637e+002 -2.1415e+001 60350 76364,76494,76468
 4.7000e+000 76543 -3.7349e+000 -1.9524e+002  1.9118e+001 60350 76390,76442,76416
 4.7000e+000 76520 -1.0844e+002 -1.9943e+002 -4.7681e+001 60350 76338,76494,76364
 4.7000e+000 76661 -6.4109e+001 -2.3214e+002  1.6212e+001 60350 76468,76442,76635
 4.7000e+000 76684 -3.5494e+001 -2.6263e+002  2.7541e+001 60350 76468,76635,76364
 4.7000e+000 76932 -8.4303e+001 -2.5266e+002  2.8068e+000 59946 76955,76733,76707
 4.7000e+000 76909 -8.4152e+001 -2.5120e+002  7.5246e+000 59946 77027,76955,76707
 4.7000e+000 76886 -7.8547e+001 -2.5203e+002  5.5916e+000 59946 77027,76707,76837
 4.7000e+000 76863 -3.7751e+001 -2.7770e+002 -2.6059e+001 59946 76733,76785,76759
 4.7000e+000 76981 -9.5370e+001 -2.5313e+002 -2.9716e+000 59946 76785,76733,76955
 4.7000e+000 77004 -8.6570e+001 -2.4631e+002  4.5730e+000 59946 76785,76955,76811
 4.7000e+000 77053 -7.6510e+001 -2.4979e+002  7.0834e+000 59946 76811,76955,77027
 4.7000e+000 77076 -7.2424e+001 -2.5087e+002  4.2461e+000 59946 76811,77027,76837
 4.7000e+000 77226 -1.0730e+002 -2.6311e+002  6.3148e+000 59542 77099,77151,77125
 4.7000e+000 77203 -1.3043e+002 -3.1034e+002  1.3688e+001 59542 77099,77177,77151
 4.7000e+000 77427 -1.3201e+002 -2.7133e+002 -1.7606e+001 59030 77450,77277,77251
 4.7000e+000 77404 -8.1318e+001 -2.1719e+002 -7.3026e+001 59030 77450,77251,77355
 4.7000e+000 77381 -2.1734e+001 -3.2019e+002 -5.4910e+000 59030 77277,77329,77303
 4.7000e+000 77476 -7.0723e+001 -2.8247e+002 -5.0726e+001 59030 77329,77277,77450
 4.7000e+000 77499 -1.6649e+001 -2.5657e+002 -9.4331e+001 59030 77329,77450,77355
 4.7000e+000 77749 -1.0816e+002 -3.3936e+002  2.5941e+001 58426 77772,77628,77602
 4.7000e+000 77726 -7.3757e+001 -4.1033e+002  9.5229e+001 58426 77524,77654,77628
 4.7000e+000 77703 -9.0082e+001 -3.3544e+002  1.9121e+001 58426 77772,77602,77550
 4.7000e+000 77680 -5.2067e+001 -3.1427e+002 -1.2933e+001 58426 77550,77602,77576
 4.7000e+000 77798 -8.6962e+001 -3.4181e+002  2.5221e+001 58426 77524,77628,77772
 4.7000e+000 77821 -7.7359e+001 -3.4225e+002  1.6434e+001 58426 77524,77772,77550
 4.7000e+000 78071 -1.4237e+002 -3.0800e+002  3.2833e+001 57922 78094,77924,77898
 4.7000e+000 78048 -1.6499e+002 -3.1178e+002  4.4884e+000 57922 78094,77898,77872
 4.7000e+000 78025 -1.3493e+002 -2.8526e+002  3.0780e+001 57922 78166,77846,77950
 4.7000e+000 78002 -7.2126e+001 -2.7998e+002  3.6172e+001 57922 77846,77976,77950
 4.7000e+000 78120 -1.1877e+002 -3.0863e+002  2.2809e+001 57922 77950,77924,78094
 4.7000e+000 78143 -1.3668e+002 -2.8976e+002  2.3254e+001 57922 78166,77950,78094
 4.7000e+000 78192 -1.2913e+002 -2.9748e+002  2.3453e+001 57922 77872,77846,78166
 4.7000e+000 78215 -1.3751e+002 -3.1033e+002  1.5375e+001 57922 77872,78166,78094
 4.7000e+000 78416  2.6822e+001 -2.5975e+002 -1.2775e+001 57468 78439,78292,78240
 4.7000e+000 78393 -1.4996e+001 -2.4487e+002  8.5179e-001 57468 78439,78240,78344
 4.7000e+000 78370  8.5905e+000 -3.5113e+002 -9.4981e+000 57468 78240,78292,78266
 4.7000e+000 78465 -1.3801e+001 -2.8045e+002 -2.1799e+001 57468 78318,78292,78439
 4.7000e+000 78488 -3.0936e+001 -2.5565e+002 -4.1621e+000 57468 78318,78439,78344
 4.7000e+000 78689  2.9971e+001 -3.1482e+002 -3.7173e+001 57014 78712,78539,78513
 4.7000e+000 78666 -1.7663e+001 -3.1222e+002 -6.1953e+000 57014 78712,78513,78617
 4.7000e+000 78643 -7.1042e+001 -3.2040e+002  3.1369e+001 57014 78565,78617,78591
 4.7000e+000 78738 -3.1390e+001 -2.6411e+002 -3.7597e+001 57014 78565,78539,78712
 4.7000e+000 78761 -1.0177e+002 -3.0399e+002  1.2716e+001 57014 78565,78712,78617
 4.7000e+000 79241 -1.0163e+002 -2.7942e+002  2.2908e+001 56652 79264,78895,78869
 4.7000e+000 79218 -4.7561e+001 -3.6470e+002 -2.0864e+001 56652 79264,78869,79051
 4.7000e+000 79195 -7.2138e+001 -3.1875e+002 -7.3440e+001 56652 78869,79077,79051
 4.7000e+000 79172 -7.9591e+001 -1.8374e+002 -4.1968e+001 56652 78895,78973,78947
 4.7000e+000 79149 -1.3342e+002 -5.3744e+002 -4.4123e+001 56652 78973,79051,78999
 4.7000e+000 79126 -6.9571e+001 -1.7586e+002 -4.5846e+001 56652 78895,78947,78921
 4.7000e+000 79103 -1.1136e+002 -3.6994e+002  8.6496e+001 56652 78999,79051,79025
 4.7000e+000 79290 -6.0584e+001 -2.2568e+002  5.2626e+001 56652 78973,78895,79264
 4.7000e+000 79313 -2.6946e+000 -3.1693e+002  1.1780e+001 56652 78973,79264,79051
 4.7000e+000 79512 -3.4180e+001 -4.0476e+002  3.4768e+001 56062 79388,79440,79414
 4.7000e+000 79489 -1.5945e+002 -2.1135e+002  5.4634e+001 56062 79336,79440,79388
 4.7000e+000 79466 -6.5310e+001 -2.3055e+002  7.4146e+001 56062 79336,79388,79362
 4.7000e+000 79941 -4.7039e+001 -2.2388e+002  3.5718e+001 55658 79964,79670,79644
 4.7000e+000 79918 -6.8820e+001 -2.2729e+002  3.9933e+001 55658 79964,79644,79800
 4.7000e+000 79895 -6.3667e+001 -2.4047e+002  2.0721e+001 55658 80036,79696,79670
 4.7000e+000 79872 -7.4584e+001 -2.0485e+002 -2.5376e+000 55658 80108,79722,79696
 4.7000e+000 79849 -1.1046e+002 -2.0531e+002  1.0801e+001 55658 79722,79774,79748
 4.7000e+000 79826  2.1639e-001 -2.0270e+002  1.0841e+001 55658 79618,79800,79644
 4.7000e+000 79990 -7.0992e+001 -2.4236e+002  2.7273e+001 55658 80036,79670,79964
 4.7000e+000 80013 -6.1237e+001 -2.1174e+002  4.2942e+001 55658 79774,79964,79800
 4.7000e+000 80062 -5.4022e+001 -2.1967e+002  1.6932e+001 55658 80108,79696,80036
 4.7000e+000 80085 -6.9779e+001 -2.1451e+002  3.7184e+001 55658 79774,80036,79964
 4.7000e+000 80134 -1.1500e+002 -2.2046e+002  6.1754e+000 55658 79774,79722,80108
 4.7000e+000 80157 -1.0339e+002 -2.4064e+002  2.5481e+001 55658 79774,80108,80036
 4.7000e+000 80307 -1.2415e+002 -2.1783e+002  2.6593e+001 55254 80402,80330,80206
 4.7000e+000 80284 -1.2035e+002 -2.9825e+002  2.8845e+001 55254 80330,80180,80258
 4.7000e+000 80356 -1.4542e+002 -2.6630e+002  5.5371e+001 55254 80232,80206,80330
 4.7000e+000 80379 -4.2486e+001 -2.1985e+002  8.0495e+001 55254 80232,80330,80258
 4.7000e+000 80428 -1.6663e+002 -2.6683e+002  6.6540e+000 55254 80180,80330,80402
 4.7000e+000 80659 -5.9101e+001 -3.1174e+002 -2.5241e+001 54850 80558,80610,80584
 4.7000e+000 80636  1.8026e+000 -2.9727e+002 -3.1761e+001 54850 80532,80610,80558
 4.7000e+000 80760 -2.0825e+001 -2.2154e+002 -1.8213e+001 54652 80682,80734,80708
 4.7000e+000 81164 -1.7328e+001 -2.3609e+002 -4.7258e+000 54248 81187,80942,80890
 4.7000e+000 81141 -2.1493e+001 -2.4021e+002 -2.9981e+000 54248 81187,80890,81046
 4.7000e+000 81118 -2.3762e+001 -2.4641e+002  5.0805e+001 54248 80942,81020,80994
 4.7000e+000 81095 -1.5596e+001 -2.3885e+002  5.0161e-001 54248 80890,80942,80916
 4.7000e+000 81072 -3.4576e+001 -1.3694e+002  7.2616e+000 54248 80942,80994,80968
 4.7000e+000 81213 -2.2281e+001 -2.3254e+002 -4.1025e+000 54248 81020,80942,81187
 4.7000e+000 81236 -2.5167e+001 -2.3501e+002 -2.9945e+000 54248 81020,81187,81046
 4.7000e+000 81663 -1.3128e+002 -2.4808e+002  2.1790e+001 53594 81340,81444,81366
 4.7000e+000 81640 -1.2352e+002 -3.5559e+002  9.6335e+000 53594 81340,81470,81444
 4.7000e+000 81617 -4.9809e+001 -3.1234e+002 -2.0963e+001 53594 81340,81522,81470
 4.7000e+000 81594 -7.1026e+001 -1.8128e+002 -2.0024e+001 53594 81392,81444,81418
 4.7000e+000 81571 -9.5073e+001 -2.1410e+002 -3.1124e+001 53594 81366,81444,81392
 4.7000e+000 81548  1.0574e+001 -4.7058e+002  8.8347e+001 53594 81470,81522,81496
 4.7000e+000 81943 -3.2921e+001 -1.6950e+002 -2.1268e+001 53104 81966,81845,81819
 4.7000e+000 81920 -4.8658e+001 -1.4079e+002 -2.5972e+001 53104 81966,81819,81767
 4.7000e+000 81897 -4.9914e+001 -1.4186e+002 -2.8413e+001 53104 81767,81819,81793
 4.7000e+000 81992 -2.2311e+001 -1.5136e+002 -2.5615e+001 53104 81871,81845,81966
 4.7000e+000 82015 -3.0151e+001 -1.1111e+002 -3.4098e+001 53104 81871,81966,81767
 4.7000e+000 82491 -3.1193e+001 -1.7252e+002 -1.4158e+001 52650 82145,82249,82171
 4.7000e+000 82468 -1.4189e+002 -2.0195e+002 -2.3558e+001 52650 82145,82301,82249
 4.7000e+000 82445 -1.4793e+002 -3.0684e+002 -5.3657e+001 52650 82249,82301,82275
 4.7000e+000 82422 -6.8326e+001 -3.8546e+002 -6.9780e+001 52650 82119,82301,82145
 4.7000e+000 82399 -4.6209e+001 -1.3872e+002  1.7949e+001 52650 82171,82249,82223
 4.7000e+000 82376  1.4593e+001 -3.5341e+002 -4.9887e+001 52650 82119,82327,82301
 4.7000e+000 82353 -1.3334e+001 -6.9614e+001 -2.8572e+001 52650 82171,82223,82197
 4.7000e+000 82739 -4.1214e+001 -1.6177e+002  3.6910e+000 52246 82762,82540,82514
 4.7000e+000 82716 -2.7221e+001 -6.5101e+001 -1.1371e+001 52246 82762,82514,82644
 4.7000e+000 82693 -7.8236e+001 -1.8447e+002  4.0160e+001 52246 82540,82618,82592
 4.7000e+000 82670 -9.1611e+001 -1.7908e+002  3.4666e+001 52246 82540,82592,82566
 4.7000e+000 82788 -2.6569e+001 -2.0684e+002  1.2448e+001 52246 82618,82540,82762
 4.7000e+000 82811 -5.4089e+001 -1.7662e+002 -1.5104e+001 52246 82618,82762,82644
 4.7000e+000 83059 -2.6482e+001 -2.3089e+002  2.1810e+001 51578 82860,82964,82938
 4.7000e+000 83036 -2.0769e+000 -1.5453e+002 -4.8429e+001 51578 82834,82964,82860
 4.7000e+000 83013 -1.1044e+001 -1.7797e+002  4.7551e+001 51578 82860,82938,82886
 4.7000e+000 82990 -8.4207e+000 -1.1246e+002  8.5612e+000 51578 82886,82938,82912
 4.7000e+000 83309 -4.1642e+001 -1.3003e+002  3.6672e+001 51138 83332,83162,83136
 4.7000e+000 83286 -1.5118e+001 -1.6971e+002  1.1719e+001 51138 83332,83136,83110
 4.7000e+000 83263 -6.4353e+001 -1.7548e+002 -9.6318e+000 51138 83404,83214,83188
 4.7000e+000 83240 -7.7092e-001 -1.0851e+002  9.9860e+000 51138 83084,83214,83110
 4.7000e+000 83358 -6.8181e+001 -1.7932e+002  4.8318e+001 51138 83188,83162,83332
 4.7000e+000 83381 -4.4952e+001 -1.9444e+002  8.1823e+000 51138 83404,83188,83332
 4.7000e+000 83430 -4.0819e+001 -1.2816e+002 -3.4837e-001 51138 83110,83214,83404
 4.7000e+000 83453 -2.4520e+001 -1.5749e+002  1.6671e+001 51138 83110,83404,83332
 4.7000e+000 83835 -3.8890e+001 -2.1787e+002 -1.2975e+000 50734 83613,83717,83691
 4.7000e+000 83812 -4.3090e+001 -2.3338e+002 -4.7195e+001 50734 83561,83717,83613
 4.7000e+000 83789 -2.0974e+001 -1.2109e+002 -6.7911e+001 50734 83561,83613,83587
 4.7000e+000 83766 -8.3644e+001 -1.4660e+002  2.7577e-001 50734 83613,83691,83639
 4.7000e+000 83743 -8.8513e+001 -1.4797e+002  3.1054e+001 50734 83639,83691,83665
 4.7000e+000 84034 -5.5806e+001 -1.3736e+002  7.8011e+000 50230 84057,83884,83858
 4.7000e+000 84011 -5.5497e+001 -1.4948e+002 -1.3862e+001 50230 84129,84057,83858
 4.7000e+000 83988 -1.6846e+001 -1.5987e+002 -2.3622e+001 50230 84129,83858,83962
 4.7000e+000 84083 -2.3127e+001 -1.2488e+002  1.0604e+001 50230 83910,83884,84057
 4.7000e+000 84106 -3.4584e+001 -1.4320e+002  4.2521e+000 50230 83910,84057,83936
 4.7000e+000 84155 -5.1064e+000 -1.2684e+002 -2.7394e+000 50230 83936,84057,84129
 4.7000e+000 84178  9.6017e+000 -1.5427e+002 -1.8009e+001 50230 83936,84129,83962
 4.7000e+000 84558 -5.9897e+001 -1.8053e+002 -2.9580e+001 49768 84581,84388,84362
 4.7000e+000 84535 -1.2360e+002 -1.8318e+002 -1.1856e+001 49768 84581,84362,84310
 4.7000e+000 84512  4.0176e+000 -1.9740e+002 -3.1786e+001 49768 84653,84440,84414
 4.7000e+000 84489 -9.6258e+001 -1.9879e+002  1.4505e+001 49768 84310,84362,84336
 4.7000e+000 84466 -3.1728e+000 -1.4311e+002  2.1918e+001 49768 84284,84440,84310
 4.7000e+000 84607 -1.5490e+001 -1.5235e+002 -5.0147e+001 49768 84414,84388,84581
 4.7000e+000 84630 -2.1465e+001 -1.8527e+002 -2.2626e+001 49768 84653,84414,84581
 4.7000e+000 84679 -3.0207e+001 -1.8642e+002 -4.3330e+001 49768 84310,84440,84653
 4.7000e+000 84702 -6.6718e+001 -1.8670e+002 -4.4074e+001 49768 84310,84653,84581
 4.7000e+000 85159 -9.6702e+001 -2.5218e+002 -7.0897e+001 49192 84885,84937,84911
 4.7000e+000 85136 -9.7132e+001 -2.0308e+002 -5.1511e+001 49192 84885,85041,84937
 4.7000e+000 85113 -7.0086e+001 -1.7392e+002 -2.3546e+001 49192 84963,85041,84989
 4.7000e+000 85090 -6.1126e+001 -1.5845e+002 -3.5367e+001 49192 84937,85041,84963
 4.7000e+000 85067 -5.5083e+001 -1.7031e+002 -2.2699e+001 49192 84989,85041,85015
 4.7000e+000 85714 -1.0174e+002 -1.6922e+002 -6.0553e-001 48638 85368,85498,85394
 4.7000e+000 85691 -1.2652e+002 -1.9775e+002  1.0290e+001 48638 85368,85524,85498
 4.7000e+000 85668 -1.1479e+002 -1.6293e+002  4.3822e+001 48638 85737,85420,85394
 4.7000e+000 85645 -9.6930e+001 -1.8530e+002  2.2996e+001 48638 85737,85394,85498
 4.7000e+000 85622 -7.7340e+001 -1.8915e+002  3.7931e+001 48638 85446,85498,85472
 4.7000e+000 85599 -3.2218e+001 -1.6157e+002  1.7952e+001 48638 85342,85524,85368
 4.7000e+000 85576 -1.2428e+002 -1.8273e+002  1.7545e+001 48638 85342,85550,85524
 4.7000e+000 85763 -8.2593e+001 -1.4566e+002  5.7916e+001 48638 85446,85420,85737
 4.7000e+000 85786 -8.3723e+001 -1.6793e+002  3.3985e+001 48638 85446,85737,85498
 4.7000e+000 86371 -8.5145e+001 -1.2644e+002 -7.3287e+000 48084 86100,86230,86178
 4.7000e+000 86348 -1.0502e+002 -1.6196e+002 -1.7672e+001 48084 86048,86230,86100
 4.7000e+000 86325 -8.4278e+001 -1.1732e+002  3.1519e+001 48084 86100,86178,86126
 4.7000e+000 86302 -5.2937e+001 -3.9178e+001 -3.2551e+001 48084 86048,86100,86074
 4.7000e+000 86279 -1.0903e+002 -2.0386e+002 -2.9611e+000 48084 86178,86230,86204
 4.7000e+000 86256 -7.6724e+001 -1.3102e+002  3.0703e+001 48084 86126,86178,86152
 4.7000e+000 86619 -6.2407e+001 -1.4154e+002  1.2820e+001 47630 86642,86446,86420
 4.7000e+000 86596 -7.6108e+001 -1.5780e+002 -1.7678e+001 47630 86642,86420,86394
 4.7000e+000 86573 -9.7975e+001 -1.8358e+002 -2.6347e+001 47630 86394,86524,86498
 4.7000e+000 86550 -4.1501e+001 -1.6072e+002  1.0983e+001 47630 86446,86498,86472
 4.7000e+000 86668 -7.8118e+001 -1.7635e+002  6.1046e-001 47630 86498,86446,86642
 4.7000e+000 86691 -8.5498e+001 -1.8195e+002 -2.9254e+001 47630 86498,86642,86394
 4.7000e+000 87022 -7.0039e+000 -1.0200e+002 -5.8124e+001 47226 87045,86875,86849
 4.7000e+000 86999 -2.6588e+000 -1.1490e+002 -5.4940e+001 47226 87045,86849,86797
 4.7000e+000 86976  4.3062e-001 -5.4023e+001 -1.4145e+001 47226 86797,86849,86823
 4.7000e+000 86953  3.9660e+000 -7.3691e+001 -3.0838e+001 47226 86875,86927,86901
 4.7000e+000 87071 -1.4267e+001 -1.1155e+002 -5.4959e+001 47226 86927,86875,87045
 4.7000e+000 87094 -6.4866e+000 -1.2034e+002 -5.3133e+001 47226 86927,87045,86797
 4.7000e+000 87244 -1.2196e+001 -1.9905e+002  5.2774e+001 46814 87267,87169,87143
 4.7000e+000 87221 -9.4586e+001 -1.7968e+002 -1.0228e+001 46814 87267,87143,87117
 4.7000e+000 87293 -9.5985e+000 -1.4718e+002  3.3438e+001 46814 87339,87267,87195
 4.7000e+000 87316 -6.0791e+000 -1.4184e+002  3.8694e+000 46814 87469,87267,87117
 4.7000e+000 87365 -3.3357e-001 -1.4102e+002  3.9011e+001 46814 87169,87267,87339
 4.7000e+000 87495 -7.5721e-001 -1.2846e+001 -2.1649e+000 46814 87195,87267,87469
 4.7000e+000 88001 -5.9383e+001 -1.3968e+002  3.5520e+001 46310 88024,87834,87808
 4.7000e+000 87978 -7.3063e+001 -1.4276e+002  2.1742e+001 46310 88024,87808,87756
 4.7000e+000 87955 -3.8620e+001 -1.8544e+002  9.5119e+000 46310 88096,87730,87860
 4.7000e+000 87932 -5.3263e+001 -1.8457e+002  2.2523e+001 46310 87756,87808,87782
 4.7000e+000 87909 -4.8260e+001 -2.2185e+002  9.1518e+000 46310 87678,87860,87730
 4.7000e+000 87886 -7.3108e+001 -3.6060e+002 -1.9475e+001 46310 87678,87730,87704
 4.7000e+000 88050 -5.0810e+001 -1.2111e+002  2.1407e+001 46310 87860,87834,88024
 4.7000e+000 88073 -3.9517e+001 -1.3412e+002  2.5814e+001 46310 88096,87860,88024
 4.7000e+000 88122 -5.0268e+001 -2.0991e+002 -8.0745e+000 46310 87756,87730,88096
 4.7000e+000 88145 -8.2865e+001 -1.8956e+002  1.1207e+000 46310 87756,88096,88024
 4.7000e+000 88572 -3.8277e+001 -1.8461e+002  1.0465e+001 45856 88249,88405,88275
 4.7000e+000 88549 -3.3114e+001 -5.9168e+001 -3.7485e+001 45856 88249,88431,88405
 4.7000e+000 88526 -9.1525e+001 -2.5652e+002 -3.4137e+001 45856 88327,88405,88353
 4.7000e+000 88503 -4.1384e+001 -2.2264e+002 -1.5362e+001 45856 88275,88405,88327
 4.7000e+000 88480 -7.5923e+001 -2.2352e+002 -3.9248e+001 45856 88353,88405,88379
 4.7000e+000 88457 -1.7234e+002 -4.6877e+002  3.8452e+001 45856 88275,88327,88301
 4.7000e+000 88950 -3.0190e+001 -1.0662e+002 -2.3548e+000 45658 88973,88754,88728
 4.7000e+000 88927 -2.7940e+001 -1.0935e+002 -2.2357e+000 45658 88973,88728,88676
 4.7000e+000 88904 -3.2424e+001 -1.3250e+002  4.2119e+001 45658 88676,88832,88806
 4.7000e+000 88881 -5.1970e+001 -1.5653e+002  1.3664e+001 45658 88676,88728,88702
 4.7000e+000 88858 -4.2483e+001 -1.0106e+002 -2.1211e+001 45658 88754,88806,88780
 4.7000e+000 88999 -3.2355e+001 -1.0841e+002 -1.3167e+000 45658 88806,88754,88973
 4.7000e+000 89022 -2.9457e+001 -1.1006e+002 -1.7000e+000 45658 88806,88973,88676
 4.7000e+000 89351 -5.3929e+001 -1.8299e+002 -9.0938e+000 45254 89152,89230,89204
 4.7000e+000 89328 -4.9995e+001 -1.8140e+002 -9.3234e+000 45254 89152,89256,89230
 4.7000e+000 89305 -1.6805e+001 -1.9225e+002 -2.4309e+001 45254 89126,89256,89152
 4.7000e+000 89282  2.8546e+000 -1.8468e+002 -3.3315e+001 45254 89152,89204,89178
 4.7000e+000 89523 -2.5018e+001 -1.3742e+002  4.1274e-001 45006 89422,89474,89448
 4.7000e+000 89500 -1.8587e+001 -1.3469e+002  5.5517e+000 45006 89396,89474,89422
 4.7000e+000 89673 -1.5052e+002 -2.6383e+002  2.2379e+001 44495 89572,89624,89598
 4.7000e+000 89650 -1.5447e+002 -2.6436e+002  1.4055e+001 44495 89546,89624,89572
 4.7000e+000 90104 -1.5420e+001 -1.9528e+002 -1.0228e+001 44005 90199,90127,89937
 4.7000e+000 90081 -3.8881e+001 -1.9276e+002  2.6497e+000 44005 90271,90127,89859
 4.7000e+000 90058 -3.3433e+000 -2.0151e+002 -1.0967e+001 44005 90199,89937,89885
 4.7000e+000 90035 -5.4161e+001 -1.8299e+002  1.1333e+001 44005 90271,89859,89807
 4.7000e+000 90012 -2.9235e+001 -2.2089e+002 -2.6529e+001 44005 89885,89937,89911
 4.7000e+000 89989 -1.6679e+001 -1.9597e+002  3.2757e+001 44005 89807,89859,89833
 4.7000e+000 90153 -4.0395e+001 -2.0398e+002 -5.5443e+000 44005 89963,89937,90127
 4.7000e+000 90176 -4.3719e+001 -2.1863e+002  4.6070e+000 44005 89963,90127,89781
 4.7000e+000 90225 -4.2830e+001 -1.9509e+002 -3.5316e+000 44005 89859,90127,90199
 4.7000e+000 90248 -1.8553e+001 -1.9366e+002  4.4288e-001 44005 89859,90199,89885
 4.7000e+000 90297 -5.9567e+001 -2.0478e+002 -2.2666e+000 44005 89781,90127,90271
 4.7000e+000 90320 -6.8462e+001 -1.9163e+002  7.7219e+000 44005 89781,90271,89807
 4.7000e+000 90470 -3.3992e+001 -2.1086e+002 -6.3551e+000 43601 90493,90369,90343
 4.7000e+000 90447 -5.6862e+001 -1.6991e+002  1.3211e+001 43601 90493,90343,90421
 4.7000e+000 90519 -6.9033e+001 -2.8704e+002 -3.2801e+001 43601 90395,90369,90493
 4.7000e+000 90542 -5.3977e+001 -2.0005e+002 -8.0167e+000 43601 90395,90493,90421
 4.7000e+000 90922 -7.2430e+001 -2.2265e+002  1.4114e+001 43154 90945,90700,90674
 4.7000e+000 90899 -6.4172e+001 -2.2679e+002 -2.5168e+001 43154 90945,90674,90648
 4.7000e+000 90876 -7.7327e+001 -1.7831e+002 -1.6378e+001 43154 90648,90778,90752
 4.7000e+000 90853 -4.0113e+001 -3.6288e+002  1.0306e+001 43154 90700,90752,90726
 4.7000e+000 90830 -4.6753e+001 -1.7863e+002 -7.1967e+000 43154 90648,90804,90778
 4.7000e+000 90971 -8.3520e+001 -2.5695e+002  2.0920e+001 43154 90752,90700,90945
 4.7000e+000 90994 -7.2510e+001 -2.4751e+002 -1.7328e+001 43154 90752,90945,90648
 4.7000e+000 91451 -2.0074e+001 -1.7295e+002 -3.1570e+001 42650 91203,91255,91229
 4.7000e+000 91428  1.7296e+001 -1.5664e+002 -1.5419e+001 42650 91203,91333,91255
 4.7000e+000 91405 -1.6748e+000 -2.5265e+002 -4.3372e+001 42650 91177,91333,91203
 4.7000e+000 91382 -7.8754e+001 -2.7093e+002  3.4754e+001 42650 91255,91333,91281
 4.7000e+000 91359 -1.7975e+001 -2.3033e+002  1.4749e+001 42650 91281,91333,91307
 4.7000e+000 91721 -1.1439e+002 -2.5934e+002  1.7898e+001 42288 91496,91600,91522
 4.7000e+000 91698 -6.1324e+001 -1.5062e+002 -6.7565e+000 42288 91496,91626,91600
 4.7000e+000 91675 -7.1701e+001 -2.3415e+002  2.0223e+001 42288 91522,91574,91548
 4.7000e+000 91652 -5.8693e+001 -2.3772e+002  1.8638e+001 42288 91522,91600,91574
 4.7000e+000 92199 -1.7011e+002 -2.8139e+002 -7.1658e+000 41898 92222,91983,91879
 4.7000e+000 92176 -1.7392e+002 -3.0728e+002 -1.7431e+001 41898 92294,92222,91879
 4.7000e+000 92153 -1.8307e+002 -3.0308e+002 -2.4232e+001 41898 92294,91879,91853
 4.7000e+000 92130 -1.4840e+002 -1.7296e+002  1.8195e+001 41898 91879,91957,91931
 4.7000e+000 92107 -1.5304e+002 -2.7484e+002 -9.5074e-001 41898 91879,91983,91957
 4.7000e+000 92084 -1.5989e+002 -1.5831e+002  3.3363e+001 41898 91879,91931,91905
 4.7000e+000 92061 -1.6290e+002 -2.7325e+002 -1.9354e+001 41898 91827,92035,91853
 4.7000e+000 92248 -1.6722e+002 -3.1330e+002 -5.5250e-001 41898 92009,91983,92222
 4.7000e+000 92271 -1.6452e+002 -3.1987e+002 -2.3696e+001 41898 92009,92222,92035
 4.7000e+000 92320 -1.5850e+002 -3.0075e+002 -1.8864e+001 41898 92035,92222,92294
 4.7000e+000 92343 -1.6527e+002 -2.9543e+002 -2.5282e+001 41898 92035,92294,91853
 4.7000e+000 92770 -5.0564e+001 -2.4054e+002 -1.7331e+001 41437 92865,92793,92525
 4.7000e+000 92747 -7.3179e+001 -2.8166e+002 -2.5090e+001 41437 92793,92473,92629
 4.7000e+000 92724 -2.2570e+001 -2.4621e+002 -3.2369e+001 41437 92865,92525,92499
 4.7000e+000 92701 -8.1139e+001 -2.1806e+002 -3.9189e+001 41437 92525,92603,92577
 4.7000e+000 92678  1.0526e+000 -2.7110e+002 -2.1762e+001 41437 92447,92629,92473
 4.7000e+000 92655 -1.2846e+002 -1.9541e+002 -2.3428e+001 41437 92525,92577,92551
 4.7000e+000 92819 -5.8959e+001 -2.5968e+002 -3.9019e+001 41437 92603,92525,92793
 4.7000e+000 92842 -1.1568e+002 -2.7908e+002 -7.1676e+001 41437 92603,92793,92629
 4.7000e+000 92891  5.3243e+000 -2.6450e+002 -2.3428e+001 41437 92473,92793,92865
 4.7000e+000 92914  4.6497e+001 -2.5203e+002 -4.5670e+001 41437 92473,92865,92499
 4.7000e+000 93243 -4.1697e+001 -3.6991e+002  1.3533e+002 41097 93044,93096,93070
 4.7000e+000 93220 -7.3111e+001 -3.2556e+002  7.1963e+001 41097 93044,93122,93096
 4.7000e+000 93197  1.5174e+001 -2.1661e+002  2.8660e+001 41097 93044,93148,93122
 4.7000e+000 93174 -6.5494e+001 -1.6938e+002  6.5126e+001 41097 93018,93148,93044
 4.7000e+000 93393 -6.2470e+000 -2.7449e+002  1.9005e+001 40643 93416,93292,93344
 4.7000e+000 93370 -1.2424e+001 -2.5539e+002  2.1086e+001 40643 93266,93344,93292
 4.7000e+000 93442 -9.3932e+000 -2.7119e+002  2.5805e+001 40643 93318,93292,93416
 4.7000e+000 93901 -8.1738e+001 -2.5087e+002 -1.7560e+001 40132 93924,93731,93705
 4.7000e+000 93878 -8.5583e+001 -2.5773e+002 -1.9419e+001 40132 93996,93924,93705
 4.7000e+000 93855 -1.0133e+002 -2.9632e+002 -7.0462e+000 40132 93996,93705,93653
 4.7000e+000 93832 -4.3713e+001 -2.8630e+002 -1.6340e+001 40132 93653,93705,93679
 4.7000e+000 93809 -8.1440e+001 -2.4753e+002  1.9425e+000 40132 93627,93783,93757
 4.7000e+000 93950 -7.8551e+001 -2.6545e+002 -2.0762e+001 40132 93757,93731,93924
 4.7000e+000 93973 -8.8892e+001 -2.3575e+002 -5.2918e+000 40132 93757,93924,93627
 4.7000e+000 94022 -1.1408e+002 -2.8199e+002  8.2892e+000 40132 93627,93924,93996
 4.7000e+000 94045 -1.0592e+002 -2.9542e+002  1.7381e+001 40132 93627,93996,93653
 4.7000e+000 94423 -1.6553e+001 -2.9265e+002 -4.1425e+001 39514 94149,94227,94175
 4.7000e+000 94400 -2.9470e+001 -2.7587e+002  3.1555e+001 39514 94149,94305,94227
 4.7000e+000 94377  8.3241e+000 -3.4507e+002 -3.9754e+001 39514 94175,94227,94201
 4.7000e+000 94354 -8.5187e+001 -2.5714e+002  1.3706e+001 39514 94227,94305,94279
 4.7000e+000 94331 -3.4963e+001 -2.3380e+002  2.5320e+001 39514 94227,94279,94253
 4.7000e+000 94573 -2.1476e+001 -1.6529e+002 -3.4285e+001 38822 94596,94498,94472
 4.7000e+000 94550  3.4455e+001 -1.7852e+002  3.8878e+001 38822 94596,94472,94446
 4.7000e+000 94622 -8.6064e+001 -1.9291e+002 -3.4758e+001 38822 94524,94498,94596
 4.7000e+000 94645 -7.3579e+001 -2.2558e+002  4.6020e+001 38822 94524,94596,94446
 4.7000e+000 95025 -1.3282e+001 -2.1539e+002 -1.5505e+001 38418 95048,94829,94777
 4.7000e+000 95002 -2.1194e+001 -2.2840e+002 -2.7600e+001 38418 95120,95048,94777
 4.7000e+000 94979 -1.5706e+001 -2.2569e+002 -2.5732e+001 38418 95120,94777,94751
 4.7000e+000 94956 -1.2561e+001 -2.0200e+002 -3.0086e+001 38418 95192,94881,94855
 4.7000e+000 94933 -6.5725e+001 -1.8894e+002 -9.8051e+000 38418 94777,94829,94803
 4.7000e+000 95074 -3.7907e+001 -2.8824e+002 -5.9487e+000 38418 94855,94829,95048
 4.7000e+000 95097 -1.8113e+001 -2.2579e+002 -3.3221e+001 38418 95192,94855,95048
 4.7000e+000 95146 -3.9888e+001 -2.1701e+002 -2.2140e+001 38418 94907,95048,95120
 4.7000e+000 95169 -2.4439e+001 -2.0596e+002 -1.6741e+001 38418 94907,95120,94751
 4.7000e+000 95218 -1.8995e+001 -1.5816e+002 -2.6585e+001 38418 94907,94881,95192
 4.7000e+000 95241 -3.2465e+001 -1.9604e+002 -2.3525e+001 38418 94907,95192,95048
 4.7000e+000 95511 -7.2213e+001 -2.3280e+002  1.1752e+001 38049 95312,95390,95364
 4.7000e+000 95488 -4.8368e+001 -2.2263e+002  1.1119e+001 38049 95312,95416,95390
 4.7000e+000 95465 -2.4584e+001 -2.2211e+002 -1.2879e+001 38049 95312,95364,95338
 4.7000e+000 95442 -2.0205e+001 -2.0552e+002  2.0187e+001 38049 95286,95416,95312
 4.7000e+000 95808 -6.9478e+001 -2.7104e+002 -6.0659e+000 37437 95831,95586,95560
 4.7000e+000 95785  2.7110e+001 -2.8672e+002 -1.2578e+001 37437 95831,95560,95534
 4.7000e+000 95762 -1.4044e+002 -2.6041e+002  7.1391e+000 37437 95586,95664,95638
 4.7000e+000 95739 -2.2618e+001 -1.3153e+002 -7.1236e+001 37437 95534,95690,95664
 4.7000e+000 95716 -1.2951e+002 -1.8773e+002  7.3208e+000 37437 95586,95638,95612
 4.7000e+000 95857 -1.3160e+002 -2.6472e+002  3.2768e+001 37437 95664,95586,95831
 4.7000e+000 95880 -2.9288e+001 -2.7761e+002  2.7583e+001 37437 95664,95831,95534
 4.7000e+000 96390 -9.4002e+001 -2.0538e+002 -1.1635e+001 36883 96413,96145,96093
 4.7000e+000 96367 -7.7873e+001 -1.9713e+002 -6.1469e+000 36883 96413,96093,96067
 4.7000e+000 96344 -5.5784e+001 -2.4043e+002  1.6551e-001 36883 96067,96249,96171
 4.7000e+000 96321 -8.2411e+001 -2.3733e+002 -3.7276e+000 36883 96093,96145,96119
 4.7000e+000 96298 -1.1631e+002 -3.9414e+002  3.6787e+001 36883 96171,96249,96197
 4.7000e+000 96275 -3.2719e+001 -3.1499e+002 -5.1620e+000 36883 96197,96249,96223
 4.7000e+000 96439 -8.8890e+001 -1.9811e+002  2.6210e+000 36883 96171,96145,96413
 4.7000e+000 96462 -7.5882e+001 -1.9534e+002  6.8095e+000 36883 96171,96413,96067
 4.7000e+000 96781 -7.4952e+001 -2.3407e+002 -3.3824e+001 36215 96559,96663,96637
 4.7000e+000 96758 -9.4288e+001 -2.5457e+002 -4.2421e+001 36215 96507,96663,96559
 4.7000e+000 96735 -9.2187e+001 -1.7288e+002  1.7177e+001 36215 96585,96637,96611
 4.7000e+000 96712 -1.9439e+002 -2.7083e+002 -2.9363e+001 36215 96559,96637,96585
 4.7000e+000 96689 -3.7425e+001 -2.9502e+002 -9.3460e+000 36215 96507,96559,96533
 4.7000e+000 97161  4.4327e+000 -1.2717e+002 -6.1938e+000 35818 97184,96965,96939
 4.7000e+000 97138 -1.2154e+001 -1.5059e+002 -1.4000e+001 35818 97184,96939,96887
 4.7000e+000 97115 -5.0393e+000 -1.6096e+002  2.9891e+001 35818 96965,97043,97017
 4.7000e+000 97092 -6.1541e+000 -1.4460e+002 -1.7072e+001 35818 96887,96939,96913
 4.7000e+000 97069 -8.4264e+001 -1.6436e+002  1.8581e+001 35818 96965,97017,96991
 4.7000e+000 97210  2.2255e+001 -1.4723e+002  6.9013e+000 35818 97043,96965,97184
 4.7000e+000 97233  9.2323e+000 -1.6387e+002  7.0533e-001 35818 97043,97184,96887
 4.7000e+000 97739 -7.5955e+001 -2.3364e+002 -5.6043e+001 35214 97416,97468,97442
 4.7000e+000 97716 -9.0286e+001 -1.6897e+002 -1.8087e+001 35214 97416,97598,97468
 4.7000e+000 97693 -7.9055e+001 -1.5943e+002 -6.8126e+000 35214 97762,97520,97468
 4.7000e+000 97670 -8.2265e+001 -1.6420e+002 -1.4302e+001 35214 97762,97468,97598
 4.7000e+000 97647 -6.1649e+001 -1.5955e+002 -2.2719e+001 35214 97546,97598,97572
 4.7000e+000 97624 -4.7378e+001 -1.6608e+002 -9.2463e+000 35214 97468,97520,97494
 4.7000e+000 97788 -8.2000e+001 -1.6829e+002 -1.0406e+001 35214 97546,97520,97762
 4.7000e+000 97811 -8.3040e+001 -1.7199e+002 -1.7378e+001 35214 97546,97762,97598
 4.7000e+000 98189 -1.1411e+001 -1.2368e+002 -1.2283e+001 34760 98356,98212,97967
 4.7000e+000 98166 -2.7008e+001 -1.4993e+002 -2.4843e+001 34760 98284,98212,97941
 4.7000e+000 98143 -5.3548e+001 -1.3465e+002 -1.2722e+001 34760 98284,97941,97915
 4.7000e+000 98120 -1.5116e+001 -1.6797e+002 -5.8904e+000 34760 98484,97993,97967
 4.7000e+000 98097 -1.2582e+001 -1.3899e+002 -4.4961e+000 34760 98556,98045,98019
 4.7000e+000 98238 -2.2688e+001 -1.5773e+002 -6.1763e+000 34760 98484,97967,98212
 4.7000e+000 98261  7.9692e-001 -1.4482e+002 -1.1409e+001 34760 98556,98019,98212
 4.7000e+000 98310 -4.9917e+000 -1.2176e+002 -3.4958e+001 34760 98071,98212,98284
 4.7000e+000 98333 -2.1832e+001 -8.3852e+001 -2.8020e+001 34760 98071,98284,97915
 4.7000e+000 98382 -7.5868e+001 -1.6690e+002 -3.1841e+001 34760 97941,98212,98356
 4.7000e+000 98510 -3.4302e+000 -1.5892e+002 -1.0164e+001 34760 98019,97993,98484
 4.7000e+000 98533 -1.5481e+001 -1.5235e+002 -9.2998e+000 34760 98019,98484,98212
 4.7000e+000 98582  4.3533e+000 -1.3086e+002 -1.2708e+000 34760 98071,98045,98556
 4.7000e+000 98605  9.9575e+000 -1.4146e+002 -9.6424e+000 34760 98071,98556,98212
 4.7000e+000 99032 -9.3391e+001 -2.1462e+002  3.1900e+001 34156 98735,98891,98839
 4.7000e+000 99009 -7.7890e+001 -2.2204e+002  1.3667e+001 34156 98709,98891,98735
 4.7000e+000 98986 -2.6739e+001 -1.9025e+002  2.9715e+001 34156 98735,98813,98787
 4.7000e+000 98963 -3.2412e+001 -2.0848e+002  2.5123e+001 34156 98735,98839,98813
 4.7000e+000 98940  1.3289e+001 -2.8501e+002  3.3741e+001 34156 98735,98787,98761
 4.7000e+000 98917 -8.3447e+001 -1.8910e+002  1.9712e+001 34156 98839,98891,98865
 4.7000e+000 99231 -2.5289e+001 -1.1107e+002  1.0547e+001 33766 99055,99133,99107
 4.7000e+000 99208 -4.8069e+001 -1.4924e+002  2.1557e+001 33766 99055,99159,99133
 4.7000e+000 99185 -1.1399e+001 -1.2995e+002  2.6308e+001 33766 99055,99107,99081
 4.7000e+000 99818 -4.9865e+001 -1.5524e+002  3.2608e+000 33248 99521,99651,99573
 4.7000e+000 99795 -5.0881e+001 -1.4893e+002  1.5033e+001 33248 99521,99677,99651
 4.7000e+000 99772 -7.7518e+001 -1.8885e+002 -1.0522e+001 33248 99573,99651,99599
 4.7000e+000 99749 -5.2114e+001 -1.8521e+002  1.6951e+001 33248 99495,99677,99521
 4.7000e+000 99726 -3.4062e+001 -1.6181e+002 -3.9180e+001 33248 99599,99651,99625
 4.7000e+000 99703 -6.3919e+001 -1.8729e+002  1.1062e+001 33248 99521,99573,99547
 4.7000e+000 100196 -5.6574e+001 -1.7439e+002 -3.2967e+001 32794 100219,99948,99922
 4.7000e+000 100173 -6.6401e+001 -1.9519e+002 -1.5959e+001 32794 100219,99922,100052
 4.7000e+000 100150 -8.8835e+001 -1.7786e+002  1.0853e+001 32794 99974,100052,100026
 4.7000e+000 100127 -8.0818e+001 -1.5759e+002 -2.6238e+001 32794 99922,100078,100052
 4.7000e+000 100104 -9.2384e+001 -2.1445e+002  3.9939e+001 32794 99974,100026,100000
 4.7000e+000 100245 -7.5770e+001 -1.7053e+002 -1.2730e+001 32794 99974,99948,100219
 4.7000e+000 100268 -8.2181e+001 -1.9838e+002  4.3802e+000 32794 99974,100219,100052
 4.7000e+000 100418 -1.2927e+001 -1.6564e+002 -1.8016e+001 32504 100571,100343,100317
 4.7000e+000 100395 -6.7646e+001 -1.9047e+002  1.6511e+001 32504 100571,100317,100441
 4.7000e+000 100467  4.5339e+001 -9.2399e+001 -5.0042e+001 32504 100291,100369,100441
 4.7000e+000 100597  1.1196e+001 -1.3949e+002 -6.0868e+001 32504 100369,100343,100571
 4.7000e+000 100620 -1.3452e+001 -1.3039e+002 -3.1075e+001 32504 100369,100571,100441
 4.7000e+000 101020 -2.1409e+001 -1.3544e+002  5.2123e+000 32142 100772,100902,100876
 4.7000e+000 100997 -1.4544e+001 -1.2071e+002  7.9035e+000 32142 100746,100902,100772
 4.7000e+000 100974  7.7691e-002 -1.4848e+002  1.9191e+001 32142 101043,100824,100798
 4.7000e+000 100951 -2.5006e+001 -1.6080e+002  1.4046e+001 32142 101043,100798,100772
 4.7000e+000 100928 -8.5279e+001 -1.8895e+002 -4.7078e+001 32142 101115,100876,100850
 4.7000e+000 101069  2.8968e+001 -1.6372e+002 -1.6195e+001 32142 100850,100824,101043
 4.7000e+000 101092 -4.1602e+001 -1.9454e+002 -2.2335e+001 32142 101115,100850,101043
 4.7000e+000 101141 -3.1518e+001 -1.5845e+002 -1.7196e+001 32142 100772,100876,101115
 4.7000e+000 101164  2.2801e+000 -1.6231e+002  9.8007e+000 32142 100772,101115,101043
 4.7000e+000 101719 -9.2182e+001 -2.2080e+002  2.9563e+001 31538 101742,101477,101399
 4.7000e+000 101696 -1.1349e+002 -2.6829e+002  6.8958e+000 31538 101814,101742,101399
 4.7000e+000 101673 -1.3040e+002 -2.3081e+002 -1.8549e+001 31538 101814,101399,101373
 4.7000e+000 101650 -9.2247e+001 -1.5830e+002  2.0158e+001 31538 101425,101477,101451
 4.7000e+000 101627 -8.6550e+001 -1.8645e+002  5.1390e+000 31538 101399,101477,101425
 4.7000e+000 101604 -5.5722e+001 -2.6148e+002  5.4393e+001 31538 101477,101529,101503
 4.7000e+000 101581 -3.5150e+001 -1.5692e+002 -1.4998e+001 31538 101347,101555,101373
 4.7000e+000 101768 -1.0523e+002 -2.7082e+002  2.8953e+001 31538 101529,101477,101742
 4.7000e+000 101791 -9.0987e+001 -2.7778e+002 -9.4721e+000 31538 101529,101742,101555
 4.7000e+000 101840 -7.1022e+001 -2.3015e+002 -1.0568e+001 31538 101555,101742,101814
 4.7000e+000 101863 -9.5509e+001 -1.9958e+002 -3.3857e+001 31538 101555,101814,101373
 4.7000e+000 102111 -1.3795e+002 -3.5146e+002  4.5107e+001 31112 101886,101990,101912
 4.7000e+000 102088 -5.1949e+001 -2.1142e+002  2.4990e+000 31112 101886,102016,101990
 4.7000e+000 102065 -6.3907e+001 -3.4014e+002  6.8265e+001 31112 101912,101990,101964
 4.7000e+000 102042 -9.9725e+001 -4.2306e+002  8.0415e+001 31112 101912,101964,101938
 4.7000e+000 102408 -3.2215e+001 -2.1331e+002  1.6933e+001 30658 102431,102186,102160
 4.7000e+000 102385 -7.0829e+001 -2.1108e+002 -2.1369e-001 30658 102431,102160,102264
 4.7000e+000 102362 -6.8375e+001 -2.3074e+002  3.4634e+000 30658 102186,102238,102212
 4.7000e+000 102339 -7.7205e+001 -2.2380e+002 -1.3398e+001 30658 102134,102264,102160
 4.7000e+000 102316 -5.3597e+001 -1.8760e+002 -6.2071e+001 30658 102134,102290,102264
 4.7000e+000 102457 -6.4605e+001 -2.2489e+002  8.6819e+000 30658 102238,102186,102431
 4.7000e+000 102480 -1.0584e+002 -2.2633e+002 -1.0042e+001 30658 102238,102431,102264
 4.7000e+000 102681 -2.6901e+001 -2.5637e+002  3.8595e+001 30004 102704,102557,102505
 4.7000e+000 102658 -3.3960e+001 -2.5742e+002  3.9041e+001 30004 102704,102505,102609
 4.7000e+000 102635  5.6055e+000 -2.1972e+002  9.8772e+000 30004 102505,102557,102531
 4.7000e+000 102730 -3.2590e+001 -2.4979e+002  3.4700e+001 30004 102583,102557,102704
 4.7000e+000 102753 -4.7911e+001 -2.5601e+002  3.5988e+001 30004 102583,102704,102609
 4.7000e+000 103003 -2.8441e+001 -2.0638e+002 -1.6731e+001 29564 103026,102804,102778
 4.7000e+000 102980 -3.6709e+001 -2.4636e+002 -2.5602e+001 29564 103026,102778,102908
 4.7000e+000 102957 -3.8796e+001 -2.1010e+002 -2.8362e+000 29564 102856,102908,102882
 4.7000e+000 102934 -5.3072e+001 -1.8588e+002  1.3042e+001 29564 102804,102856,102830
 4.7000e+000 103052 -2.5469e+001 -1.8672e+002  1.0304e+001 29564 102856,102804,103026
 4.7000e+000 103075 -3.6830e+001 -2.1915e+002 -2.2912e+000 29564 102856,103026,102908
 4.7000e+000 103634 -9.2448e+001 -2.3187e+002 -2.8200e+001 29160 103657,103418,103392
 4.7000e+000 103611 -8.7973e+001 -2.2366e+002 -1.4092e+001 29160 103657,103392,103314
 4.7000e+000 103588 -6.3779e+001 -1.9378e+002 -2.4589e+001 29160 103314,103392,103366
 4.7000e+000 103565 -5.6248e+001 -2.0481e+002 -2.7966e+001 29160 103314,103366,103340
 4.7000e+000 103542 -1.1066e+002 -2.2047e+002 -2.5249e+001 29160 103262,103444,103314
 4.7000e+000 103519 -1.3152e+002 -2.6258e+002 -3.5014e+001 29160 103262,103314,103288
 4.7000e+000 103496 -8.4654e+001 -2.3990e+002 -1.0719e+001 29160 103262,103470,103444
 4.7000e+000 103683 -1.1392e+002 -2.4846e+002 -4.3591e+001 29160 103444,103418,103657
 4.7000e+000 103706 -9.6507e+001 -2.2265e+002 -2.7319e+001 29160 103444,103657,103314
 4.7000e+000 104035 -6.1177e+001 -2.2243e+002  2.1185e+001 28770 103836,103914,103862
 4.7000e+000 104012 -5.9492e+001 -2.1264e+002  2.8035e+001 28770 103810,103914,103836
 4.7000e+000 103989  1.3368e+001 -1.9327e+002  3.4927e+001 28770 103810,103940,103914
 4.7000e+000 103966 -1.2974e+001 -1.7861e+002  4.2743e+001 28770 103862,103914,103888
 4.7000e+000 104185 -2.2526e+001 -2.0326e+002  3.8603e+001 28366 104208,104110,104084
 4.7000e+000 104162 -2.0106e+001 -1.7346e+002  3.0588e+001 28366 104280,104208,104084
 4.7000e+000 104234  4.1068e+001 -2.0171e+002  2.4891e+001 28366 104610,104208,104136
 4.7000e+000 104257 -3.7878e+001 -1.9186e+002  2.4521e+001 28366 104538,104410,104208
 4.7000e+000 104306 -6.3376e+001 -1.9443e+002  2.4075e+001 28366 104538,104208,104280
 4.7000e+000 104436 -1.4071e+001 -2.0627e+002  3.6152e+000 28366 104136,104208,104410
 4.7000e+000 104564 -6.4696e+001 -1.9042e+002  1.0932e+001 28366 104058,104410,104538
 4.7000e+000 104587 -8.0331e+001 -1.8704e+002  8.6962e+000 28366 104058,104538,104280
 4.7000e+000 104636  3.0155e+001 -2.0516e+002  3.0535e+001 28366 104110,104208,104610
 4.7000e+000 105349 -4.9614e+001 -1.8497e+002 -1.9437e+001 27976 105516,105372,105107
 4.7000e+000 105326 -7.7415e+001 -1.8598e+002  4.6780e+000 27976 105588,105372,105055
 4.7000e+000 105303 -8.3061e+001 -1.8122e+002 -1.8585e+001 27976 105444,105159,105133
 4.7000e+000 105280 -2.8600e+001 -1.9191e+002 -1.1918e+001 27976 105516,105107,105081
 4.7000e+000 105257 -7.1506e+001 -2.0630e+002  1.7955e+001 27976 105588,105055,105029
 4.7000e+000 105234 -3.8912e+001 -1.5819e+002  2.2229e+000 27976 105003,105185,105159
 4.7000e+000 105211 -5.4528e+001 -1.2804e+002  2.3316e+001 27976 104977,105185,105003
 4.7000e+000 105398 -3.9849e+001 -1.8618e+002 -2.4731e+001 27976 105133,105107,105372
 4.7000e+000 105421 -6.6797e+001 -1.9366e+002 -1.1298e+001 27976 105444,105133,105372
 4.7000e+000 105470 -6.7827e+001 -1.5987e+002 -1.0233e+001 27976 105003,105159,105444
 4.7000e+000 105493 -5.6377e+001 -1.7434e+002 -6.6611e+000 27976 105003,105444,105372
 4.7000e+000 105542 -3.5557e+001 -1.8324e+002 -1.8535e+000 27976 105055,105372,105516
 4.7000e+000 105565 -4.0323e+000 -1.8600e+002  3.4749e+000 27976 105055,105516,105081
 4.7000e+000 105614 -8.9705e+001 -2.0599e+002  1.4377e+001 27976 105003,105372,105588
 4.7000e+000 105637 -8.7017e+001 -2.2604e+002  2.8854e+001 27976 105003,105588,105029
 4.7000e+000 106143 -8.5714e+001 -2.7734e+002  1.7020e+001 27664 106166,105846,105820
 4.7000e+000 106120 -5.9331e+001 -2.1029e+002  7.6506e+000 27664 106310,106166,105820
 4.7000e+000 106097 -2.8586e+001 -2.4745e+002 -5.1826e+001 27664 106382,106238,105950
 4.7000e+000 106074 -3.9349e+001 -2.0538e+002  7.4179e+000 27664 106310,105820,106002
 4.7000e+000 106051  1.7855e+001 -2.2347e+002 -4.3273e+001 27664 106382,105950,105924
 4.7000e+000 106028 -1.3399e+001 -3.9266e+002 -1.5134e+001 27664 105846,105898,105872
 4.7000e+000 106192 -7.6699e+001 -3.0902e+002 -4.0265e+001 27664 105898,105846,106166
 4.7000e+000 106215 -4.6525e+001 -2.5749e+002 -1.6818e+001 27664 106238,105898,106166
 4.7000e+000 106264 -1.3868e+002 -2.7659e+002 -6.7345e+001 27664 105976,105950,106238
 4.7000e+000 106287 -4.7565e+001 -2.5561e+002 -1.7279e+001 27664 105976,106238,106166
 4.7000e+000 106336 -3.9140e+001 -2.2335e+002  2.6498e+001 27664 105976,106166,106310
 4.7000e+000 106359 -1.6032e+001 -2.1675e+002  2.5458e+001 27664 105976,106310,106002
 4.7000e+000 106408 -5.0486e+001 -2.1132e+002  1.2754e-001 27664 105898,106238,106382
 4.7000e+000 106431 -2.1670e+001 -1.9790e+002  4.4768e+000 27664 105898,106382,105924
 4.7000e+000 106728 -2.2524e+001 -1.4945e+002  2.7123e+001 27153 106751,106506,106454
 4.7000e+000 106705 -2.1807e+001 -1.5187e+002  2.2666e+001 27153 106751,106454,106610
 4.7000e+000 106682 -3.7611e+001 -1.1132e+002  4.0336e+000 27153 106454,106506,106480
 4.7000e+000 106659 -3.3921e+001 -1.4626e+002  1.5753e+001 27153 106532,106610,106584
 4.7000e+000 106636 -5.8841e+001 -8.6054e+001  3.1675e+001 27153 106532,106584,106558
 4.7000e+000 106777 -1.6840e+001 -1.4661e+002  2.8585e+001 27153 106532,106506,106751
 4.7000e+000 106800 -1.7611e+001 -1.4993e+002  2.3388e+001 27153 106532,106751,106610
 4.7000e+000 107180 -2.7703e+001 -1.7910e+002  1.2031e+001 26642 107203,106984,106958
 4.7000e+000 107157 -9.0907e+001 -2.0794e+002  3.7460e+000 26642 107203,106958,106932
 4.7000e+000 107134 -1.0537e+002 -2.2744e+002 -3.3993e+001 26642 107275,107036,107010
 4.7000e+000 107111 -6.7640e+001 -2.2702e+002 -4.1138e+001 26642 106932,107062,107036
 4.7000e+000 107088 -2.3543e+000 -1.7868e+002  2.1341e+001 26642 106906,107062,106932
 4.7000e+000 107229  3.1681e+000 -1.6807e+002 -5.5320e+001 26642 107010,106984,107203
 4.7000e+000 107252 -9.3522e+001 -2.1145e+002 -4.0336e+001 26642 107275,107010,107203
 4.7000e+000 107301 -9.1176e+001 -2.2532e+002 -4.2726e+001 26642 106932,107036,107275
 4.7000e+000 107324 -8.7215e+001 -2.2557e+002 -4.4687e+001 26642 106932,107275,107203
 4.7000e+000 107675 -4.8990e+001 -1.3846e+002  1.4159e+001 26045 107450,107554,107476
 4.7000e+000 107652 -3.7958e+001 -1.2055e+002  4.1448e+000 26045 107450,107580,107554
 4.7000e+000 107629 -1.6160e+001 -1.2117e+002  4.6097e+000 26045 107476,107528,107502
 4.7000e+000 107606 -1.2977e+001 -1.3030e+002  7.7646e+000 26045 107476,107554,107528
 4.7000e+000 107874 -3.5188e+001 -2.0684e+002  5.1967e+001 25641 107750,107802,107776
 4.7000e+000 107851 -4.2961e+001 -1.4256e+002  2.8478e+001 25641 107724,107802,107750
 4.7000e+000 107828 -4.2241e+001 -1.4438e+002  2.5798e+001 25641 107698,107802,107724
 4.7000e+000 108431 -1.8395e+001 -2.2227e+002  3.9477e+001 25023 108526,108267,108241
 4.7000e+000 108408  1.5750e-002 -2.1189e+002  6.9317e+000 25023 108059,108267,108085
 4.7000e+000 108385 -3.0368e+001 -2.2629e+002  4.0160e+001 25023 108454,108163,108111
 4.7000e+000 108362 -1.0093e+002 -2.2883e+002  6.6318e+001 25023 108454,108111,108085
 4.7000e+000 108339 -8.0614e+001 -2.9804e+002  7.0398e+001 25023 108111,108163,108137
 4.7000e+000 108316 -5.2601e+001 -1.6390e+002 -1.0031e+001 25023 108163,108241,108215
 4.7000e+000 108293  2.1885e+001 -1.3069e+002 -1.8893e+000 25023 108163,108215,108189
 4.7000e+000 108480 -6.6045e+000 -2.0264e+002  3.2971e+000 25023 108241,108163,108454
 4.7000e+000 108503 -3.3137e+001 -2.1606e+002  3.8015e+001 25023 108526,108241,108454
 4.7000e+000 108552 -3.5750e+001 -2.2460e+002  3.1332e+001 25023 108085,108267,108526
 4.7000e+000 108575 -5.1380e+001 -2.1943e+002  2.9491e+001 25023 108085,108526,108454
 4.7000e+000 108823  1.4215e+000 -1.6216e+002  2.3342e+001 24461 108624,108728,108650
 4.7000e+000 108800 -2.3730e+001 -3.3639e+002 -2.3226e+001 24461 108598,108728,108624
 4.7000e+000 108777  1.9095e-001 -2.1609e+002  1.7309e+001 24461 108650,108728,108676
 4.7000e+000 108754 -9.5955e+001 -6.1532e+002  5.2818e+001 24461 108676,108728,108702
 4.7000e+000 109022 -5.9289e+001 -1.6779e+002  2.3255e+001 24121 108872,108924,108898
 4.7000e+000 108999 -4.1103e+001 -1.6332e+002  2.6893e+001 24121 108846,108924,108872
 4.7000e+000 108976 -6.8585e+001 -1.7535e+002  2.8610e+001 24121 108846,108950,108924
 4.7000e+000 109483 -6.9052e+001 -2.2913e+002 -2.1420e+001 23717 109209,109339,109235
 4.7000e+000 109460 -2.5907e+001 -2.6012e+002 -5.2592e+001 23717 109209,109365,109339
 4.7000e+000 109437 -1.0320e+000 -2.9218e+002 -1.7937e+001 23717 109287,109339,109313
 4.7000e+000 109414 -1.3134e+002 -2.9134e+002  1.7387e+001 23717 109235,109339,109287
 4.7000e+000 109391  3.7074e+000 -3.3687e+002  1.2369e+002 23717 109235,109287,109261
 4.7000e+000 109910 -9.1901e+001 -2.6818e+002 -2.8907e+001 23305 109613,109743,109717
 4.7000e+000 109887 -9.0721e+001 -2.7002e+002 -1.5744e+001 23305 109613,109769,109743
 4.7000e+000 109864 -1.0883e+002 -2.5903e+002 -2.5394e+001 23305 109613,109717,109639
 4.7000e+000 109841 -7.1035e+001 -2.4845e+002 -6.3094e+000 23305 109587,109769,109613
 4.7000e+000 109818  2.3222e+000 -2.1165e+002  1.9781e+001 23305 109639,109717,109691
 4.7000e+000 109795 -2.2358e+001 -1.6917e+002 -3.9849e+001 23305 109639,109691,109665
 4.7000e+000 110180 -4.3032e+000 -7.5948e+001 -1.7440e+001 22851 110007,110059,110033
 4.7000e+000 110157 -5.3074e+001 -2.0912e+002  9.5882e+000 22851 109981,110059,110007
 4.7000e+000 110134 -7.5458e+001 -2.2627e+002  1.4036e+000 22851 109955,110059,109981
 4.7000e+000 110111 -3.0173e+001 -2.4931e+002 -1.9104e+001 22851 109955,110085,110059
 4.7000e+000 110737 -2.9789e+001 -2.3628e+002 -6.4368e+001 22333 110760,110469,110391
 4.7000e+000 110714 -7.4748e+000 -2.7431e+002 -4.9087e+001 22333 110760,110391,110365
 4.7000e+000 110691 -2.0421e+001 -2.1499e+002 -5.2887e+001 22333 110832,110521,110469
 4.7000e+000 110668 -5.2757e+001 -4.3036e+002  3.3830e+001 22333 110417,110469,110443
 4.7000e+000 110645 -1.1016e+002 -3.7335e+002  1.6993e+001 22333 110391,110469,110417
 4.7000e+000 110622 -3.2401e+000 -2.1712e+002 -2.6614e+001 22333 110469,110521,110495
 4.7000e+000 110599 -1.6951e+001 -1.4941e+002  1.7789e+001 22333 110365,110573,110547
 4.7000e+000 110786 -1.5362e+001 -2.1992e+002 -5.8271e+001 22333 110832,110469,110760
 4.7000e+000 110809  1.6761e+001 -2.3670e+002 -3.8481e+001 22333 110547,110760,110365
 4.7000e+000 110858 -1.7965e+001 -2.2641e+002 -5.2440e+001 22333 110547,110521,110832
 4.7000e+000 110881 -1.9199e+001 -2.3786e+002 -5.9549e+001 22333 110547,110832,110760
 4.7000e+000 111308 -1.2025e+002 -2.8795e+002  1.8741e+001 21829 111331,111063,111011
 4.7000e+000 111285 -1.0633e+002 -2.6518e+002 -5.1979e+000 21829 111331,111011,111167
 4.7000e+000 111262 -1.2401e+002 -2.8631e+002  1.9931e+001 21829 111403,111089,111063
 4.7000e+000 111239 -1.5357e+002 -3.0428e+002  4.4584e+001 21829 111011,111063,111037
 4.7000e+000 111216 -6.9373e+001 -1.9492e+002  9.9429e+000 21829 110985,111167,111011
 4.7000e+000 111193 -1.4797e+002 -4.7994e+002  1.0476e+002 21829 111089,111141,111115
 4.7000e+000 111357 -1.1980e+002 -2.8986e+002  1.9871e+001 21829 111403,111063,111331
 4.7000e+000 111380 -1.2377e+002 -3.0146e+002 -3.1840e-002 21829 111141,111331,111167
 4.7000e+000 111429 -1.3185e+002 -2.9154e+002  2.3001e+001 21829 111141,111089,111403
 4.7000e+000 111452 -1.2479e+002 -2.9538e+002  2.2004e+001 21829 111141,111403,111331
 4.7000e+000 112056  9.3692e+001 -2.0939e+002  5.8738e+000 21489 111687,111765,111739
 4.7000e+000 112033  2.6399e+001 -2.4146e+002  2.5477e+001 21489 112151,112079,111687
 4.7000e+000 112010  1.3935e+000 -3.7729e+002  2.3479e+001 21489 111791,111843,111817
 4.7000e+000 111987 -6.1339e+001 -3.0145e+002 -2.3623e+001 21489 112079,111843,111791
 4.7000e+000 111964  6.3644e+001 -2.2307e+002  4.7458e+001 21489 112151,111687,111661
 4.7000e+000 111941 -1.2943e+001 -1.6380e+002  3.8944e+001 21489 111661,111869,111843
 4.7000e+000 111918  9.3235e+001 -2.2798e+002  3.4789e+001 21489 111687,111739,111713
 4.7000e+000 111895  2.4431e+001 -7.7017e+001  1.2199e+001 21489 111635,111869,111661
 4.7000e+000 112105 -3.1282e+001 -2.6397e+002  1.4176e+001 21489 111765,111687,112079
 4.7000e+000 112128 -2.8056e+001 -2.4963e+002  1.3995e+001 21489 111765,112079,111791
 4.7000e+000 112177 -3.6515e+001 -2.3739e+002 -6.4524e+000 21489 111843,112079,112151
 4.7000e+000 112200 -2.4910e+000 -2.3013e+002  1.1403e+001 21489 111843,112151,111661
 4.7000e+000 112578 -4.8774e+001 -3.0450e+002  1.4349e+001 21177 112382,112434,112408
 4.7000e+000 112555 -6.3391e+001 -3.0234e+002  5.4218e-001 21177 112330,112434,112382
 4.7000e+000 112532 -4.5023e+001 -2.5499e+002  4.9078e+001 21177 112304,112434,112330
 4.7000e+000 112509 -6.3459e+001 -2.8854e+002  0.0000e+000 21177 112330,112382,112356
 4.7000e+000 112486 -1.3170e+001 -1.4754e+002  8.4644e+000 21177 112304,112460,112434
 4.7000e+000 112679 -2.0643e+000 -1.7380e+002 -3.8447e+001 20666 112601,112653,112627
 4.7000e+000 112927 -9.1211e+001 -3.0276e+002  1.0703e+001 19762 112702,112754,112728
 4.7000e+000 112904 -3.4437e+001 -2.9126e+002 -2.4117e+000 19762 112702,112832,112754
 4.7000e+000 112881 -7.7022e+001 -3.1299e+002  5.0279e+001 19762 112754,112832,112806
 4.7000e+000 112858 -1.0837e+002 -3.9435e+002  5.0153e+001 19762 112754,112806,112780
 4.7000e+000 113297 -8.3141e+001 -3.6876e+002  2.3810e+001 19308 112974,113052,113026
 4.7000e+000 113274 -5.6017e+001 -3.0840e+002  8.0838e+000 19308 112974,113156,113052
 4.7000e+000 113251 -2.9528e+001 -4.0828e+002 -4.9259e+001 19308 113052,113130,113104
 4.7000e+000 113228 -6.0962e+001 -3.0753e+002 -1.7340e-001 19308 113052,113156,113130
 4.7000e+000 113205 -5.7947e+001 -3.5579e+002  0.0000e+000 19308 113052,113104,113078
 4.7000e+000 113182 -1.1870e+002 -3.8367e+002 -1.3817e+000 19308 112974,113026,113000
 4.7000e+000 113547 -1.6242e+000 -3.3306e+002 -2.3332e+001 18711 113570,113374,113348
 4.7000e+000 113524 -1.2561e+001 -3.0370e+002 -1.3638e+001 18711 113570,113348,113452
 4.7000e+000 113501 -2.7397e+000 -2.2784e+002 -6.5097e+001 18711 113322,113452,113348
 4.7000e+000 113478 -3.0096e+001 -2.9769e+002 -1.1153e+002 18711 113374,113426,113400
 4.7000e+000 113596 -1.4073e-001 -3.0066e+002 -3.0685e+001 18711 113426,113374,113570
 4.7000e+000 113619 -1.3203e+001 -2.7593e+002 -1.4864e+001 18711 113426,113570,113452
 4.7000e+000 113771 -1.6947e+002 -4.1791e+002 -2.2735e+001 18307 113670,113722,113696
 4.7000e+000 113748 -1.3186e+002 -3.9425e+002 -1.0897e+001 18307 113644,113722,113670
 4.7000e+000 113972 -7.3705e+001 -3.5177e+002  7.5840e+000 17945 113822,113874,113848
 4.7000e+000 113949 -7.5113e+001 -3.5090e+002  8.3797e+000 17945 113822,113900,113874
 4.7000e+000 113926 -1.0327e+002 -2.7824e+002  1.4656e+002 17945 113796,113900,113822
 4.7000e+000 114075 -5.0365e+001 -5.1743e+002  5.6021e+001 17482 113997,114049,114023
 4.7000e+000 114479 -1.8924e+001 -2.8567e+002 -4.4075e+001 17042 114257,114361,114335
 4.7000e+000 114456 -6.7664e+001 -2.7698e+002 -6.8201e+000 17042 114205,114361,114257
 4.7000e+000 114433 -7.7627e+001 -3.2029e+002  1.2441e+001 17042 114205,114257,114231
 4.7000e+000 114410  6.4562e+001 -4.2349e+002 -2.6932e+001 17042 114283,114335,114309
 4.7000e+000 114387 -2.6579e+000 -3.6754e+002 -1.8566e+001 17042 114257,114335,114283
 4.7000e+000 114879 -1.6041e+002 -2.9390e+002 -1.9132e+000 16638 114631,114683,114657
 4.7000e+000 114856 -3.1396e+001 -2.4004e+002  3.7844e+000 16638 114605,114683,114631
 4.7000e+000 114833  3.8511e+001 -1.3301e+002 -3.0851e+001 16638 114605,114761,114683
 4.7000e+000 114810 -1.2575e+001 -3.2880e+002 -1.5659e+001 16638 114683,114735,114709
 4.7000e+000 114787 -2.8092e+001 -3.4347e+002 -2.3240e+001 16638 114683,114761,114735
 4.7000e+000 115078 -1.4125e+002 -3.2096e+002  8.5433e+000 16232 114954,115006,114980
 4.7000e+000 115055 -1.4128e+002 -3.5460e+002  1.5916e+001 16232 114928,115006,114954
 4.7000e+000 115032 -6.8304e+001 -4.3852e+002  3.0299e+001 16232 114902,115006,114928
 4.7000e+000 115228 -8.0809e+001 -3.1849e+002  1.0434e+001 15482 115101,115153,115127
 4.7000e+000 115205 -7.4107e+001 -3.0198e+002 -3.4183e+000 15482 115101,115179,115153
 4.7000e+000 115331 -6.2079e+001 -2.9078e+002 -3.7253e+001 15163 115253,115305,115279
 4.7000e+000 115434 -1.0074e+002 -3.1764e+002  5.6402e+001 421 115356,115408,115382
 4.8000e+000 68213 -1.9884e+001 -1.6325e+002 -1.7033e+001 67888 68112,68164,68138
 4.8000e+000 68190 -2.0344e+002 -2.1655e+002 -2.9853e+001 67888 68086,68164,68112
 4.8000e+000 68314 -3.1336e+001 -2.4048e+002  2.1125e+001 67576 68236,68288,68262
 4.8000e+000 68584 -8.9465e+001 -4.2913e+002  2.0648e+001 67378 68385,68489,68463
 4.8000e+000 68561 -3.2054e+001 -4.0140e+002  1.1063e+001 67378 68359,68489,68385
 4.8000e+000 68538 -6.7868e+001 -3.6774e+002  2.9842e+001 67378 68385,68463,68411
 4.8000e+000 68515 -3.6691e+001 -2.4367e+002  1.8609e+001 67378 68411,68463,68437
 4.8000e+000 68964 -9.7818e+001 -3.8352e+002  5.6312e+001 67130 68690,68820,68716
 4.8000e+000 68941  6.9861e+001 -3.9629e+002  1.0519e+002 67130 68690,68846,68820
 4.8000e+000 68918 -8.8311e+001 -2.5658e+002  6.0665e+000 67130 68742,68820,68794
 4.8000e+000 68895 -2.3849e+001 -2.5611e+002  2.2979e+001 67130 68716,68820,68742
 4.8000e+000 68872 -6.0469e+001 -2.1865e+002 -2.6120e+001 67130 68742,68794,68768
 4.8000e+000 69065 -7.4456e+001 -2.2582e+002  4.1239e+000 66926 68987,69039,69013
 4.8000e+000 69445 -4.1740e+001 -2.0618e+002 -1.1339e+001 66614 69223,69301,69275
 4.8000e+000 69422 -6.6005e+001 -2.1991e+002 -4.6390e+000 66614 69171,69301,69223
 4.8000e+000 69399 -7.6633e+001 -2.2528e+002  3.7421e-001 66614 69171,69327,69301
 4.8000e+000 69376 -1.7582e+001 -1.0103e+002  2.6533e+000 66614 69223,69275,69249
 4.8000e+000 69353 -5.7835e+001 -2.3078e+002 -4.2520e+000 66614 69171,69223,69197
 4.8000e+000 69546 -7.2291e+001 -3.4842e+002  1.9009e+001 66416 69468,69520,69494
 4.8000e+000 69997 -6.6214e+001 -3.5344e+002 -2.7219e+001 66104 69700,69830,69726
 4.8000e+000 69974 -9.4326e+001 -4.3110e+002 -5.6533e+001 66104 69700,69856,69830
 4.8000e+000 69951 -7.0016e+001 -2.7347e+002 -1.9706e+001 66104 69726,69804,69778
 4.8000e+000 69928 -5.7198e+001 -3.2980e+002 -2.7547e+001 66104 69726,69830,69804
 4.8000e+000 69905 -7.3855e+001 -2.6176e+002 -1.0365e+001 66104 69726,69778,69752
 4.8000e+000 69882 -2.9130e+001 -5.9058e+002 -1.0775e+002 66104 69674,69856,69700
 4.8000e+000 70326 -6.3987e+001 -1.6468e+002  3.9864e+000 65814 70349,70153,70127
 4.8000e+000 70303 -4.0040e+001 -1.6163e+002  7.6713e+000 65814 70349,70127,70101
 4.8000e+000 70280 -3.7091e+001 -1.5221e+002  6.1089e+001 65814 70101,70231,70205
 4.8000e+000 70257  4.4374e+000 -1.8272e+002  2.0277e+001 65814 70153,70205,70179
 4.8000e+000 70375 -5.2924e+001 -1.7360e+002  2.3085e+001 65814 70205,70153,70349
 4.8000e+000 70398 -1.6242e+001 -1.6462e+002  2.4024e+001 65814 70205,70349,70101
 4.8000e+000 70904 -2.7228e+001 -9.0847e+001 -2.7411e+001 65502 70607,70737,70685
 4.8000e+000 70881 -3.7701e+001 -7.4474e+001 -3.5746e+001 65502 70581,70737,70607
 4.8000e+000 70858 -3.6823e+001 -2.4444e+001 -8.1012e+000 65502 70581,70763,70737
 4.8000e+000 70835 -4.0531e+001 -9.9423e+001 -3.8485e+001 65502 70685,70737,70711
 4.8000e+000 70812 -1.4009e+002 -1.1805e+002 -2.4257e+000 65502 70607,70659,70633
 4.8000e+000 70789 -4.4953e+001 -1.2318e+002  8.0602e-001 65502 70607,70685,70659
 4.8000e+000 71103 -3.9166e+001 -3.0721e+002 -9.0941e+000 65304 71126,70979,70953
 4.8000e+000 71080 -7.4002e+001 -3.0593e+002 -3.7018e+000 65304 71126,70953,70927
 4.8000e+000 71057 -1.0383e+002 -3.1085e+002  2.0580e+001 65304 70927,71031,71005
 4.8000e+000 71152 -7.3497e+001 -2.9075e+002 -1.9099e+001 65304 71005,70979,71126
 4.8000e+000 71175 -1.1275e+002 -2.9472e+002 -5.8888e+000 65304 71005,71126,70927
 4.8000e+000 71374 -4.5402e+001 -2.9525e+002  1.4855e+001 65106 71198,71276,71224
 4.8000e+000 71351 -8.7568e+001 -3.1493e+002  6.8957e+000 65106 71198,71302,71276
 4.8000e+000 71328 -2.7702e+001 -2.4803e+002  3.8043e+001 65106 71224,71276,71250
 4.8000e+000 71756 -3.7794e+001 -2.0884e+002 -1.3496e+001 64652 71508,71638,71534
 4.8000e+000 71733  8.6609e-001 -1.9228e+002  5.6830e-001 64652 71482,71638,71508
 4.8000e+000 71710 -7.3764e+001 -2.0468e+002 -1.6496e+001 64652 71534,71586,71560
 4.8000e+000 71687 -6.4943e+001 -2.2567e+002 -3.3081e+001 64652 71534,71612,71586
 4.8000e+000 71664 -9.8646e+001 -2.3462e+002 -3.5833e+001 64652 71534,71638,71612
 4.8000e+000 72085 -9.3077e+001 -2.3277e+002 -2.8171e+001 64248 71886,71964,71912
 4.8000e+000 72062 -7.5193e+001 -2.2695e+002 -2.8217e+001 64248 71860,71964,71886
 4.8000e+000 72039 -4.1754e+001 -2.4884e+002 -1.9399e+001 64248 71912,71964,71938
 4.8000e+000 72016 -7.4702e+001 -2.1304e+002 -2.9542e+001 64248 71860,71990,71964
 4.8000e+000 72235 -8.5423e+000 -1.5065e+002 -1.9933e+001 63858 72588,72258,72134
 4.8000e+000 72212 -3.2184e+001 -1.3086e+002  5.2280e+000 63858 72330,72258,72108
 4.8000e+000 72284 -2.2773e+001 -1.0956e+002 -1.3693e+001 63858 72160,72134,72258
 4.8000e+000 72307 -7.8675e+001 -1.4590e+002 -2.3238e+001 63858 72460,72258,72186
 4.8000e+000 72356 -6.5290e+001 -1.4044e+002 -2.2343e+001 63858 72186,72258,72330
 4.8000e+000 72486 -2.8950e+001 -1.3448e+002 -2.3116e+001 63858 72160,72258,72460
 4.8000e+000 72614 -1.0655e+001 -1.5889e+002 -3.5731e-002 63858 72108,72258,72588
 4.8000e+000 73248 -4.9750e+001 -2.3232e+002  5.7403e+001 63404 72902,72954,72928
 4.8000e+000 73225 -1.2004e+002 -2.5150e+002  2.6072e+001 63404 73271,72954,72902
 4.8000e+000 73202 -1.0713e+002 -2.0965e+002  2.2327e+001 63404 73271,72902,73032
 4.8000e+000 73179 -6.8715e+001 -1.8195e+002  7.0645e+000 63404 72902,73058,73032
 4.8000e+000 73156 -8.8019e+001 -2.2773e+002  1.4443e+001 63404 72980,73032,73006
 4.8000e+000 73133 -6.2594e+001 -1.8676e+002  5.1274e+000 63404 72876,73058,72902
 4.8000e+000 73110 -2.4124e+001 -9.2174e+001 -4.7900e+001 63404 72876,73084,73058
 4.8000e+000 73297 -1.0369e+002 -2.5693e+002  1.8186e-001 63404 72980,72954,73271
 4.8000e+000 73320 -1.0146e+002 -2.3458e+002  3.1289e-001 63404 72980,73271,73032
 4.8000e+000 73470 -8.7082e+001 -5.6971e+002  6.0691e+001 63014 73343,73395,73369
 4.8000e+000 73447 -2.6911e+002 -6.9577e+002 -1.2464e+001 63014 73343,73421,73395
 4.8000e+000 73929 -2.1319e+000 -2.6333e+002  1.4666e+001 62702 73759,73811,73785
 4.8000e+000 73906  1.4288e+001 -2.5498e+002  1.8149e+001 62702 73655,73811,73759
 4.8000e+000 73883 -2.7836e+001 -2.9197e+002 -1.1016e+000 62702 73655,73759,73681
 4.8000e+000 73860  9.4427e+000 -2.1684e+002 -4.6914e+001 62702 73681,73759,73707
 4.8000e+000 73837 -1.1661e+002 -2.5204e+002  3.7403e+000 62702 73707,73759,73733
 4.8000e+000 74209 -1.5636e+002 -2.5510e+002  1.7809e+000 62404 74059,74137,74085
 4.8000e+000 74186 -1.8551e+002 -3.3031e+002  3.7623e+001 62404 74033,74137,74059
 4.8000e+000 74163 -1.6715e+002 -2.3408e+002  2.8983e-001 62404 74085,74137,74111
 4.8000e+000 74408 -9.1693e+000 -2.1865e+002  1.1850e+001 62000 74258,74336,74284
 4.8000e+000 74385 -5.9974e+000 -2.1304e+002  2.3786e+001 62000 74232,74336,74258
 4.8000e+000 74362 -5.3767e+001 -2.1984e+002 -3.6044e+000 62000 74284,74336,74310
 4.8000e+000 74509 -1.9005e+001 -2.4718e+002  1.9182e+001 61802 74431,74483,74457
 4.8000e+000 74759 -8.1161e+001 -2.2414e+002  3.0066e+000 61554 74782,74586,74560
 4.8000e+000 74736 -5.2786e+001 -2.0906e+002  8.6415e+000 61554 74782,74560,74664
 4.8000e+000 74713 -7.0944e+001 -1.6885e+002  5.6789e+001 61554 74854,74612,74586
 4.8000e+000 74690 -6.5746e+001 -2.2766e+002  1.8090e+000 61554 74534,74664,74560
 4.8000e+000 74808 -9.6878e+001 -2.0741e+002  1.6233e+001 61554 74854,74586,74782
 4.8000e+000 74831 -6.0689e+001 -2.5959e+002  1.3993e+001 61554 74638,74782,74664
 4.8000e+000 74880 -1.8209e+001 -2.0907e+002  6.1932e+001 61554 74638,74612,74854
 4.8000e+000 74903 -1.9506e+001 -2.0637e+002  3.1898e+001 61554 74638,74854,74782
 4.8000e+000 75285 -3.5359e+001 -2.2729e+002  2.6098e+000 61356 75063,75167,75115
 4.8000e+000 75262 -4.6766e+001 -2.4134e+002 -1.2868e+001 61356 75037,75167,75063
 4.8000e+000 75239  1.5249e+001 -2.3683e+002 -1.0715e+000 61356 75115,75167,75141
 4.8000e+000 75216 -9.6430e+000 -2.1190e+002  9.0212e+000 61356 75063,75115,75089
 4.8000e+000 75193 -1.0058e+002 -1.9537e+002  1.3172e+001 61356 75011,75167,75037
 4.8000e+000 75631 -1.5737e+001 -1.8176e+002  4.9839e+000 60952 75654,75412,75360
 4.8000e+000 75608 -3.3226e+001 -2.0847e+002 -5.6311e+000 60952 75654,75360,75334
 4.8000e+000 75585 -3.4669e+001 -2.6623e+002  1.4219e+001 60952 75726,75438,75412
 4.8000e+000 75562 -2.8343e+001 -2.1382e+002 -3.4354e+001 60952 75308,75490,75334
 4.8000e+000 75539 -1.8948e+001 -1.8140e+002  7.1503e-001 60952 75360,75412,75386
 4.8000e+000 75516 -5.0868e+001 -3.2546e+002 -1.0158e+001 60952 75438,75490,75464
 4.8000e+000 75680 -1.4688e+001 -2.2269e+002  5.0668e+000 60952 75726,75412,75654
 4.8000e+000 75703 -1.4375e+001 -2.1184e+002 -8.5719e+000 60952 75490,75654,75334
 4.8000e+000 75752 -1.4628e+001 -2.1569e+002 -6.1532e-001 60952 75490,75438,75726
 4.8000e+000 75775 -1.5625e+001 -2.1167e+002 -8.9345e+000 60952 75490,75726,75654
 4.8000e+000 76155 -3.5659e+001 -2.1453e+002 -4.3115e-001 60754 75933,75985,75959
 4.8000e+000 76132 -5.7630e+001 -2.2812e+002  2.2646e+001 60754 75933,76037,75985
 4.8000e+000 76109  4.2699e+000 -2.2272e+002  6.8576e+000 60754 75985,76037,76011
 4.8000e+000 76086 -8.8044e+001 -1.9211e+002  5.6197e+000 60754 75881,76037,75933
 4.8000e+000 76063 -1.2452e+002 -1.7009e+002  5.0625e+001 60754 75881,75933,75907
 4.8000e+000 76612 -4.0579e+001 -2.0582e+002  8.4177e+000 60350 76635,76442,76390
 4.8000e+000 76589 -3.5199e+000 -2.3141e+002  1.6622e+001 60350 76635,76390,76364
 4.8000e+000 76566 -1.4095e+001 -2.9504e+002 -2.0654e+001 60350 76364,76494,76468
 4.8000e+000 76543 -3.5734e+000 -1.8733e+002  1.8428e+001 60350 76390,76442,76416
 4.8000e+000 76520 -1.0393e+002 -1.9144e+002 -4.6139e+001 60350 76338,76494,76364
 4.8000e+000 76661 -6.0964e+001 -2.2325e+002  1.6090e+001 60350 76468,76442,76635
 4.8000e+000 76684 -3.3900e+001 -2.5280e+002  2.6800e+001 60350 76468,76635,76364
 4.8000e+000 76932 -8.0104e+001 -2.4046e+002  2.1056e+000 59946 76955,76733,76707
 4.8000e+000 76909 -8.0772e+001 -2.4084e+002  7.1543e+000 59946 77027,76955,76707
 4.8000e+000 76886 -7.6753e+001 -2.4185e+002  5.7933e+000 59946 77027,76707,76837
 4.8000e+000 76863 -3.6943e+001 -2.6563e+002 -2.4266e+001 59946 76733,76785,76759
 4.8000e+000 76981 -9.1756e+001 -2.4206e+002 -2.3000e+000 59946 76785,76733,76955
 4.8000e+000 77004 -8.3358e+001 -2.3538e+002  4.8299e+000 59946 76785,76955,76811
 4.8000e+000 77053 -7.5300e+001 -2.3913e+002  7.3554e+000 59946 76811,76955,77027
 4.8000e+000 77076 -7.2601e+001 -2.4068e+002  5.3604e+000 59946 76811,77027,76837
 4.8000e+000 77226 -1.0302e+002 -2.5286e+002  6.1339e+000 59542 77099,77151,77125
 4.8000e+000 77203 -1.2594e+002 -2.9940e+002  1.3586e+001 59542 77099,77177,77151
 4.8000e+000 77427 -1.2722e+002 -2.6018e+002 -1.6484e+001 59030 77450,77277,77251
 4.8000e+000 77404 -7.8127e+001 -2.0748e+002 -7.0003e+001 59030 77450,77251,77355
 4.8000e+000 77381 -2.2105e+001 -3.0734e+002 -5.5973e+000 59030 77277,77329,77303
 4.8000e+000 77476 -6.7867e+001 -2.7110e+002 -4.8695e+001 59030 77329,77277,77450
 4.8000e+000 77499 -1.5603e+001 -2.4590e+002 -9.0793e+001 59030 77329,77450,77355
 4.8000e+000 77749 -1.0456e+002 -3.2534e+002  2.4822e+001 58426 77772,77628,77602
 4.8000e+000 77726 -7.0192e+001 -3.9077e+002  8.8451e+001 58426 77524,77654,77628
 4.8000e+000 77703 -8.6677e+001 -3.2125e+002  1.8071e+001 58426 77772,77602,77550
 4.8000e+000 77680 -5.0506e+001 -3.0096e+002 -1.3520e+001 58426 77550,77602,77576
 4.8000e+000 77798 -8.3559e+001 -3.2806e+002  2.3994e+001 58426 77524,77628,77772
 4.8000e+000 77821 -7.3988e+001 -3.2821e+002  1.5328e+001 58426 77524,77772,77550
 4.8000e+000 78071 -1.3591e+002 -2.9468e+002  3.1289e+001 57922 78094,77924,77898
 4.8000e+000 78048 -1.5708e+002 -2.9848e+002  4.8862e+000 57922 78094,77898,77872
 4.8000e+000 78025 -1.2922e+002 -2.7277e+002  3.0204e+001 57922 78166,77846,77950
 4.8000e+000 78002 -6.8302e+001 -2.6717e+002  3.5123e+001 57922 77846,77976,77950
 4.8000e+000 78120 -1.1427e+002 -2.9518e+002  2.2105e+001 57922 77950,77924,78094
 4.8000e+000 78143 -1.3053e+002 -2.7708e+002  2.2709e+001 57922 78166,77950,78094
 4.8000e+000 78192 -1.2376e+002 -2.8475e+002  2.3199e+001 57922 77872,77846,78166
 4.8000e+000 78215 -1.3157e+002 -2.9732e+002  1.5212e+001 57922 77872,78166,78094
 4.8000e+000 78416  2.7755e+001 -2.4850e+002 -1.3183e+001 57468 78439,78292,78240
 4.8000e+000 78393 -1.3943e+001 -2.3449e+002  4.6027e-001 57468 78439,78240,78344
 4.8000e+000 78370  9.7532e+000 -3.3747e+002 -1.0166e+001 57468 78240,78292,78266
 4.8000e+000 78465 -1.2805e+001 -2.6889e+002 -2.1592e+001 57468 78318,78292,78439
 4.8000e+000 78488 -2.9897e+001 -2.4473e+002 -4.1162e+000 57468 78318,78439,78344
 4.8000e+000 78689  2.7624e+001 -3.0111e+002 -3.5205e+001 57014 78712,78539,78513
 4.8000e+000 78666 -1.7223e+001 -2.9924e+002 -6.1195e+000 57014 78712,78513,78617
 4.8000e+000 78643 -6.6480e+001 -3.0477e+002  3.0242e+001 57014 78565,78617,78591
 4.8000e+000 78738 -3.0189e+001 -2.5227e+002 -3.5349e+001 57014 78565,78539,78712
 4.8000e+000 78761 -9.6809e+001 -2.9106e+002  1.2038e+001 57014 78565,78712,78617
 4.8000e+000 79241 -9.6690e+001 -2.6701e+002  2.1258e+001 56652 79264,78895,78869
 4.8000e+000 79218 -4.5088e+001 -3.4832e+002 -2.0531e+001 56652 79264,78869,79051
 4.8000e+000 79195 -6.7396e+001 -3.0395e+002 -7.0817e+001 56652 78869,79077,79051
 4.8000e+000 79172 -7.4782e+001 -1.7582e+002 -4.0093e+001 56652 78895,78973,78947
 4.8000e+000 79149 -1.2641e+002 -5.1465e+002 -4.2482e+001 56652 78973,79051,78999
 4.8000e+000 79126 -6.6087e+001 -1.6642e+002 -4.3720e+001 56652 78895,78947,78921
 4.8000e+000 79103 -1.0554e+002 -3.5433e+002  8.3429e+001 56652 78999,79051,79025
 4.8000e+000 79290 -5.7492e+001 -2.1579e+002  4.9569e+001 56652 78973,78895,79264
 4.8000e+000 79313 -2.2596e+000 -3.0283e+002  1.0553e+001 56652 78973,79264,79051
 4.8000e+000 79512 -3.3201e+001 -3.8894e+002  3.2691e+001 56062 79388,79440,79414
 4.8000e+000 79489 -1.5189e+002 -2.0273e+002  5.2208e+001 56062 79336,79440,79388
 4.8000e+000 79466 -6.0613e+001 -2.2772e+002  7.0029e+001 56062 79336,79388,79362
 4.8000e+000 79941 -4.4972e+001 -2.1323e+002  3.4836e+001 55658 79964,79670,79644
 4.8000e+000 79918 -6.6075e+001 -2.1464e+002  3.8451e+001 55658 79964,79644,79800
 4.8000e+000 79895 -6.0808e+001 -2.3020e+002  1.9549e+001 55658 80036,79696,79670
 4.8000e+000 79872 -7.1225e+001 -1.9543e+002 -2.7769e+000 55658 80108,79722,79696
 4.8000e+000 79849 -1.0543e+002 -1.9609e+002  9.7617e+000 55658 79722,79774,79748
 4.8000e+000 79826  4.9359e-001 -1.9131e+002  8.0830e+000 55658 79618,79800,79644
 4.8000e+000 79990 -6.8252e+001 -2.3207e+002  2.6445e+001 55658 80036,79670,79964
 4.8000e+000 80013 -6.0290e+001 -2.0213e+002  4.0704e+001 55658 79774,79964,79800
 4.8000e+000 80062 -5.1354e+001 -2.0971e+002  1.6028e+001 55658 80108,79696,80036
 4.8000e+000 80085 -6.6481e+001 -2.0403e+002  3.5788e+001 55658 79774,80036,79964
 4.8000e+000 80134 -1.0993e+002 -2.1070e+002  5.6689e+000 55658 79774,79722,80108
 4.8000e+000 80157 -9.8660e+001 -2.3006e+002  2.4342e+001 55658 79774,80108,80036
 4.8000e+000 80307 -1.1851e+002 -2.0754e+002  2.5037e+001 55254 80402,80330,80206
 4.8000e+000 80284 -1.1542e+002 -2.8452e+002  2.6212e+001 55254 80330,80180,80258
 4.8000e+000 80356 -1.3932e+002 -2.5495e+002  5.2544e+001 55254 80232,80206,80330
 4.8000e+000 80379 -4.0949e+001 -2.1062e+002  7.5970e+001 55254 80232,80330,80258
 4.8000e+000 80428 -1.6092e+002 -2.5551e+002  5.4674e+000 55254 80180,80330,80402
 4.8000e+000 80659 -5.6576e+001 -2.9859e+002 -2.3613e+001 54850 80558,80610,80584
 4.8000e+000 80636  1.9933e-001 -2.8517e+002 -2.9767e+001 54850 80532,80610,80558
 4.8000e+000 80760 -2.1450e+001 -2.1177e+002 -1.7786e+001 54652 80682,80734,80708
 4.8000e+000 81164 -1.6123e+001 -2.2376e+002 -4.4256e+000 54248 81187,80942,80890
 4.8000e+000 81141 -1.9732e+001 -2.2835e+002 -2.8607e+000 54248 81187,80890,81046
 4.8000e+000 81118 -2.3422e+001 -2.3387e+002  4.7940e+001 54248 80942,81020,80994
 4.8000e+000 81095 -1.4484e+001 -2.2892e+002  2.3562e+000 54248 80890,80942,80916
 4.8000e+000 81072 -3.1958e+001 -1.2969e+002  6.4727e+000 54248 80942,80994,80968
 4.8000e+000 81213 -2.0549e+001 -2.2017e+002 -3.7376e+000 54248 81020,80942,81187
 4.8000e+000 81236 -2.2871e+001 -2.2309e+002 -2.7219e+000 54248 81020,81187,81046
 4.8000e+000 81663 -1.2617e+002 -2.3779e+002  2.0945e+001 53594 81340,81444,81366
 4.8000e+000 81640 -1.1944e+002 -3.4240e+002  9.5275e+000 53594 81340,81470,81444
 4.8000e+000 81617 -4.9206e+001 -3.0037e+002 -2.1479e+001 53594 81340,81522,81470
 4.8000e+000 81594 -6.8885e+001 -1.7338e+002 -1.9099e+001 53594 81392,81444,81418
 4.8000e+000 81571 -9.1714e+001 -2.0531e+002 -2.9764e+001 53594 81366,81444,81392
 4.8000e+000 81548  8.5758e+000 -4.4632e+002  7.9239e+001 53594 81470,81522,81496
 4.8000e+000 81943 -3.1771e+001 -1.6277e+002 -1.9667e+001 53104 81966,81845,81819
 4.8000e+000 81920 -4.7649e+001 -1.3470e+002 -2.4460e+001 53104 81966,81819,81767
 4.8000e+000 81897 -4.9098e+001 -1.3653e+002 -2.6535e+001 53104 81767,81819,81793
 4.8000e+000 81992 -2.1044e+001 -1.4511e+002 -2.4175e+001 53104 81871,81845,81966
 4.8000e+000 82015 -2.9154e+001 -1.0571e+002 -3.2742e+001 53104 81871,81966,81767
 4.8000e+000 82491 -2.9612e+001 -1.6441e+002 -1.3902e+001 52650 82145,82249,82171
 4.8000e+000 82468 -1.3551e+002 -1.9265e+002 -2.2872e+001 52650 82145,82301,82249
 4.8000e+000 82445 -1.4211e+002 -2.9418e+002 -5.1117e+001 52650 82249,82301,82275
 4.8000e+000 82422 -6.6698e+001 -3.6944e+002 -6.7327e+001 52650 82119,82301,82145
 4.8000e+000 82399 -4.4531e+001 -1.3173e+002  1.7162e+001 52650 82171,82249,82223
 4.8000e+000 82376  1.1050e+001 -3.3947e+002 -4.7659e+001 52650 82119,82327,82301
 4.8000e+000 82353 -1.2632e+001 -6.5367e+001 -2.7530e+001 52650 82171,82223,82197
 4.8000e+000 82739 -4.0171e+001 -1.5352e+002  3.1342e+000 52246 82762,82540,82514
 4.8000e+000 82716 -2.6245e+001 -6.2260e+001 -1.1336e+001 52246 82762,82514,82644
 4.8000e+000 82693 -7.4499e+001 -1.7459e+002  3.8334e+001 52246 82540,82618,82592
 4.8000e+000 82670 -8.8351e+001 -1.6723e+002  3.1496e+001 52246 82540,82592,82566
 4.8000e+000 82788 -2.5782e+001 -1.9638e+002  1.1720e+001 52246 82618,82540,82762
 4.8000e+000 82811 -5.0828e+001 -1.6768e+002 -1.4314e+001 52246 82618,82762,82644
 4.8000e+000 83059 -2.4670e+001 -2.2027e+002  2.0679e+001 51578 82860,82964,82938
 4.8000e+000 83036 -1.1465e+000 -1.4704e+002 -4.7196e+001 51578 82834,82964,82860
 4.8000e+000 83013 -1.0351e+001 -1.6946e+002  4.5358e+001 51578 82860,82938,82886
 4.8000e+000 82990 -7.5867e+000 -1.0679e+002  8.3112e+000 51578 82886,82938,82912
 4.8000e+000 83309 -3.9961e+001 -1.2452e+002  3.4870e+001 51138 83332,83162,83136
 4.8000e+000 83286 -1.4092e+001 -1.6244e+002  1.0983e+001 51138 83332,83136,83110
 4.8000e+000 83263 -6.1052e+001 -1.6768e+002 -9.1838e+000 51138 83404,83214,83188
 4.8000e+000 83240 -7.2956e-001 -1.0290e+002  9.4008e+000 51138 83084,83214,83110
 4.8000e+000 83358 -6.5896e+001 -1.7193e+002  4.6719e+001 51138 83188,83162,83332
 4.8000e+000 83381 -4.2550e+001 -1.8611e+002  8.0734e+000 51138 83404,83188,83332
 4.8000e+000 83430 -3.8403e+001 -1.2152e+002 -7.9850e-001 51138 83110,83214,83404
 4.8000e+000 83453 -2.3127e+001 -1.5009e+002  1.5757e+001 51138 83110,83404,83332
 4.8000e+000 83835 -3.7694e+001 -2.0858e+002 -1.3467e+000 50734 83613,83717,83691
 4.8000e+000 83812 -4.2016e+001 -2.2421e+002 -4.4970e+001 50734 83561,83717,83613
 4.8000e+000 83789 -2.0090e+001 -1.1587e+002 -6.5151e+001 50734 83561,83613,83587
 4.8000e+000 83766 -8.0547e+001 -1.4069e+002  5.4742e-002 50734 83613,83691,83639
 4.8000e+000 83743 -8.5515e+001 -1.4251e+002  2.9945e+001 50734 83639,83691,83665
 4.8000e+000 84034 -5.3515e+001 -1.3152e+002  8.0134e+000 50230 84057,83884,83858
 4.8000e+000 84011 -5.2786e+001 -1.4241e+002 -1.3202e+001 50230 84129,84057,83858
 4.8000e+000 83988 -1.6301e+001 -1.5216e+002 -2.2417e+001 50230 84129,83858,83962
 4.8000e+000 84083 -2.1697e+001 -1.1917e+002  1.0218e+001 50230 83910,83884,84057
 4.8000e+000 84106 -3.2754e+001 -1.3586e+002  3.5543e+000 50230 83910,84057,83936
 4.8000e+000 84155 -5.2481e+000 -1.2111e+002 -2.7268e+000 50230 83936,84057,84129
 4.8000e+000 84178  8.6549e+000 -1.4694e+002 -1.7136e+001 50230 83936,84129,83962
 4.8000e+000 84558 -5.7759e+001 -1.7314e+002 -2.8193e+001 49768 84581,84388,84362
 4.8000e+000 84535 -1.1897e+002 -1.7573e+002 -1.1213e+001 49768 84581,84362,84310
 4.8000e+000 84512  3.8426e+000 -1.8937e+002 -3.0289e+001 49768 84653,84440,84414
 4.8000e+000 84489 -9.2834e+001 -1.9093e+002  1.4067e+001 49768 84310,84362,84336
 4.8000e+000 84466 -3.5809e+000 -1.3727e+002  2.1370e+001 49768 84284,84440,84310
 4.8000e+000 84607 -1.5718e+001 -1.4654e+002 -4.7664e+001 49768 84414,84388,84581
 4.8000e+000 84630 -2.0743e+001 -1.7770e+002 -2.1445e+001 49768 84653,84414,84581
 4.8000e+000 84679 -2.9199e+001 -1.7872e+002 -4.1420e+001 49768 84310,84440,84653
 4.8000e+000 84702 -6.4397e+001 -1.7899e+002 -4.2127e+001 49768 84310,84653,84581
 4.8000e+000 85159 -9.4373e+001 -2.4248e+002 -6.7924e+001 49192 84885,84937,84911
 4.8000e+000 85136 -9.4459e+001 -1.9337e+002 -4.8926e+001 49192 84885,85041,84937
 4.8000e+000 85113 -6.6651e+001 -1.6542e+002 -2.2361e+001 49192 84963,85041,84989
 4.8000e+000 85090 -5.8351e+001 -1.5076e+002 -3.2607e+001 49192 84937,85041,84963
 4.8000e+000 85067 -5.6807e+001 -1.6351e+002 -2.1432e+001 49192 84989,85041,85015
 4.8000e+000 85714 -9.6905e+001 -1.6143e+002 -4.3101e-001 48638 85368,85498,85394
 4.8000e+000 85691 -1.2123e+002 -1.8895e+002  1.0268e+001 48638 85368,85524,85498
 4.8000e+000 85668 -1.1051e+002 -1.5598e+002  4.2342e+001 48638 85737,85420,85394
 4.8000e+000 85645 -9.3061e+001 -1.7712e+002  2.2187e+001 48638 85737,85394,85498
 4.8000e+000 85622 -7.3842e+001 -1.8036e+002  3.6479e+001 48638 85446,85498,85472
 4.8000e+000 85599 -3.1160e+001 -1.5439e+002  1.7594e+001 48638 85342,85524,85368
 4.8000e+000 85576 -1.1959e+002 -1.7500e+002  1.7382e+001 48638 85342,85550,85524
 4.8000e+000 85763 -7.9261e+001 -1.3931e+002  5.5662e+001 48638 85446,85420,85737
 4.8000e+000 85786 -8.0272e+001 -1.6062e+002  3.2566e+001 48638 85446,85737,85498
 4.8000e+000 86371 -8.1258e+001 -1.2045e+002 -6.8596e+000 48084 86100,86230,86178
 4.8000e+000 86348 -1.0093e+002 -1.5503e+002 -1.7007e+001 48084 86048,86230,86100
 4.8000e+000 86325 -8.0197e+001 -1.1166e+002  3.0055e+001 48084 86100,86178,86126
 4.8000e+000 86302 -5.1401e+001 -3.8314e+001 -3.1016e+001 48084 86048,86100,86074
 4.8000e+000 86279 -1.0354e+002 -1.9417e+002 -2.9952e+000 48084 86178,86230,86204
 4.8000e+000 86256 -7.2739e+001 -1.2353e+002  2.9554e+001 48084 86126,86178,86152
 4.8000e+000 86619 -5.9342e+001 -1.3494e+002  1.2378e+001 47630 86642,86446,86420
 4.8000e+000 86596 -7.2704e+001 -1.5078e+002 -1.7263e+001 47630 86642,86420,86394
 4.8000e+000 86573 -9.6243e+001 -1.7709e+002 -2.4900e+001 47630 86394,86524,86498
 4.8000e+000 86550 -3.9043e+001 -1.5277e+002  1.0809e+001 47630 86446,86498,86472
 4.8000e+000 86668 -7.4594e+001 -1.6875e+002  5.7341e-001 47630 86498,86446,86642
 4.8000e+000 86691 -8.1818e+001 -1.7422e+002 -2.8450e+001 47630 86498,86642,86394
 4.8000e+000 87022 -7.5525e+000 -9.6736e+001 -5.5452e+001 47226 87045,86875,86849
 4.8000e+000 86999 -3.2252e+000 -1.0962e+002 -5.2290e+001 47226 87045,86849,86797
 4.8000e+000 86976  3.3501e-001 -5.1155e+001 -1.4141e+001 47226 86797,86849,86823
 4.8000e+000 86953  2.4975e+000 -7.0131e+001 -2.9688e+001 47226 86875,86927,86901
 4.8000e+000 87071 -1.4872e+001 -1.0621e+002 -5.2270e+001 47226 86927,86875,87045
 4.8000e+000 87094 -7.1427e+000 -1.1501e+002 -5.0473e+001 47226 86927,87045,86797
 4.8000e+000 87244 -1.2287e+001 -1.8979e+002  5.0194e+001 46814 87267,87169,87143
 4.8000e+000 87221 -8.9839e+001 -1.7132e+002 -9.2551e+000 46814 87267,87143,87117
 4.8000e+000 87293 -9.5159e+000 -1.3998e+002  3.1957e+001 46814 87339,87267,87195
 4.8000e+000 87316 -5.9622e+000 -1.3545e+002  3.8237e+000 46814 87469,87267,87117
 4.8000e+000 87365 -2.5612e+000 -1.3480e+002  3.7428e+001 46814 87169,87267,87339
 4.8000e+000 87495 -1.0572e+000 -1.2484e+001 -1.8949e+000 46814 87195,87267,87469
 4.8000e+000 88001 -5.6206e+001 -1.3279e+002  3.4029e+001 46310 88024,87834,87808
 4.8000e+000 87978 -6.9843e+001 -1.3603e+002  2.1034e+001 46310 88024,87808,87756
 4.8000e+000 87955 -3.6380e+001 -1.7653e+002  8.9601e+000 46310 88096,87730,87860
 4.8000e+000 87932 -5.0225e+001 -1.7541e+002  2.2073e+001 46310 87756,87808,87782
 4.8000e+000 87909 -4.7318e+001 -2.1013e+002  7.1690e+000 46310 87678,87860,87730
 4.8000e+000 87886 -7.4105e+001 -3.4673e+002 -1.8312e+001 46310 87678,87730,87704
 4.8000e+000 88050 -4.8095e+001 -1.1528e+002  2.0378e+001 46310 87860,87834,88024
 4.8000e+000 88073 -3.7357e+001 -1.2768e+002  2.4585e+001 46310 88096,87860,88024
 4.8000e+000 88122 -4.7753e+001 -1.9981e+002 -7.6970e+000 46310 87756,87730,88096
 4.8000e+000 88145 -7.8956e+001 -1.8043e+002  1.1030e+000 46310 87756,88096,88024
 4.8000e+000 88572 -3.6799e+001 -1.7630e+002  1.0155e+001 45856 88249,88405,88275
 4.8000e+000 88549 -3.2111e+001 -5.6596e+001 -3.5585e+001 45856 88249,88431,88405
 4.8000e+000 88526 -8.7692e+001 -2.4543e+002 -3.2542e+001 45856 88327,88405,88353
 4.8000e+000 88503 -3.9953e+001 -2.1282e+002 -1.4633e+001 45856 88275,88405,88327
 4.8000e+000 88480 -7.2766e+001 -2.1447e+002 -3.8115e+001 45856 88353,88405,88379
 4.8000e+000 88457 -1.6508e+002 -4.4941e+002  3.6697e+001 45856 88275,88327,88301
 4.8000e+000 88950 -2.8091e+001 -1.0203e+002 -2.7831e+000 45658 88973,88754,88728
 4.8000e+000 88927 -2.5679e+001 -1.0228e+002 -2.2333e+000 45658 88973,88728,88676
 4.8000e+000 88904 -3.0497e+001 -1.2294e+002  3.9799e+001 45658 88676,88832,88806
 4.8000e+000 88881 -4.8809e+001 -1.4748e+002  1.3352e+001 45658 88676,88728,88702
 4.8000e+000 88858 -4.1410e+001 -9.7779e+001 -2.1593e+001 45658 88754,88806,88780
 4.8000e+000 88999 -2.9924e+001 -1.0147e+002 -1.7647e+000 45658 88806,88754,88973
 4.8000e+000 89022 -2.7658e+001 -1.0170e+002 -1.6945e+000 45658 88806,88973,88676
 4.8000e+000 89351 -5.1164e+001 -1.7462e+002 -8.5782e+000 45254 89152,89230,89204
 4.8000e+000 89328 -4.7670e+001 -1.7322e+002 -8.8143e+000 45254 89152,89256,89230
 4.8000e+000 89305 -1.5556e+001 -1.8351e+002 -2.3163e+001 45254 89126,89256,89152
 4.8000e+000 89282  3.4675e+000 -1.7549e+002 -3.1898e+001 45254 89152,89204,89178
 4.8000e+000 89523 -2.2423e+001 -1.2944e+002  4.7118e-001 45006 89422,89474,89448
 4.8000e+000 89500 -1.6953e+001 -1.2713e+002  4.8406e+000 45006 89396,89474,89422
 4.8000e+000 89673 -1.4395e+002 -2.5188e+002  2.1554e+001 44495 89572,89624,89598
 4.8000e+000 89650 -1.4777e+002 -2.5251e+002  1.3602e+001 44495 89546,89624,89572
 4.8000e+000 90104 -1.4363e+001 -1.8669e+002 -9.7346e+000 44005 90199,90127,89937
 4.8000e+000 90081 -3.6486e+001 -1.8389e+002  2.6172e+000 44005 90271,90127,89859
 4.8000e+000 90058 -3.4254e+000 -1.9195e+002 -1.0286e+001 44005 90199,89937,89885
 4.8000e+000 90035 -5.1055e+001 -1.7454e+002  1.0896e+001 44005 90271,89859,89807
 4.8000e+000 90012 -2.7875e+001 -2.1107e+002 -2.4819e+001 44005 89885,89937,89911
 4.8000e+000 89989 -1.4329e+001 -1.8685e+002  3.1532e+001 44005 89807,89859,89833
 4.8000e+000 90153 -3.8418e+001 -1.9521e+002 -5.6098e+000 44005 89963,89937,90127
 4.8000e+000 90176 -4.1353e+001 -2.0891e+002  4.5009e+000 44005 89963,90127,89781
 4.8000e+000 90225 -4.0173e+001 -1.8555e+002 -3.5781e+000 44005 89859,90127,90199
 4.8000e+000 90248 -1.7385e+001 -1.8312e+002  4.2983e-001 44005 89859,90199,89885
 4.8000e+000 90297 -5.6158e+001 -1.9545e+002 -2.1644e+000 44005 89781,90127,90271
 4.8000e+000 90320 -6.4647e+001 -1.8290e+002  7.3654e+000 44005 89781,90271,89807
 4.8000e+000 90470 -3.0873e+001 -1.9977e+002 -5.9915e+000 43601 90493,90369,90343
 4.8000e+000 90447 -5.3309e+001 -1.6085e+002  1.3037e+001 43601 90493,90343,90421
 4.8000e+000 90519 -6.5353e+001 -2.7192e+002 -3.1176e+001 43601 90395,90369,90493
 4.8000e+000 90542 -5.1660e+001 -1.8950e+002 -6.9468e+000 43601 90395,90493,90421
 4.8000e+000 90922 -6.8172e+001 -2.1217e+002  1.3319e+001 43154 90945,90700,90674
 4.8000e+000 90899 -6.0052e+001 -2.1604e+002 -2.4250e+001 43154 90945,90674,90648
 4.8000e+000 90876 -7.3726e+001 -1.7083e+002 -1.5278e+001 43154 90648,90778,90752
 4.8000e+000 90853 -3.8238e+001 -3.4512e+002  9.8470e+000 43154 90700,90752,90726
 4.8000e+000 90830 -4.5623e+001 -1.7238e+002 -5.6691e+000 43154 90648,90804,90778
 4.8000e+000 90971 -7.8719e+001 -2.4495e+002  1.9955e+001 43154 90752,90700,90945
 4.8000e+000 90994 -6.8029e+001 -2.3587e+002 -1.6630e+001 43154 90752,90945,90648
 4.8000e+000 91451 -1.9568e+001 -1.6558e+002 -3.0680e+001 42650 91203,91255,91229
 4.8000e+000 91428  1.6491e+001 -1.4984e+002 -1.4698e+001 42650 91203,91333,91255
 4.8000e+000 91405 -1.4029e+000 -2.4141e+002 -4.1340e+001 42650 91177,91333,91203
 4.8000e+000 91382 -7.5039e+001 -2.5862e+002  3.3152e+001 42650 91255,91333,91281
 4.8000e+000 91359 -1.6783e+001 -2.1900e+002  1.3293e+001 42650 91281,91333,91307
 4.8000e+000 91721 -1.0905e+002 -2.4786e+002  1.7297e+001 42288 91496,91600,91522
 4.8000e+000 91698 -5.7957e+001 -1.4336e+002 -6.6679e+000 42288 91496,91626,91600
 4.8000e+000 91675 -6.8686e+001 -2.2393e+002  1.9413e+001 42288 91522,91574,91548
 4.8000e+000 91652 -5.6396e+001 -2.2746e+002  1.7950e+001 42288 91522,91600,91574
 4.8000e+000 92199 -1.6300e+002 -2.6871e+002 -6.6658e+000 41898 92222,91983,91879
 4.8000e+000 92176 -1.6686e+002 -2.9414e+002 -1.6756e+001 41898 92294,92222,91879
 4.8000e+000 92153 -1.7593e+002 -2.9024e+002 -2.3458e+001 41898 92294,91879,91853
 4.8000e+000 92130 -1.4225e+002 -1.6511e+002  1.8158e+001 41898 91879,91957,91931
 4.8000e+000 92107 -1.4626e+002 -2.6231e+002 -4.3611e-001 41898 91879,91983,91957
 4.8000e+000 92084 -1.5397e+002 -1.5261e+002  3.2894e+001 41898 91879,91931,91905
 4.8000e+000 92061 -1.5682e+002 -2.6159e+002 -1.8738e+001 41898 91827,92035,91853
 4.8000e+000 92248 -1.6059e+002 -3.0011e+002 -8.7067e-002 41898 92009,91983,92222
 4.8000e+000 92271 -1.5736e+002 -3.0621e+002 -2.2524e+001 41898 92009,92222,92035
 4.8000e+000 92320 -1.5156e+002 -2.8788e+002 -1.7970e+001 41898 92035,92222,92294
 4.8000e+000 92343 -1.5823e+002 -2.8276e+002 -2.4269e+001 41898 92035,92294,91853
 4.8000e+000 92770 -4.9110e+001 -2.3048e+002 -1.6844e+001 41437 92865,92793,92525
 4.8000e+000 92747 -7.0493e+001 -2.6960e+002 -2.3863e+001 41437 92793,92473,92629
 4.8000e+000 92724 -2.2154e+001 -2.3626e+002 -3.1339e+001 41437 92865,92525,92499
 4.8000e+000 92701 -7.8625e+001 -2.0879e+002 -3.7884e+001 41437 92525,92603,92577
 4.8000e+000 92678  1.5691e+000 -2.5994e+002 -2.0874e+001 41437 92447,92629,92473
 4.8000e+000 92655 -1.2252e+002 -1.8651e+002 -2.2557e+001 41437 92525,92577,92551
 4.8000e+000 92819 -5.6975e+001 -2.4841e+002 -3.7581e+001 41437 92603,92525,92793
 4.8000e+000 92842 -1.1094e+002 -2.6693e+002 -6.8343e+001 41437 92603,92793,92629
 4.8000e+000 92891  4.4493e+000 -2.5291e+002 -2.2471e+001 41437 92473,92793,92865
 4.8000e+000 92914  4.3941e+001 -2.4151e+002 -4.3835e+001 41437 92473,92865,92499
 4.8000e+000 93243 -3.9832e+001 -3.5464e+002  1.3010e+002 41097 93044,93096,93070
 4.8000e+000 93220 -7.0325e+001 -3.1282e+002  6.9178e+001 41097 93044,93122,93096
 4.8000e+000 93197  1.4964e+001 -2.0782e+002  2.7434e+001 41097 93044,93148,93122
 4.8000e+000 93174 -6.3465e+001 -1.6139e+002  6.3207e+001 41097 93018,93148,93044
 4.8000e+000 93393 -6.0176e+000 -2.6249e+002  1.7811e+001 40643 93416,93292,93344
 4.8000e+000 93370 -1.1589e+001 -2.4371e+002  1.9966e+001 40643 93266,93344,93292
 4.8000e+000 93442 -9.3619e+000 -2.5905e+002  2.4924e+001 40643 93318,93292,93416
 4.8000e+000 93901 -7.8478e+001 -2.3942e+002 -1.6766e+001 40132 93924,93731,93705
 4.8000e+000 93878 -8.1983e+001 -2.4681e+002 -1.8567e+001 40132 93996,93924,93705
 4.8000e+000 93855 -9.7012e+001 -2.8366e+002 -6.6146e+000 40132 93996,93705,93653
 4.8000e+000 93832 -4.0964e+001 -2.7372e+002 -1.5711e+001 40132 93653,93705,93679
 4.8000e+000 93809 -7.8341e+001 -2.3814e+002  1.8334e+000 40132 93627,93783,93757
 4.8000e+000 93950 -7.5510e+001 -2.5410e+002 -1.9848e+001 40132 93757,93731,93924
 4.8000e+000 93973 -8.5485e+001 -2.2635e+002 -5.3810e+000 40132 93757,93924,93627
 4.8000e+000 94022 -1.0956e+002 -2.7014e+002  7.9402e+000 40132 93627,93924,93996
 4.8000e+000 94045 -1.0158e+002 -2.8286e+002  1.6741e+001 40132 93627,93996,93653
 4.8000e+000 94423 -1.6226e+001 -2.8023e+002 -3.9679e+001 39514 94149,94227,94175
 4.8000e+000 94400 -2.8640e+001 -2.6422e+002  3.0205e+001 39514 94149,94305,94227
 4.8000e+000 94377  7.4625e+000 -3.3098e+002 -3.7974e+001 39514 94175,94227,94201
 4.8000e+000 94354 -8.2233e+001 -2.4653e+002  1.2998e+001 39514 94227,94305,94279
 4.8000e+000 94331 -3.4235e+001 -2.2418e+002  2.4377e+001 39514 94227,94279,94253
 4.8000e+000 94573 -2.1494e+001 -1.5849e+002 -3.2265e+001 38822 94596,94498,94472
 4.8000e+000 94550  3.1988e+001 -1.7042e+002  3.7453e+001 38822 94596,94472,94446
 4.8000e+000 94622 -8.3166e+001 -1.8481e+002 -3.3453e+001 38822 94524,94498,94596
 4.8000e+000 94645 -7.0850e+001 -2.1481e+002  4.3480e+001 38822 94524,94596,94446
 4.8000e+000 95025 -1.3495e+001 -2.0578e+002 -1.4929e+001 38418 95048,94829,94777
 4.8000e+000 95002 -2.0868e+001 -2.1764e+002 -2.5871e+001 38418 95120,95048,94777
 4.8000e+000 94979 -1.5547e+001 -2.1530e+002 -2.4097e+001 38418 95120,94777,94751
 4.8000e+000 94956 -1.1822e+001 -1.9303e+002 -2.8592e+001 38418 95192,94881,94855
 4.8000e+000 94933 -6.4242e+001 -1.8128e+002 -9.2096e+000 38418 94777,94829,94803
 4.8000e+000 95074 -3.6399e+001 -2.7392e+002 -5.7316e+000 38418 94855,94829,95048
 4.8000e+000 95097 -1.7283e+001 -2.1545e+002 -3.1281e+001 38418 95192,94855,95048
 4.8000e+000 95146 -3.8535e+001 -2.0720e+002 -2.0692e+001 38418 94907,95048,95120
 4.8000e+000 95169 -2.3863e+001 -1.9705e+002 -1.5625e+001 38418 94907,95120,94751
 4.8000e+000 95218 -1.8263e+001 -1.5115e+002 -2.5347e+001 38418 94907,94881,95192
 4.8000e+000 95241 -3.1522e+001 -1.8720e+002 -2.2125e+001 38418 94907,95192,95048
 4.8000e+000 95511 -6.8343e+001 -2.2139e+002  1.1562e+001 38049 95312,95390,95364
 4.8000e+000 95488 -4.5648e+001 -2.1148e+002  1.0244e+001 38049 95312,95416,95390
 4.8000e+000 95465 -2.1996e+001 -2.0992e+002 -1.2336e+001 38049 95312,95364,95338
 4.8000e+000 95442 -1.8892e+001 -1.9363e+002  1.9175e+001 38049 95286,95416,95312
 4.8000e+000 95808 -6.6226e+001 -2.5969e+002 -6.0984e+000 37437 95831,95586,95560
 4.8000e+000 95785  2.6174e+001 -2.7407e+002 -1.2007e+001 37437 95831,95560,95534
 4.8000e+000 95762 -1.3390e+002 -2.4912e+002  7.5410e+000 37437 95586,95664,95638
 4.8000e+000 95739 -2.0436e+001 -1.2660e+002 -6.7081e+001 37437 95534,95690,95664
 4.8000e+000 95716 -1.2472e+002 -1.8066e+002  7.0762e+000 37437 95586,95638,95612
 4.8000e+000 95857 -1.2577e+002 -2.5303e+002  3.1143e+001 37437 95664,95586,95831
 4.8000e+000 95880 -2.7927e+001 -2.6475e+002  2.6522e+001 37437 95664,95831,95534
 4.8000e+000 96390 -9.0032e+001 -1.9647e+002 -1.0967e+001 36883 96413,96145,96093
 4.8000e+000 96367 -7.4587e+001 -1.8855e+002 -5.6066e+000 36883 96413,96093,96067
 4.8000e+000 96344 -5.2889e+001 -2.2984e+002  2.0488e-001 36883 96067,96249,96171
 4.8000e+000 96321 -7.8667e+001 -2.2676e+002 -3.5259e+000 36883 96093,96145,96119
 4.8000e+000 96298 -1.1095e+002 -3.7725e+002  3.5126e+001 36883 96171,96249,96197
 4.8000e+000 96275 -3.0901e+001 -3.0178e+002 -4.8115e+000 36883 96197,96249,96223
 4.8000e+000 96439 -8.5063e+001 -1.8935e+002  2.6702e+000 36883 96171,96145,96413
 4.8000e+000 96462 -7.2650e+001 -1.8677e+002  6.7857e+000 36883 96171,96413,96067
 4.8000e+000 96781 -7.1728e+001 -2.2414e+002 -3.2271e+001 36215 96559,96663,96637
 4.8000e+000 96758 -8.9945e+001 -2.4298e+002 -4.0192e+001 36215 96507,96663,96559
 4.8000e+000 96735 -8.8127e+001 -1.6534e+002  1.6611e+001 36215 96585,96637,96611
 4.8000e+000 96712 -1.8613e+002 -2.5932e+002 -2.8012e+001 36215 96559,96637,96585
 4.8000e+000 96689 -3.5686e+001 -2.8075e+002 -8.6780e+000 36215 96507,96559,96533
 4.8000e+000 97161  4.1849e+000 -1.2142e+002 -6.0395e+000 35818 97184,96965,96939
 4.8000e+000 97138 -1.1564e+001 -1.4367e+002 -1.3451e+001 35818 97184,96939,96887
 4.8000e+000 97115 -5.0540e+000 -1.5408e+002  2.8185e+001 35818 96965,97043,97017
 4.8000e+000 97092 -5.4682e+000 -1.3724e+002 -1.6524e+001 35818 96887,96939,96913
 4.8000e+000 97069 -8.0006e+001 -1.5688e+002  1.7593e+001 35818 96965,97017,96991
 4.8000e+000 97210  2.1059e+001 -1.4043e+002  6.3735e+000 35818 97043,96965,97184
 4.8000e+000 97233  8.6817e+000 -1.5625e+002  4.8498e-001 35818 97043,97184,96887
 4.8000e+000 97739 -7.3835e+001 -2.2458e+002 -5.3308e+001 35214 97416,97468,97442
 4.8000e+000 97716 -8.7088e+001 -1.6125e+002 -1.6969e+001 35214 97416,97598,97468
 4.8000e+000 97693 -7.6404e+001 -1.5281e+002 -6.5981e+000 35214 97762,97520,97468
 4.8000e+000 97670 -7.9891e+001 -1.5745e+002 -1.3551e+001 35214 97762,97468,97598
 4.8000e+000 97647 -6.0508e+001 -1.5278e+002 -2.1877e+001 35214 97546,97598,97572
 4.8000e+000 97624 -4.6793e+001 -1.5829e+002 -9.0705e+000 35214 97468,97520,97494
 4.8000e+000 97788 -7.9060e+001 -1.6106e+002 -1.0326e+001 35214 97546,97520,97762
 4.8000e+000 97811 -8.0314e+001 -1.6462e+002 -1.6785e+001 35214 97546,97762,97598
 4.8000e+000 98189 -1.0736e+001 -1.1789e+002 -1.1792e+001 34760 98356,98212,97967
 4.8000e+000 98166 -2.5414e+001 -1.4255e+002 -2.3803e+001 34760 98284,98212,97941
 4.8000e+000 98143 -5.0580e+001 -1.2808e+002 -1.2313e+001 34760 98284,97941,97915
 4.8000e+000 98120 -1.4014e+001 -1.5993e+002 -5.6892e+000 34760 98484,97993,97967
 4.8000e+000 98097 -1.2265e+001 -1.3272e+002 -4.2743e+000 34760 98556,98045,98019
 4.8000e+000 98238 -2.1357e+001 -1.5002e+002 -5.9740e+000 34760 98484,97967,98212
 4.8000e+000 98261  7.0858e-001 -1.3797e+002 -1.0956e+001 34760 98556,98019,98212
 4.8000e+000 98310 -4.4775e+000 -1.1596e+002 -3.3443e+001 34760 98071,98212,98284
 4.8000e+000 98333 -2.0508e+001 -8.0076e+001 -2.6884e+001 34760 98071,98284,97915
 4.8000e+000 98382 -7.1830e+001 -1.5874e+002 -3.0295e+001 34760 97941,98212,98356
 4.8000e+000 98510 -2.6467e+000 -1.5126e+002 -9.8237e+000 34760 98019,97993,98484
 4.8000e+000 98533 -1.4357e+001 -1.4494e+002 -9.0068e+000 34760 98019,98484,98212
 4.8000e+000 98582  4.1403e+000 -1.2516e+002 -1.3143e+000 34760 98071,98045,98556
 4.8000e+000 98605  9.6255e+000 -1.3503e+002 -9.3541e+000 34760 98071,98556,98212
 4.8000e+000 99032 -8.8665e+001 -2.0403e+002  3.0311e+001 34156 98735,98891,98839
 4.8000e+000 99009 -7.3889e+001 -2.1076e+002  1.3412e+001 34156 98709,98891,98735
 4.8000e+000 98986 -2.5474e+001 -1.8126e+002  2.8345e+001 34156 98735,98813,98787
 4.8000e+000 98963 -3.0958e+001 -1.9872e+002  2.4065e+001 34156 98735,98839,98813
 4.8000e+000 98940  1.3100e+001 -2.7210e+002  3.2280e+001 34156 98735,98787,98761
 4.8000e+000 98917 -7.9579e+001 -1.8075e+002  1.9401e+001 34156 98839,98891,98865
 4.8000e+000 99231 -2.4074e+001 -1.0557e+002  9.3600e+000 33766 99055,99133,99107
 4.8000e+000 99208 -4.5600e+001 -1.4223e+002  1.9836e+001 33766 99055,99159,99133
 4.8000e+000 99185 -1.0971e+001 -1.2490e+002  2.4609e+001 33766 99055,99107,99081
 4.8000e+000 99818 -4.7520e+001 -1.4823e+002  3.2112e+000 33248 99521,99651,99573
 4.8000e+000 99795 -4.7393e+001 -1.4156e+002  1.4807e+001 33248 99521,99677,99651
 4.8000e+000 99772 -7.3750e+001 -1.8051e+002 -9.7943e+000 33248 99573,99651,99599
 4.8000e+000 99749 -5.0038e+001 -1.7712e+002  1.5921e+001 33248 99495,99677,99521
 4.8000e+000 99726 -3.2519e+001 -1.5501e+002 -3.7014e+001 33248 99599,99651,99625
 4.8000e+000 99703 -6.1020e+001 -1.7924e+002  1.0734e+001 33248 99521,99573,99547
 4.8000e+000 100196 -5.4239e+001 -1.6725e+002 -3.1607e+001 32794 100219,99948,99922
 4.8000e+000 100173 -6.3543e+001 -1.8687e+002 -1.5089e+001 32794 100219,99922,100052
 4.8000e+000 100150 -8.5554e+001 -1.7011e+002  1.0374e+001 32794 99974,100052,100026
 4.8000e+000 100127 -7.7517e+001 -1.5050e+002 -2.5046e+001 32794 99922,100078,100052
 4.8000e+000 100104 -8.8185e+001 -2.0573e+002  3.8888e+001 32794 99974,100026,100000
 4.8000e+000 100245 -7.2895e+001 -1.6382e+002 -1.2515e+001 32794 99974,99948,100219
 4.8000e+000 100268 -7.8757e+001 -1.9001e+002  4.1239e+000 32794 99974,100219,100052
 4.8000e+000 100418 -1.2269e+001 -1.5834e+002 -1.7074e+001 32504 100571,100343,100317
 4.8000e+000 100395 -6.4838e+001 -1.8219e+002  1.5977e+001 32504 100571,100317,100441
 4.8000e+000 100467  4.4303e+001 -8.7968e+001 -4.8055e+001 32504 100291,100369,100441
 4.8000e+000 100597  1.0889e+001 -1.3334e+002 -5.8360e+001 32504 100369,100343,100571
 4.8000e+000 100620 -1.2814e+001 -1.2469e+002 -2.9838e+001 32504 100369,100571,100441
 4.8000e+000 101020 -1.9833e+001 -1.2782e+002  4.8028e+000 32142 100772,100902,100876
 4.8000e+000 100997 -1.3581e+001 -1.1353e+002  7.1972e+000 32142 100746,100902,100772
 4.8000e+000 100974  4.0654e-001 -1.4080e+002  1.8032e+001 32142 101043,100824,100798
 4.8000e+000 100951 -2.3702e+001 -1.5214e+002  1.3328e+001 32142 101043,100798,100772
 4.8000e+000 100928 -8.0476e+001 -1.7879e+002 -4.4722e+001 32142 101115,100876,100850
 4.8000e+000 101069  2.7961e+001 -1.5504e+002 -1.5618e+001 32142 100850,100824,101043
 4.8000e+000 101092 -3.9163e+001 -1.8416e+002 -2.1221e+001 32142 101115,100850,101043
 4.8000e+000 101141 -2.9535e+001 -1.4968e+002 -1.6428e+001 32142 100772,100876,101115
 4.8000e+000 101164  2.4846e+000 -1.5336e+002  9.2012e+000 32142 100772,101115,101043
 4.8000e+000 101719 -8.8289e+001 -2.1152e+002  2.8380e+001 31538 101742,101477,101399
 4.8000e+000 101696 -1.0855e+002 -2.5666e+002  6.8303e+000 31538 101814,101742,101399
 4.8000e+000 101673 -1.2465e+002 -2.2063e+002 -1.7478e+001 31538 101814,101399,101373
 4.8000e+000 101650 -8.8813e+001 -1.5194e+002  1.9573e+001 31538 101425,101477,101451
 4.8000e+000 101627 -8.3133e+001 -1.7892e+002  5.1659e+000 31538 101399,101477,101425
 4.8000e+000 101604 -5.3338e+001 -2.5195e+002  5.2201e+001 31538 101477,101529,101503
 4.8000e+000 101581 -3.2936e+001 -1.4945e+002 -1.3994e+001 31538 101347,101555,101373
 4.8000e+000 101768 -1.0066e+002 -2.5904e+002  2.7778e+001 31538 101529,101477,101742
 4.8000e+000 101791 -8.7190e+001 -2.6573e+002 -8.9068e+000 31538 101529,101742,101555
 4.8000e+000 101840 -6.8051e+001 -2.2005e+002 -9.9481e+000 31538 101555,101742,101814
 4.8000e+000 101863 -9.1412e+001 -1.9067e+002 -3.2201e+001 31538 101555,101814,101373
 4.8000e+000 102111 -1.3195e+002 -3.3687e+002  4.3388e+001 31112 101886,101990,101912
 4.8000e+000 102088 -4.9508e+001 -2.0296e+002  2.4080e+000 31112 101886,102016,101990
 4.8000e+000 102065 -6.0330e+001 -3.2520e+002  6.4770e+001 31112 101912,101990,101964
 4.8000e+000 102042 -9.4671e+001 -4.0297e+002  7.6615e+001 31112 101912,101964,101938
 4.8000e+000 102408 -3.1561e+001 -2.0382e+002  1.6479e+001 30658 102431,102186,102160
 4.8000e+000 102385 -6.8223e+001 -2.0149e+002 -5.7524e-002 30658 102431,102160,102264
 4.8000e+000 102362 -6.5883e+001 -2.2084e+002  3.5240e+000 30658 102186,102238,102212
 4.8000e+000 102339 -7.3792e+001 -2.1374e+002 -1.3005e+001 30658 102134,102264,102160
 4.8000e+000 102316 -5.1899e+001 -1.7966e+002 -5.9172e+001 30658 102134,102290,102264
 4.8000e+000 102457 -6.2138e+001 -2.1511e+002  8.6065e+000 30658 102238,102186,102431
 4.8000e+000 102480 -1.0131e+002 -2.1631e+002 -9.4341e+000 30658 102238,102431,102264
 4.8000e+000 102681 -2.6125e+001 -2.4468e+002  3.6547e+001 30004 102704,102557,102505
 4.8000e+000 102658 -3.2287e+001 -2.4651e+002  3.7335e+001 30004 102704,102505,102609
 4.8000e+000 102635  5.4141e+000 -2.0788e+002  9.4558e+000 30004 102505,102557,102531
 4.8000e+000 102730 -3.1352e+001 -2.3796e+002  3.2901e+001 30004 102583,102557,102704
 4.8000e+000 102753 -4.5003e+001 -2.4423e+002  3.4711e+001 30004 102583,102704,102609
 4.8000e+000 103003 -2.8063e+001 -1.9736e+002 -1.5742e+001 29564 103026,102804,102778
 4.8000e+000 102980 -3.5578e+001 -2.3502e+002 -2.4456e+001 29564 103026,102778,102908
 4.8000e+000 102957 -3.7201e+001 -2.0014e+002 -2.9758e+000 29564 102856,102908,102882
 4.8000e+000 102934 -5.1021e+001 -1.7760e+002  1.2280e+001 29564 102804,102856,102830
 4.8000e+000 103052 -2.4705e+001 -1.7862e+002  9.7345e+000 29564 102856,102804,103026
 4.8000e+000 103075 -3.5398e+001 -2.0930e+002 -2.5006e+000 29564 102856,103026,102908
 4.8000e+000 103634 -8.8558e+001 -2.2230e+002 -2.7067e+001 29160 103657,103418,103392
 4.8000e+000 103611 -8.4286e+001 -2.1451e+002 -1.3309e+001 29160 103657,103392,103314
 4.8000e+000 103588 -6.1344e+001 -1.8476e+002 -2.3434e+001 29160 103314,103392,103366
 4.8000e+000 103565 -5.3400e+001 -1.9556e+002 -2.6993e+001 29160 103314,103366,103340
 4.8000e+000 103542 -1.0573e+002 -2.1129e+002 -2.4017e+001 29160 103262,103444,103314
 4.8000e+000 103519 -1.2627e+002 -2.5289e+002 -3.3467e+001 29160 103262,103314,103288
 4.8000e+000 103496 -8.1684e+001 -2.2998e+002 -1.0153e+001 29160 103262,103470,103444
 4.8000e+000 103683 -1.0944e+002 -2.3837e+002 -4.1925e+001 29160 103444,103418,103657
 4.8000e+000 103706 -9.2611e+001 -2.1357e+002 -2.6075e+001 29160 103444,103657,103314
 4.8000e+000 104035 -5.8208e+001 -2.1215e+002  2.0171e+001 28770 103836,103914,103862
 4.8000e+000 104012 -5.6522e+001 -2.0275e+002  2.6734e+001 28770 103810,103914,103836
 4.8000e+000 103989  1.3386e+001 -1.8427e+002  3.3467e+001 28770 103810,103940,103914
 4.8000e+000 103966 -1.2049e+001 -1.7000e+002  4.0813e+001 28770 103862,103914,103888
 4.8000e+000 104185 -2.1536e+001 -1.9394e+002  3.6609e+001 28366 104208,104110,104084
 4.8000e+000 104162 -1.9256e+001 -1.6530e+002  2.8844e+001 28366 104280,104208,104084
 4.8000e+000 104234  3.9301e+001 -1.9245e+002  2.3528e+001 28366 104610,104208,104136
 4.8000e+000 104257 -3.5943e+001 -1.8332e+002  2.3057e+001 28366 104538,104410,104208
 4.8000e+000 104306 -6.0485e+001 -1.8542e+002  2.2425e+001 28366 104538,104208,104280
 4.8000e+000 104436 -1.3288e+001 -1.9676e+002  3.2290e+000 28366 104136,104208,104410
 4.8000e+000 104564 -6.1739e+001 -1.8229e+002  9.9958e+000 28366 104058,104410,104538
 4.8000e+000 104587 -7.6837e+001 -1.7870e+002  7.6752e+000 28366 104058,104538,104280
 4.8000e+000 104636  2.8857e+001 -1.9575e+002  2.8903e+001 28366 104110,104208,104610
 4.8000e+000 105349 -4.7305e+001 -1.7659e+002 -1.8480e+001 27976 105516,105372,105107
 4.8000e+000 105326 -7.4092e+001 -1.7794e+002  4.4880e+000 27976 105588,105372,105055
 4.8000e+000 105303 -7.9574e+001 -1.7331e+002 -1.7996e+001 27976 105444,105159,105133
 4.8000e+000 105280 -2.7377e+001 -1.8300e+002 -1.1463e+001 27976 105516,105107,105081
 4.8000e+000 105257 -6.8539e+001 -1.9746e+002  1.7118e+001 27976 105588,105055,105029
 4.8000e+000 105234 -3.7174e+001 -1.5105e+002  2.3293e+000 27976 105003,105185,105159
 4.8000e+000 105211 -5.2154e+001 -1.2258e+002  2.2291e+001 27976 104977,105185,105003
 4.8000e+000 105398 -3.8101e+001 -1.7831e+002 -2.3508e+001 27976 105133,105107,105372
 4.8000e+000 105421 -6.3808e+001 -1.8549e+002 -1.0872e+001 27976 105444,105133,105372
 4.8000e+000 105470 -6.4835e+001 -1.5245e+002 -9.8488e+000 27976 105003,105159,105444
 4.8000e+000 105493 -5.3692e+001 -1.6656e+002 -6.3662e+000 27976 105003,105444,105372
 4.8000e+000 105542 -3.3996e+001 -1.7522e+002 -1.6989e+000 27976 105055,105372,105516
 4.8000e+000 105565 -3.9953e+000 -1.7759e+002  3.2155e+000 27976 105055,105516,105081
 4.8000e+000 105614 -8.5741e+001 -1.9717e+002  1.3820e+001 27976 105003,105372,105588
 4.8000e+000 105637 -8.3234e+001 -2.1640e+002  2.7604e+001 27976 105003,105588,105029
 4.8000e+000 106143 -8.1480e+001 -2.6436e+002  1.5962e+001 27664 106166,105846,105820
 4.8000e+000 106120 -5.6179e+001 -2.0028e+002  6.9614e+000 27664 106310,106166,105820
 4.8000e+000 106097 -2.6740e+001 -2.3615e+002 -4.9645e+001 27664 106382,106238,105950
 4.8000e+000 106074 -3.7224e+001 -1.9544e+002  6.6131e+000 27664 106310,105820,106002
 4.8000e+000 106051  1.7703e+001 -2.1330e+002 -4.1564e+001 27664 106382,105950,105924
 4.8000e+000 106028 -1.2131e+001 -3.7535e+002 -1.4015e+001 27664 105846,105898,105872
 4.8000e+000 106192 -7.2696e+001 -2.9434e+002 -3.8412e+001 27664 105898,105846,106166
 4.8000e+000 106215 -4.4181e+001 -2.4580e+002 -1.6049e+001 27664 106238,105898,106166
 4.8000e+000 106264 -1.3212e+002 -2.6405e+002 -6.4485e+001 27664 105976,105950,106238
 4.8000e+000 106287 -4.4970e+001 -2.4371e+002 -1.6600e+001 27664 105976,106238,106166
 4.8000e+000 106336 -3.6985e+001 -2.1307e+002  2.4960e+001 27664 105976,106166,106310
 4.8000e+000 106359 -1.5027e+001 -2.0658e+002  2.3838e+001 27664 105976,106310,106002
 4.8000e+000 106408 -4.7798e+001 -2.0180e+002  9.4409e-002 27664 105898,106238,106382
 4.8000e+000 106431 -2.0192e+001 -1.8898e+002  4.1548e+000 27664 105898,106382,105924
 4.8000e+000 106728 -2.1626e+001 -1.4240e+002  2.6122e+001 27153 106751,106506,106454
 4.8000e+000 106705 -2.0756e+001 -1.4436e+002  2.1771e+001 27153 106751,106454,106610
 4.8000e+000 106682 -3.6227e+001 -1.0683e+002  4.1241e+000 27153 106454,106506,106480
 4.8000e+000 106659 -3.2658e+001 -1.3924e+002  1.4651e+001 27153 106532,106610,106584
 4.8000e+000 106636 -5.5681e+001 -8.1810e+001  2.9922e+001 27153 106532,106584,106558
 4.8000e+000 106777 -1.5962e+001 -1.4027e+002  2.7366e+001 27153 106532,106506,106751
 4.8000e+000 106800 -1.6402e+001 -1.4280e+002  2.2261e+001 27153 106532,106751,106610
 4.8000e+000 107180 -2.6491e+001 -1.7166e+002  1.1344e+001 26642 107203,106984,106958
 4.8000e+000 107157 -8.7056e+001 -1.9935e+002  3.2331e+000 26642 107203,106958,106932
 4.8000e+000 107134 -1.0102e+002 -2.1766e+002 -3.2872e+001 26642 107275,107036,107010
 4.8000e+000 107111 -6.4319e+001 -2.1693e+002 -3.9694e+001 26642 106932,107062,107036
 4.8000e+000 107088 -2.3189e+000 -1.7072e+002  2.0722e+001 26642 106906,107062,106932
 4.8000e+000 107229  2.7402e+000 -1.6176e+002 -5.3090e+001 26642 107010,106984,107203
 4.8000e+000 107252 -8.9718e+001 -2.0278e+002 -3.9039e+001 26642 107275,107010,107203
 4.8000e+000 107301 -8.7373e+001 -2.1554e+002 -4.1107e+001 26642 106932,107036,107275
 4.8000e+000 107324 -8.3430e+001 -2.1592e+002 -4.3065e+001 26642 106932,107275,107203
 4.8000e+000 107675 -4.7183e+001 -1.3246e+002  1.3640e+001 26045 107450,107554,107476
 4.8000e+000 107652 -3.6655e+001 -1.1542e+002  4.1177e+000 26045 107450,107580,107554
 4.8000e+000 107629 -1.6263e+001 -1.1429e+002  4.1368e+000 26045 107476,107528,107502
 4.8000e+000 107606 -1.2310e+001 -1.2443e+002  7.6143e+000 26045 107476,107554,107528
 4.8000e+000 107874 -3.3540e+001 -1.9753e+002  4.9506e+001 25641 107750,107802,107776
 4.8000e+000 107851 -4.0978e+001 -1.3606e+002  2.7035e+001 25641 107724,107802,107750
 4.8000e+000 107828 -4.0959e+001 -1.3802e+002  2.4527e+001 25641 107698,107802,107724
 4.8000e+000 108431 -1.7366e+001 -2.1227e+002  3.7954e+001 25023 108526,108267,108241
 4.8000e+000 108408 -2.0528e-001 -2.0247e+002  6.8111e+000 25023 108059,108267,108085
 4.8000e+000 108385 -2.8909e+001 -2.1622e+002  3.8600e+001 25023 108454,108163,108111
 4.8000e+000 108362 -9.6605e+001 -2.1860e+002  6.3714e+001 25023 108454,108111,108085
 4.8000e+000 108339 -7.6872e+001 -2.8450e+002  6.7394e+001 25023 108111,108163,108137
 4.8000e+000 108316 -5.0571e+001 -1.5677e+002 -9.7166e+000 25023 108163,108241,108215
 4.8000e+000 108293  2.0589e+001 -1.2498e+002 -1.5918e+000 25023 108163,108215,108189
 4.8000e+000 108480 -6.0695e+000 -1.9350e+002  3.2422e+000 25023 108241,108163,108454
 4.8000e+000 108503 -3.1513e+001 -2.0635e+002  3.6564e+001 25023 108526,108241,108454
 4.8000e+000 108552 -3.4031e+001 -2.1446e+002  3.0131e+001 25023 108085,108267,108526
 4.8000e+000 108575 -4.9026e+001 -2.0953e+002  2.8378e+001 25023 108085,108526,108454
 4.8000e+000 108823  2.0121e+000 -1.5426e+002  2.2313e+001 24461 108624,108728,108650
 4.8000e+000 108800 -2.2263e+001 -3.2127e+002 -2.2391e+001 24461 108598,108728,108624
 4.8000e+000 108777  9.3061e-001 -2.0569e+002  1.6569e+001 24461 108650,108728,108676
 4.8000e+000 108754 -9.0658e+001 -5.8552e+002  5.0240e+001 24461 108676,108728,108702
 4.8000e+000 109022 -5.6107e+001 -1.5940e+002  2.2053e+001 24121 108872,108924,108898
 4.8000e+000 108999 -3.9051e+001 -1.5567e+002  2.5341e+001 24121 108846,108924,108872
 4.8000e+000 108976 -6.5532e+001 -1.6733e+002  2.7149e+001 24121 108846,108950,108924
 4.8000e+000 109483 -6.5951e+001 -2.1914e+002 -2.0834e+001 23717 109209,109339,109235
 4.8000e+000 109460 -2.5069e+001 -2.4943e+002 -5.0529e+001 23717 109209,109365,109339
 4.8000e+000 109437 -1.2059e+000 -2.8032e+002 -1.6943e+001 23717 109287,109339,109313
 4.8000e+000 109414 -1.2594e+002 -2.7949e+002  1.6916e+001 23717 109235,109339,109287
 4.8000e+000 109391  3.3439e+000 -3.2323e+002  1.1871e+002 23717 109235,109287,109261
 4.8000e+000 109910 -8.7975e+001 -2.5630e+002 -2.7338e+001 23305 109613,109743,109717
 4.8000e+000 109887 -8.6341e+001 -2.5776e+002 -1.5304e+001 23305 109613,109769,109743
 4.8000e+000 109864 -1.0461e+002 -2.4750e+002 -2.3857e+001 23305 109613,109717,109639
 4.8000e+000 109841 -6.7665e+001 -2.3786e+002 -6.2956e+000 23305 109587,109769,109613
 4.8000e+000 109818  1.7505e+000 -2.0220e+002  1.9008e+001 23305 109639,109717,109691
 4.8000e+000 109795 -2.2611e+001 -1.6251e+002 -3.7206e+001 23305 109639,109691,109665
 4.8000e+000 110180 -3.9654e+000 -7.2523e+001 -1.6671e+001 22851 110007,110059,110033
 4.8000e+000 110157 -5.0674e+001 -2.0005e+002  9.1831e+000 22851 109981,110059,110007
 4.8000e+000 110134 -7.2180e+001 -2.1647e+002  1.3523e+000 22851 109955,110059,109981
 4.8000e+000 110111 -2.8942e+001 -2.3850e+002 -1.8228e+001 22851 109955,110085,110059
 4.8000e+000 110737 -2.7764e+001 -2.2496e+002 -6.1774e+001 22333 110760,110469,110391
 4.8000e+000 110714 -6.4953e+000 -2.6134e+002 -4.7181e+001 22333 110760,110391,110365
 4.8000e+000 110691 -1.9163e+001 -2.0408e+002 -5.0456e+001 22333 110832,110521,110469
 4.8000e+000 110668 -4.9809e+001 -4.0872e+002  3.1880e+001 22333 110417,110469,110443
 4.8000e+000 110645 -1.0473e+002 -3.5609e+002  1.6477e+001 22333 110391,110469,110417
 4.8000e+000 110622 -3.1198e+000 -2.0656e+002 -2.4599e+001 22333 110469,110521,110495
 4.8000e+000 110599 -1.5926e+001 -1.4166e+002  1.7363e+001 22333 110365,110573,110547
 4.8000e+000 110786 -1.3936e+001 -2.0903e+002 -5.5908e+001 22333 110832,110469,110760
 4.8000e+000 110809  1.6733e+001 -2.2545e+002 -3.6992e+001 22333 110547,110760,110365
 4.8000e+000 110858 -1.7249e+001 -2.1546e+002 -4.9852e+001 22333 110547,110521,110832
 4.8000e+000 110881 -1.8007e+001 -2.2678e+002 -5.6944e+001 22333 110547,110832,110760
 4.8000e+000 111308 -1.1470e+002 -2.7447e+002  1.8197e+001 21829 111331,111063,111011
 4.8000e+000 111285 -1.0107e+002 -2.5236e+002 -4.9694e+000 21829 111331,111011,111167
 4.8000e+000 111262 -1.1834e+002 -2.7256e+002  1.9337e+001 21829 111403,111089,111063
 4.8000e+000 111239 -1.4601e+002 -2.9061e+002  4.2260e+001 21829 111011,111063,111037
 4.8000e+000 111216 -6.6079e+001 -1.8601e+002  9.3803e+000 21829 110985,111167,111011
 4.8000e+000 111193 -1.4029e+002 -4.5885e+002  1.0234e+002 21829 111089,111141,111115
 4.8000e+000 111357 -1.1414e+002 -2.7598e+002  1.9303e+001 21829 111403,111063,111331
 4.8000e+000 111380 -1.1805e+002 -2.8786e+002 -3.9993e-002 21829 111141,111331,111167
 4.8000e+000 111429 -1.2554e+002 -2.7772e+002  2.2635e+001 21829 111141,111089,111403
 4.8000e+000 111452 -1.1893e+002 -2.8188e+002  2.1496e+001 21829 111141,111403,111331
 4.8000e+000 112056  8.9524e+001 -2.0021e+002  3.9358e+000 21489 111687,111765,111739
 4.8000e+000 112033  2.5757e+001 -2.3088e+002  2.4204e+001 21489 112151,112079,111687
 4.8000e+000 112010  1.6623e+000 -3.6118e+002  2.1685e+001 21489 111791,111843,111817
 4.8000e+000 111987 -5.8747e+001 -2.8880e+002 -2.3285e+001 21489 112079,111843,111791
 4.8000e+000 111964  6.1589e+001 -2.1278e+002  4.5296e+001 21489 112151,111687,111661
 4.8000e+000 111941 -1.1923e+001 -1.5576e+002  3.6599e+001 21489 111661,111869,111843
 4.8000e+000 111918  8.9535e+001 -2.1865e+002  3.2891e+001 21489 111687,111739,111713
 4.8000e+000 111895  2.4201e+001 -7.1876e+001  1.0941e+001 21489 111635,111869,111661
 4.8000e+000 112105 -2.9785e+001 -2.5285e+002  1.3216e+001 21489 111765,111687,112079
 4.8000e+000 112128 -2.6687e+001 -2.3874e+002  1.3087e+001 21489 111765,112079,111791
 4.8000e+000 112177 -3.4599e+001 -2.2659e+002 -6.9078e+000 21489 111843,112079,112151
 4.8000e+000 112200 -1.9754e+000 -2.1936e+002  1.0204e+001 21489 111843,112151,111661
 4.8000e+000 112578 -4.6135e+001 -2.9115e+002  1.3600e+001 21177 112382,112434,112408
 4.8000e+000 112555 -5.9756e+001 -2.8841e+002  5.2580e-001 21177 112330,112434,112382
 4.8000e+000 112532 -4.2272e+001 -2.4331e+002  4.6780e+001 21177 112304,112434,112330
 4.8000e+000 112509 -5.9771e+001 -2.7548e+002  0.0000e+000 21177 112330,112382,112356
 4.8000e+000 112486 -1.2560e+001 -1.3974e+002  7.7076e+000 21177 112304,112460,112434
 4.8000e+000 112679 -2.7260e+000 -1.6251e+002 -3.6993e+001 20666 112601,112653,112627
 4.8000e+000 112927 -8.6674e+001 -2.8918e+002  1.0417e+001 19762 112702,112754,112728
 4.8000e+000 112904 -3.2627e+001 -2.7747e+002 -2.2339e+000 19762 112702,112832,112754
 4.8000e+000 112881 -7.3560e+001 -2.9905e+002  4.8008e+001 19762 112754,112832,112806
 4.8000e+000 112858 -1.0365e+002 -3.7769e+002  4.8203e+001 19762 112754,112806,112780
 4.8000e+000 113297 -7.9419e+001 -3.5261e+002  2.2723e+001 19308 112974,113052,113026
 4.8000e+000 113274 -5.3494e+001 -2.9484e+002  7.6822e+000 19308 112974,113156,113052
 4.8000e+000 113251 -2.8297e+001 -3.9057e+002 -4.7176e+001 19308 113052,113130,113104
 4.8000e+000 113228 -5.8283e+001 -2.9414e+002 -2.1825e-001 19308 113052,113156,113130
 4.8000e+000 113205 -5.5471e+001 -3.4026e+002  0.0000e+000 19308 113052,113104,113078
 4.8000e+000 113182 -1.1356e+002 -3.6707e+002 -1.4169e+000 19308 112974,113026,113000
 4.8000e+000 113547 -1.7041e+000 -3.1786e+002 -2.1766e+001 18711 113570,113374,113348
 4.8000e+000 113524 -1.1671e+001 -2.9077e+002 -1.2821e+001 18711 113570,113348,113452
 4.8000e+000 113501 -2.4238e+000 -2.1880e+002 -6.1742e+001 18711 113322,113452,113348
 4.8000e+000 113478 -2.9685e+001 -2.8628e+002 -1.0590e+002 18711 113374,113426,113400
 4.8000e+000 113596 -5.4908e-001 -2.8797e+002 -2.8519e+001 18711 113426,113374,113570
 4.8000e+000 113619 -1.2383e+001 -2.6508e+002 -1.3913e+001 18711 113426,113570,113452
 4.8000e+000 113771 -1.6179e+002 -4.0165e+002 -2.1495e+001 18307 113670,113722,113696
 4.8000e+000 113748 -1.2676e+002 -3.7767e+002 -1.0014e+001 18307 113644,113722,113670
 4.8000e+000 113972 -7.0454e+001 -3.3767e+002  6.9645e+000 17945 113822,113874,113848
 4.8000e+000 113949 -7.1382e+001 -3.3622e+002  8.0826e+000 17945 113822,113900,113874
 4.8000e+000 113926 -9.8675e+001 -2.6693e+002  1.4060e+002 17945 113796,113900,113822
 4.8000e+000 114075 -4.8156e+001 -4.9489e+002  5.3628e+001 17482 113997,114049,114023
 4.8000e+000 114479 -1.8199e+001 -2.7335e+002 -4.2330e+001 17042 114257,114361,114335
 4.8000e+000 114456 -6.4907e+001 -2.6472e+002 -6.5627e+000 17042 114205,114361,114257
 4.8000e+000 114433 -7.3865e+001 -3.0596e+002  1.1782e+001 17042 114205,114257,114231
 4.8000e+000 114410  6.1300e+001 -4.0536e+002 -2.5694e+001 17042 114283,114335,114309
 4.8000e+000 114387 -2.4952e+000 -3.5158e+002 -1.7847e+001 17042 114257,114335,114283
 4.8000e+000 114879 -1.5283e+002 -2.8021e+002 -3.3222e+000 16638 114631,114683,114657
 4.8000e+000 114856 -2.9864e+001 -2.2910e+002  3.2576e+000 16638 114605,114683,114631
 4.8000e+000 114833  3.7046e+001 -1.2716e+002 -3.0075e+001 16638 114605,114761,114683
 4.8000e+000 114810 -1.1647e+001 -3.1422e+002 -1.5450e+001 16638 114683,114735,114709
 4.8000e+000 114787 -2.6136e+001 -3.2784e+002 -2.2468e+001 16638 114683,114761,114735
 4.8000e+000 115078 -1.3412e+002 -3.0429e+002  7.8518e+000 16232 114954,115006,114980
 4.8000e+000 115055 -1.3451e+002 -3.3695e+002  1.5073e+001 16232 114928,115006,114954
 4.8000e+000 115032 -6.5146e+001 -4.1841e+002  2.8589e+001 16232 114902,115006,114928
 4.8000e+000 115228 -7.7326e+001 -3.0233e+002  9.6345e+000 15482 115101,115153,115127
 4.8000e+000 115205 -7.0569e+001 -2.8664e+002 -3.4015e+000 15482 115101,115179,115153
 4.8000e+000 115331 -5.9140e+001 -2.7859e+002 -3.6194e+001 15163 115253,115305,115279
 4.8000e+000 115434 -9.5862e+001 -3.0293e+002  5.2300e+001 421 115356,115408,115382
 4.9000e+000 68213 -2.0079e+001 -1.5779e+002 -1.5671e+001 67888 68112,68164,68138
 4.9000e+000 68190 -1.8924e+002 -2.0774e+002 -2.6680e+001 67888 68086,68164,68112
 4.9000e+000 68314 -2.3899e+001 -2.2305e+002  2.0813e+001 67576 68236,68288,68262
 4.9000e+000 68584 -8.2171e+001 -4.0960e+002  1.9910e+001 67378 68385,68489,68463
 4.9000e+000 68561 -3.2637e+001 -3.8499e+002  1.0124e+001 67378 68359,68489,68385
 4.9000e+000 68538 -6.1386e+001 -3.5167e+002  2.8769e+001 67378 68385,68463,68411
 4.9000e+000 68515 -3.1531e+001 -2.3193e+002  1.8043e+001 67378 68411,68463,68437
 4.9000e+000 68964 -9.2956e+001 -3.6673e+002  5.4041e+001 67130 68690,68820,68716
 4.9000e+000 68941  6.7682e+001 -3.7904e+002  1.0086e+002 67130 68690,68846,68820
 4.9000e+000 68918 -8.4408e+001 -2.4514e+002  6.1048e+000 67130 68742,68820,68794
 4.9000e+000 68895 -2.2102e+001 -2.4430e+002  2.2104e+001 67130 68716,68820,68742
 4.9000e+000 68872 -5.7365e+001 -2.0857e+002 -2.5476e+001 67130 68742,68794,68768
 4.9000e+000 69065 -7.4356e+001 -2.1615e+002  3.6579e+000 66926 68987,69039,69013
 4.9000e+000 69445 -4.1030e+001 -1.9774e+002 -1.0784e+001 66614 69223,69301,69275
 4.9000e+000 69422 -6.4064e+001 -2.1046e+002 -4.9071e+000 66614 69171,69301,69223
 4.9000e+000 69399 -7.0767e+001 -2.1225e+002 -1.6847e+000 66614 69171,69327,69301
 4.9000e+000 69376 -1.6608e+001 -9.6063e+001  1.5573e+000 66614 69223,69275,69249
 4.9000e+000 69353 -5.7020e+001 -2.2065e+002 -4.6982e+000 66614 69171,69223,69197
 4.9000e+000 69546 -6.9428e+001 -3.3268e+002  1.8656e+001 66416 69468,69520,69494
 4.9000e+000 69997 -6.3910e+001 -3.3685e+002 -2.5852e+001 66104 69700,69830,69726
 4.9000e+000 69974 -9.2415e+001 -4.1248e+002 -5.4462e+001 66104 69700,69856,69830
 4.9000e+000 69951 -6.7984e+001 -2.6065e+002 -1.8920e+001 66104 69726,69804,69778
 4.9000e+000 69928 -5.5335e+001 -3.1484e+002 -2.6392e+001 66104 69726,69830,69804
 4.9000e+000 69905 -7.1228e+001 -2.4907e+002 -9.7876e+000 66104 69726,69778,69752
 4.9000e+000 69882 -2.9559e+001 -5.6483e+002 -1.0374e+002 66104 69674,69856,69700
 4.9000e+000 70326 -6.0895e+001 -1.5600e+002  3.5834e+000 65814 70349,70153,70127
 4.9000e+000 70303 -3.7815e+001 -1.5287e+002  6.9735e+000 65814 70349,70127,70101
 4.9000e+000 70280 -3.2884e+001 -1.4274e+002  5.6375e+001 65814 70101,70231,70205
 4.9000e+000 70257  6.5551e+000 -1.7316e+002  1.9723e+001 65814 70153,70205,70179
 4.9000e+000 70375 -5.0261e+001 -1.6495e+002  2.2146e+001 65814 70205,70153,70349
 4.9000e+000 70398 -1.4760e+001 -1.5600e+002  2.2859e+001 65814 70205,70349,70101
 4.9000e+000 70904 -2.5936e+001 -8.5985e+001 -2.6537e+001 65502 70607,70737,70685
 4.9000e+000 70881 -3.6166e+001 -7.0283e+001 -3.4531e+001 65502 70581,70737,70607
 4.9000e+000 70858 -3.4449e+001 -2.1570e+001 -8.9101e+000 65502 70581,70763,70737
 4.9000e+000 70835 -3.9131e+001 -9.4273e+001 -3.6723e+001 65502 70685,70737,70711
 4.9000e+000 70812 -1.3526e+002 -1.1217e+002 -2.1545e+000 65502 70607,70659,70633
 4.9000e+000 70789 -4.3056e+001 -1.1717e+002  9.4239e-001 65502 70607,70685,70659
 4.9000e+000 71103 -3.7028e+001 -2.9287e+002 -8.8529e+000 65304 71126,70979,70953
 4.9000e+000 71080 -7.0148e+001 -2.9133e+002 -3.8029e+000 65304 71126,70953,70927
 4.9000e+000 71057 -9.8255e+001 -2.9607e+002  1.9435e+001 65304 70927,71031,71005
 4.9000e+000 71152 -6.9774e+001 -2.7770e+002 -1.8430e+001 65304 71005,70979,71126
 4.9000e+000 71175 -1.0696e+002 -2.8095e+002 -5.9510e+000 65304 71005,71126,70927
 4.9000e+000 71374 -4.3085e+001 -2.8229e+002  1.4136e+001 65106 71198,71276,71224
 4.9000e+000 71351 -8.4011e+001 -3.0174e+002  6.2386e+000 65106 71198,71302,71276
 4.9000e+000 71328 -2.6749e+001 -2.3870e+002  3.5066e+001 65106 71224,71276,71250
 4.9000e+000 71756 -3.6015e+001 -1.9935e+002 -1.2737e+001 64652 71508,71638,71534
 4.9000e+000 71733 -6.8217e-001 -1.8421e+002  1.6813e+000 64652 71482,71638,71508
 4.9000e+000 71710 -7.2031e+001 -1.9677e+002 -1.4788e+001 64652 71534,71586,71560
 4.9000e+000 71687 -6.1310e+001 -2.1464e+002 -3.2250e+001 64652 71534,71612,71586
 4.9000e+000 71664 -9.4686e+001 -2.2417e+002 -3.4271e+001 64652 71534,71638,71612
 4.9000e+000 72085 -8.8641e+001 -2.2175e+002 -2.7391e+001 64248 71886,71964,71912
 4.9000e+000 72062 -7.1395e+001 -2.1617e+002 -2.7397e+001 64248 71860,71964,71886
 4.9000e+000 72039 -3.7177e+001 -2.3615e+002 -1.8301e+001 64248 71912,71964,71938
 4.9000e+000 72016 -7.0105e+001 -2.0359e+002 -2.8873e+001 64248 71860,71990,71964
 4.9000e+000 72235 -6.0933e+000 -1.4305e+002 -1.9336e+001 63858 72588,72258,72134
 4.9000e+000 72212 -3.0628e+001 -1.2529e+002  4.7240e+000 63858 72330,72258,72108
 4.9000e+000 72284 -2.1346e+001 -1.0305e+002 -1.3530e+001 63858 72160,72134,72258
 4.9000e+000 72307 -7.5221e+001 -1.3855e+002 -2.2467e+001 63858 72460,72258,72186
 4.9000e+000 72356 -6.2142e+001 -1.3343e+002 -2.1818e+001 63858 72186,72258,72330
 4.9000e+000 72486 -2.7760e+001 -1.2781e+002 -2.2237e+001 63858 72160,72258,72460
 4.9000e+000 72614 -1.0238e+001 -1.5183e+002 -2.5527e-001 63858 72108,72258,72588
 4.9000e+000 73248 -4.5108e+001 -2.2433e+002  5.5416e+001 63404 72902,72954,72928
 4.9000e+000 73225 -1.1474e+002 -2.4016e+002  2.4343e+001 63404 73271,72954,72902
 4.9000e+000 73202 -1.0242e+002 -1.9949e+002  2.0828e+001 63404 73271,72902,73032
 4.9000e+000 73179 -6.5952e+001 -1.7329e+002  6.4356e+000 63404 72902,73058,73032
 4.9000e+000 73156 -8.5343e+001 -2.1904e+002  1.2498e+001 63404 72980,73032,73006
 4.9000e+000 73133 -6.0279e+001 -1.7748e+002  4.7534e+000 63404 72876,73058,72902
 4.9000e+000 73110 -2.3035e+001 -8.7960e+001 -4.5405e+001 63404 72876,73084,73058
 4.9000e+000 73297 -9.9124e+001 -2.4555e+002 -7.8429e-001 63404 72980,72954,73271
 4.9000e+000 73320 -9.7158e+001 -2.2379e+002 -5.5405e-001 63404 72980,73271,73032
 4.9000e+000 73470 -8.3593e+001 -5.4619e+002  5.7972e+001 63014 73343,73395,73369
 4.9000e+000 73447 -2.5733e+002 -6.6642e+002 -1.1866e+001 63014 73343,73421,73395
 4.9000e+000 73929 -2.8955e+000 -2.5195e+002  1.1480e+001 62702 73759,73811,73785
 4.9000e+000 73906  1.4062e+001 -2.4242e+002  1.7411e+001 62702 73655,73811,73759
 4.9000e+000 73883 -2.6664e+001 -2.7778e+002 -1.2162e+000 62702 73655,73759,73681
 4.9000e+000 73860  8.9077e+000 -2.0574e+002 -4.3825e+001 62702 73681,73759,73707
 4.9000e+000 73837 -1.1057e+002 -2.3994e+002  4.2342e+000 62702 73707,73759,73733
 4.9000e+000 74209 -1.4944e+002 -2.4185e+002  1.8416e+000 62404 74059,74137,74085
 4.9000e+000 74186 -1.7830e+002 -3.1342e+002  3.5898e+001 62404 74033,74137,74059
 4.9000e+000 74163 -1.5870e+002 -2.2419e+002  5.5715e-001 62404 74085,74137,74111
 4.9000e+000 74408 -9.7987e+000 -2.1032e+002  1.1101e+001 62000 74258,74336,74284
 4.9000e+000 74385 -4.8819e+000 -2.0418e+002  2.2508e+001 62000 74232,74336,74258
 4.9000e+000 74362 -5.0282e+001 -2.0971e+002 -2.8095e+000 62000 74284,74336,74310
 4.9000e+000 74509 -1.9658e+001 -2.3512e+002  1.8570e+001 61802 74431,74483,74457
 4.9000e+000 74759 -7.8262e+001 -2.1242e+002  2.9549e+000 61554 74782,74586,74560
 4.9000e+000 74736 -4.9705e+001 -1.9879e+002  7.3855e+000 61554 74782,74560,74664
 4.9000e+000 74713 -6.8238e+001 -1.6040e+002  5.4416e+001 61554 74854,74612,74586
 4.9000e+000 74690 -6.1657e+001 -2.1788e+002  1.7652e+000 61554 74534,74664,74560
 4.9000e+000 74808 -9.3175e+001 -1.9752e+002  1.5346e+001 61554 74854,74586,74782
 4.9000e+000 74831 -5.8569e+001 -2.5089e+002  1.3167e+001 61554 74638,74782,74664
 4.9000e+000 74880 -1.7687e+001 -1.9927e+002  5.9464e+001 61554 74638,74612,74854
 4.9000e+000 74903 -1.8913e+001 -1.9664e+002  3.0488e+001 61554 74638,74854,74782
 4.9000e+000 75285 -3.3924e+001 -2.1493e+002  2.1248e+000 61356 75063,75167,75115
 4.9000e+000 75262 -4.4719e+001 -2.2856e+002 -1.2157e+001 61356 75037,75167,75063
 4.9000e+000 75239  1.3263e+001 -2.2192e+002 -1.8336e+000 61356 75115,75167,75141
 4.9000e+000 75216 -1.1204e+001 -2.0191e+002  7.3863e+000 61356 75063,75115,75089
 4.9000e+000 75193 -9.6588e+001 -1.8250e+002  1.3824e+001 61356 75011,75167,75037
 4.9000e+000 75631 -1.5048e+001 -1.7367e+002  4.8279e+000 60952 75654,75412,75360
 4.9000e+000 75608 -3.2642e+001 -1.9913e+002 -5.3428e+000 60952 75654,75360,75334
 4.9000e+000 75585 -3.4410e+001 -2.5743e+002  1.3669e+001 60952 75726,75438,75412
 4.9000e+000 75562 -2.7778e+001 -2.0273e+002 -3.3013e+001 60952 75308,75490,75334
 4.9000e+000 75539 -1.8087e+001 -1.7339e+002  9.1991e-001 60952 75360,75412,75386
 4.9000e+000 75516 -4.9199e+001 -3.1010e+002 -1.0192e+001 60952 75438,75490,75464
 4.9000e+000 75680 -1.4306e+001 -2.1342e+002  5.0181e+000 60952 75726,75412,75654
 4.9000e+000 75703 -1.4332e+001 -2.0078e+002 -8.5374e+000 60952 75490,75654,75334
 4.9000e+000 75752 -1.4952e+001 -2.0641e+002 -1.1644e+000 60952 75490,75438,75726
 4.9000e+000 75775 -1.5885e+001 -2.0246e+002 -9.1834e+000 60952 75490,75726,75654
 4.9000e+000 76155 -3.5738e+001 -2.0555e+002  3.6623e-001 60754 75933,75985,75959
 4.9000e+000 76132 -5.6277e+001 -2.1814e+002  2.1442e+001 60754 75933,76037,75985
 4.9000e+000 76109  2.8441e+000 -2.1159e+002  6.1451e+000 60754 75985,76037,76011
 4.9000e+000 76086 -8.4774e+001 -1.8498e+002  5.5090e+000 60754 75881,76037,75933
 4.9000e+000 76063 -1.1865e+002 -1.6471e+002  4.7214e+001 60754 75881,75933,75907
 4.9000e+000 76612 -3.8355e+001 -1.9555e+002  8.1387e+000 60350 76635,76442,76390
 4.9000e+000 76589 -3.1712e+000 -2.2065e+002  1.5844e+001 60350 76635,76390,76364
 4.9000e+000 76566 -1.4161e+001 -2.8243e+002 -1.9637e+001 60350 76364,76494,76468
 4.9000e+000 76543 -3.4009e+000 -1.7813e+002  1.7451e+001 60350 76390,76442,76416
 4.9000e+000 76520 -1.0012e+002 -1.8238e+002 -4.4011e+001 60350 76338,76494,76364
 4.9000e+000 76661 -5.7599e+001 -2.1272e+002  1.5712e+001 60350 76468,76442,76635
 4.9000e+000 76684 -3.1838e+001 -2.4140e+002  2.5902e+001 60350 76468,76635,76364
 4.9000e+000 76932 -7.7681e+001 -2.3001e+002  2.2641e+000 59946 76955,76733,76707
 4.9000e+000 76909 -7.7863e+001 -2.2942e+002  6.5674e+000 59946 77027,76955,76707
 4.9000e+000 76886 -7.3541e+001 -2.3032e+002  5.0919e+000 59946 77027,76707,76837
 4.9000e+000 76863 -3.5125e+001 -2.5128e+002 -2.3959e+001 59946 76733,76785,76759
 4.9000e+000 76981 -8.8242e+001 -2.3088e+002 -2.6013e+000 59946 76785,76733,76955
 4.9000e+000 77004 -8.0201e+001 -2.2391e+002  3.9764e+000 59946 76785,76955,76811
 4.9000e+000 77053 -7.2100e+001 -2.2786e+002  6.6087e+000 59946 76811,76955,77027
 4.9000e+000 77076 -6.9121e+001 -2.2920e+002  4.4587e+000 59946 76811,77027,76837
 4.9000e+000 77226 -9.6503e+001 -2.4041e+002  5.7917e+000 59542 77099,77151,77125
 4.9000e+000 77203 -1.1916e+002 -2.8630e+002  1.3221e+001 59542 77099,77177,77151
 4.9000e+000 77427 -1.2183e+002 -2.4965e+002 -1.5493e+001 59030 77450,77277,77251
 4.9000e+000 77404 -7.5036e+001 -2.0013e+002 -6.7152e+001 59030 77450,77251,77355
 4.9000e+000 77381 -2.0203e+001 -2.9322e+002 -5.6591e+000 59030 77277,77329,77303
 4.9000e+000 77476 -6.5086e+001 -2.5983e+002 -4.6043e+001 59030 77329,77277,77450
 4.9000e+000 77499 -1.4800e+001 -2.3617e+002 -8.6737e+001 59030 77329,77450,77355
 4.9000e+000 77749 -9.9325e+001 -3.1078e+002  2.3478e+001 58426 77772,77628,77602
 4.9000e+000 77726 -6.6578e+001 -3.6936e+002  8.1066e+001 58426 77524,77654,77628
 4.9000e+000 77703 -8.2329e+001 -3.0721e+002  1.7082e+001 58426 77772,77602,77550
 4.9000e+000 77680 -4.9464e+001 -2.8867e+002 -1.2527e+001 58426 77550,77602,77576
 4.9000e+000 77798 -7.9471e+001 -3.1300e+002  2.2851e+001 58426 77524,77628,77772
 4.9000e+000 77821 -7.0468e+001 -3.1356e+002  1.4589e+001 58426 77524,77772,77550
 4.9000e+000 78071 -1.2962e+002 -2.8036e+002  2.9952e+001 57922 78094,77924,77898
 4.9000e+000 78048 -1.5047e+002 -2.8468e+002  4.2160e+000 57922 78094,77898,77872
 4.9000e+000 78025 -1.2303e+002 -2.5961e+002  2.8967e+001 57922 78166,77846,77950
 4.9000e+000 78002 -6.4947e+001 -2.5300e+002  3.2824e+001 57922 77846,77976,77950
 4.9000e+000 78120 -1.0881e+002 -2.8139e+002  2.1129e+001 57922 77950,77924,78094
 4.9000e+000 78143 -1.2447e+002 -2.6384e+002  2.1732e+001 57922 78166,77950,78094
 4.9000e+000 78192 -1.1763e+002 -2.7128e+002  2.2074e+001 57922 77872,77846,78166
 4.9000e+000 78215 -1.2539e+002 -2.8350e+002  1.4339e+001 57922 77872,78166,78094
 4.9000e+000 78416  2.3649e+001 -2.3758e+002 -1.1615e+001 57468 78439,78292,78240
 4.9000e+000 78393 -1.4144e+001 -2.2390e+002  7.0786e-001 57468 78439,78240,78344
 4.9000e+000 78370  7.8041e+000 -3.1974e+002 -8.2971e+000 57468 78240,78292,78266
 4.9000e+000 78465 -1.2869e+001 -2.5624e+002 -1.9862e+001 57468 78318,78292,78439
 4.9000e+000 78488 -2.8343e+001 -2.3364e+002 -3.8708e+000 57468 78318,78439,78344
 4.9000e+000 78689  2.5859e+001 -2.8759e+002 -3.4393e+001 57014 78712,78539,78513
 4.9000e+000 78666 -1.7001e+001 -2.8564e+002 -6.5835e+000 57014 78712,78513,78617
 4.9000e+000 78643 -6.3560e+001 -2.9116e+002  2.8236e+001 57014 78565,78617,78591
 4.9000e+000 78738 -2.9222e+001 -2.4109e+002 -3.4525e+001 57014 78565,78539,78712
 4.9000e+000 78761 -9.2712e+001 -2.7780e+002  1.0721e+001 57014 78565,78712,78617
 4.9000e+000 79241 -9.3214e+001 -2.5556e+002  2.0635e+001 56652 79264,78895,78869
 4.9000e+000 79218 -4.3780e+001 -3.3338e+002 -1.9478e+001 56652 79264,78869,79051
 4.9000e+000 79195 -6.7614e+001 -2.9207e+002 -6.7184e+001 56652 78869,79077,79051
 4.9000e+000 79172 -7.3216e+001 -1.6836e+002 -3.8814e+001 56652 78895,78973,78947
 4.9000e+000 79149 -1.2090e+002 -4.9221e+002 -4.0322e+001 56652 78973,79051,78999
 4.9000e+000 79126 -6.3960e+001 -1.6062e+002 -4.2442e+001 56652 78895,78947,78921
 4.9000e+000 79103 -9.8427e+001 -3.3444e+002  7.8605e+001 56652 78999,79051,79025
 4.9000e+000 79290 -5.5537e+001 -2.0658e+002  4.7695e+001 56652 78973,78895,79264
 4.9000e+000 79313 -2.6233e+000 -2.8991e+002  1.0213e+001 56652 78973,79264,79051
 4.9000e+000 79512 -3.0828e+001 -3.7101e+002  3.0513e+001 56062 79388,79440,79414
 4.9000e+000 79489 -1.4256e+002 -1.9191e+002  4.9760e+001 56062 79336,79440,79388
 4.9000e+000 79466 -5.6376e+001 -2.2200e+002  6.5478e+001 56062 79336,79388,79362
 4.9000e+000 79941 -4.1282e+001 -2.0337e+002  3.2833e+001 55658 79964,79670,79644
 4.9000e+000 79918 -6.2770e+001 -2.0559e+002  3.6705e+001 55658 79964,79644,79800
 4.9000e+000 79895 -5.8664e+001 -2.1873e+002  1.9167e+001 55658 80036,79696,79670
 4.9000e+000 79872 -6.8980e+001 -1.8745e+002 -1.4556e+000 55658 80108,79722,79696
 4.9000e+000 79849 -1.0143e+002 -1.8643e+002  1.0967e+001 55658 79722,79774,79748
 4.9000e+000 79826 -5.5962e-001 -1.8386e+002  8.0017e+000 55658 79618,79800,79644
 4.9000e+000 79990 -6.4823e+001 -2.2030e+002  2.4789e+001 55658 80036,79670,79964
 4.9000e+000 80013 -5.7335e+001 -1.9232e+002  3.8722e+001 55658 79774,79964,79800
 4.9000e+000 80062 -5.0202e+001 -2.0031e+002  1.6186e+001 55658 80108,79696,80036
 4.9000e+000 80085 -6.3996e+001 -1.9449e+002  3.4294e+001 55658 79774,80036,79964
 4.9000e+000 80134 -1.0546e+002 -2.0058e+002  6.1055e+000 55658 79774,79722,80108
 4.9000e+000 80157 -9.4888e+001 -2.1849e+002  2.3538e+001 55658 79774,80108,80036
 4.9000e+000 80307 -1.1483e+002 -1.9838e+002  2.3372e+001 55254 80402,80330,80206
 4.9000e+000 80284 -1.1126e+002 -2.7176e+002  2.4657e+001 55254 80330,80180,80258
 4.9000e+000 80356 -1.3480e+002 -2.4383e+002  5.0363e+001 55254 80232,80206,80330
 4.9000e+000 80379 -3.9701e+001 -2.0100e+002  7.2557e+001 55254 80232,80330,80258
 4.9000e+000 80428 -1.5421e+002 -2.4397e+002  4.8362e+000 55254 80180,80330,80402
 4.9000e+000 80659 -5.5064e+001 -2.8572e+002 -2.2832e+001 54850 80558,80610,80584
 4.9000e+000 80636 -2.3815e-001 -2.7282e+002 -2.8835e+001 54850 80532,80610,80558
 4.9000e+000 80760 -2.0576e+001 -2.0064e+002 -1.5978e+001 54652 80682,80734,80708
 4.9000e+000 81164 -1.6843e+001 -2.1380e+002 -4.2613e+000 54248 81187,80942,80890
 4.9000e+000 81141 -2.0249e+001 -2.1716e+002 -2.8489e+000 54248 81187,80890,81046
 4.9000e+000 81118 -2.1865e+001 -2.2368e+002  4.6748e+001 54248 80942,81020,80994
 4.9000e+000 81095 -1.4247e+001 -2.1637e+002  2.3935e+000 54248 80890,80942,80916
 4.9000e+000 81072 -2.9995e+001 -1.2265e+002  6.5473e+000 54248 80942,80994,80968
 4.9000e+000 81213 -2.0763e+001 -2.1098e+002 -3.7633e+000 54248 81020,80942,81187
 4.9000e+000 81236 -2.3159e+001 -2.1302e+002 -2.8433e+000 54248 81020,81187,81046
 4.9000e+000 81663 -1.2045e+002 -2.2719e+002  2.0193e+001 53594 81340,81444,81366
 4.9000e+000 81640 -1.1397e+002 -3.2755e+002  9.1969e+000 53594 81340,81470,81444
 4.9000e+000 81617 -4.7419e+001 -2.8725e+002 -2.1240e+001 53594 81340,81522,81470
 4.9000e+000 81594 -6.5597e+001 -1.6578e+002 -1.8330e+001 53594 81392,81444,81418
 4.9000e+000 81571 -8.7446e+001 -1.9604e+002 -2.8488e+001 53594 81366,81444,81392
 4.9000e+000 81548  6.7285e+000 -4.2141e+002  7.1178e+001 53594 81470,81522,81496
 4.9000e+000 81943 -3.0323e+001 -1.5493e+002 -1.9336e+001 53104 81966,81845,81819
 4.9000e+000 81920 -4.5018e+001 -1.2800e+002 -2.3738e+001 53104 81966,81819,81767
 4.9000e+000 81897 -4.6144e+001 -1.2965e+002 -2.5066e+001 53104 81767,81819,81793
 4.9000e+000 81992 -2.0411e+001 -1.3761e+002 -2.3336e+001 53104 81871,81845,81966
 4.9000e+000 82015 -2.7681e+001 -9.9826e+001 -3.1260e+001 53104 81871,81966,81767
 4.9000e+000 82491 -2.9940e+001 -1.5783e+002 -1.3993e+001 52650 82145,82249,82171
 4.9000e+000 82468 -1.2957e+002 -1.8471e+002 -2.2182e+001 52650 82145,82301,82249
 4.9000e+000 82445 -1.3559e+002 -2.8082e+002 -4.9021e+001 52650 82249,82301,82275
 4.9000e+000 82422 -6.3587e+001 -3.5344e+002 -6.4260e+001 52650 82119,82301,82145
 4.9000e+000 82399 -4.2612e+001 -1.2642e+002  1.5390e+001 52650 82171,82249,82223
 4.9000e+000 82376  1.3161e+001 -3.2382e+002 -4.4376e+001 52650 82119,82327,82301
 4.9000e+000 82353 -1.1327e+001 -6.4302e+001 -2.6213e+001 52650 82171,82223,82197
 4.9000e+000 82739 -3.8906e+001 -1.4665e+002  2.2408e+000 52246 82762,82540,82514
 4.9000e+000 82716 -2.5060e+001 -5.9726e+001 -1.1742e+001 52246 82762,82514,82644
 4.9000e+000 82693 -7.0928e+001 -1.6782e+002  3.5485e+001 52246 82540,82618,82592
 4.9000e+000 82670 -8.0252e+001 -1.5947e+002  2.8614e+001 52246 82540,82592,82566
 4.9000e+000 82788 -2.4685e+001 -1.8791e+002  1.0711e+001 52246 82618,82540,82762
 4.9000e+000 82811 -4.7804e+001 -1.6044e+002 -1.4094e+001 52246 82618,82762,82644
 4.9000e+000 83059 -2.3549e+001 -2.0996e+002  2.0287e+001 51578 82860,82964,82938
 4.9000e+000 83036 -1.6216e+000 -1.4134e+002 -4.5299e+001 51578 82834,82964,82860
 4.9000e+000 83013 -9.7850e+000 -1.6272e+002  4.3179e+001 51578 82860,82938,82886
 4.9000e+000 82990 -7.5197e+000 -1.0339e+002  7.4249e+000 51578 82886,82938,82912
 4.9000e+000 83309 -3.7878e+001 -1.1784e+002  3.3735e+001 51138 83332,83162,83136
 4.9000e+000 83286 -1.4093e+001 -1.5420e+002  1.0935e+001 51138 83332,83136,83110
 4.9000e+000 83263 -5.8408e+001 -1.5916e+002 -8.7387e+000 51138 83404,83214,83188
 4.9000e+000 83240 -1.1978e+000 -9.6828e+001  9.2792e+000 51138 83084,83214,83110
 4.9000e+000 83358 -6.2536e+001 -1.6330e+002  4.4755e+001 51138 83188,83162,83332
 4.9000e+000 83381 -4.0646e+001 -1.7698e+002  7.9463e+000 51138 83404,83188,83332
 4.9000e+000 83430 -3.6608e+001 -1.1449e+002 -8.6580e-001 51138 83110,83214,83404
 4.9000e+000 83453 -2.2041e+001 -1.4214e+002  1.5167e+001 51138 83110,83404,83332
 4.9000e+000 83835 -3.6013e+001 -1.9884e+002 -1.0471e+000 50734 83613,83717,83691
 4.9000e+000 83812 -4.0293e+001 -2.1428e+002 -4.2814e+001 50734 83561,83717,83613
 4.9000e+000 83789 -2.0659e+001 -1.1112e+002 -6.1726e+001 50734 83561,83613,83587
 4.9000e+000 83766 -7.6461e+001 -1.3485e+002  2.1840e-001 50734 83613,83691,83639
 4.9000e+000 83743 -8.0983e+001 -1.3595e+002  2.8933e+001 50734 83639,83691,83665
 4.9000e+000 84034 -4.9948e+001 -1.2428e+002  7.3380e+000 50230 84057,83884,83858
 4.9000e+000 84011 -5.0207e+001 -1.3638e+002 -1.1973e+001 50230 84129,84057,83858
 4.9000e+000 83988 -1.5732e+001 -1.4690e+002 -2.0527e+001 50230 84129,83858,83962
 4.9000e+000 84083 -2.1985e+001 -1.1355e+002  9.6034e+000 50230 83910,83884,84057
 4.9000e+000 84106 -3.1262e+001 -1.2725e+002  3.8518e+000 50230 83910,84057,83936
 4.9000e+000 84155 -5.5483e+000 -1.1459e+002 -1.4938e+000 50230 83936,84057,84129
 4.9000e+000 84178  7.4217e+000 -1.4040e+002 -1.5232e+001 50230 83936,84129,83962
 4.9000e+000 84558 -5.4986e+001 -1.6528e+002 -2.6973e+001 49768 84581,84388,84362
 4.9000e+000 84535 -1.1372e+002 -1.6781e+002 -1.0730e+001 49768 84581,84362,84310
 4.9000e+000 84512  3.6729e+000 -1.8084e+002 -2.9207e+001 49768 84653,84440,84414
 4.9000e+000 84489 -8.9231e+001 -1.8279e+002  1.3146e+001 49768 84310,84362,84336
 4.9000e+000 84466 -3.1116e+000 -1.3081e+002  2.0522e+001 49768 84284,84440,84310
 4.9000e+000 84607 -1.4079e+001 -1.3974e+002 -4.5925e+001 49768 84414,84388,84581
 4.9000e+000 84630 -1.9743e+001 -1.6988e+002 -2.0774e+001 49768 84653,84414,84581
 4.9000e+000 84679 -2.7826e+001 -1.7062e+002 -3.9806e+001 49768 84310,84440,84653
 4.9000e+000 84702 -6.1265e+001 -1.7092e+002 -4.0448e+001 49768 84310,84653,84581
 4.9000e+000 85159 -8.9667e+001 -2.3288e+002 -6.5956e+001 49192 84885,84937,84911
 4.9000e+000 85136 -8.9084e+001 -1.8381e+002 -4.7701e+001 49192 84885,85041,84937
 4.9000e+000 85113 -6.2325e+001 -1.5702e+002 -2.2646e+001 49192 84963,85041,84989
 4.9000e+000 85090 -5.3707e+001 -1.4108e+002 -3.1771e+001 49192 84937,85041,84963
 4.9000e+000 85067 -4.9715e+001 -1.5242e+002 -2.3347e+001 49192 84989,85041,85015
 4.9000e+000 85714 -9.3131e+001 -1.5441e+002 -6.4229e-001 48638 85368,85498,85394
 4.9000e+000 85691 -1.1559e+002 -1.8025e+002  9.2288e+000 48638 85368,85524,85498
 4.9000e+000 85668 -1.0584e+002 -1.4899e+002  4.0265e+001 48638 85737,85420,85394
 4.9000e+000 85645 -8.9126e+001 -1.6926e+002  2.0958e+001 48638 85737,85394,85498
 4.9000e+000 85622 -7.0886e+001 -1.7207e+002  3.4565e+001 48638 85446,85498,85472
 4.9000e+000 85599 -2.9709e+001 -1.4742e+002  1.6561e+001 48638 85342,85524,85368
 4.9000e+000 85576 -1.1326e+002 -1.6606e+002  1.5777e+001 48638 85342,85550,85524
 4.9000e+000 85763 -7.5914e+001 -1.3302e+002  5.3034e+001 48638 85446,85420,85737
 4.9000e+000 85786 -7.6883e+001 -1.5345e+002  3.0904e+001 48638 85446,85737,85498
 4.9000e+000 86371 -7.8182e+001 -1.1522e+002 -6.6462e+000 48084 86100,86230,86178
 4.9000e+000 86348 -9.7462e+001 -1.4879e+002 -1.6541e+001 48084 86048,86230,86100
 4.9000e+000 86325 -7.6165e+001 -1.0633e+002  2.8842e+001 48084 86100,86178,86126
 4.9000e+000 86302 -5.0271e+001 -3.7575e+001 -3.0336e+001 48084 86048,86100,86074
 4.9000e+000 86279 -1.0005e+002 -1.8678e+002 -2.7276e+000 48084 86178,86230,86204
 4.9000e+000 86256 -6.8827e+001 -1.1844e+002  2.8275e+001 48084 86126,86178,86152
 4.9000e+000 86619 -5.6635e+001 -1.2727e+002  1.2375e+001 47630 86642,86446,86420
 4.9000e+000 86596 -6.9122e+001 -1.4232e+002 -1.6026e+001 47630 86642,86420,86394
 4.9000e+000 86573 -8.9880e+001 -1.6595e+002 -2.3828e+001 47630 86394,86524,86498
 4.9000e+000 86550 -3.7218e+001 -1.4489e+002  1.0955e+001 47630 86446,86498,86472
 4.9000e+000 86668 -7.1234e+001 -1.5966e+002  1.2675e+000 47630 86498,86446,86642
 4.9000e+000 86691 -7.7866e+001 -1.6478e+002 -2.6549e+001 47630 86498,86642,86394
 4.9000e+000 87022 -7.0423e+000 -9.2614e+001 -5.3126e+001 47226 87045,86875,86849
 4.9000e+000 86999 -2.7833e+000 -1.0421e+002 -5.0094e+001 47226 87045,86849,86797
 4.9000e+000 86976  3.8216e-001 -4.8296e+001 -1.3083e+001 47226 86797,86849,86823
 4.9000e+000 86953  2.8094e+000 -6.6363e+001 -2.8135e+001 47226 86875,86927,86901
 4.9000e+000 87071 -1.3928e+001 -1.0101e+002 -5.0158e+001 47226 86927,86875,87045
 4.9000e+000 87094 -6.5778e+000 -1.0893e+002 -4.8417e+001 47226 86927,87045,86797
 4.9000e+000 87244 -1.0114e+001 -1.8140e+002  4.8216e+001 46814 87267,87169,87143
 4.9000e+000 87221 -8.5933e+001 -1.6464e+002 -9.8111e+000 46814 87267,87143,87117
 4.9000e+000 87293 -1.0002e+001 -1.3497e+002  2.9775e+001 46814 87339,87267,87195
 4.9000e+000 87316 -4.2922e+000 -1.2971e+002  3.2185e+000 46814 87469,87267,87117
 4.9000e+000 87365  1.0891e+000 -1.2801e+002  3.5422e+001 46814 87169,87267,87339
 4.9000e+000 87495 -3.4730e-001 -1.0425e+001 -2.0808e+000 46814 87195,87267,87469
 4.9000e+000 88001 -5.4689e+001 -1.2657e+002  3.3102e+001 46310 88024,87834,87808
 4.9000e+000 87978 -6.7573e+001 -1.2945e+002  1.9816e+001 46310 88024,87808,87756
 4.9000e+000 87955 -3.5947e+001 -1.6859e+002  8.7664e+000 46310 88096,87730,87860
 4.9000e+000 87932 -4.8330e+001 -1.6729e+002  2.0962e+001 46310 87756,87808,87782
 4.9000e+000 87909 -4.5647e+001 -2.0059e+002  7.5765e+000 46310 87678,87860,87730
 4.9000e+000 87886 -6.8912e+001 -3.2744e+002 -1.7955e+001 46310 87678,87730,87704
 4.9000e+000 88050 -4.7816e+001 -1.1188e+002  2.0443e+001 46310 87860,87834,88024
 4.9000e+000 88073 -3.6867e+001 -1.2178e+002  2.3706e+001 46310 88096,87860,88024
 4.9000e+000 88122 -4.6762e+001 -1.9088e+002 -7.1869e+000 46310 87756,87730,88096
 4.9000e+000 88145 -7.6633e+001 -1.7231e+002  1.2205e+000 46310 87756,88096,88024
 4.9000e+000 88572 -3.5758e+001 -1.6817e+002  1.0285e+001 45856 88249,88405,88275
 4.9000e+000 88549 -3.0815e+001 -5.3223e+001 -3.3658e+001 45856 88249,88431,88405
 4.9000e+000 88526 -8.4346e+001 -2.3510e+002 -3.1224e+001 45856 88327,88405,88353
 4.9000e+000 88503 -3.8218e+001 -2.0368e+002 -1.3932e+001 45856 88275,88405,88327
 4.9000e+000 88480 -6.9928e+001 -2.0556e+002 -3.7018e+001 45856 88353,88405,88379
 4.9000e+000 88457 -1.5848e+002 -4.3025e+002  3.5436e+001 45856 88275,88327,88301
 4.9000e+000 88950 -2.7588e+001 -1.0029e+002 -1.6413e+000 45658 88973,88754,88728
 4.9000e+000 88927 -2.5321e+001 -9.9786e+001 -1.0082e+000 45658 88973,88728,88676
 4.9000e+000 88904 -2.9672e+001 -1.1883e+002  3.8742e+001 45658 88676,88832,88806
 4.9000e+000 88881 -4.7103e+001 -1.4311e+002  1.2393e+001 45658 88676,88728,88702
 4.9000e+000 88858 -4.0943e+001 -9.5566e+001 -2.0716e+001 45658 88754,88806,88780
 4.9000e+000 88999 -2.9278e+001 -9.9145e+001 -6.5987e-001 45658 88806,88754,88973
 4.9000e+000 89022 -2.7406e+001 -9.8947e+001 -4.6628e-001 45658 88806,88973,88676
 4.9000e+000 89351 -4.9369e+001 -1.6722e+002 -8.0665e+000 45254 89152,89230,89204
 4.9000e+000 89328 -4.5700e+001 -1.6581e+002 -8.5069e+000 45254 89152,89256,89230
 4.9000e+000 89305 -1.5949e+001 -1.7593e+002 -2.2245e+001 45254 89126,89256,89152
 4.9000e+000 89282  2.1395e+000 -1.6821e+002 -3.0064e+001 45254 89152,89204,89178
 4.9000e+000 89523 -2.0248e+001 -1.2199e+002  1.3058e+000 45006 89422,89474,89448
 4.9000e+000 89500 -1.5696e+001 -1.2007e+002  4.9398e+000 45006 89396,89474,89422
 4.9000e+000 89673 -1.3645e+002 -2.4087e+002  2.0549e+001 44495 89572,89624,89598
 4.9000e+000 89650 -1.4017e+002 -2.4157e+002  1.2893e+001 44495 89546,89624,89572
 4.9000e+000 90104 -1.3519e+001 -1.7790e+002 -9.5601e+000 44005 90199,90127,89937
 4.9000e+000 90081 -3.4362e+001 -1.7478e+002  2.5759e+000 44005 90271,90127,89859
 4.9000e+000 90058 -3.3591e+000 -1.8276e+002 -1.0064e+001 44005 90199,89937,89885
 4.9000e+000 90035 -4.8438e+001 -1.6536e+002  1.0598e+001 44005 90271,89859,89807
 4.9000e+000 90012 -2.7372e+001 -2.0193e+002 -2.4258e+001 44005 89885,89937,89911
 4.9000e+000 89989 -1.4184e+001 -1.7684e+002  2.9836e+001 44005 89807,89859,89833
 4.9000e+000 90153 -3.6772e+001 -1.8627e+002 -5.9758e+000 44005 89963,89937,90127
 4.9000e+000 90176 -3.9378e+001 -1.9918e+002  4.1066e+000 44005 89963,90127,89781
 4.9000e+000 90225 -3.8157e+001 -1.7659e+002 -3.7170e+000 44005 89859,90127,90199
 4.9000e+000 90248 -1.6595e+001 -1.7398e+002  1.5410e-001 44005 89859,90199,89885
 4.9000e+000 90297 -5.3386e+001 -1.8626e+002 -2.2864e+000 44005 89781,90127,90271
 4.9000e+000 90320 -6.1551e+001 -1.7375e+002  6.9770e+000 44005 89781,90271,89807
 4.9000e+000 90470 -2.9176e+001 -1.8983e+002 -5.8529e+000 43601 90493,90369,90343
 4.9000e+000 90447 -5.0662e+001 -1.5323e+002  1.2275e+001 43601 90493,90343,90421
 4.9000e+000 90519 -6.2102e+001 -2.5732e+002 -2.9479e+001 43601 90395,90369,90493
 4.9000e+000 90542 -4.9610e+001 -1.8004e+002 -6.3292e+000 43601 90395,90493,90421
 4.9000e+000 90922 -6.4170e+001 -2.0318e+002  1.3039e+001 43154 90945,90700,90674
 4.9000e+000 90899 -5.6723e+001 -2.0702e+002 -2.2785e+001 43154 90945,90674,90648
 4.9000e+000 90876 -7.0185e+001 -1.6182e+002 -1.4334e+001 43154 90648,90778,90752
 4.9000e+000 90853 -3.7378e+001 -3.2863e+002  9.4831e+000 43154 90700,90752,90726
 4.9000e+000 90830 -4.2055e+001 -1.6216e+002 -5.8125e+000 43154 90648,90804,90778
 4.9000e+000 90971 -7.4350e+001 -2.3450e+002  1.9150e+001 43154 90752,90700,90945
 4.9000e+000 90994 -6.4364e+001 -2.2596e+002 -1.5724e+001 43154 90752,90945,90648
 4.9000e+000 91451 -1.8242e+001 -1.5805e+002 -2.9279e+001 42650 91203,91255,91229
 4.9000e+000 91428  1.6120e+001 -1.4306e+002 -1.3855e+001 42650 91203,91333,91255
 4.9000e+000 91405 -9.9177e-001 -2.3071e+002 -3.9368e+001 42650 91177,91333,91203
 4.9000e+000 91382 -7.1645e+001 -2.4748e+002  3.2018e+001 42650 91255,91333,91281
 4.9000e+000 91359 -1.6145e+001 -2.0899e+002  1.2384e+001 42650 91281,91333,91307
 4.9000e+000 91721 -1.0488e+002 -2.3731e+002  1.6554e+001 42288 91496,91600,91522
 4.9000e+000 91698 -5.6289e+001 -1.3768e+002 -5.9096e+000 42288 91496,91626,91600
 4.9000e+000 91675 -6.5384e+001 -2.1394e+002  1.8649e+001 42288 91522,91574,91548
 4.9000e+000 91652 -5.3568e+001 -2.1739e+002  1.7255e+001 42288 91522,91600,91574
 4.9000e+000 92199 -1.5651e+002 -2.5695e+002 -6.6142e+000 41898 92222,91983,91879
 4.9000e+000 92176 -1.6046e+002 -2.8145e+002 -1.6344e+001 41898 92294,92222,91879
 4.9000e+000 92153 -1.6937e+002 -2.7757e+002 -2.2933e+001 41898 92294,91879,91853
 4.9000e+000 92130 -1.3624e+002 -1.5700e+002  1.7154e+001 41898 91879,91957,91931
 4.9000e+000 92107 -1.4002e+002 -2.5060e+002 -8.1996e-001 41898 91879,91983,91957
 4.9000e+000 92084 -1.4866e+002 -1.4591e+002  3.2122e+001 41898 91879,91931,91905
 4.9000e+000 92061 -1.4993e+002 -2.4986e+002 -1.8312e+001 41898 91827,92035,91853
 4.9000e+000 92248 -1.5364e+002 -2.8708e+002 -4.0667e-001 41898 92009,91983,92222
 4.9000e+000 92271 -1.5111e+002 -2.9320e+002 -2.2038e+001 41898 92009,92222,92035
 4.9000e+000 92320 -1.4546e+002 -2.7530e+002 -1.7549e+001 41898 92035,92222,92294
 4.9000e+000 92343 -1.5202e+002 -2.7023e+002 -2.3746e+001 41898 92035,92294,91853
 4.9000e+000 92770 -4.7055e+001 -2.2099e+002 -1.6134e+001 41437 92865,92793,92525
 4.9000e+000 92747 -6.7049e+001 -2.5626e+002 -2.2659e+001 41437 92793,92473,92629
 4.9000e+000 92724 -2.0964e+001 -2.2732e+002 -3.0203e+001 41437 92865,92525,92499
 4.9000e+000 92701 -7.5163e+001 -1.9895e+002 -3.6226e+001 41437 92525,92603,92577
 4.9000e+000 92678  1.7248e+000 -2.4791e+002 -2.0180e+001 41437 92447,92629,92473
 4.9000e+000 92655 -1.1637e+002 -1.7749e+002 -2.1526e+001 41437 92525,92577,92551
 4.9000e+000 92819 -5.3993e+001 -2.3680e+002 -3.5810e+001 41437 92603,92525,92793
 4.9000e+000 92842 -1.0583e+002 -2.5464e+002 -6.5014e+001 41437 92603,92793,92629
 4.9000e+000 92891  4.3428e+000 -2.4091e+002 -2.0918e+001 41437 92473,92793,92865
 4.9000e+000 92914  4.2144e+001 -2.3132e+002 -4.1465e+001 41437 92473,92865,92499
 4.9000e+000 93243 -3.8658e+001 -3.3920e+002  1.2392e+002 41097 93044,93096,93070
 4.9000e+000 93220 -6.7181e+001 -2.9833e+002  6.6047e+001 41097 93044,93122,93096
 4.9000e+000 93197  1.4507e+001 -1.9809e+002  2.6171e+001 41097 93044,93148,93122
 4.9000e+000 93174 -6.0974e+001 -1.5273e+002  6.1015e+001 41097 93018,93148,93044
 4.9000e+000 93393 -5.4271e+000 -2.4985e+002  1.7361e+001 40643 93416,93292,93344
 4.9000e+000 93370 -1.1107e+001 -2.3165e+002  1.9390e+001 40643 93266,93344,93292
 4.9000e+000 93442 -8.4182e+000 -2.4661e+002  2.3979e+001 40643 93318,93292,93416
 4.9000e+000 93901 -7.5172e+001 -2.2831e+002 -1.5815e+001 40132 93924,93731,93705
 4.9000e+000 93878 -7.8450e+001 -2.3505e+002 -1.7484e+001 40132 93996,93924,93705
 4.9000e+000 93855 -9.2770e+001 -2.7014e+002 -6.1194e+000 40132 93996,93705,93653
 4.9000e+000 93832 -4.0277e+001 -2.6094e+002 -1.4603e+001 40132 93653,93705,93679
 4.9000e+000 93809 -7.5382e+001 -2.2617e+002  1.8094e+000 40132 93627,93783,93757
 4.9000e+000 93950 -7.2430e+001 -2.4205e+002 -1.8678e+001 40132 93757,93731,93924
 4.9000e+000 93973 -8.1694e+001 -2.1536e+002 -4.7798e+000 40132 93757,93924,93627
 4.9000e+000 94022 -1.0459e+002 -2.5720e+002  7.7277e+000 40132 93627,93924,93996
 4.9000e+000 94045 -9.7020e+001 -2.6934e+002  1.6093e+001 40132 93627,93996,93653
 4.9000e+000 94423 -1.5449e+001 -2.6789e+002 -3.7864e+001 39514 94149,94227,94175
 4.9000e+000 94400 -2.6993e+001 -2.5188e+002  2.8763e+001 39514 94149,94305,94227
 4.9000e+000 94377  6.9674e+000 -3.1603e+002 -3.6245e+001 39514 94175,94227,94201
 4.9000e+000 94354 -7.7986e+001 -2.3531e+002  1.2357e+001 39514 94227,94305,94279
 4.9000e+000 94331 -3.2900e+001 -2.1426e+002  2.3346e+001 39514 94227,94279,94253
 4.9000e+000 94573 -2.1425e+001 -1.5156e+002 -3.0766e+001 38822 94596,94498,94472
 4.9000e+000 94550  2.9611e+001 -1.6310e+002  3.5890e+001 38822 94596,94472,94446
 4.9000e+000 94622 -8.0398e+001 -1.7673e+002 -3.1902e+001 38822 94524,94498,94596
 4.9000e+000 94645 -6.8735e+001 -2.0555e+002  4.1639e+001 38822 94524,94596,94446
 4.9000e+000 95025 -1.2719e+001 -1.9636e+002 -1.4353e+001 38418 95048,94829,94777
 4.9000e+000 95002 -1.9729e+001 -2.0773e+002 -2.4877e+001 38418 95120,95048,94777
 4.9000e+000 94979 -1.4464e+001 -2.0561e+002 -2.3145e+001 38418 95120,94777,94751
 4.9000e+000 94956 -1.1189e+001 -1.8436e+002 -2.7820e+001 38418 95192,94881,94855
 4.9000e+000 94933 -5.9693e+001 -1.7110e+002 -9.5664e+000 38418 94777,94829,94803
 4.9000e+000 95074 -3.4556e+001 -2.6118e+002 -5.6968e+000 38418 94855,94829,95048
 4.9000e+000 95097 -1.6537e+001 -2.0539e+002 -3.0084e+001 38418 95192,94855,95048
 4.9000e+000 95146 -3.6983e+001 -1.9770e+002 -1.9809e+001 38418 94907,95048,95120
 4.9000e+000 95169 -2.2615e+001 -1.8798e+002 -1.4886e+001 38418 94907,95120,94751
 4.9000e+000 95218 -1.7668e+001 -1.4482e+002 -2.4881e+001 38418 94907,94881,95192
 4.9000e+000 95241 -3.0614e+001 -1.7888e+002 -2.1545e+001 38418 94907,95192,95048
 4.9000e+000 95511 -6.5134e+001 -2.1104e+002  1.0941e+001 38049 95312,95390,95364
 4.9000e+000 95488 -4.3170e+001 -2.0137e+002  9.4692e+000 38049 95312,95416,95390
 4.9000e+000 95465 -2.1559e+001 -2.0133e+002 -1.1600e+001 38049 95312,95364,95338
 4.9000e+000 95442 -1.8803e+001 -1.8370e+002  1.7887e+001 38049 95286,95416,95312
 4.9000e+000 95808 -6.3005e+001 -2.4802e+002 -5.6892e+000 37437 95831,95586,95560
 4.9000e+000 95785  2.5390e+001 -2.6187e+002 -1.1352e+001 37437 95831,95560,95534
 4.9000e+000 95762 -1.2763e+002 -2.3765e+002  7.1236e+000 37437 95586,95664,95638
 4.9000e+000 95739 -1.7893e+001 -1.2068e+002 -6.4284e+001 37437 95534,95690,95664
 4.9000e+000 95716 -1.1918e+002 -1.7159e+002  6.4317e+000 37437 95586,95638,95612
 4.9000e+000 95857 -1.1993e+002 -2.4169e+002  2.9875e+001 37437 95664,95586,95831
 4.9000e+000 95880 -2.6403e+001 -2.5305e+002  2.5451e+001 37437 95664,95831,95534
 4.9000e+000 96390 -8.6233e+001 -1.8754e+002 -1.0960e+001 36883 96413,96145,96093
 4.9000e+000 96367 -7.1320e+001 -1.7989e+002 -5.7650e+000 36883 96413,96093,96067
 4.9000e+000 96344 -5.0800e+001 -2.2005e+002  3.0909e-002 36883 96067,96249,96171
 4.9000e+000 96321 -7.4867e+001 -2.1561e+002 -4.1707e+000 36883 96093,96145,96119
 4.9000e+000 96298 -1.0604e+002 -3.6035e+002  3.3307e+001 36883 96171,96249,96197
 4.9000e+000 96275 -2.9507e+001 -2.8894e+002 -4.3411e+000 36883 96197,96249,96223
 4.9000e+000 96439 -8.1417e+001 -1.8063e+002  2.2198e+000 36883 96171,96145,96413
 4.9000e+000 96462 -6.9439e+001 -1.7816e+002  6.2133e+000 36883 96171,96413,96067
 4.9000e+000 96781 -6.8140e+001 -2.1389e+002 -3.0843e+001 36215 96559,96663,96637
 4.9000e+000 96758 -8.5877e+001 -2.3130e+002 -3.8201e+001 36215 96507,96663,96559
 4.9000e+000 96735 -8.4037e+001 -1.5722e+002  1.5899e+001 36215 96585,96637,96611
 4.9000e+000 96712 -1.7785e+002 -2.4756e+002 -2.6803e+001 36215 96559,96637,96585
 4.9000e+000 96689 -3.3371e+001 -2.6603e+002 -7.8170e+000 36215 96507,96559,96533
 4.9000e+000 97161  3.9485e+000 -1.1631e+002 -5.5448e+000 35818 97184,96965,96939
 4.9000e+000 97138 -1.1063e+001 -1.3691e+002 -1.2732e+001 35818 97184,96939,96887
 4.9000e+000 97115 -5.3889e+000 -1.4759e+002  2.7295e+001 35818 96965,97043,97017
 4.9000e+000 97092 -5.0042e+000 -1.3026e+002 -1.5747e+001 35818 96887,96939,96913
 4.9000e+000 97069 -7.7165e+001 -1.5054e+002  1.7077e+001 35818 96965,97017,96991
 4.9000e+000 97210  2.0108e+001 -1.3404e+002  6.0738e+000 35818 97043,96965,97184
 4.9000e+000 97233  8.2365e+000 -1.4862e+002  3.3492e-001 35818 97043,97184,96887
 4.9000e+000 97739 -6.9024e+001 -2.1300e+002 -5.1072e+001 35214 97416,97468,97442
 4.9000e+000 97716 -8.2180e+001 -1.5343e+002 -1.6177e+001 35214 97416,97598,97468
 4.9000e+000 97693 -7.1804e+001 -1.4457e+002 -6.1811e+000 35214 97762,97520,97468
 4.9000e+000 97670 -7.5088e+001 -1.4900e+002 -1.2837e+001 35214 97762,97468,97598
 4.9000e+000 97647 -5.6204e+001 -1.4346e+002 -2.1267e+001 35214 97546,97598,97572
 4.9000e+000 97624 -4.4786e+001 -1.4985e+002 -8.3598e+000 35214 97468,97520,97494
 4.9000e+000 97788 -7.4383e+001 -1.5253e+002 -9.6864e+000 35214 97546,97520,97762
 4.9000e+000 97811 -7.5562e+001 -1.5592e+002 -1.5869e+001 35214 97546,97762,97598
 4.9000e+000 98189 -1.0123e+001 -1.1224e+002 -1.1336e+001 34760 98356,98212,97967
 4.9000e+000 98166 -2.3559e+001 -1.3521e+002 -2.2828e+001 34760 98284,98212,97941
 4.9000e+000 98143 -4.7524e+001 -1.2129e+002 -1.1797e+001 34760 98284,97941,97915
 4.9000e+000 98120 -1.3097e+001 -1.5113e+002 -5.1625e+000 34760 98484,97993,97967
 4.9000e+000 98097 -1.1134e+001 -1.2630e+002 -4.1005e+000 34760 98556,98045,98019
 4.9000e+000 98238 -1.9834e+001 -1.4222e+002 -5.4524e+000 34760 98484,97967,98212
 4.9000e+000 98261  9.8275e-001 -1.3117e+002 -1.0338e+001 34760 98556,98019,98212
 4.9000e+000 98310 -3.8714e+000 -1.0954e+002 -3.1821e+001 34760 98071,98212,98284
 4.9000e+000 98333 -1.8904e+001 -7.4978e+001 -2.5433e+001 34760 98071,98284,97915
 4.9000e+000 98382 -6.8382e+001 -1.5093e+002 -2.8893e+001 34760 97941,98212,98356
 4.9000e+000 98510 -2.6027e+000 -1.4349e+002 -8.9221e+000 34760 98019,97993,98484
 4.9000e+000 98533 -1.3387e+001 -1.3790e+002 -8.2435e+000 34760 98019,98484,98212
 4.9000e+000 98582  4.1908e+000 -1.1927e+002 -1.3529e+000 34760 98071,98045,98556
 4.9000e+000 98605  9.3190e+000 -1.2846e+002 -8.8531e+000 34760 98071,98556,98212
 4.9000e+000 99032 -8.4398e+001 -1.9461e+002  2.9180e+001 34156 98735,98891,98839
 4.9000e+000 99009 -7.0473e+001 -2.0154e+002  1.2450e+001 34156 98709,98891,98735
 4.9000e+000 98986 -2.4117e+001 -1.7338e+002  2.7209e+001 34156 98735,98813,98787
 4.9000e+000 98963 -2.9146e+001 -1.8949e+002  2.3178e+001 34156 98735,98839,98813
 4.9000e+000 98940  1.2108e+001 -2.5934e+002  3.0848e+001 34156 98735,98787,98761
 4.9000e+000 98917 -7.5875e+001 -1.7274e+002  1.8805e+001 34156 98839,98891,98865
 4.9000e+000 99231 -2.2306e+001 -1.0025e+002  9.3616e+000 33766 99055,99133,99107
 4.9000e+000 99208 -4.3475e+001 -1.3589e+002  1.9619e+001 33766 99055,99159,99133
 4.9000e+000 99185 -9.7414e+000 -1.1880e+002  2.4011e+001 33766 99055,99107,99081
 4.9000e+000 99818 -4.5021e+001 -1.4089e+002  3.4729e+000 33248 99521,99651,99573
 4.9000e+000 99795 -4.5064e+001 -1.3485e+002  1.4086e+001 33248 99521,99677,99651
 4.9000e+000 99772 -7.0759e+001 -1.7300e+002 -9.2146e+000 33248 99573,99651,99599
 4.9000e+000 99749 -4.7179e+001 -1.6813e+002  1.5329e+001 33248 99495,99677,99521
 4.9000e+000 99726 -3.0942e+001 -1.4679e+002 -3.5137e+001 33248 99599,99651,99625
 4.9000e+000 99703 -5.8383e+001 -1.7068e+002  1.0815e+001 33248 99521,99573,99547
 4.9000e+000 100196 -5.0983e+001 -1.5866e+002 -2.9924e+001 32794 100219,99948,99922
 4.9000e+000 100173 -5.9827e+001 -1.7728e+002 -1.4153e+001 32794 100219,99922,100052
 4.9000e+000 100150 -8.0539e+001 -1.6121e+002  1.0055e+001 32794 99974,100052,100026
 4.9000e+000 100127 -7.3901e+001 -1.4294e+002 -2.3486e+001 32794 99922,100078,100052
 4.9000e+000 100104 -8.2619e+001 -1.9440e+002  3.6714e+001 32794 99974,100026,100000
 4.9000e+000 100245 -6.8789e+001 -1.5546e+002 -1.1839e+001 32794 99974,99948,100219
 4.9000e+000 100268 -7.4310e+001 -1.8027e+002  4.0509e+000 32794 99974,100219,100052
 4.9000e+000 100418 -1.1793e+001 -1.5094e+002 -1.6329e+001 32504 100571,100343,100317
 4.9000e+000 100395 -6.2118e+001 -1.7377e+002  1.5194e+001 32504 100571,100317,100441
 4.9000e+000 100467  4.2218e+001 -8.3893e+001 -4.6052e+001 32504 100291,100369,100441
 4.9000e+000 100597  1.0352e+001 -1.2712e+002 -5.5922e+001 32504 100369,100343,100571
 4.9000e+000 100620 -1.2382e+001 -1.1893e+002 -2.8716e+001 32504 100369,100571,100441
 4.9000e+000 101020 -1.7949e+001 -1.2098e+002  4.6520e+000 32142 100772,100902,100876
 4.9000e+000 100997 -1.1926e+001 -1.0724e+002  6.9600e+000 32142 100746,100902,100772
 4.9000e+000 100974  1.5257e+000 -1.3307e+002  1.7683e+001 32142 101043,100824,100798
 4.9000e+000 100951 -2.2008e+001 -1.4439e+002  1.2970e+001 32142 101043,100798,100772
 4.9000e+000 100928 -7.5955e+001 -1.6997e+002 -4.2808e+001 32142 101115,100876,100850
 4.9000e+000 101069  2.7835e+001 -1.4723e+002 -1.4648e+001 32142 100850,100824,101043
 4.9000e+000 101092 -3.6425e+001 -1.7525e+002 -2.0179e+001 32142 101115,100850,101043
 4.9000e+000 101141 -2.7172e+001 -1.4194e+002 -1.5730e+001 32142 100772,100876,101115
 4.9000e+000 101164  3.5180e+000 -1.4552e+002  8.9354e+000 32142 100772,101115,101043
 4.9000e+000 101719 -8.3887e+001 -2.0111e+002  2.6818e+001 31538 101742,101477,101399
 4.9000e+000 101696 -1.0312e+002 -2.4415e+002  6.2670e+000 31538 101814,101742,101399
 4.9000e+000 101673 -1.1844e+002 -2.0989e+002 -1.6840e+001 31538 101814,101399,101373
 4.9000e+000 101650 -8.3789e+001 -1.4442e+002  1.8523e+001 31538 101425,101477,101451
 4.9000e+000 101627 -7.8671e+001 -1.7012e+002  4.8138e+000 31538 101399,101477,101425
 4.9000e+000 101604 -5.0538e+001 -2.4074e+002  4.9540e+001 31538 101477,101529,101503
 4.9000e+000 101581 -3.1502e+001 -1.4170e+002 -1.3254e+001 31538 101347,101555,101373
 4.9000e+000 101768 -9.5658e+001 -2.4649e+002  2.6203e+001 31538 101529,101477,101742
 4.9000e+000 101791 -8.2924e+001 -2.5292e+002 -8.8088e+000 31538 101529,101742,101555
 4.9000e+000 101840 -6.4696e+001 -2.0931e+002 -9.7044e+000 31538 101555,101742,101814
 4.9000e+000 101863 -8.6922e+001 -1.8137e+002 -3.0863e+001 31538 101555,101814,101373
 4.9000e+000 102111 -1.2660e+002 -3.2189e+002  4.1531e+001 31112 101886,101990,101912
 4.9000e+000 102088 -4.7743e+001 -1.9381e+002  2.3249e+000 31112 101886,102016,101990
 4.9000e+000 102065 -5.7843e+001 -3.1000e+002  6.1120e+001 31112 101912,101990,101964
 4.9000e+000 102042 -9.0978e+001 -3.8249e+002  7.2843e+001 31112 101912,101964,101938
 4.9000e+000 102408 -3.0363e+001 -1.9424e+002  1.5787e+001 30658 102431,102186,102160
 4.9000e+000 102385 -6.5008e+001 -1.9195e+002  4.1849e-002 30658 102431,102160,102264
 4.9000e+000 102362 -6.3185e+001 -2.1107e+002  3.0400e+000 30658 102186,102238,102212
 4.9000e+000 102339 -7.1200e+001 -2.0374e+002 -1.2008e+001 30658 102134,102264,102160
 4.9000e+000 102316 -4.9613e+001 -1.7094e+002 -5.6184e+001 30658 102134,102290,102264
 4.9000e+000 102457 -5.9216e+001 -2.0510e+002  8.3105e+000 30658 102238,102186,102431
 4.9000e+000 102480 -9.6237e+001 -2.0615e+002 -8.8584e+000 30658 102238,102431,102264
 4.9000e+000 102681 -2.4952e+001 -2.3336e+002  3.4908e+001 30004 102704,102557,102505
 4.9000e+000 102658 -3.0823e+001 -2.3542e+002  3.5799e+001 30004 102704,102505,102609
 4.9000e+000 102635  5.2430e+000 -1.9808e+002  9.0094e+000 30004 102505,102557,102531
 4.9000e+000 102730 -3.0012e+001 -2.2655e+002  3.1347e+001 30004 102583,102557,102704
 4.9000e+000 102753 -4.3127e+001 -2.3284e+002  3.3320e+001 30004 102583,102704,102609
 4.9000e+000 103003 -2.6135e+001 -1.8827e+002 -1.5267e+001 29564 103026,102804,102778
 4.9000e+000 102980 -3.3648e+001 -2.2481e+002 -2.3432e+001 29564 103026,102778,102908
 4.9000e+000 102957 -3.5676e+001 -1.9139e+002 -2.6754e+000 29564 102856,102908,102882
 4.9000e+000 102934 -4.8658e+001 -1.6933e+002  1.1932e+001 29564 102804,102856,102830
 4.9000e+000 103052 -2.3307e+001 -1.7024e+002  9.4586e+000 29564 102856,102804,103026
 4.9000e+000 103075 -3.3704e+001 -1.9992e+002 -2.1168e+000 29564 102856,103026,102908
 4.9000e+000 103634 -8.4226e+001 -2.1126e+002 -2.5256e+001 29160 103657,103418,103392
 4.9000e+000 103611 -7.9856e+001 -2.0312e+002 -1.2239e+001 29160 103657,103392,103314
 4.9000e+000 103588 -5.8222e+001 -1.7519e+002 -2.1772e+001 29160 103314,103392,103366
 4.9000e+000 103565 -5.0744e+001 -1.8537e+002 -2.5120e+001 29160 103314,103366,103340
 4.9000e+000 103542 -1.0005e+002 -2.0000e+002 -2.3525e+001 29160 103262,103444,103314
 4.9000e+000 103519 -1.1993e+002 -2.3992e+002 -3.3109e+001 29160 103262,103314,103288
 4.9000e+000 103496 -7.6606e+001 -2.1808e+002 -1.0094e+001 29160 103262,103470,103444
 4.9000e+000 103683 -1.0426e+002 -2.2713e+002 -4.0364e+001 29160 103444,103418,103657
 4.9000e+000 103706 -8.7554e+001 -2.0183e+002 -2.5297e+001 29160 103444,103657,103314
 4.9000e+000 104035 -5.5850e+001 -2.0295e+002  1.9089e+001 28770 103836,103914,103862
 4.9000e+000 104012 -5.4332e+001 -1.9370e+002  2.5578e+001 28770 103810,103914,103836
 4.9000e+000 103989  1.2352e+001 -1.7569e+002  3.1559e+001 28770 103810,103940,103914
 4.9000e+000 103966 -1.1350e+001 -1.6205e+002  3.8984e+001 28770 103862,103914,103888
 4.9000e+000 104185 -2.0084e+001 -1.8369e+002  3.5046e+001 28366 104208,104110,104084
 4.9000e+000 104162 -1.8660e+001 -1.5835e+002  2.7544e+001 28366 104280,104208,104084
 4.9000e+000 104234  3.7412e+001 -1.8430e+002  2.2018e+001 28366 104610,104208,104136
 4.9000e+000 104257 -3.4629e+001 -1.7442e+002  2.2212e+001 28366 104538,104410,104208
 4.9000e+000 104306 -5.7801e+001 -1.7711e+002  2.1989e+001 28366 104538,104208,104280
 4.9000e+000 104436 -1.2291e+001 -1.8658e+002  2.8942e+000 28366 104136,104208,104410
 4.9000e+000 104564 -5.8969e+001 -1.7262e+002  9.8415e+000 28366 104058,104410,104538
 4.9000e+000 104587 -7.3098e+001 -1.6985e+002  7.9527e+000 28366 104058,104538,104280
 4.9000e+000 104636  2.7214e+001 -1.8730e+002  2.8288e+001 28366 104110,104208,104610
 4.9000e+000 105349 -4.4791e+001 -1.6797e+002 -1.7399e+001 27976 105516,105372,105107
 4.9000e+000 105326 -7.0577e+001 -1.6954e+002  4.2975e+000 27976 105588,105372,105055
 4.9000e+000 105303 -7.5614e+001 -1.6500e+002 -1.7307e+001 27976 105444,105159,105133
 4.9000e+000 105280 -2.5959e+001 -1.7402e+002 -1.0776e+001 27976 105516,105107,105081
 4.9000e+000 105257 -6.5430e+001 -1.8812e+002  1.6179e+001 27976 105588,105055,105029
 4.9000e+000 105234 -3.5186e+001 -1.4362e+002  2.4893e+000 27976 105003,105185,105159
 4.9000e+000 105211 -4.9477e+001 -1.1637e+002  2.1604e+001 27976 104977,105185,105003
 4.9000e+000 105398 -3.6147e+001 -1.7006e+002 -2.2154e+001 27976 105133,105107,105372
 4.9000e+000 105421 -6.0491e+001 -1.7691e+002 -1.0361e+001 27976 105444,105133,105372
 4.9000e+000 105470 -6.1595e+001 -1.4475e+002 -9.4168e+000 27976 105003,105159,105444
 4.9000e+000 105493 -5.0812e+001 -1.5843e+002 -6.0423e+000 27976 105003,105444,105372
 4.9000e+000 105542 -3.2209e+001 -1.6677e+002 -1.4880e+000 27976 105055,105372,105516
 4.9000e+000 105565 -3.8082e+000 -1.6896e+002  3.1389e+000 27976 105055,105516,105081
 4.9000e+000 105614 -8.1438e+001 -1.8786e+002  1.3201e+001 27976 105003,105372,105588
 4.9000e+000 105637 -7.9132e+001 -2.0611e+002  2.6182e+001 27976 105003,105588,105029
 4.9000e+000 106143 -7.7130e+001 -2.5180e+002  1.5380e+001 27664 106166,105846,105820
 4.9000e+000 106120 -5.3095e+001 -1.9027e+002  6.8788e+000 27664 106310,106166,105820
 4.9000e+000 106097 -2.5252e+001 -2.2601e+002 -4.6945e+001 27664 106382,106238,105950
 4.9000e+000 106074 -3.4944e+001 -1.8572e+002  6.6051e+000 27664 106310,105820,106002
 4.9000e+000 106051  1.6882e+001 -2.0397e+002 -3.8856e+001 27664 106382,105950,105924
 4.9000e+000 106028 -1.1050e+001 -3.5938e+002 -1.2695e+001 27664 105846,105898,105872
 4.9000e+000 106192 -6.8673e+001 -2.8045e+002 -3.6575e+001 27664 105898,105846,106166
 4.9000e+000 106215 -4.1616e+001 -2.3450e+002 -1.5184e+001 27664 106238,105898,106166
 4.9000e+000 106264 -1.2564e+002 -2.5219e+002 -6.1608e+001 27664 105976,105950,106238
 4.9000e+000 106287 -4.2380e+001 -2.3180e+002 -1.5924e+001 27664 105976,106238,106166
 4.9000e+000 106336 -3.4730e+001 -2.0230e+002  2.4063e+001 27664 105976,106166,106310
 4.9000e+000 106359 -1.3715e+001 -1.9619e+002  2.3053e+001 27664 105976,106310,106002
 4.9000e+000 106408 -4.4867e+001 -1.9245e+002  2.3816e-001 27664 105898,106238,106382
 4.9000e+000 106431 -1.8878e+001 -1.8023e+002  4.5267e+000 27664 105898,106382,105924
 4.9000e+000 106728 -2.0460e+001 -1.3570e+002  2.4720e+001 27153 106751,106506,106454
 4.9000e+000 106705 -1.9785e+001 -1.3791e+002  2.0616e+001 27153 106751,106454,106610
 4.9000e+000 106682 -3.4067e+001 -1.0169e+002  3.9900e+000 27153 106454,106506,106480
 4.9000e+000 106659 -3.1187e+001 -1.3297e+002  1.4113e+001 27153 106532,106610,106584
 4.9000e+000 106636 -5.3686e+001 -7.8219e+001  2.8618e+001 27153 106532,106584,106558
 4.9000e+000 106777 -1.5230e+001 -1.3314e+002  2.6049e+001 27153 106532,106506,106751
 4.9000e+000 106800 -1.5915e+001 -1.3615e+002  2.1262e+001 27153 106532,106751,106610
 4.9000e+000 107180 -2.5278e+001 -1.6369e+002  1.0866e+001 26642 107203,106984,106958
 4.9000e+000 107157 -8.2686e+001 -1.8993e+002  3.1729e+000 26642 107203,106958,106932
 4.9000e+000 107134 -9.5985e+001 -2.0738e+002 -3.1073e+001 26642 107275,107036,107010
 4.9000e+000 107111 -6.1694e+001 -2.0604e+002 -3.7940e+001 26642 106932,107062,107036
 4.9000e+000 107088 -2.4199e+000 -1.6204e+002  1.9562e+001 26642 106906,107062,106932
 4.9000e+000 107229  2.5045e+000 -1.5413e+002 -5.0326e+001 26642 107010,106984,107203
 4.9000e+000 107252 -8.5222e+001 -1.9314e+002 -3.6929e+001 26642 107275,107010,107203
 4.9000e+000 107301 -8.3011e+001 -2.0537e+002 -3.8941e+001 26642 106932,107036,107275
 4.9000e+000 107324 -7.9283e+001 -2.0572e+002 -4.0794e+001 26642 106932,107275,107203
 4.9000e+000 107675 -4.5234e+001 -1.2609e+002  1.3152e+001 26045 107450,107554,107476
 4.9000e+000 107652 -3.4967e+001 -1.0986e+002  4.1098e+000 26045 107450,107580,107554
 4.9000e+000 107629 -1.5206e+001 -1.0667e+002  3.5526e+000 26045 107476,107528,107502
 4.9000e+000 107606 -1.1426e+001 -1.1814e+002  7.5241e+000 26045 107476,107554,107528
 4.9000e+000 107874 -3.1966e+001 -1.8793e+002  4.7346e+001 25641 107750,107802,107776
 4.9000e+000 107851 -3.9360e+001 -1.3030e+002  2.5906e+001 25641 107724,107802,107750
 4.9000e+000 107828 -3.9686e+001 -1.3194e+002  2.3960e+001 25641 107698,107802,107724
 4.9000e+000 108431 -1.6486e+001 -2.0215e+002  3.6264e+001 25023 108526,108267,108241
 4.9000e+000 108408 -1.8668e-001 -1.9276e+002  6.1551e+000 25023 108059,108267,108085
 4.9000e+000 108385 -2.7484e+001 -2.0612e+002  3.6871e+001 25023 108454,108163,108111
 4.9000e+000 108362 -9.2154e+001 -2.0830e+002  6.0926e+001 25023 108454,108111,108085
 4.9000e+000 108339 -7.3118e+001 -2.7059e+002  6.4078e+001 25023 108111,108163,108137
 4.9000e+000 108316 -4.8090e+001 -1.4920e+002 -9.2844e+000 25023 108163,108241,108215
 4.9000e+000 108293  1.9579e+001 -1.1892e+002 -1.2833e+000 25023 108163,108215,108189
 4.9000e+000 108480 -5.5959e+000 -1.8433e+002  3.1006e+000 25023 108241,108163,108454
 4.9000e+000 108503 -2.9948e+001 -1.9661e+002  3.4973e+001 25023 108526,108241,108454
 4.9000e+000 108552 -3.2374e+001 -2.0412e+002  2.8802e+001 25023 108085,108267,108526
 4.9000e+000 108575 -4.6637e+001 -1.9951e+002  2.7166e+001 25023 108085,108526,108454
 4.9000e+000 108823  2.6964e+000 -1.4707e+002  2.1550e+001 24461 108624,108728,108650
 4.9000e+000 108800 -2.0822e+001 -3.0695e+002 -2.1332e+001 24461 108598,108728,108624
 4.9000e+000 108777 -8.1192e-002 -1.9532e+002  1.5614e+001 24461 108650,108728,108676
 4.9000e+000 108754 -8.6322e+001 -5.5503e+002  4.8023e+001 24461 108676,108728,108702
 4.9000e+000 109022 -5.3241e+001 -1.5228e+002  2.1161e+001 24121 108872,108924,108898
 4.9000e+000 108999 -3.7059e+001 -1.4844e+002  2.4363e+001 24121 108846,108924,108872
 4.9000e+000 108976 -6.2300e+001 -1.5955e+002  2.6086e+001 24121 108846,108950,108924
 4.9000e+000 109483 -6.2866e+001 -2.0881e+002 -1.9860e+001 23717 109209,109339,109235
 4.9000e+000 109460 -2.3613e+001 -2.3723e+002 -4.8318e+001 23717 109209,109365,109339
 4.9000e+000 109437 -9.4394e-001 -2.6668e+002 -1.6079e+001 23717 109287,109339,109313
 4.9000e+000 109414 -1.1991e+002 -2.6618e+002  1.5996e+001 23717 109235,109339,109287
 4.9000e+000 109391  4.1136e+000 -3.0815e+002  1.1364e+002 23717 109235,109287,109261
 4.9000e+000 109910 -8.3548e+001 -2.4473e+002 -2.6033e+001 23305 109613,109743,109717
 4.9000e+000 109887 -8.2412e+001 -2.4628e+002 -1.4690e+001 23305 109613,109769,109743
 4.9000e+000 109864 -9.9563e+001 -2.3649e+002 -2.2649e+001 23305 109613,109717,109639
 4.9000e+000 109841 -6.5117e+001 -2.2679e+002 -6.4636e+000 23305 109587,109769,109613
 4.9000e+000 109818  2.2682e+000 -1.9314e+002  1.7851e+001 23305 109639,109717,109691
 4.9000e+000 109795 -2.0337e+001 -1.5433e+002 -3.6561e+001 23305 109639,109691,109665
 4.9000e+000 110180 -3.7445e+000 -6.9046e+001 -1.5851e+001 22851 110007,110059,110033
 4.9000e+000 110157 -4.8332e+001 -1.9075e+002  8.7880e+000 22851 109981,110059,110007
 4.9000e+000 110134 -6.8857e+001 -2.0642e+002  1.3218e+000 22851 109955,110059,109981
 4.9000e+000 110111 -2.7469e+001 -2.2734e+002 -1.7420e+001 22851 109955,110085,110059
 4.9000e+000 110737 -2.5695e+001 -2.1422e+002 -5.8623e+001 22333 110760,110469,110391
 4.9000e+000 110714 -5.9649e+000 -2.4857e+002 -4.4865e+001 22333 110760,110391,110365
 4.9000e+000 110691 -1.8067e+001 -1.9429e+002 -4.7848e+001 22333 110832,110521,110469
 4.9000e+000 110668 -4.7494e+001 -3.8850e+002  3.0273e+001 22333 110417,110469,110443
 4.9000e+000 110645 -9.9262e+001 -3.3966e+002  1.6041e+001 22333 110391,110469,110417
 4.9000e+000 110622 -2.6450e+000 -1.9645e+002 -2.3689e+001 22333 110469,110521,110495
 4.9000e+000 110599 -1.5399e+001 -1.3456e+002  1.6780e+001 22333 110365,110573,110547
 4.9000e+000 110786 -1.2874e+001 -1.9908e+002 -5.3150e+001 22333 110832,110469,110760
 4.9000e+000 110809  1.5878e+001 -2.1471e+002 -3.5304e+001 22333 110547,110760,110365
 4.9000e+000 110858 -1.6625e+001 -2.0527e+002 -4.7146e+001 22333 110547,110521,110832
 4.9000e+000 110881 -1.6981e+001 -2.1608e+002 -5.3969e+001 22333 110547,110832,110760
 4.9000e+000 111308 -1.0901e+002 -2.6168e+002  1.7651e+001 21829 111331,111063,111011
 4.9000e+000 111285 -9.6127e+001 -2.4035e+002 -4.8135e+000 21829 111331,111011,111167
 4.9000e+000 111262 -1.1253e+002 -2.6035e+002  1.8735e+001 21829 111403,111089,111063
 4.9000e+000 111239 -1.3924e+002 -2.7820e+002  4.0613e+001 21829 111011,111063,111037
 4.9000e+000 111216 -6.2704e+001 -1.7622e+002  8.8502e+000 21829 110985,111167,111011
 4.9000e+000 111193 -1.3456e+002 -4.3932e+002  9.7373e+001 21829 111089,111141,111115
 4.9000e+000 111357 -1.0868e+002 -2.6363e+002  1.8669e+001 21829 111403,111063,111331
 4.9000e+000 111380 -1.1241e+002 -2.7428e+002 -1.1643e-002 21829 111141,111331,111167
 4.9000e+000 111429 -1.1984e+002 -2.6514e+002  2.1482e+001 21829 111141,111089,111403
 4.9000e+000 111452 -1.1328e+002 -2.6858e+002  2.0600e+001 21829 111141,111403,111331
 4.9000e+000 112056  8.6215e+001 -1.9013e+002  6.0956e+000 21489 111687,111765,111739
 4.9000e+000 112033  2.5161e+001 -2.1960e+002  2.3145e+001 21489 112151,112079,111687
 4.9000e+000 112010  2.0056e+000 -3.4375e+002  2.0577e+001 21489 111791,111843,111817
 4.9000e+000 111987 -5.5267e+001 -2.7522e+002 -2.2005e+001 21489 112079,111843,111791
 4.9000e+000 111964  5.9222e+001 -2.0237e+002  4.3196e+001 21489 112151,111687,111661
 4.9000e+000 111941 -1.0829e+001 -1.4835e+002  3.4999e+001 21489 111661,111869,111843
 4.9000e+000 111918  8.6046e+001 -2.0625e+002  3.1346e+001 21489 111687,111739,111713
 4.9000e+000 111895  2.3836e+001 -6.7859e+001  1.0844e+001 21489 111635,111869,111661
 4.9000e+000 112105 -2.7754e+001 -2.3960e+002  1.3015e+001 21489 111765,111687,112079
 4.9000e+000 112128 -2.5143e+001 -2.2729e+002  1.2960e+001 21489 111765,112079,111791
 4.9000e+000 112177 -3.2155e+001 -2.1563e+002 -6.2984e+000 21489 111843,112079,112151
 4.9000e+000 112200 -1.1478e+000 -2.0871e+002  9.9774e+000 21489 111843,112151,111661
 4.9000e+000 112578 -4.3960e+001 -2.7817e+002  1.3054e+001 21177 112382,112434,112408
 4.9000e+000 112555 -5.6420e+001 -2.7402e+002  6.3314e-001 21177 112330,112434,112382
 4.9000e+000 112532 -3.9453e+001 -2.3087e+002  4.4815e+001 21177 112304,112434,112330
 4.9000e+000 112509 -5.6210e+001 -2.6058e+002  0.0000e+000 21177 112330,112382,112356
 4.9000e+000 112486 -1.1329e+001 -1.3152e+002  7.3681e+000 21177 112304,112460,112434
 4.9000e+000 112679 -9.6787e-001 -1.5175e+002 -3.5255e+001 20666 112601,112653,112627
 4.9000e+000 112927 -8.3025e+001 -2.7656e+002  9.7800e+000 19762 112702,112754,112728
 4.9000e+000 112904 -3.1266e+001 -2.6542e+002 -2.3236e+000 19762 112702,112832,112754
 4.9000e+000 112881 -7.0162e+001 -2.8543e+002  4.5706e+001 19762 112754,112832,112806
 4.9000e+000 112858 -9.8940e+001 -3.6100e+002  4.6110e+001 19762 112754,112806,112780
 4.9000e+000 113297 -7.5573e+001 -3.3649e+002  2.1776e+001 19308 112974,113052,113026
 4.9000e+000 113274 -5.0881e+001 -2.8114e+002  7.4054e+000 19308 112974,113156,113052
 4.9000e+000 113251 -2.6916e+001 -3.7284e+002 -4.5073e+001 19308 113052,113130,113104
 4.9000e+000 113228 -5.5594e+001 -2.8071e+002 -2.1843e-001 19308 113052,113156,113130
 4.9000e+000 113205 -5.2842e+001 -3.2474e+002  0.0000e+000 19308 113052,113104,113078
 4.9000e+000 113182 -1.0835e+002 -3.5018e+002 -1.4343e+000 19308 112974,113026,113000
 4.9000e+000 113547 -1.5003e+000 -3.0419e+002 -2.1263e+001 18711 113570,113374,113348
 4.9000e+000 113524 -1.1203e+001 -2.7789e+002 -1.2578e+001 18711 113570,113348,113452
 4.9000e+000 113501 -2.1813e+000 -2.0879e+002 -5.9140e+001 18711 113322,113452,113348
 4.9000e+000 113478 -2.7912e+001 -2.7352e+002 -1.0125e+002 18711 113374,113426,113400
 4.9000e+000 113596 -2.9107e-001 -2.7526e+002 -2.7818e+001 18711 113426,113374,113570
 4.9000e+000 113619 -1.1849e+001 -2.5306e+002 -1.3649e+001 18711 113426,113570,113452
 4.9000e+000 113771 -1.5424e+002 -3.8235e+002 -2.0823e+001 18307 113670,113722,113696
 4.9000e+000 113748 -1.2059e+002 -3.5979e+002 -9.9049e+000 18307 113644,113722,113670
 4.9000e+000 113972 -6.7317e+001 -3.2178e+002  6.6871e+000 17945 113822,113874,113848
 4.9000e+000 113949 -6.8266e+001 -3.2067e+002  7.5793e+000 17945 113822,113900,113874
 4.9000e+000 113926 -9.4358e+001 -2.5421e+002  1.3421e+002 17945 113796,113900,113822
 4.9000e+000 114075 -4.5470e+001 -4.7211e+002  5.1355e+001 17482 113997,114049,114023
 4.9000e+000 114479 -1.7284e+001 -2.6065e+002 -4.0488e+001 17042 114257,114361,114335
 4.9000e+000 114456 -6.1832e+001 -2.5226e+002 -6.3379e+000 17042 114205,114361,114257
 4.9000e+000 114433 -7.0500e+001 -2.9178e+002  1.1240e+001 17042 114205,114257,114231
 4.9000e+000 114410  5.8308e+001 -3.8707e+002 -2.4367e+001 17042 114283,114335,114309
 4.9000e+000 114387 -2.1661e+000 -3.3519e+002 -1.7057e+001 17042 114257,114335,114283
 4.9000e+000 114879 -1.4590e+002 -2.6797e+002 -1.2846e+000 16638 114631,114683,114657
 4.9000e+000 114856 -2.8174e+001 -2.1870e+002  3.6101e+000 16638 114605,114683,114631
 4.9000e+000 114833  3.6077e+001 -1.2080e+002 -2.8397e+001 16638 114605,114761,114683
 4.9000e+000 114810 -1.0852e+001 -3.0028e+002 -1.4540e+001 16638 114683,114735,114709
 4.9000e+000 114787 -2.4263e+001 -3.1281e+002 -2.0990e+001 16638 114683,114761,114735
 4.9000e+000 115078 -1.2801e+002 -2.9055e+002  7.4077e+000 16232 114954,115006,114980
 4.9000e+000 115055 -1.2849e+002 -3.2222e+002  1.4426e+001 16232 114928,115006,114954
 4.9000e+000 115032 -6.2078e+001 -3.9921e+002  2.7486e+001 16232 114902,115006,114928
 4.9000e+000 115228 -7.3693e+001 -2.8965e+002  9.1943e+000 15482 115101,115153,115127
 4.9000e+000 115205 -6.7796e+001 -2.7470e+002 -3.3990e+000 15482 115101,115179,115153
 4.9000e+000 115331 -5.6029e+001 -2.6513e+002 -3.3420e+001 15163 115253,115305,115279
 4.9000e+000 115434 -9.1469e+001 -2.8980e+002  5.1991e+001 421 115356,115408,115382
 5.0000e+000 68213 -1.8849e+001 -1.4974e+002 -1.5404e+001 67888 68112,68164,68138
 5.0000e+000 68190 -1.8430e+002 -1.9693e+002 -2.8029e+001 67888 68086,68164,68112
 5.0000e+000 68314 -2.5001e+001 -2.1703e+002  1.8591e+001 67576 68236,68288,68262
 5.0000e+000 68584 -8.0778e+001 -3.9169e+002  1.9186e+001 67378 68385,68489,68463
 5.0000e+000 68561 -2.9255e+001 -3.6654e+002  9.9890e+000 67378 68359,68489,68385
 5.0000e+000 68538 -6.0617e+001 -3.3481e+002  2.7777e+001 67378 68385,68463,68411
 5.0000e+000 68515 -3.1763e+001 -2.2135e+002  1.7342e+001 67378 68411,68463,68437
 5.0000e+000 68964 -8.9123e+001 -3.5074e+002  5.1837e+001 67130 68690,68820,68716
 5.0000e+000 68941  6.4917e+001 -3.6281e+002  9.6697e+001 67130 68690,68846,68820
 5.0000e+000 68918 -8.1302e+001 -2.3405e+002  6.3386e+000 67130 68742,68820,68794
 5.0000e+000 68895 -2.1872e+001 -2.3313e+002  2.1478e+001 67130 68716,68820,68742
 5.0000e+000 68872 -5.5758e+001 -1.9928e+002 -2.3280e+001 67130 68742,68794,68768
 5.0000e+000 69065 -6.9529e+001 -2.0376e+002  4.1045e+000 66926 68987,69039,69013
 5.0000e+000 69445 -3.8636e+001 -1.8652e+002 -1.0661e+001 66614 69223,69301,69275
 5.0000e+000 69422 -6.1908e+001 -1.9959e+002 -4.3869e+000 66614 69171,69301,69223
 5.0000e+000 69399 -7.2000e+001 -2.0340e+002  4.2319e-001 66614 69171,69327,69301
 5.0000e+000 69376 -1.6685e+001 -9.0256e+001  2.2981e+000 66614 69223,69275,69249
 5.0000e+000 69353 -5.3411e+001 -2.0999e+002 -3.8462e+000 66614 69171,69223,69197
 5.0000e+000 69546 -6.7745e+001 -3.1736e+002  1.7899e+001 66416 69468,69520,69494
 5.0000e+000 69997 -6.1117e+001 -3.2055e+002 -2.4629e+001 66104 69700,69830,69726
 5.0000e+000 69974 -8.7040e+001 -3.9187e+002 -5.1535e+001 66104 69700,69856,69830
 5.0000e+000 69951 -6.5779e+001 -2.4846e+002 -1.7987e+001 66104 69726,69804,69778
 5.0000e+000 69928 -5.3171e+001 -2.9968e+002 -2.4906e+001 66104 69726,69830,69804
 5.0000e+000 69905 -6.8559e+001 -2.3727e+002 -9.2306e+000 66104 69726,69778,69752
 5.0000e+000 69882 -2.6810e+001 -5.3732e+002 -9.8700e+001 66104 69674,69856,69700
 5.0000e+000 70326 -5.8719e+001 -1.4923e+002  2.8850e+000 65814 70349,70153,70127
 5.0000e+000 70303 -3.6056e+001 -1.4642e+002  6.4493e+000 65814 70349,70127,70101
 5.0000e+000 70280 -3.2503e+001 -1.3770e+002  5.5612e+001 65814 70101,70231,70205
 5.0000e+000 70257  4.9654e+000 -1.6446e+002  1.9036e+001 65814 70153,70205,70179
 5.0000e+000 70375 -4.8256e+001 -1.5760e+002  2.0943e+001 65814 70205,70153,70349
 5.0000e+000 70398 -1.3557e+001 -1.4920e+002  2.1918e+001 65814 70205,70349,70101
 5.0000e+000 70904 -2.4258e+001 -8.1172e+001 -2.5540e+001 65502 70607,70737,70685
 5.0000e+000 70881 -3.4407e+001 -6.6336e+001 -3.3103e+001 65502 70581,70737,70607
 5.0000e+000 70858 -3.3152e+001 -1.9981e+001 -8.1353e+000 65502 70581,70763,70737
 5.0000e+000 70835 -3.6679e+001 -8.8904e+001 -3.4885e+001 65502 70685,70737,70711
 5.0000e+000 70812 -1.3008e+002 -1.0734e+002 -1.9747e+000 65502 70607,70659,70633
 5.0000e+000 70789 -4.0761e+001 -1.1114e+002  1.3809e+000 65502 70607,70685,70659
 5.0000e+000 71103 -3.6512e+001 -2.8023e+002 -8.4496e+000 65304 71126,70979,70953
 5.0000e+000 71080 -6.7723e+001 -2.7924e+002 -3.5779e+000 65304 71126,70953,70927
 5.0000e+000 71057 -9.4972e+001 -2.8353e+002  1.8151e+001 65304 70927,71031,71005
 5.0000e+000 71152 -6.7561e+001 -2.6503e+002 -1.7456e+001 65304 71005,70979,71126
 5.0000e+000 71175 -1.0289e+002 -2.6894e+002 -5.5242e+000 65304 71005,71126,70927
 5.0000e+000 71374 -4.3503e+001 -2.6895e+002  1.3482e+001 65106 71198,71276,71224
 5.0000e+000 71351 -8.0092e+001 -2.8687e+002  6.1553e+000 65106 71198,71302,71276
 5.0000e+000 71328 -2.8296e+001 -2.2871e+002  3.0792e+001 65106 71224,71276,71250
 5.0000e+000 71756 -3.4299e+001 -1.9000e+002 -1.2282e+001 64652 71508,71638,71534
 5.0000e+000 71733  4.9130e-001 -1.7515e+002  3.3622e-001 64652 71482,71638,71508
 5.0000e+000 71710 -6.8554e+001 -1.8796e+002 -1.5890e+001 64652 71534,71586,71560
 5.0000e+000 71687 -5.9691e+001 -2.0516e+002 -3.1187e+001 64652 71534,71612,71586
 5.0000e+000 71664 -9.0241e+001 -2.1406e+002 -3.2847e+001 64652 71534,71638,71612
 5.0000e+000 72085 -8.4880e+001 -2.1174e+002 -2.6690e+001 64248 71886,71964,71912
 5.0000e+000 72062 -6.9176e+001 -2.0744e+002 -2.5967e+001 64248 71860,71964,71886
 5.0000e+000 72039 -3.6471e+001 -2.2594e+002 -1.8248e+001 64248 71912,71964,71938
 5.0000e+000 72016 -6.9043e+001 -1.9501e+002 -2.7049e+001 64248 71860,71990,71964
 5.0000e+000 72235 -7.1319e+000 -1.3643e+002 -1.8193e+001 63858 72588,72258,72134
 5.0000e+000 72212 -3.0761e+001 -1.1933e+002  4.4922e+000 63858 72330,72258,72108
 5.0000e+000 72284 -2.1417e+001 -9.7782e+001 -1.2510e+001 63858 72160,72134,72258
 5.0000e+000 72307 -7.3314e+001 -1.3217e+002 -2.1384e+001 63858 72460,72258,72186
 5.0000e+000 72356 -6.0580e+001 -1.2707e+002 -2.0627e+001 63858 72186,72258,72330
 5.0000e+000 72486 -2.8158e+001 -1.2273e+002 -2.0633e+001 63858 72160,72258,72460
 5.0000e+000 72614 -1.1454e+001 -1.4487e+002 -1.8289e-001 63858 72108,72258,72588
 5.0000e+000 73248 -4.6156e+001 -2.1719e+002  5.1795e+001 63404 72902,72954,72928
 5.0000e+000 73225 -1.1000e+002 -2.2982e+002  2.3263e+001 63404 73271,72954,72902
 5.0000e+000 73202 -9.8323e+001 -1.9038e+002  2.0001e+001 63404 73271,72902,73032
 5.0000e+000 73179 -6.3778e+001 -1.6529e+002  6.0715e+000 63404 72902,73058,73032
 5.0000e+000 73156 -8.3019e+001 -2.1084e+002  1.1390e+001 63404 72980,73032,73006
 5.0000e+000 73133 -5.8404e+001 -1.6838e+002  4.8509e+000 63404 72876,73058,72902
 5.0000e+000 73110 -2.1900e+001 -8.2916e+001 -4.2972e+001 63404 72876,73084,73058
 5.0000e+000 73297 -9.5150e+001 -2.3514e+002 -1.0138e+000 63404 72980,72954,73271
 5.0000e+000 73320 -9.3465e+001 -2.1397e+002 -6.7619e-001 63404 72980,73271,73032
 5.0000e+000 73470 -7.9447e+001 -5.2236e+002  5.5768e+001 63014 73343,73395,73369
 5.0000e+000 73447 -2.4669e+002 -6.3838e+002 -1.1489e+001 63014 73343,73421,73395
 5.0000e+000 73929 -3.7569e+000 -2.3928e+002  1.2937e+001 62702 73759,73811,73785
 5.0000e+000 73906  1.1543e+001 -2.3131e+002  1.6595e+001 62702 73655,73811,73759
 5.0000e+000 73883 -2.7401e+001 -2.6416e+002 -1.2537e+000 62702 73655,73759,73681
 5.0000e+000 73860  6.2333e+000 -1.9604e+002 -4.1645e+001 62702 73681,73759,73707
 5.0000e+000 73837 -1.0756e+002 -2.3016e+002  4.1828e+000 62702 73707,73759,73733
 5.0000e+000 74209 -1.4337e+002 -2.3054e+002  2.2320e+000 62404 74059,74137,74085
 5.0000e+000 74186 -1.6917e+002 -2.9674e+002  3.3760e+001 62404 74033,74137,74059
 5.0000e+000 74163 -1.5261e+002 -2.1172e+002  1.0562e+000 62404 74085,74137,74111
 5.0000e+000 74408 -9.6243e+000 -1.9872e+002  1.0311e+001 62000 74258,74336,74284
 5.0000e+000 74385 -3.7924e+000 -1.9234e+002  2.1367e+001 62000 74232,74336,74258
 5.0000e+000 74362 -4.8380e+001 -1.9956e+002 -3.1091e+000 62000 74284,74336,74310
 5.0000e+000 74509 -1.7596e+001 -2.2261e+002  1.7704e+001 61802 74431,74483,74457
 5.0000e+000 74759 -7.6035e+001 -2.0287e+002  3.4901e+000 61554 74782,74586,74560
 5.0000e+000 74736 -5.0385e+001 -1.8980e+002  8.1381e+000 61554 74782,74560,74664
 5.0000e+000 74713 -6.6183e+001 -1.5298e+002  5.1683e+001 61554 74854,74612,74586
 5.0000e+000 74690 -6.2534e+001 -2.0599e+002  1.2981e+000 61554 74534,74664,74560
 5.0000e+000 74808 -8.9767e+001 -1.8831e+002  1.5029e+001 61554 74854,74586,74782
 5.0000e+000 74831 -5.7589e+001 -2.3732e+002  1.3084e+001 61554 74638,74782,74664
 5.0000e+000 74880 -1.8842e+001 -1.8991e+002  5.6583e+001 61554 74638,74612,74854
 5.0000e+000 74903 -2.0106e+001 -1.8772e+002  2.9411e+001 61554 74638,74854,74782
 5.0000e+000 75285 -3.2607e+001 -2.0614e+002  2.0849e+000 61356 75063,75167,75115
 5.0000e+000 75262 -4.2526e+001 -2.1847e+002 -1.1275e+001 61356 75037,75167,75063
 5.0000e+000 75239  1.1136e+001 -2.1443e+002 -1.0732e+000 61356 75115,75167,75141
 5.0000e+000 75216 -1.1736e+001 -1.9359e+002  7.3320e+000 61356 75063,75115,75089
 5.0000e+000 75193 -9.3471e+001 -1.7578e+002  1.2973e+001 61356 75011,75167,75037
 5.0000e+000 75631 -1.4192e+001 -1.6417e+002  4.8923e+000 60952 75654,75412,75360
 5.0000e+000 75608 -3.1421e+001 -1.8813e+002 -4.7213e+000 60952 75654,75360,75334
 5.0000e+000 75585 -3.1099e+001 -2.4127e+002  1.2954e+001 60952 75726,75438,75412
 5.0000e+000 75562 -2.5462e+001 -1.9204e+002 -3.1495e+001 60952 75308,75490,75334
 5.0000e+000 75539 -1.8771e+001 -1.6455e+002  1.0405e+000 60952 75360,75412,75386
 5.0000e+000 75516 -4.6116e+001 -2.9557e+002 -9.5046e+000 60952 75438,75490,75464
 5.0000e+000 75680 -1.2801e+001 -2.0132e+002  4.7704e+000 60952 75726,75412,75654
 5.0000e+000 75703 -1.3375e+001 -1.9055e+002 -7.7065e+000 60952 75490,75654,75334
 5.0000e+000 75752 -1.3186e+001 -1.9528e+002 -4.7726e-001 60952 75490,75438,75726
 5.0000e+000 75775 -1.3971e+001 -1.9138e+002 -7.9737e+000 60952 75490,75726,75654
 5.0000e+000 76155 -3.4425e+001 -1.9603e+002  7.4203e-001 60754 75933,75985,75959
 5.0000e+000 76132 -5.3055e+001 -2.0751e+002  2.0293e+001 60754 75933,76037,75985
 5.0000e+000 76109  1.7772e+000 -2.0278e+002  6.3309e+000 60754 75985,76037,76011
 5.0000e+000 76086 -8.0562e+001 -1.7618e+002  4.9337e+000 60754 75881,76037,75933
 5.0000e+000 76063 -1.1145e+002 -1.5674e+002  4.3242e+001 60754 75881,75933,75907
 5.0000e+000 76612 -3.6791e+001 -1.8656e+002  8.3659e+000 60350 76635,76442,76390
 5.0000e+000 76589 -3.0747e+000 -2.1081e+002  1.5732e+001 60350 76635,76390,76364
 5.0000e+000 76566 -1.3228e+001 -2.7034e+002 -1.8435e+001 60350 76364,76494,76468
 5.0000e+000 76543 -2.7092e+000 -1.6979e+002  1.6721e+001 60350 76390,76442,76416
 5.0000e+000 76520 -9.5779e+001 -1.7344e+002 -4.1815e+001 60350 76338,76494,76364
 5.0000e+000 76661 -5.5158e+001 -2.0318e+002  1.5700e+001 60350 76468,76442,76635
 5.0000e+000 76684 -3.0445e+001 -2.3080e+002  2.5478e+001 60350 76468,76635,76364
 5.0000e+000 76932 -7.2771e+001 -2.1785e+002  1.5570e+000 59946 76955,76733,76707
 5.0000e+000 76909 -7.3291e+001 -2.1798e+002  6.2110e+000 59946 77027,76955,76707
 5.0000e+000 76886 -6.9745e+001 -2.1893e+002  5.0140e+000 59946 77027,76707,76837
 5.0000e+000 76863 -3.2999e+001 -2.3996e+002 -2.3128e+001 59946 76733,76785,76759
 5.0000e+000 76981 -8.3723e+001 -2.1924e+002 -2.7588e+000 59946 76785,76733,76955
 5.0000e+000 77004 -7.5750e+001 -2.1241e+002  3.8035e+000 59946 76785,76955,76811
 5.0000e+000 77053 -6.8582e+001 -2.1645e+002  6.4249e+000 59946 76811,76955,77027
 5.0000e+000 77076 -6.6236e+001 -2.1792e+002  4.6726e+000 59946 76811,77027,76837
 5.0000e+000 77226 -9.1404e+001 -2.2907e+002  5.7271e+000 59542 77099,77151,77125
 5.0000e+000 77203 -1.1378e+002 -2.7468e+002  1.2900e+001 59542 77099,77177,77151
 5.0000e+000 77427 -1.1643e+002 -2.3748e+002 -1.4648e+001 59030 77450,77277,77251
 5.0000e+000 77404 -7.2043e+001 -1.9119e+002 -6.4234e+001 59030 77450,77251,77355
 5.0000e+000 77381 -2.3389e+001 -2.7939e+002 -5.5497e+000 59030 77277,77329,77303
 5.0000e+000 77476 -6.2361e+001 -2.4697e+002 -4.3540e+001 59030 77329,77277,77450
 5.0000e+000 77499 -1.4268e+001 -2.2491e+002 -8.2641e+001 59030 77329,77450,77355
 5.0000e+000 77749 -9.4664e+001 -2.9676e+002  2.2855e+001 58426 77772,77628,77602
 5.0000e+000 77726 -6.3437e+001 -3.5151e+002  7.6405e+001 58426 77524,77654,77628
 5.0000e+000 77703 -7.8801e+001 -2.9316e+002  1.6874e+001 58426 77772,77602,77550
 5.0000e+000 77680 -4.6351e+001 -2.7492e+002 -1.2019e+001 58426 77550,77602,77576
 5.0000e+000 77798 -7.6106e+001 -2.9919e+002  2.2127e+001 58426 77524,77628,77772
 5.0000e+000 77821 -6.7610e+001 -2.9935e+002  1.4443e+001 58426 77524,77772,77550
 5.0000e+000 78071 -1.2355e+002 -2.6718e+002  2.9227e+001 57922 78094,77924,77898
 5.0000e+000 78048 -1.4346e+002 -2.7111e+002  4.5236e+000 57922 78094,77898,77872
 5.0000e+000 78025 -1.1690e+002 -2.4755e+002  2.7752e+001 57922 78166,77846,77950
 5.0000e+000 78002 -6.2609e+001 -2.4191e+002  3.1703e+001 57922 77846,77976,77950
 5.0000e+000 78120 -1.0357e+002 -2.6805e+002  2.0764e+001 57922 77950,77924,78094
 5.0000e+000 78143 -1.1867e+002 -2.5154e+002  2.1253e+001 57922 78166,77950,78094
 5.0000e+000 78192 -1.1153e+002 -2.5845e+002  2.1056e+001 57922 77872,77846,78166
 5.0000e+000 78215 -1.1918e+002 -2.6973e+002  1.4023e+001 57922 77872,78166,78094
 5.0000e+000 78416  2.3586e+001 -2.2647e+002 -1.0952e+001 57468 78439,78292,78240
 5.0000e+000 78393 -1.2668e+001 -2.1341e+002  8.7532e-001 57468 78439,78240,78344
 5.0000e+000 78370  8.1418e+000 -3.0351e+002 -8.2522e+000 57468 78240,78292,78266
 5.0000e+000 78465 -1.1560e+001 -2.4440e+002 -1.8820e+001 57468 78318,78292,78439
 5.0000e+000 78488 -2.6392e+001 -2.2275e+002 -3.4944e+000 57468 78318,78439,78344
 5.0000e+000 78689  2.4452e+001 -2.7274e+002 -3.1751e+001 57014 78712,78539,78513
 5.0000e+000 78666 -1.6275e+001 -2.7085e+002 -5.3292e+000 57014 78712,78513,78617
 5.0000e+000 78643 -6.1382e+001 -2.7541e+002  2.7172e+001 57014 78565,78617,78591
 5.0000e+000 78738 -2.8000e+001 -2.2875e+002 -3.1928e+001 57014 78565,78539,78712
 5.0000e+000 78761 -8.8247e+001 -2.6348e+002  1.1050e+001 57014 78565,78712,78617
 5.0000e+000 79241 -8.8922e+001 -2.4326e+002  1.9735e+001 56652 79264,78895,78869
 5.0000e+000 79218 -4.1491e+001 -3.1696e+002 -1.8652e+001 56652 79264,78869,79051
 5.0000e+000 79195 -6.2503e+001 -2.7657e+002 -6.4535e+001 56652 78869,79077,79051
 5.0000e+000 79172 -6.8922e+001 -1.6061e+002 -3.6799e+001 56652 78895,78973,78947
 5.0000e+000 79149 -1.1527e+002 -4.7066e+002 -3.9206e+001 56652 78973,79051,78999
 5.0000e+000 79126 -6.0238e+001 -1.5318e+002 -4.0220e+001 56652 78895,78947,78921
 5.0000e+000 79103 -9.2434e+001 -3.1710e+002  7.3979e+001 56652 78999,79051,79025
 5.0000e+000 79290 -5.2648e+001 -1.9698e+002  4.5202e+001 56652 78973,78895,79264
 5.0000e+000 79313 -1.8152e+000 -2.7579e+002  9.2572e+000 56652 78973,79264,79051
 5.0000e+000 79512 -2.8931e+001 -3.5523e+002  2.9090e+001 56062 79388,79440,79414
 5.0000e+000 79489 -1.3569e+002 -1.8409e+002  4.7537e+001 56062 79336,79440,79388
 5.0000e+000 79466 -5.1887e+001 -2.1867e+002  6.1887e+001 56062 79336,79388,79362
 5.0000e+000 79941 -3.8936e+001 -1.9262e+002  3.0681e+001 55658 79964,79670,79644
 5.0000e+000 79918 -5.9286e+001 -1.9598e+002  3.4656e+001 55658 79964,79644,79800
 5.0000e+000 79895 -5.5165e+001 -2.0708e+002  1.7701e+001 55658 80036,79696,79670
 5.0000e+000 79872 -6.5128e+001 -1.7725e+002 -2.0853e+000 55658 80108,79722,79696
 5.0000e+000 79849 -9.4969e+001 -1.7467e+002  8.2781e+000 55658 79722,79774,79748
 5.0000e+000 79826 -1.0985e-001 -1.7499e+002  9.5195e+000 55658 79618,79800,79644
 5.0000e+000 79990 -6.1369e+001 -2.0872e+002  2.3022e+001 55658 80036,79670,79964
 5.0000e+000 80013 -5.3106e+001 -1.8168e+002  3.7000e+001 55658 79774,79964,79800
 5.0000e+000 80062 -4.7111e+001 -1.8956e+002  1.4837e+001 55658 80108,79696,80036
 5.0000e+000 80085 -6.0574e+001 -1.8412e+002  3.2068e+001 55658 79774,80036,79964
 5.0000e+000 80134 -1.0003e+002 -1.8977e+002  5.1322e+000 55658 79774,79722,80108
 5.0000e+000 80157 -8.9889e+001 -2.0693e+002  2.1853e+001 55658 79774,80108,80036
 5.0000e+000 80307 -1.0951e+002 -1.8755e+002  2.2028e+001 55254 80402,80330,80206
 5.0000e+000 80284 -1.0687e+002 -2.5866e+002  2.2736e+001 55254 80330,80180,80258
 5.0000e+000 80356 -1.2888e+002 -2.3163e+002  4.7218e+001 55254 80232,80206,80330
 5.0000e+000 80379 -3.8667e+001 -1.9098e+002  6.8324e+001 55254 80232,80330,80258
 5.0000e+000 80428 -1.4867e+002 -2.3227e+002  3.8120e+000 55254 80180,80330,80402
 5.0000e+000 80659 -5.2321e+001 -2.7271e+002 -2.1408e+001 54850 80558,80610,80584
 5.0000e+000 80636 -5.0905e-001 -2.6043e+002 -2.6982e+001 54850 80532,80610,80558
 5.0000e+000 80760 -1.7984e+001 -1.8822e+002 -1.4727e+001 54652 80682,80734,80708
 5.0000e+000 81164 -1.4810e+001 -2.0169e+002 -3.8911e+000 54248 81187,80942,80890
 5.0000e+000 81141 -1.8325e+001 -2.0395e+002 -2.5122e+000 54248 81187,80890,81046
 5.0000e+000 81118 -2.1449e+001 -2.1205e+002  4.3566e+001 54248 80942,81020,80994
 5.0000e+000 81095 -1.1804e+001 -2.0231e+002  2.1029e+000 54248 80890,80942,80916
 5.0000e+000 81072 -2.8600e+001 -1.1801e+002  6.1632e+000 54248 80942,80994,80968
 5.0000e+000 81213 -1.8783e+001 -1.9946e+002 -3.5853e+000 54248 81020,80942,81187
 5.0000e+000 81236 -2.1463e+001 -2.0066e+002 -2.7001e+000 54248 81020,81187,81046
 5.0000e+000 81663 -1.1534e+002 -2.1685e+002  1.9525e+001 53594 81340,81444,81366
 5.0000e+000 81640 -1.0894e+002 -3.1368e+002  8.8112e+000 53594 81340,81470,81444
 5.0000e+000 81617 -4.7009e+001 -2.7529e+002 -2.1540e+001 53594 81340,81522,81470
 5.0000e+000 81594 -6.3179e+001 -1.5821e+002 -1.7633e+001 53594 81392,81444,81418
 5.0000e+000 81571 -8.4344e+001 -1.8715e+002 -2.7412e+001 53594 81366,81444,81392
 5.0000e+000 81548  5.4527e+000 -3.9733e+002  6.2677e+001 53594 81470,81522,81496
 5.0000e+000 81943 -2.8505e+001 -1.4788e+002 -1.7634e+001 53104 81966,81845,81819
 5.0000e+000 81920 -4.3281e+001 -1.2250e+002 -2.2137e+001 53104 81966,81819,81767
 5.0000e+000 81897 -4.4684e+001 -1.2446e+002 -2.3906e+001 53104 81767,81819,81793
 5.0000e+000 81992 -1.8532e+001 -1.3209e+002 -2.1927e+001 53104 81871,81845,81966
 5.0000e+000 82015 -2.6247e+001 -9.6429e+001 -2.9914e+001 53104 81871,81966,81767
 5.0000e+000 82491 -2.8639e+001 -1.5038e+002 -1.3440e+001 52650 82145,82249,82171
 5.0000e+000 82468 -1.2293e+002 -1.7584e+002 -2.1233e+001 52650 82145,82301,82249
 5.0000e+000 82445 -1.2947e+002 -2.6862e+002 -4.6301e+001 52650 82249,82301,82275
 5.0000e+000 82422 -6.2067e+001 -3.3761e+002 -6.1582e+001 52650 82119,82301,82145
 5.0000e+000 82399 -4.1750e+001 -1.2050e+002  1.4714e+001 52650 82171,82249,82223
 5.0000e+000 82376  1.1708e+001 -3.0932e+002 -4.0646e+001 52650 82119,82327,82301
 5.0000e+000 82353 -1.0421e+001 -6.0837e+001 -2.5040e+001 52650 82171,82223,82197
 5.0000e+000 82739 -3.7727e+001 -1.3909e+002  2.3740e+000 52246 82762,82540,82514
 5.0000e+000 82716 -2.4290e+001 -5.5775e+001 -1.1106e+001 52246 82762,82514,82644
 5.0000e+000 82693 -6.7446e+001 -1.5905e+002  3.4531e+001 52246 82540,82618,82592
 5.0000e+000 82670 -7.8555e+001 -1.4959e+002  2.6691e+001 52246 82540,82592,82566
 5.0000e+000 82788 -2.3940e+001 -1.7882e+002  1.0603e+001 52246 82618,82540,82762
 5.0000e+000 82811 -4.5907e+001 -1.5249e+002 -1.3187e+001 52246 82618,82762,82644
 5.0000e+000 83059 -2.2797e+001 -2.0088e+002  1.9240e+001 51578 82860,82964,82938
 5.0000e+000 83036 -1.2533e+000 -1.3432e+002 -4.3092e+001 51578 82834,82964,82860
 5.0000e+000 83013 -9.7192e+000 -1.5472e+002  4.1572e+001 51578 82860,82938,82886
 5.0000e+000 82990 -7.0687e+000 -9.7239e+001  7.5481e+000 51578 82886,82938,82912
 5.0000e+000 83309 -3.6453e+001 -1.1231e+002  3.2102e+001 51138 83332,83162,83136
 5.0000e+000 83286 -1.3371e+001 -1.4696e+002  1.0339e+001 51138 83332,83136,83110
 5.0000e+000 83263 -5.6325e+001 -1.5182e+002 -8.5188e+000 51138 83404,83214,83188
 5.0000e+000 83240 -7.6123e-001 -9.2108e+001  7.8993e+000 51138 83084,83214,83110
 5.0000e+000 83358 -6.0036e+001 -1.5570e+002  4.2701e+001 51138 83188,83162,83332
 5.0000e+000 83381 -3.9264e+001 -1.6887e+002  7.4673e+000 51138 83404,83188,83332
 5.0000e+000 83430 -3.5373e+001 -1.0905e+002 -8.0796e-001 51138 83110,83214,83404
 5.0000e+000 83453 -2.1305e+001 -1.3548e+002  1.4542e+001 51138 83110,83404,83332
 5.0000e+000 83835 -3.4285e+001 -1.8911e+002 -1.1506e+000 50734 83613,83717,83691
 5.0000e+000 83812 -3.8607e+001 -2.0443e+002 -4.0437e+001 50734 83561,83717,83613
 5.0000e+000 83789 -2.0296e+001 -1.0574e+002 -5.8425e+001 50734 83561,83613,83587
 5.0000e+000 83766 -7.2792e+001 -1.2848e+002 -3.3789e-002 50734 83613,83691,83639
 5.0000e+000 83743 -7.7295e+001 -1.2988e+002  2.7475e+001 50734 83639,83691,83665
 5.0000e+000 84034 -4.8466e+001 -1.1945e+002  7.7258e+000 50230 84057,83884,83858
 5.0000e+000 84011 -4.7887e+001 -1.2943e+002 -1.1296e+001 50230 84129,84057,83858
 5.0000e+000 83988 -1.5078e+001 -1.3883e+002 -1.9507e+001 50230 84129,83858,83962
 5.0000e+000 84083 -2.1370e+001 -1.0857e+002  8.6456e+000 50230 83910,83884,84057
 5.0000e+000 84106 -2.9864e+001 -1.2031e+002  2.9390e+000 50230 83910,84057,83936
 5.0000e+000 84155 -5.2422e+000 -1.0944e+002 -1.5827e+000 50230 83936,84057,84129
 5.0000e+000 84178  7.1886e+000 -1.3335e+002 -1.4599e+001 50230 83936,84129,83962
 5.0000e+000 84558 -5.2742e+001 -1.5739e+002 -2.5704e+001 49768 84581,84388,84362
 5.0000e+000 84535 -1.0935e+002 -1.6002e+002 -1.0236e+001 49768 84581,84362,84310
 5.0000e+000 84512  4.0702e+000 -1.7267e+002 -2.7888e+001 49768 84653,84440,84414
 5.0000e+000 84489 -8.5917e+001 -1.7448e+002  1.2645e+001 49768 84310,84362,84336
 5.0000e+000 84466 -3.1885e+000 -1.2464e+002  2.0123e+001 49768 84284,84440,84310
 5.0000e+000 84607 -1.4264e+001 -1.3371e+002 -4.3540e+001 49768 84414,84388,84581
 5.0000e+000 84630 -1.8620e+001 -1.6195e+002 -1.9717e+001 49768 84653,84414,84581
 5.0000e+000 84679 -2.6500e+001 -1.6281e+002 -3.8170e+001 49768 84310,84440,84653
 5.0000e+000 84702 -5.8938e+001 -1.6305e+002 -3.8810e+001 49768 84310,84653,84581
 5.0000e+000 85159 -8.4872e+001 -2.2057e+002 -6.3896e+001 49192 84885,84937,84911
 5.0000e+000 85136 -8.5979e+001 -1.7574e+002 -4.5431e+001 49192 84885,85041,84937
 5.0000e+000 85113 -5.9361e+001 -1.4821e+002 -2.0372e+001 49192 84963,85041,84989
 5.0000e+000 85090 -5.1193e+001 -1.3348e+002 -2.9779e+001 49192 84937,85041,84963
 5.0000e+000 85067 -4.7462e+001 -1.4350e+002 -2.1379e+001 49192 84989,85041,85015
 5.0000e+000 85714 -8.9096e+001 -1.4707e+002 -5.1323e-001 48638 85368,85498,85394
 5.0000e+000 85691 -1.1019e+002 -1.7174e+002  8.7547e+000 48638 85368,85524,85498
 5.0000e+000 85668 -1.0179e+002 -1.4197e+002  3.8994e+001 48638 85737,85420,85394
 5.0000e+000 85645 -8.5159e+001 -1.6116e+002  2.0042e+001 48638 85737,85394,85498
 5.0000e+000 85622 -6.7115e+001 -1.6322e+002  3.3065e+001 48638 85446,85498,85472
 5.0000e+000 85599 -2.8604e+001 -1.4061e+002  1.5862e+001 48638 85342,85524,85368
 5.0000e+000 85576 -1.0833e+002 -1.5847e+002  1.5150e+001 48638 85342,85550,85524
 5.0000e+000 85763 -7.2274e+001 -1.2635e+002  5.1092e+001 48638 85446,85420,85737
 5.0000e+000 85786 -7.3112e+001 -1.4605e+002  2.9461e+001 48638 85446,85737,85498
 5.0000e+000 86371 -7.5229e+001 -1.0964e+002 -6.2709e+000 48084 86100,86230,86178
 5.0000e+000 86348 -9.3301e+001 -1.4138e+002 -1.5582e+001 48084 86048,86230,86100
 5.0000e+000 86325 -7.2909e+001 -1.0100e+002  2.7489e+001 48084 86100,86178,86126
 5.0000e+000 86302 -4.8853e+001 -3.6618e+001 -2.8895e+001 48084 86048,86100,86074
 5.0000e+000 86279 -9.5193e+001 -1.7770e+002 -3.0849e+000 48084 86178,86230,86204
 5.0000e+000 86256 -6.5795e+001 -1.1147e+002  2.7172e+001 48084 86126,86178,86152
 5.0000e+000 86619 -5.3464e+001 -1.2159e+002  1.1916e+001 47630 86642,86446,86420
 5.0000e+000 86596 -6.5501e+001 -1.3599e+002 -1.5131e+001 47630 86642,86420,86394
 5.0000e+000 86573 -8.6689e+001 -1.5851e+002 -2.2430e+001 47630 86394,86524,86498
 5.0000e+000 86550 -3.6221e+001 -1.3806e+002  1.0304e+001 47630 86446,86498,86472
 5.0000e+000 86668 -6.7458e+001 -1.5262e+002  1.2043e+000 47630 86498,86446,86642
 5.0000e+000 86691 -7.3890e+001 -1.5754e+002 -2.5276e+001 47630 86498,86642,86394
 5.0000e+000 87022 -7.0551e+000 -8.7776e+001 -5.0251e+001 47226 87045,86875,86849
 5.0000e+000 86999 -3.2113e+000 -9.8510e+001 -4.7509e+001 47226 87045,86849,86797
 5.0000e+000 86976 -7.7240e-003 -4.5793e+001 -1.2926e+001 47226 86797,86849,86823
 5.0000e+000 86953  2.6512e+000 -6.2569e+001 -2.6618e+001 47226 86875,86927,86901
 5.0000e+000 87071 -1.3312e+001 -9.5547e+001 -4.7548e+001 47226 86927,86875,87045
 5.0000e+000 87094 -6.6164e+000 -1.0288e+002 -4.5982e+001 47226 86927,87045,86797
 5.0000e+000 87244 -1.0196e+001 -1.7280e+002  4.5630e+001 46814 87267,87169,87143
 5.0000e+000 87221 -8.2362e+001 -1.5714e+002 -9.6463e+000 46814 87267,87143,87117
 5.0000e+000 87293 -8.9350e+000 -1.2805e+002  2.8379e+001 46814 87339,87267,87195
 5.0000e+000 87316 -4.5096e+000 -1.2382e+002  2.8863e+000 46814 87469,87267,87117
 5.0000e+000 87365 -6.0821e-001 -1.2234e+002  3.3710e+001 46814 87169,87267,87339
 5.0000e+000 87495 -1.1986e-001 -9.3951e+000 -2.4792e+000 46814 87195,87267,87469
 5.0000e+000 88001 -5.1531e+001 -1.1940e+002  3.1839e+001 46310 88024,87834,87808
 5.0000e+000 87978 -6.4376e+001 -1.2235e+002  1.8970e+001 46310 88024,87808,87756
 5.0000e+000 87955 -3.4019e+001 -1.6002e+002  8.1601e+000 46310 88096,87730,87860
 5.0000e+000 87932 -4.6178e+001 -1.5929e+002  1.9944e+001 46310 87756,87808,87782
 5.0000e+000 87909 -4.3825e+001 -1.9089e+002  6.6951e+000 46310 87678,87860,87730
 5.0000e+000 87886 -6.7027e+001 -3.1231e+002 -1.6659e+001 46310 87678,87730,87704
 5.0000e+000 88050 -4.4959e+001 -1.0543e+002  1.9314e+001 46310 87860,87834,88024
 5.0000e+000 88073 -3.4880e+001 -1.1498e+002  2.2494e+001 46310 88096,87860,88024
 5.0000e+000 88122 -4.4264e+001 -1.8143e+002 -7.1868e+000 46310 87756,87730,88096
 5.0000e+000 88145 -7.2971e+001 -1.6358e+002  8.7937e-001 46310 87756,88096,88024
 5.0000e+000 88572 -3.4341e+001 -1.5964e+002  9.8671e+000 45856 88249,88405,88275
 5.0000e+000 88549 -2.7946e+001 -5.0374e+001 -3.1973e+001 45856 88249,88431,88405
 5.0000e+000 88526 -8.0660e+001 -2.2361e+002 -2.9780e+001 45856 88327,88405,88353
 5.0000e+000 88503 -3.6480e+001 -1.9342e+002 -1.3211e+001 45856 88275,88405,88327
 5.0000e+000 88480 -6.7320e+001 -1.9684e+002 -3.5769e+001 45856 88353,88405,88379
 5.0000e+000 88457 -1.5191e+002 -4.1105e+002  3.4153e+001 45856 88275,88327,88301
 5.0000e+000 88950 -2.5709e+001 -9.3734e+001 -2.5375e+000 45658 88973,88754,88728
 5.0000e+000 88927 -2.2486e+001 -9.2395e+001 -1.5385e+000 45658 88973,88728,88676
 5.0000e+000 88904 -2.7895e+001 -1.1002e+002  3.6731e+001 45658 88676,88832,88806
 5.0000e+000 88881 -4.3035e+001 -1.3277e+002  1.1843e+001 45658 88676,88728,88702
 5.0000e+000 88858 -3.9485e+001 -8.9490e+001 -2.0332e+001 45658 88754,88806,88780
 5.0000e+000 88999 -2.7868e+001 -9.1525e+001 -1.2368e+000 45658 88806,88754,88973
 5.0000e+000 89022 -2.5354e+001 -9.0859e+001 -8.3632e-001 45658 88806,88973,88676
 5.0000e+000 89351 -4.6546e+001 -1.5905e+002 -7.7022e+000 45254 89152,89230,89204
 5.0000e+000 89328 -4.3330e+001 -1.5782e+002 -8.1145e+000 45254 89152,89256,89230
 5.0000e+000 89305 -1.5057e+001 -1.6762e+002 -2.1302e+001 45254 89126,89256,89152
 5.0000e+000 89282  2.4600e+000 -1.5937e+002 -2.8646e+001 45254 89152,89204,89178
 5.0000e+000 89523 -2.0027e+001 -1.1329e+002 -6.2371e-002 45006 89422,89474,89448
 5.0000e+000 89500 -1.4845e+001 -1.1110e+002  4.0772e+000 45006 89396,89474,89422
 5.0000e+000 89673 -1.3029e+002 -2.2914e+002  1.9545e+001 44495 89572,89624,89598
 5.0000e+000 89650 -1.3385e+002 -2.3042e+002  1.2768e+001 44495 89546,89624,89572
 5.0000e+000 90104 -1.3144e+001 -1.6936e+002 -9.1156e+000 44005 90199,90127,89937
 5.0000e+000 90081 -3.3643e+001 -1.6639e+002  2.4618e+000 44005 90271,90127,89859
 5.0000e+000 90058 -2.8895e+000 -1.7435e+002 -9.6526e+000 44005 90199,89937,89885
 5.0000e+000 90035 -4.6778e+001 -1.5732e+002  9.9647e+000 44005 90271,89859,89807
 5.0000e+000 90012 -2.4816e+001 -1.9041e+002 -2.2896e+001 44005 89885,89937,89911
 5.0000e+000 89989 -1.1953e+001 -1.6795e+002  2.8607e+001 44005 89807,89859,89833
 5.0000e+000 90153 -3.5459e+001 -1.7742e+002 -5.7211e+000 44005 89963,89937,90127
 5.0000e+000 90176 -3.8052e+001 -1.9002e+002  3.9246e+000 44005 89963,90127,89781
 5.0000e+000 90225 -3.7299e+001 -1.6847e+002 -3.3232e+000 44005 89859,90127,90199
 5.0000e+000 90248 -1.6019e+001 -1.6634e+002  3.8263e-001 44005 89859,90199,89885
 5.0000e+000 90297 -5.1279e+001 -1.7738e+002 -2.3136e+000 44005 89781,90127,90271
 5.0000e+000 90320 -5.8881e+001 -1.6545e+002  6.3756e+000 44005 89781,90271,89807
 5.0000e+000 90470 -2.8567e+001 -1.8031e+002 -5.4502e+000 43601 90493,90369,90343
 5.0000e+000 90447 -4.8612e+001 -1.4557e+002  1.1530e+001 43601 90493,90343,90421
 5.0000e+000 90519 -5.9213e+001 -2.4440e+002 -2.7818e+001 43601 90395,90369,90493
 5.0000e+000 90542 -4.7111e+001 -1.7102e+002 -6.1932e+000 43601 90395,90493,90421
 5.0000e+000 90922 -6.1384e+001 -1.9330e+002  1.1772e+001 43154 90945,90700,90674
 5.0000e+000 90899 -5.3778e+001 -1.9678e+002 -2.2397e+001 43154 90945,90674,90648
 5.0000e+000 90876 -6.5234e+001 -1.5353e+002 -1.4636e+001 43154 90648,90778,90752
 5.0000e+000 90853 -3.5223e+001 -3.1217e+002  8.9955e+000 43154 90700,90752,90726
 5.0000e+000 90830 -4.0036e+001 -1.5480e+002 -6.0903e+000 43154 90648,90804,90778
 5.0000e+000 90971 -7.0963e+001 -2.2319e+002  1.7925e+001 43154 90752,90700,90945
 5.0000e+000 90994 -6.1083e+001 -2.1491e+002 -1.5349e+001 43154 90752,90945,90648
 5.0000e+000 91451 -1.7927e+001 -1.4998e+002 -2.7890e+001 42650 91203,91255,91229
 5.0000e+000 91428  1.4975e+001 -1.3565e+002 -1.3467e+001 42650 91203,91333,91255
 5.0000e+000 91405 -1.7119e+000 -2.1963e+002 -3.7971e+001 42650 91177,91333,91203
 5.0000e+000 91382 -6.8418e+001 -2.3553e+002  2.9995e+001 42650 91255,91333,91281
 5.0000e+000 91359 -1.5753e+001 -1.9857e+002  1.0958e+001 42650 91281,91333,91307
 5.0000e+000 91721 -9.9855e+001 -2.2585e+002  1.5949e+001 42288 91496,91600,91522
 5.0000e+000 91698 -5.3343e+001 -1.3069e+002 -5.8406e+000 42288 91496,91626,91600
 5.0000e+000 91675 -6.2351e+001 -2.0319e+002  1.7719e+001 42288 91522,91574,91548
 5.0000e+000 91652 -5.1423e+001 -2.0707e+002  1.6582e+001 42288 91522,91600,91574
 5.0000e+000 92199 -1.4928e+002 -2.4466e+002 -6.1451e+000 41898 92222,91983,91879
 5.0000e+000 92176 -1.5263e+002 -2.6841e+002 -1.5564e+001 41898 92294,92222,91879
 5.0000e+000 92153 -1.6107e+002 -2.6452e+002 -2.1839e+001 41898 92294,91879,91853
 5.0000e+000 92130 -1.3011e+002 -1.4955e+002  1.6411e+001 41898 91879,91957,91931
 5.0000e+000 92107 -1.3374e+002 -2.3868e+002 -6.8239e-001 41898 91879,91983,91957
 5.0000e+000 92084 -1.4238e+002 -1.3928e+002  3.0984e+001 41898 91879,91931,91905
 5.0000e+000 92061 -1.4258e+002 -2.3814e+002 -1.7681e+001 41898 91827,92035,91853
 5.0000e+000 92248 -1.4775e+002 -2.7411e+002  1.4340e-001 41898 92009,91983,92222
 5.0000e+000 92271 -1.4387e+002 -2.7949e+002 -2.1000e+001 41898 92009,92222,92035
 5.0000e+000 92320 -1.3837e+002 -2.6235e+002 -1.6918e+001 41898 92035,92222,92294
 5.0000e+000 92343 -1.4462e+002 -2.5742e+002 -2.2840e+001 41898 92035,92294,91853
 5.0000e+000 92770 -4.4784e+001 -2.0998e+002 -1.5188e+001 41437 92865,92793,92525
 5.0000e+000 92747 -6.3678e+001 -2.4420e+002 -2.1541e+001 41437 92793,92473,92629
 5.0000e+000 92724 -1.9628e+001 -2.1597e+002 -2.8741e+001 41437 92865,92525,92499
 5.0000e+000 92701 -7.1167e+001 -1.8848e+002 -3.3721e+001 41437 92525,92603,92577
 5.0000e+000 92678  1.4076e+000 -2.3627e+002 -1.9160e+001 41437 92447,92629,92473
 5.0000e+000 92655 -1.1078e+002 -1.6825e+002 -1.9787e+001 41437 92525,92577,92551
 5.0000e+000 92819 -5.1691e+001 -2.2575e+002 -3.3676e+001 41437 92603,92525,92793
 5.0000e+000 92842 -1.0055e+002 -2.4247e+002 -6.1921e+001 41437 92603,92793,92629
 5.0000e+000 92891  4.8506e+000 -2.2943e+002 -1.9871e+001 41437 92473,92793,92865
 5.0000e+000 92914  4.1382e+001 -2.1997e+002 -3.9697e+001 41437 92473,92865,92499
 5.0000e+000 93243 -3.7439e+001 -3.2386e+002  1.1834e+002 41097 93044,93096,93070
 5.0000e+000 93220 -6.4638e+001 -2.8497e+002  6.3185e+001 41097 93044,93122,93096
 5.0000e+000 93197  1.2854e+001 -1.8983e+002  2.5349e+001 41097 93044,93148,93122
 5.0000e+000 93174 -6.0475e+001 -1.4537e+002  5.9463e+001 41097 93018,93148,93044
 5.0000e+000 93393 -5.2628e+000 -2.3823e+002  1.6491e+001 40643 93416,93292,93344
 5.0000e+000 93370 -1.0648e+001 -2.2049e+002  1.8503e+001 40643 93266,93344,93292
 5.0000e+000 93442 -8.0231e+000 -2.3493e+002  2.3066e+001 40643 93318,93292,93416
 5.0000e+000 93901 -7.1449e+001 -2.1717e+002 -1.5142e+001 40132 93924,93731,93705
 5.0000e+000 93878 -7.4244e+001 -2.2320e+002 -1.6590e+001 40132 93996,93924,93705
 5.0000e+000 93855 -8.7820e+001 -2.5647e+002 -5.7172e+000 40132 93996,93705,93653
 5.0000e+000 93832 -3.8033e+001 -2.4865e+002 -1.3486e+001 40132 93653,93705,93679
 5.0000e+000 93809 -7.1036e+001 -2.1492e+002  1.9821e+000 40132 93627,93783,93757
 5.0000e+000 93950 -6.9068e+001 -2.2982e+002 -1.7694e+001 40132 93757,93731,93924
 5.0000e+000 93973 -7.7574e+001 -2.0439e+002 -4.4640e+000 40132 93757,93924,93627
 5.0000e+000 94022 -9.9252e+001 -2.4424e+002  7.1891e+000 40132 93627,93924,93996
 5.0000e+000 94045 -9.1997e+001 -2.5578e+002  1.5192e+001 40132 93627,93996,93653
 5.0000e+000 94423 -1.5265e+001 -2.5538e+002 -3.6120e+001 39514 94149,94227,94175
 5.0000e+000 94400 -2.6418e+001 -2.4036e+002  2.7511e+001 39514 94149,94305,94227
 5.0000e+000 94377  6.2548e+000 -3.0136e+002 -3.4612e+001 39514 94175,94227,94201
 5.0000e+000 94354 -7.4697e+001 -2.2440e+002  1.1985e+001 39514 94227,94305,94279
 5.0000e+000 94331 -3.1300e+001 -2.0416e+002  2.2428e+001 39514 94227,94279,94253
 5.0000e+000 94573 -1.9895e+001 -1.4472e+002 -2.8995e+001 38822 94596,94498,94472
 5.0000e+000 94550  2.8996e+001 -1.5472e+002  3.4451e+001 38822 94596,94472,94446
 5.0000e+000 94622 -7.6257e+001 -1.6868e+002 -3.1292e+001 38822 94524,94498,94596
 5.0000e+000 94645 -6.4468e+001 -1.9440e+002  3.8668e+001 38822 94524,94596,94446
 5.0000e+000 95025 -1.2409e+001 -1.8683e+002 -1.3619e+001 38418 95048,94829,94777
 5.0000e+000 95002 -1.8410e+001 -1.9735e+002 -2.3559e+001 38418 95120,95048,94777
 5.0000e+000 94979 -1.3346e+001 -1.9582e+002 -2.1958e+001 38418 95120,94777,94751
 5.0000e+000 94956 -1.1004e+001 -1.7573e+002 -2.5481e+001 38418 95192,94881,94855
 5.0000e+000 94933 -5.7003e+001 -1.6336e+002 -8.9840e+000 38418 94777,94829,94803
 5.0000e+000 95074 -3.2708e+001 -2.4740e+002 -5.3175e+000 38418 94855,94829,95048
 5.0000e+000 95097 -1.5757e+001 -1.9562e+002 -2.7960e+001 38418 95192,94855,95048
 5.0000e+000 95146 -3.4529e+001 -1.8885e+002 -1.8762e+001 38418 94907,95048,95120
 5.0000e+000 95169 -2.1146e+001 -1.8045e+002 -1.4292e+001 38418 94907,95120,94751
 5.0000e+000 95218 -1.6520e+001 -1.3886e+002 -2.2600e+001 38418 94907,94881,95192
 5.0000e+000 95241 -2.8046e+001 -1.7069e+002 -1.9876e+001 38418 94907,95192,95048
 5.0000e+000 95511 -6.0941e+001 -1.9966e+002  1.0807e+001 38049 95312,95390,95364
 5.0000e+000 95488 -4.0195e+001 -1.9045e+002  9.1465e+000 38049 95312,95416,95390
 5.0000e+000 95465 -1.9663e+001 -1.8968e+002 -1.0496e+001 38049 95312,95364,95338
 5.0000e+000 95442 -1.7113e+001 -1.7337e+002  1.7187e+001 38049 95286,95416,95312
 5.0000e+000 95808 -5.9833e+001 -2.3652e+002 -5.7933e+000 37437 95831,95586,95560
 5.0000e+000 95785  2.4105e+001 -2.4868e+002 -1.0699e+001 37437 95831,95560,95534
 5.0000e+000 95762 -1.2129e+002 -2.2608e+002  7.1002e+000 37437 95586,95664,95638
 5.0000e+000 95739 -1.7331e+001 -1.1335e+002 -6.1264e+001 37437 95534,95690,95664
 5.0000e+000 95716 -1.1407e+002 -1.6434e+002  6.0663e+000 37437 95586,95638,95612
 5.0000e+000 95857 -1.1408e+002 -2.2958e+002  2.8166e+001 37437 95664,95586,95831
 5.0000e+000 95880 -2.5283e+001 -2.3936e+002  2.4459e+001 37437 95664,95831,95534
 5.0000e+000 96390 -8.1977e+001 -1.7852e+002 -1.0427e+001 36883 96413,96145,96093
 5.0000e+000 96367 -6.8005e+001 -1.7129e+002 -5.3021e+000 36883 96413,96093,96067
 5.0000e+000 96344 -4.8293e+001 -2.0973e+002 -7.8753e-002 36883 96067,96249,96171
 5.0000e+000 96321 -7.1617e+001 -2.0529e+002 -3.9065e+000 36883 96093,96145,96119
 5.0000e+000 96298 -1.0093e+002 -3.4357e+002  3.1964e+001 36883 96171,96249,96197
 5.0000e+000 96275 -2.7592e+001 -2.7562e+002 -3.7633e+000 36883 96197,96249,96223
 5.0000e+000 96439 -7.7290e+001 -1.7163e+002  1.8631e+000 36883 96171,96145,96413
 5.0000e+000 96462 -6.6173e+001 -1.6951e+002  5.8610e+000 36883 96171,96413,96067
 5.0000e+000 96781 -6.5062e+001 -2.0373e+002 -2.9511e+001 36215 96559,96663,96637
 5.0000e+000 96758 -8.2480e+001 -2.2039e+002 -3.6572e+001 36215 96507,96663,96559
 5.0000e+000 96735 -7.9958e+001 -1.4924e+002  1.5232e+001 36215 96585,96637,96611
 5.0000e+000 96712 -1.6984e+002 -2.3584e+002 -2.5681e+001 36215 96559,96637,96585
 5.0000e+000 96689 -3.1374e+001 -2.5101e+002 -7.2040e+000 36215 96507,96559,96533
 5.0000e+000 97161  3.6107e+000 -1.1038e+002 -5.5377e+000 35818 97184,96965,96939
 5.0000e+000 97138 -1.0501e+001 -1.3009e+002 -1.2224e+001 35818 97184,96939,96887
 5.0000e+000 97115 -5.8978e+000 -1.4094e+002  2.5875e+001 35818 96965,97043,97017
 5.0000e+000 97092 -5.6935e+000 -1.2435e+002 -1.4553e+001 35818 96887,96939,96913
 5.0000e+000 97069 -7.4693e+001 -1.4386e+002  1.6058e+001 35818 96965,97017,96991
 5.0000e+000 97210  1.8786e+001 -1.2728e+002  5.5212e+000 35818 97043,96965,97184
 5.0000e+000 97233  7.6688e+000 -1.4127e+002  1.9858e-001 35818 97043,97184,96887
 5.0000e+000 97739 -6.7360e+001 -2.0483e+002 -4.8477e+001 35214 97416,97468,97442
 5.0000e+000 97716 -7.9097e+001 -1.4671e+002 -1.5584e+001 35214 97416,97598,97468
 5.0000e+000 97693 -6.8347e+001 -1.3799e+002 -6.2574e+000 35214 97762,97520,97468
 5.0000e+000 97670 -7.1936e+001 -1.4222e+002 -1.2212e+001 35214 97762,97468,97598
 5.0000e+000 97647 -5.3683e+001 -1.3712e+002 -2.0267e+001 35214 97546,97598,97572
 5.0000e+000 97624 -4.3034e+001 -1.4247e+002 -8.4254e+000 35214 97468,97520,97494
 5.0000e+000 97788 -7.0600e+001 -1.4524e+002 -9.8814e+000 35214 97546,97520,97762
 5.0000e+000 97811 -7.2031e+001 -1.4843e+002 -1.5390e+001 35214 97546,97762,97598
 5.0000e+000 98189 -8.9997e+000 -1.0526e+002 -1.1008e+001 34760 98356,98212,97967
 5.0000e+000 98166 -2.1919e+001 -1.2742e+002 -2.1624e+001 34760 98284,98212,97941
 5.0000e+000 98143 -4.4783e+001 -1.1416e+002 -1.1116e+001 34760 98284,97941,97915
 5.0000e+000 98120 -1.1800e+001 -1.4304e+002 -5.4361e+000 34760 98484,97993,97967
 5.0000e+000 98097 -1.0620e+001 -1.1806e+002 -3.4850e+000 34760 98556,98045,98019
 5.0000e+000 98238 -1.8412e+001 -1.3393e+002 -5.6666e+000 34760 98484,97967,98212
 5.0000e+000 98261  1.3384e+000 -1.2294e+002 -9.6403e+000 34760 98556,98019,98212
 5.0000e+000 98310 -3.2385e+000 -1.0291e+002 -3.0141e+001 34760 98071,98212,98284
 5.0000e+000 98333 -1.7547e+001 -6.9955e+001 -2.4043e+001 34760 98071,98284,97915
 5.0000e+000 98382 -6.4903e+001 -1.4232e+002 -2.7832e+001 34760 97941,98212,98356
 5.0000e+000 98510 -1.7050e+000 -1.3495e+002 -9.1711e+000 34760 98019,97993,98484
 5.0000e+000 98533 -1.2193e+001 -1.2903e+002 -8.3621e+000 34760 98019,98484,98212
 5.0000e+000 98582  4.5198e+000 -1.1121e+002 -8.1462e-001 34760 98071,98045,98556
 5.0000e+000 98605  9.5520e+000 -1.2038e+002 -8.2187e+000 34760 98071,98556,98212
 5.0000e+000 99032 -8.0296e+001 -1.8487e+002  2.7817e+001 34156 98735,98891,98839
 5.0000e+000 99009 -6.7894e+001 -1.9158e+002  1.2188e+001 34156 98709,98891,98735
 5.0000e+000 98986 -2.3308e+001 -1.6481e+002  2.5789e+001 34156 98735,98813,98787
 5.0000e+000 98963 -2.8154e+001 -1.8008e+002  2.2162e+001 34156 98735,98839,98813
 5.0000e+000 98940  1.1493e+001 -2.4627e+002  2.9389e+001 34156 98735,98787,98761
 5.0000e+000 98917 -7.2515e+001 -1.6489e+002  1.8344e+001 34156 98839,98891,98865
 5.0000e+000 99231 -2.0779e+001 -9.4528e+001  8.7084e+000 33766 99055,99133,99107
 5.0000e+000 99208 -4.1142e+001 -1.2833e+002  1.8524e+001 33766 99055,99159,99133
 5.0000e+000 99185 -9.7354e+000 -1.1408e+002  2.2372e+001 33766 99055,99107,99081
 5.0000e+000 99818 -4.2496e+001 -1.3465e+002  2.9335e+000 33248 99521,99651,99573
 5.0000e+000 99795 -4.2732e+001 -1.2851e+002  1.3837e+001 33248 99521,99677,99651
 5.0000e+000 99772 -6.7269e+001 -1.6469e+002 -9.4342e+000 33248 99573,99651,99599
 5.0000e+000 99749 -4.4842e+001 -1.5961e+002  1.4931e+001 33248 99495,99677,99521
 5.0000e+000 99726 -2.9797e+001 -1.4161e+002 -3.4183e+001 33248 99599,99651,99625
 5.0000e+000 99703 -5.5164e+001 -1.6309e+002  9.9184e+000 33248 99521,99573,99547
 5.0000e+000 100196 -4.8852e+001 -1.5103e+002 -2.8780e+001 32794 100219,99948,99922
 5.0000e+000 100173 -5.7304e+001 -1.6879e+002 -1.3689e+001 32794 100219,99922,100052
 5.0000e+000 100150 -7.6916e+001 -1.5322e+002  9.4882e+000 32794 99974,100052,100026
 5.0000e+000 100127 -6.9915e+001 -1.3655e+002 -2.2530e+001 32794 99922,100078,100052
 5.0000e+000 100104 -7.8622e+001 -1.8469e+002  3.4831e+001 32794 99974,100026,100000
 5.0000e+000 100245 -6.5894e+001 -1.4799e+002 -1.1536e+001 32794 99974,99948,100219
 5.0000e+000 100268 -7.1149e+001 -1.7165e+002  3.6696e+000 32794 99974,100219,100052
 5.0000e+000 100418 -1.1219e+001 -1.4362e+002 -1.5839e+001 32504 100571,100343,100317
 5.0000e+000 100395 -5.9202e+001 -1.6539e+002  1.4412e+001 32504 100571,100317,100441
 5.0000e+000 100467  4.0396e+001 -7.9418e+001 -4.3888e+001 32504 100291,100369,100441
 5.0000e+000 100597  9.9899e+000 -1.2066e+002 -5.3571e+001 32504 100369,100343,100571
 5.0000e+000 100620 -1.1664e+001 -1.1274e+002 -2.7449e+001 32504 100369,100571,100441
 5.0000e+000 101020 -1.7234e+001 -1.1468e+002  4.2443e+000 32142 100772,100902,100876
 5.0000e+000 100997 -1.1103e+001 -1.0104e+002  6.6163e+000 32142 100746,100902,100772
 5.0000e+000 100974  1.9911e+000 -1.2637e+002  1.6539e+001 32142 101043,100824,100798
 5.0000e+000 100951 -2.0449e+001 -1.3668e+002  1.2275e+001 32142 101043,100798,100772
 5.0000e+000 100928 -7.1462e+001 -1.6077e+002 -4.0622e+001 32142 101115,100876,100850
 5.0000e+000 101069  2.7155e+001 -1.3931e+002 -1.4176e+001 32142 100850,100824,101043
 5.0000e+000 101092 -3.4038e+001 -1.6578e+002 -1.9179e+001 32142 101115,100850,101043
 5.0000e+000 101141 -2.5261e+001 -1.3421e+002 -1.4972e+001 32142 100772,100876,101115
 5.0000e+000 101164  3.8155e+000 -1.3760e+002  8.4035e+000 32142 100772,101115,101043
 5.0000e+000 101719 -7.9777e+001 -1.9137e+002  2.5492e+001 31538 101742,101477,101399
 5.0000e+000 101696 -9.8250e+001 -2.3208e+002  6.0632e+000 31538 101814,101742,101399
 5.0000e+000 101673 -1.1280e+002 -1.9948e+002 -1.5888e+001 31538 101814,101399,101373
 5.0000e+000 101650 -7.9869e+001 -1.3709e+002  1.7882e+001 31538 101425,101477,101451
 5.0000e+000 101627 -7.4761e+001 -1.6193e+002  4.6096e+000 31538 101399,101477,101425
 5.0000e+000 101604 -4.7539e+001 -2.3000e+002  4.7039e+001 31538 101477,101529,101503
 5.0000e+000 101581 -2.9890e+001 -1.3425e+002 -1.2258e+001 31538 101347,101555,101373
 5.0000e+000 101768 -9.0621e+001 -2.3423e+002  2.4692e+001 31538 101529,101477,101742
 5.0000e+000 101791 -7.8981e+001 -2.4046e+002 -8.3984e+000 31538 101529,101742,101555
 5.0000e+000 101840 -6.1706e+001 -1.9898e+002 -9.1077e+000 31538 101555,101742,101814
 5.0000e+000 101863 -8.2816e+001 -1.7237e+002 -2.9208e+001 31538 101555,101814,101373
 5.0000e+000 102111 -1.2056e+002 -3.0655e+002  4.0061e+001 31112 101886,101990,101912
 5.0000e+000 102088 -4.4997e+001 -1.8467e+002  2.1258e+000 31112 101886,102016,101990
 5.0000e+000 102065 -5.5467e+001 -2.9463e+002  5.7674e+001 31112 101912,101990,101964
 5.0000e+000 102042 -8.5444e+001 -3.6235e+002  6.8018e+001 31112 101912,101964,101938
 5.0000e+000 102408 -2.9382e+001 -1.8481e+002  1.5049e+001 30658 102431,102186,102160
 5.0000e+000 102385 -6.2344e+001 -1.8254e+002 -4.9306e-002 30658 102431,102160,102264
 5.0000e+000 102362 -6.0399e+001 -2.0084e+002  2.9469e+000 30658 102186,102238,102212
 5.0000e+000 102339 -6.7952e+001 -1.9373e+002 -1.1603e+001 30658 102134,102264,102160
 5.0000e+000 102316 -4.7403e+001 -1.6233e+002 -5.4060e+001 30658 102134,102290,102264
 5.0000e+000 102457 -5.6782e+001 -1.9525e+002  7.9185e+000 30658 102238,102186,102431
 5.0000e+000 102480 -9.2009e+001 -1.9617e+002 -8.5378e+000 30658 102238,102431,102264
 5.0000e+000 102681 -2.3927e+001 -2.2168e+002  3.2973e+001 30004 102704,102557,102505
 5.0000e+000 102658 -2.9056e+001 -2.2411e+002  3.4025e+001 30004 102704,102505,102609
 5.0000e+000 102635  4.3227e+000 -1.8907e+002  8.5209e+000 30004 102505,102557,102531
 5.0000e+000 102730 -2.8492e+001 -2.1517e+002  2.9722e+001 30004 102583,102557,102704
 5.0000e+000 102753 -4.0076e+001 -2.2121e+002  3.1899e+001 30004 102583,102704,102609
 5.0000e+000 103003 -2.5002e+001 -1.7887e+002 -1.4236e+001 29564 103026,102804,102778
 5.0000e+000 102980 -3.2103e+001 -2.1373e+002 -2.2109e+001 29564 103026,102778,102908
 5.0000e+000 102957 -3.4072e+001 -1.8217e+002 -2.3464e+000 29564 102856,102908,102882
 5.0000e+000 102934 -4.7244e+001 -1.6169e+002  1.2060e+001 29564 102804,102856,102830
 5.0000e+000 103052 -2.2233e+001 -1.6165e+002  9.3406e+000 29564 102856,102804,103026
 5.0000e+000 103075 -3.2155e+001 -1.9001e+002 -1.7927e+000 29564 102856,103026,102908
 5.0000e+000 103634 -7.9884e+001 -2.0101e+002 -2.4108e+001 29160 103657,103418,103392
 5.0000e+000 103611 -7.5688e+001 -1.9318e+002 -1.1668e+001 29160 103657,103392,103314
 5.0000e+000 103588 -5.4555e+001 -1.6610e+002 -2.0956e+001 29160 103314,103392,103366
 5.0000e+000 103565 -4.7505e+001 -1.7512e+002 -2.4109e+001 29160 103314,103366,103340
 5.0000e+000 103542 -9.4956e+001 -1.9005e+002 -2.2454e+001 29160 103262,103444,103314
 5.0000e+000 103519 -1.1383e+002 -2.2731e+002 -3.2345e+001 29160 103262,103314,103288
 5.0000e+000 103496 -7.2218e+001 -2.0655e+002 -1.0047e+001 29160 103262,103470,103444
 5.0000e+000 103683 -9.9048e+001 -2.1622e+002 -3.8618e+001 29160 103444,103418,103657
 5.0000e+000 103706 -8.3040e+001 -1.9192e+002 -2.4215e+001 29160 103444,103657,103314
 5.0000e+000 104035 -5.3344e+001 -1.9367e+002  1.8313e+001 28770 103836,103914,103862
 5.0000e+000 104012 -5.1609e+001 -1.8442e+002  2.4762e+001 28770 103810,103914,103836
 5.0000e+000 103989  1.1497e+001 -1.6715e+002  3.0172e+001 28770 103810,103940,103914
 5.0000e+000 103966 -1.1079e+001 -1.5523e+002  3.7219e+001 28770 103862,103914,103888
 5.0000e+000 104185 -1.8964e+001 -1.7417e+002  3.3169e+001 28366 104208,104110,104084
 5.0000e+000 104162 -1.7190e+001 -1.4947e+002  2.6245e+001 28366 104280,104208,104084
 5.0000e+000 104234  3.6016e+001 -1.7442e+002  2.1025e+001 28366 104610,104208,104136
 5.0000e+000 104257 -3.2740e+001 -1.6554e+002  2.1133e+001 28366 104538,104410,104208
 5.0000e+000 104306 -5.4658e+001 -1.6760e+002  2.0652e+001 28366 104538,104208,104280
 5.0000e+000 104436 -1.1470e+001 -1.7730e+002  2.7147e+000 28366 104136,104208,104410
 5.0000e+000 104564 -5.5697e+001 -1.6451e+002  9.4905e+000 28366 104058,104410,104538
 5.0000e+000 104587 -6.9177e+001 -1.6148e+002  7.4978e+000 28366 104058,104538,104280
 5.0000e+000 104636  2.6077e+001 -1.7742e+002  2.6704e+001 28366 104110,104208,104610
 5.0000e+000 105349 -4.2582e+001 -1.5972e+002 -1.6424e+001 27976 105516,105372,105107
 5.0000e+000 105326 -6.7293e+001 -1.6148e+002  4.2848e+000 27976 105588,105372,105055
 5.0000e+000 105303 -7.2450e+001 -1.5718e+002 -1.6712e+001 27976 105444,105159,105133
 5.0000e+000 105280 -2.4768e+001 -1.6528e+002 -1.0263e+001 27976 105516,105107,105081
 5.0000e+000 105257 -6.2370e+001 -1.7904e+002  1.5573e+001 27976 105588,105055,105029
 5.0000e+000 105234 -3.3864e+001 -1.3665e+002  2.4707e+000 27976 105003,105185,105159
 5.0000e+000 105211 -4.7405e+001 -1.1046e+002  2.0833e+001 27976 104977,105185,105003
 5.0000e+000 105398 -3.4304e+001 -1.6203e+002 -2.0999e+001 27976 105133,105107,105372
 5.0000e+000 105421 -5.7772e+001 -1.6874e+002 -9.9706e+000 27976 105444,105133,105372
 5.0000e+000 105470 -5.8809e+001 -1.3751e+002 -9.0471e+000 27976 105003,105159,105444
 5.0000e+000 105493 -4.8355e+001 -1.5080e+002 -5.7693e+000 27976 105003,105444,105372
 5.0000e+000 105542 -3.0699e+001 -1.5887e+002 -1.2548e+000 27976 105055,105372,105516
 5.0000e+000 105565 -3.7208e+000 -1.6071e+002  2.9897e+000 27976 105055,105516,105081
 5.0000e+000 105614 -7.7639e+001 -1.7877e+002  1.2682e+001 27976 105003,105372,105588
 5.0000e+000 105637 -7.5421e+001 -1.9603e+002  2.5007e+001 27976 105003,105588,105029
 5.0000e+000 106143 -7.2900e+001 -2.3901e+002  1.4467e+001 27664 106166,105846,105820
 5.0000e+000 106120 -5.0125e+001 -1.8028e+002  6.4444e+000 27664 106310,106166,105820
 5.0000e+000 106097 -2.3917e+001 -2.1479e+002 -4.4408e+001 27664 106382,106238,105950
 5.0000e+000 106074 -3.3230e+001 -1.7552e+002  5.8340e+000 27664 106310,105820,106002
 5.0000e+000 106051  1.6104e+001 -1.9368e+002 -3.6530e+001 27664 106382,105950,105924
 5.0000e+000 106028 -9.0650e+000 -3.4163e+002 -1.2134e+001 27664 105846,105898,105872
 5.0000e+000 106192 -6.5243e+001 -2.6636e+002 -3.4839e+001 27664 105898,105846,106166
 5.0000e+000 106215 -3.9444e+001 -2.2265e+002 -1.4283e+001 27664 106238,105898,106166
 5.0000e+000 106264 -1.1915e+002 -2.3957e+002 -5.8382e+001 27664 105976,105950,106238
 5.0000e+000 106287 -4.0051e+001 -2.2024e+002 -1.4953e+001 27664 105976,106238,106166
 5.0000e+000 106336 -3.2954e+001 -1.9247e+002  2.2721e+001 27664 105976,106166,106310
 5.0000e+000 106359 -1.3309e+001 -1.8619e+002  2.1405e+001 27664 105976,106310,106002
 5.0000e+000 106408 -4.2408e+001 -1.8243e+002  4.6406e-001 27664 105898,106238,106382
 5.0000e+000 106431 -1.7822e+001 -1.7080e+002  4.7389e+000 27664 105898,106382,105924
 5.0000e+000 106728 -1.9558e+001 -1.2896e+002  2.3771e+001 27153 106751,106506,106454
 5.0000e+000 106705 -1.8906e+001 -1.3116e+002  1.9728e+001 27153 106751,106454,106610
 5.0000e+000 106682 -3.2378e+001 -9.7383e+001  4.3603e+000 27153 106454,106506,106480
 5.0000e+000 106659 -2.9985e+001 -1.2584e+002  1.3448e+001 27153 106532,106610,106584
 5.0000e+000 106636 -5.0576e+001 -7.3938e+001  2.7276e+001 27153 106532,106584,106558
 5.0000e+000 106777 -1.4443e+001 -1.2632e+002  2.5109e+001 27153 106532,106506,106751
 5.0000e+000 106800 -1.5155e+001 -1.2938e+002  2.0402e+001 27153 106532,106751,106610
 5.0000e+000 107180 -2.4076e+001 -1.5585e+002  9.9870e+000 26642 107203,106984,106958
 5.0000e+000 107157 -7.8244e+001 -1.8062e+002  2.6825e+000 26642 107203,106958,106932
 5.0000e+000 107134 -9.1849e+001 -1.9755e+002 -2.9339e+001 26642 107275,107036,107010
 5.0000e+000 107111 -5.8534e+001 -1.9538e+002 -3.6435e+001 26642 106932,107062,107036
 5.0000e+000 107088 -2.0696e+000 -1.5365e+002  1.8029e+001 26642 106906,107062,106932
 5.0000e+000 107229  2.5139e+000 -1.4624e+002 -4.8170e+001 26642 107010,106984,107203
 5.0000e+000 107252 -8.1237e+001 -1.8377e+002 -3.5195e+001 26642 107275,107010,107203
 5.0000e+000 107301 -7.8996e+001 -1.9551e+002 -3.7018e+001 26642 106932,107036,107275
 5.0000e+000 107324 -7.5193e+001 -1.9593e+002 -3.8912e+001 26642 106932,107275,107203
 5.0000e+000 107675 -4.2909e+001 -1.1971e+002  1.2934e+001 26045 107450,107554,107476
 5.0000e+000 107652 -3.4352e+001 -1.0495e+002  4.6084e+000 26045 107450,107580,107554
 5.0000e+000 107629 -1.5082e+001 -9.9701e+001  3.2678e+000 26045 107476,107528,107502
 5.0000e+000 107606 -1.1321e+001 -1.1230e+002  7.6511e+000 26045 107476,107554,107528
 5.0000e+000 107874 -3.0236e+001 -1.7798e+002  4.4967e+001 25641 107750,107802,107776
 5.0000e+000 107851 -3.7347e+001 -1.2421e+002  2.4768e+001 25641 107724,107802,107750
 5.0000e+000 107828 -3.7701e+001 -1.2549e+002  2.3304e+001 25641 107698,107802,107724
 5.0000e+000 108431 -1.5402e+001 -1.9220e+002  3.4651e+001 25023 108526,108267,108241
 5.0000e+000 108408 -2.3120e-001 -1.8267e+002  6.4490e+000 25023 108059,108267,108085
 5.0000e+000 108385 -2.6238e+001 -1.9674e+002  3.4946e+001 25023 108454,108163,108111
 5.0000e+000 108362 -8.8246e+001 -1.9849e+002  5.8349e+001 25023 108454,108111,108085
 5.0000e+000 108339 -6.9723e+001 -2.5767e+002  6.0683e+001 25023 108111,108163,108137
 5.0000e+000 108316 -4.5713e+001 -1.4212e+002 -8.9823e+000 25023 108163,108241,108215
 5.0000e+000 108293  1.8241e+001 -1.1344e+002 -1.1189e+000 25023 108163,108215,108189
 5.0000e+000 108480 -5.2157e+000 -1.7559e+002  2.8343e+000 25023 108241,108163,108454
 5.0000e+000 108503 -2.8307e+001 -1.8725e+002  3.3540e+001 25023 108526,108241,108454
 5.0000e+000 108552 -3.0747e+001 -1.9348e+002  2.7426e+001 25023 108085,108267,108526
 5.0000e+000 108575 -4.4403e+001 -1.8939e+002  2.5991e+001 25023 108085,108526,108454
 5.0000e+000 108823  2.9497e+000 -1.4005e+002  2.0566e+001 24461 108624,108728,108650
 5.0000e+000 108800 -1.9479e+001 -2.9275e+002 -2.0424e+001 24461 108598,108728,108624
 5.0000e+000 108777  3.6341e-001 -1.8632e+002  1.4881e+001 24461 108650,108728,108676
 5.0000e+000 108754 -8.1711e+001 -5.2793e+002  4.5476e+001 24461 108676,108728,108702
 5.0000e+000 109022 -5.1172e+001 -1.4460e+002  2.0590e+001 24121 108872,108924,108898
 5.0000e+000 108999 -3.5189e+001 -1.4150e+002  2.3567e+001 24121 108846,108924,108872
 5.0000e+000 108976 -5.9357e+001 -1.5190e+002  2.4635e+001 24121 108846,108950,108924
 5.0000e+000 109483 -5.9487e+001 -1.9854e+002 -1.9024e+001 23717 109209,109339,109235
 5.0000e+000 109460 -2.2567e+001 -2.2592e+002 -4.5909e+001 23717 109209,109365,109339
 5.0000e+000 109437 -7.7730e-001 -2.5350e+002 -1.5603e+001 23717 109287,109339,109313
 5.0000e+000 109414 -1.1359e+002 -2.5292e+002  1.4935e+001 23717 109235,109339,109287
 5.0000e+000 109391  3.9379e+000 -2.9516e+002  1.0791e+002 23717 109235,109287,109261
 5.0000e+000 109910 -7.9868e+001 -2.3363e+002 -2.4728e+001 23305 109613,109743,109717
 5.0000e+000 109887 -7.8880e+001 -2.3510e+002 -1.4214e+001 23305 109613,109769,109743
 5.0000e+000 109864 -9.4720e+001 -2.2450e+002 -2.1775e+001 23305 109613,109717,109639
 5.0000e+000 109841 -6.1383e+001 -2.1618e+002 -5.8098e+000 23305 109587,109769,109613
 5.0000e+000 109818  2.0398e+000 -1.8334e+002  1.7037e+001 23305 109639,109717,109691
 5.0000e+000 109795 -1.9105e+001 -1.4656e+002 -3.4375e+001 23305 109639,109691,109665
 5.0000e+000 110180 -3.6643e+000 -6.5729e+001 -1.5097e+001 22851 110007,110059,110033
 5.0000e+000 110157 -4.6100e+001 -1.8160e+002  8.4126e+000 22851 109981,110059,110007
 5.0000e+000 110134 -6.5651e+001 -1.9659e+002  1.2589e+000 22851 109955,110059,109981
 5.0000e+000 110111 -2.6210e+001 -2.1670e+002 -1.6603e+001 22851 109955,110085,110059
 5.0000e+000 110737 -2.4554e+001 -2.0394e+002 -5.5737e+001 22333 110760,110469,110391
 5.0000e+000 110714 -5.6976e+000 -2.3619e+002 -4.2847e+001 22333 110760,110391,110365
 5.0000e+000 110691 -1.7187e+001 -1.8472e+002 -4.5292e+001 22333 110832,110521,110469
 5.0000e+000 110668 -4.5052e+001 -3.6963e+002  2.8878e+001 22333 110417,110469,110443
 5.0000e+000 110645 -9.5000e+001 -3.2413e+002  1.5742e+001 22333 110391,110469,110417
 5.0000e+000 110622 -2.9279e+000 -1.8679e+002 -2.2821e+001 22333 110469,110521,110495
 5.0000e+000 110599 -1.4698e+001 -1.2784e+002  1.5664e+001 22333 110365,110573,110547
 5.0000e+000 110786 -1.2165e+001 -1.8937e+002 -5.0455e+001 22333 110832,110469,110760
 5.0000e+000 110809  1.4800e+001 -2.0456e+002 -3.3851e+001 22333 110547,110760,110365
 5.0000e+000 110858 -1.5726e+001 -1.9538e+002 -4.4632e+001 22333 110547,110521,110832
 5.0000e+000 110881 -1.6132e+001 -2.0591e+002 -5.1281e+001 22333 110547,110832,110760
 5.0000e+000 111308 -1.0323e+002 -2.4819e+002  1.7177e+001 21829 111331,111063,111011
 5.0000e+000 111285 -9.1079e+001 -2.2758e+002 -4.6784e+000 21829 111331,111011,111167
 5.0000e+000 111262 -1.0663e+002 -2.4735e+002  1.8128e+001 21829 111403,111089,111063
 5.0000e+000 111239 -1.3171e+002 -2.6364e+002  3.8845e+001 21829 111011,111063,111037
 5.0000e+000 111216 -5.9247e+001 -1.6732e+002  8.3839e+000 21829 110985,111167,111011
 5.0000e+000 111193 -1.2958e+002 -4.2297e+002  9.2905e+001 21829 111089,111141,111115
 5.0000e+000 111357 -1.0310e+002 -2.5036e+002  1.8068e+001 21829 111403,111063,111331
 5.0000e+000 111380 -1.0676e+002 -2.6039e+002 -1.3446e-001 21829 111141,111331,111167
 5.0000e+000 111429 -1.1356e+002 -2.5178e+002  2.0574e+001 21829 111141,111089,111403
 5.0000e+000 111452 -1.0739e+002 -2.5479e+002  1.9823e+001 21829 111141,111403,111331
 5.0000e+000 112056  8.2528e+001 -1.7999e+002  3.7599e+000 21489 111687,111765,111739
 5.0000e+000 112033  2.4239e+001 -2.0887e+002  2.2093e+001 21489 112151,112079,111687
 5.0000e+000 112010  1.7003e+000 -3.2685e+002  1.9369e+001 21489 111791,111843,111817
 5.0000e+000 111987 -5.2527e+001 -2.6193e+002 -2.0961e+001 21489 112079,111843,111791
 5.0000e+000 111964  5.6765e+001 -1.9233e+002  4.1233e+001 21489 112151,111687,111661
 5.0000e+000 111941 -9.9086e+000 -1.4033e+002  3.3500e+001 21489 111661,111869,111843
 5.0000e+000 111918  8.1649e+001 -1.9748e+002  3.0710e+001 21489 111687,111739,111713
 5.0000e+000 111895  2.3110e+001 -6.3685e+001  9.9134e+000 21489 111635,111869,111661
 5.0000e+000 112105 -2.6316e+001 -2.2804e+002  1.2393e+001 21489 111765,111687,112079
 5.0000e+000 112128 -2.3926e+001 -2.1622e+002  1.2415e+001 21489 111765,112079,111791
 5.0000e+000 112177 -3.0453e+001 -2.0504e+002 -6.0821e+000 21489 111843,112079,112151
 5.0000e+000 112200 -8.7754e-001 -1.9838e+002  9.4510e+000 21489 111843,112151,111661
 5.0000e+000 112578 -4.0843e+001 -2.6291e+002  1.2371e+001 21177 112382,112434,112408
 5.0000e+000 112555 -5.2870e+001 -2.5944e+002  5.2878e-001 21177 112330,112434,112382
 5.0000e+000 112532 -3.6809e+001 -2.1801e+002  4.3070e+001 21177 112304,112434,112330
 5.0000e+000 112509 -5.2795e+001 -2.4727e+002  0.0000e+000 21177 112330,112382,112356
 5.0000e+000 112486 -9.7328e+000 -1.2256e+002  7.1038e+000 21177 112304,112460,112434
 5.0000e+000 112679 -3.0528e+000 -1.4621e+002 -3.3735e+001 20666 112601,112653,112627
 5.0000e+000 112927 -7.8784e+001 -2.6330e+002  9.3102e+000 19762 112702,112754,112728
 5.0000e+000 112904 -2.9608e+001 -2.5227e+002 -2.2850e+000 19762 112702,112832,112754
 5.0000e+000 112881 -6.6578e+001 -2.7134e+002  4.3339e+001 19762 112754,112832,112806
 5.0000e+000 112858 -9.4340e+001 -3.4468e+002  4.3984e+001 19762 112754,112806,112780
 5.0000e+000 113297 -7.1747e+001 -3.2034e+002  2.0683e+001 19308 112974,113052,113026
 5.0000e+000 113274 -4.8418e+001 -2.6772e+002  7.0602e+000 19308 112974,113156,113052
 5.0000e+000 113251 -2.5675e+001 -3.5486e+002 -4.2915e+001 19308 113052,113130,113104
 5.0000e+000 113228 -5.2850e+001 -2.6712e+002 -2.2025e-001 19308 113052,113156,113130
 5.0000e+000 113205 -5.0301e+001 -3.0901e+002  0.0000e+000 19308 113052,113104,113078
 5.0000e+000 113182 -1.0302e+002 -3.3348e+002 -1.4371e+000 19308 112974,113026,113000
 5.0000e+000 113547 -1.1801e+000 -2.9043e+002 -2.0028e+001 18711 113570,113374,113348
 5.0000e+000 113524 -1.0499e+001 -2.6519e+002 -1.1697e+001 18711 113570,113348,113452
 5.0000e+000 113501 -1.3602e+000 -1.9825e+002 -5.5808e+001 18711 113322,113452,113348
 5.0000e+000 113478 -2.6383e+001 -2.6065e+002 -9.6684e+001 18711 113374,113426,113400
 5.0000e+000 113596 -3.7035e-002 -2.6258e+002 -2.6337e+001 18711 113426,113374,113570
 5.0000e+000 113619 -1.1116e+001 -2.4126e+002 -1.2733e+001 18711 113426,113570,113452
 5.0000e+000 113771 -1.4693e+002 -3.6462e+002 -1.9741e+001 18307 113670,113722,113696
 5.0000e+000 113748 -1.1494e+002 -3.4278e+002 -9.2696e+000 18307 113644,113722,113670
 5.0000e+000 113972 -6.4091e+001 -3.0673e+002  6.2507e+000 17945 113822,113874,113848
 5.0000e+000 113949 -6.4779e+001 -3.0529e+002  7.3196e+000 17945 113822,113900,113874
 5.0000e+000 113926 -8.9902e+001 -2.4219e+002  1.2810e+002 17945 113796,113900,113822
 5.0000e+000 114075 -4.2639e+001 -4.4886e+002  4.8951e+001 17482 113997,114049,114023
 5.0000e+000 114479 -1.6712e+001 -2.4860e+002 -3.8663e+001 17042 114257,114361,114335
 5.0000e+000 114456 -5.9122e+001 -2.4027e+002 -6.0801e+000 17042 114205,114361,114257
 5.0000e+000 114433 -6.7181e+001 -2.7786e+002  1.0637e+001 17042 114205,114257,114231
 5.0000e+000 114410  5.5008e+001 -3.6906e+002 -2.3145e+001 17042 114283,114335,114309
 5.0000e+000 114387 -2.2093e+000 -3.1960e+002 -1.6278e+001 17042 114257,114335,114283
 5.0000e+000 114879 -1.3898e+002 -2.5480e+002 -2.6394e+000 16638 114631,114683,114657
 5.0000e+000 114856 -2.7177e+001 -2.0828e+002  3.4071e+000 16638 114605,114683,114631
 5.0000e+000 114833  3.4369e+001 -1.1436e+002 -2.7203e+001 16638 114605,114761,114683
 5.0000e+000 114810 -1.0119e+001 -2.8533e+002 -1.3911e+001 16638 114683,114735,114709
 5.0000e+000 114787 -2.3158e+001 -2.9744e+002 -2.0132e+001 16638 114683,114761,114735
 5.0000e+000 115078 -1.2233e+002 -2.7646e+002  7.3512e+000 16232 114954,115006,114980
 5.0000e+000 115055 -1.2244e+002 -3.0593e+002  1.3821e+001 16232 114928,115006,114954
 5.0000e+000 115032 -5.9374e+001 -3.7979e+002  2.6164e+001 16232 114902,115006,114928
 5.0000e+000 115228 -6.8927e+001 -2.7479e+002  9.1342e+000 15482 115101,115153,115127
 5.0000e+000 115205 -6.4279e+001 -2.6094e+002 -2.7853e+000 15482 115101,115179,115153
 5.0000e+000 115331 -5.2697e+001 -2.5097e+002 -3.2266e+001 15163 115253,115305,115279
 5.0000e+000 115434 -8.6470e+001 -2.7437e+002  4.7620e+001 421 115356,115408,115382
 5.1000e+000 68213 -1.7784e+001 -1.4233e+002 -1.3807e+001 67888 68112,68164,68138
 5.1000e+000 68190 -1.6686e+002 -1.8673e+002 -2.3254e+001 67888 68086,68164,68112
 5.1000e+000 68314 -2.0389e+001 -1.9971e+002  1.8716e+001 67576 68236,68288,68262
 5.1000e+000 68584 -7.7647e+001 -3.7201e+002  1.8193e+001 67378 68385,68489,68463
 5.1000e+000 68561 -2.8104e+001 -3.4801e+002  9.7629e+000 67378 68359,68489,68385
 5.1000e+000 68538 -5.8292e+001 -3.1737e+002  2.6444e+001 67378 68385,68463,68411
 5.1000e+000 68515 -3.0496e+001 -2.1110e+002  1.6301e+001 67378 68411,68463,68437
 5.1000e+000 68964 -8.5250e+001 -3.3421e+002  4.9522e+001 67130 68690,68820,68716
 5.1000e+000 68941  6.1469e+001 -3.4667e+002  9.2141e+001 67130 68690,68846,68820
 5.1000e+000 68918 -7.7645e+001 -2.2258e+002  5.9053e+000 67130 68742,68820,68794
 5.1000e+000 68895 -2.0768e+001 -2.2175e+002  2.0430e+001 67130 68716,68820,68742
 5.1000e+000 68872 -5.2791e+001 -1.8832e+002 -2.2465e+001 67130 68742,68794,68768
 5.1000e+000 69065 -6.5622e+001 -1.9366e+002  3.1657e+000 66926 68987,69039,69013
 5.1000e+000 69445 -3.8670e+001 -1.7852e+002 -9.4009e+000 66614 69223,69301,69275
 5.1000e+000 69422 -5.8510e+001 -1.8969e+002 -4.0241e+000 66614 69171,69301,69223
 5.1000e+000 69399 -6.6127e+001 -1.9294e+002 -4.0990e-001 66614 69171,69327,69301
 5.1000e+000 69376 -1.5389e+001 -8.5085e+001  9.8411e-001 66614 69223,69275,69249
 5.1000e+000 69353 -5.2165e+001 -1.9916e+002 -3.8802e+000 66614 69171,69223,69197
 5.1000e+000 69546 -6.4316e+001 -3.0238e+002  1.6991e+001 66416 69468,69520,69494
 5.1000e+000 69997 -5.9118e+001 -3.0621e+002 -2.3486e+001 66104 69700,69830,69726
 5.1000e+000 69974 -8.3255e+001 -3.7417e+002 -4.9077e+001 66104 69700,69856,69830
 5.1000e+000 69951 -6.2866e+001 -2.3683e+002 -1.7046e+001 66104 69726,69804,69778
 5.1000e+000 69928 -5.1259e+001 -2.8540e+002 -2.3679e+001 66104 69726,69830,69804
 5.1000e+000 69905 -6.6462e+001 -2.2660e+002 -8.8413e+000 66104 69726,69778,69752
 5.1000e+000 69882 -2.6178e+001 -5.1307e+002 -9.3880e+001 66104 69674,69856,69700
 5.1000e+000 70326 -5.5351e+001 -1.4225e+002  2.9848e+000 65814 70349,70153,70127
 5.1000e+000 70303 -3.4103e+001 -1.3963e+002  6.3407e+000 65814 70349,70127,70101
 5.1000e+000 70280 -3.0447e+001 -1.3051e+002  5.2609e+001 65814 70101,70231,70205
 5.1000e+000 70257  3.7920e+000 -1.5637e+002  1.8287e+001 65814 70153,70205,70179
 5.1000e+000 70375 -4.5536e+001 -1.5018e+002  1.9972e+001 65814 70205,70153,70349
 5.1000e+000 70398 -1.2953e+001 -1.4229e+002  2.0891e+001 65814 70205,70349,70101
 5.1000e+000 70904 -2.3352e+001 -7.6933e+001 -2.4602e+001 65502 70607,70737,70685
 5.1000e+000 70881 -3.3504e+001 -6.2963e+001 -3.1737e+001 65502 70581,70737,70607
 5.1000e+000 70858 -3.2251e+001 -1.8596e+001 -7.9068e+000 65502 70581,70763,70737
 5.1000e+000 70835 -3.5919e+001 -8.4538e+001 -3.3261e+001 65502 70685,70737,70711
 5.1000e+000 70812 -1.2414e+002 -1.0117e+002 -1.6762e+000 65502 70607,70659,70633
 5.1000e+000 70789 -3.9090e+001 -1.0548e+002  1.2448e+000 65502 70607,70685,70659
 5.1000e+000 71103 -3.4092e+001 -2.6669e+002 -7.6285e+000 65304 71126,70979,70953
 5.1000e+000 71080 -6.5294e+001 -2.6431e+002 -3.0920e+000 65304 71126,70953,70927
 5.1000e+000 71057 -9.1172e+001 -2.6875e+002  1.7384e+001 65304 70927,71031,71005
 5.1000e+000 71152 -6.4593e+001 -2.5410e+002 -1.6670e+001 65304 71005,70979,71126
 5.1000e+000 71175 -9.9019e+001 -2.5550e+002 -5.2437e+000 65304 71005,71126,70927
 5.1000e+000 71374 -4.1070e+001 -2.5341e+002  1.3219e+001 65106 71198,71276,71224
 5.1000e+000 71351 -7.6795e+001 -2.7153e+002  5.7560e+000 65106 71198,71302,71276
 5.1000e+000 71328 -2.7003e+001 -2.1558e+002  3.1644e+001 65106 71224,71276,71250
 5.1000e+000 71756 -3.1723e+001 -1.7912e+002 -1.1630e+001 64652 71508,71638,71534
 5.1000e+000 71733 -2.5791e-001 -1.6575e+002 -6.6605e-001 64652 71482,71638,71508
 5.1000e+000 71710 -6.5354e+001 -1.7935e+002 -1.5019e+001 64652 71534,71586,71560
 5.1000e+000 71687 -5.6308e+001 -1.9473e+002 -2.9871e+001 64652 71534,71612,71586
 5.1000e+000 71664 -8.5880e+001 -2.0322e+002 -3.1599e+001 64652 71534,71638,71612
 5.1000e+000 72085 -8.1075e+001 -2.0101e+002 -2.5440e+001 64248 71886,71964,71912
 5.1000e+000 72062 -6.5297e+001 -1.9604e+002 -2.5322e+001 64248 71860,71964,71886
 5.1000e+000 72039 -3.4059e+001 -2.1611e+002 -1.7474e+001 64248 71912,71964,71938
 5.1000e+000 72016 -6.6777e+001 -1.8520e+002 -2.5741e+001 64248 71860,71990,71964
 5.1000e+000 72235 -7.4804e+000 -1.2980e+002 -1.7247e+001 63858 72588,72258,72134
 5.1000e+000 72212 -3.0098e+001 -1.1416e+002  3.7151e+000 63858 72330,72258,72108
 5.1000e+000 72284 -2.1049e+001 -9.2944e+001 -1.1824e+001 63858 72160,72134,72258
 5.1000e+000 72307 -7.0583e+001 -1.2610e+002 -2.0386e+001 63858 72460,72258,72186
 5.1000e+000 72356 -5.8311e+001 -1.2155e+002 -2.0042e+001 63858 72186,72258,72330
 5.1000e+000 72486 -2.7562e+001 -1.1707e+002 -1.9692e+001 63858 72160,72258,72460
 5.1000e+000 72614 -1.2125e+001 -1.3786e+002 -6.3754e-001 63858 72108,72258,72588
 5.1000e+000 73248 -4.1759e+001 -2.0929e+002  5.0272e+001 63404 72902,72954,72928
 5.1000e+000 73225 -1.0487e+002 -2.1868e+002  2.2033e+001 63404 73271,72954,72902
 5.1000e+000 73202 -9.3570e+001 -1.8077e+002  1.8849e+001 63404 73271,72902,73032
 5.1000e+000 73179 -6.1055e+001 -1.5712e+002  5.7102e+000 63404 72902,73058,73032
 5.1000e+000 73156 -7.9947e+001 -2.0184e+002  9.7383e+000 63404 72980,73032,73006
 5.1000e+000 73133 -5.6233e+001 -1.6008e+002  4.5404e+000 63404 72876,73058,72902
 5.1000e+000 73110 -2.0064e+001 -7.9202e+001 -4.0583e+001 63404 72876,73084,73058
 5.1000e+000 73297 -9.0509e+001 -2.2377e+002 -1.3235e+000 63404 72980,72954,73271
 5.1000e+000 73320 -8.8824e+001 -2.0345e+002 -1.0387e+000 63404 72980,73271,73032
 5.1000e+000 73470 -7.4926e+001 -4.9742e+002  5.3113e+001 63014 73343,73395,73369
 5.1000e+000 73447 -2.3445e+002 -6.0860e+002 -1.1086e+001 63014 73343,73421,73395
 5.1000e+000 73929 -6.1416e+000 -2.2806e+002  1.2463e+001 62702 73759,73811,73785
 5.1000e+000 73906  9.6223e+000 -2.1984e+002  1.6241e+001 62702 73655,73811,73759
 5.1000e+000 73883 -2.6776e+001 -2.5161e+002 -4.0434e-001 62702 73655,73759,73681
 5.1000e+000 73860  5.0325e+000 -1.8736e+002 -3.9262e+001 62702 73681,73759,73707
 5.1000e+000 73837 -1.0349e+002 -2.1814e+002  4.3842e+000 62702 73707,73759,73733
 5.1000e+000 74209 -1.3659e+002 -2.1951e+002  1.8686e+000 62404 74059,74137,74085
 5.1000e+000 74186 -1.6106e+002 -2.8399e+002  3.2595e+001 62404 74033,74137,74059
 5.1000e+000 74163 -1.4244e+002 -1.9916e+002  1.9334e+000 62404 74085,74137,74111
 5.1000e+000 74408 -8.7280e+000 -1.8788e+002  1.0884e+001 62000 74258,74336,74284
 5.1000e+000 74385 -4.3388e+000 -1.8227e+002  2.1478e+001 62000 74232,74336,74258
 5.1000e+000 74362 -4.6801e+001 -1.9069e+002 -2.4402e+000 62000 74284,74336,74310
 5.1000e+000 74509 -1.6346e+001 -2.0713e+002  1.6693e+001 61802 74431,74483,74457
 5.1000e+000 74759 -7.1472e+001 -1.9101e+002  2.7656e+000 61554 74782,74586,74560
 5.1000e+000 74736 -4.5963e+001 -1.7890e+002  6.6758e+000 61554 74782,74560,74664
 5.1000e+000 74713 -6.3993e+001 -1.4684e+002  5.0128e+001 61554 74854,74612,74586
 5.1000e+000 74690 -5.6259e+001 -1.9391e+002  1.3385e+000 61554 74534,74664,74560
 5.1000e+000 74808 -8.5754e+001 -1.7841e+002  1.4363e+001 61554 74854,74586,74782
 5.1000e+000 74831 -5.3963e+001 -2.2394e+002  1.1799e+001 61554 74638,74782,74664
 5.1000e+000 74880 -1.7866e+001 -1.7953e+002  5.3967e+001 61554 74638,74612,74854
 5.1000e+000 74903 -1.8750e+001 -1.7650e+002  2.7160e+001 61554 74638,74854,74782
 5.1000e+000 75285 -3.1552e+001 -1.9475e+002  2.3427e+000 61356 75063,75167,75115
 5.1000e+000 75262 -4.0505e+001 -2.0508e+002 -1.0654e+001 61356 75037,75167,75063
 5.1000e+000 75239  1.1047e+001 -2.0091e+002 -1.2648e+000 61356 75115,75167,75141
 5.1000e+000 75216 -9.6781e+000 -1.8259e+002  7.1461e+000 61356 75063,75115,75089
 5.1000e+000 75193 -8.6370e+001 -1.6492e+002  1.2092e+001 61356 75011,75167,75037
 5.1000e+000 75631 -1.3638e+001 -1.5653e+002  4.5418e+000 60952 75654,75412,75360
 5.1000e+000 75608 -2.8743e+001 -1.7851e+002 -4.2403e+000 60952 75654,75360,75334
 5.1000e+000 75585 -3.0539e+001 -2.2914e+002  1.2170e+001 60952 75726,75438,75412
 5.1000e+000 75562 -2.3928e+001 -1.8094e+002 -2.9116e+001 60952 75308,75490,75334
 5.1000e+000 75539 -1.6784e+001 -1.5604e+002  2.0685e-002 60952 75360,75412,75386
 5.1000e+000 75516 -4.4167e+001 -2.7855e+002 -9.8754e+000 60952 75438,75490,75464
 5.1000e+000 75680 -1.3045e+001 -1.9080e+002  4.7124e+000 60952 75726,75412,75654
 5.1000e+000 75703 -1.3128e+001 -1.7976e+002 -7.0016e+000 60952 75490,75654,75334
 5.1000e+000 75752 -1.3867e+001 -1.8480e+002 -6.6747e-001 60952 75490,75438,75726
 5.1000e+000 75775 -1.4671e+001 -1.8135e+002 -7.6354e+000 60952 75490,75726,75654
 5.1000e+000 76155 -3.3478e+001 -1.8583e+002 -3.2420e-001 60754 75933,75985,75959
 5.1000e+000 76132 -5.1334e+001 -1.9706e+002  1.9687e+001 60754 75933,76037,75985
 5.1000e+000 76109  2.6639e+000 -1.9282e+002  6.0145e+000 60754 75985,76037,76011
 5.1000e+000 76086 -7.7690e+001 -1.6712e+002  4.9630e+000 60754 75881,76037,75933
 5.1000e+000 76063 -1.0776e+002 -1.5220e+002  4.0832e+001 60754 75881,75933,75907
 5.1000e+000 76612 -3.5262e+001 -1.7702e+002  8.2282e+000 60350 76635,76442,76390
 5.1000e+000 76589 -4.0872e+000 -2.0066e+002  1.4909e+001 60350 76635,76390,76364
 5.1000e+000 76566 -1.2536e+001 -2.5760e+002 -1.7409e+001 60350 76364,76494,76468
 5.1000e+000 76543 -2.7098e+000 -1.6104e+002  1.6106e+001 60350 76390,76442,76416
 5.1000e+000 76520 -9.2090e+001 -1.6523e+002 -4.0046e+001 60350 76338,76494,76364
 5.1000e+000 76661 -5.2063e+001 -1.9335e+002  1.5452e+001 60350 76468,76442,76635
 5.1000e+000 76684 -2.9108e+001 -2.1983e+002  2.4526e+001 60350 76468,76635,76364
 5.1000e+000 76932 -7.1773e+001 -2.0837e+002  2.2651e+000 59946 76955,76733,76707
 5.1000e+000 76909 -7.1837e+001 -2.0776e+002  5.5069e+000 59946 77027,76955,76707
 5.1000e+000 76886 -6.7627e+001 -2.0902e+002  4.0934e+000 59946 77027,76707,76837
 5.1000e+000 76863 -3.2294e+001 -2.2664e+002 -2.1813e+001 59946 76733,76785,76759
 5.1000e+000 76981 -8.0625e+001 -2.0875e+002 -2.3448e+000 59946 76785,76733,76955
 5.1000e+000 77004 -7.3509e+001 -2.0172e+002  3.1110e+000 59946 76785,76955,76811
 5.1000e+000 77053 -6.6336e+001 -2.0591e+002  5.8106e+000 59946 76811,76955,77027
 5.1000e+000 77076 -6.3597e+001 -2.0783e+002  3.7364e+000 59946 76811,77027,76837
 5.1000e+000 77226 -8.5533e+001 -2.1747e+002  5.4995e+000 59542 77099,77151,77125
 5.1000e+000 77203 -1.0763e+002 -2.6206e+002  1.2836e+001 59542 77099,77177,77151
 5.1000e+000 77427 -1.1007e+002 -2.2598e+002 -1.4116e+001 59030 77450,77277,77251
 5.1000e+000 77404 -6.8518e+001 -1.8316e+002 -6.1055e+001 59030 77450,77251,77355
 5.1000e+000 77381 -1.9813e+001 -2.6475e+002 -5.0545e+000 59030 77277,77329,77303
 5.1000e+000 77476 -5.9302e+001 -2.3473e+002 -4.1102e+001 59030 77329,77277,77450
 5.1000e+000 77499 -1.3907e+001 -2.1436e+002 -7.8161e+001 59030 77329,77450,77355
 5.1000e+000 77749 -9.0092e+001 -2.8233e+002  2.1485e+001 58426 77772,77628,77602
 5.1000e+000 77726 -5.8999e+001 -3.3077e+002  6.9660e+001 58426 77524,77654,77628
 5.1000e+000 77703 -7.5133e+001 -2.7907e+002  1.5857e+001 58426 77772,77602,77550
 5.1000e+000 77680 -4.5973e+001 -2.6253e+002 -1.1275e+001 58426 77550,77602,77576
 5.1000e+000 77798 -7.2602e+001 -2.8445e+002  2.0874e+001 58426 77524,77628,77772
 5.1000e+000 77821 -6.4631e+001 -2.8480e+002  1.3617e+001 58426 77524,77772,77550
 5.1000e+000 78071 -1.1700e+002 -2.5466e+002  2.5949e+001 57922 78094,77924,77898
 5.1000e+000 78048 -1.3520e+002 -2.5741e+002  2.9275e+000 57922 78094,77898,77872
 5.1000e+000 78025 -1.1057e+002 -2.3293e+002  2.6250e+001 57922 78166,77846,77950
 5.1000e+000 78002 -5.9031e+001 -2.2701e+002  2.9635e+001 57922 77846,77976,77950
 5.1000e+000 78120 -9.8993e+001 -2.5395e+002  1.8312e+001 57922 77950,77924,78094
 5.1000e+000 78143 -1.1210e+002 -2.3707e+002  1.9262e+001 57922 78166,77950,78094
 5.1000e+000 78192 -1.0521e+002 -2.4445e+002  1.9427e+001 57922 77872,77846,78166
 5.1000e+000 78215 -1.1292e+002 -2.5636e+002  1.1925e+001 57922 77872,78166,78094
 5.1000e+000 78416  2.3672e+001 -2.1533e+002 -1.0853e+001 57468 78439,78292,78240
 5.1000e+000 78393 -1.1621e+001 -2.0275e+002  6.8061e-001 57468 78439,78240,78344
 5.1000e+000 78370  8.1235e+000 -2.9128e+002 -8.4322e+000 57468 78240,78292,78266
 5.1000e+000 78465 -1.0558e+001 -2.3272e+002 -1.8387e+001 57468 78318,78292,78439
 5.1000e+000 78488 -2.4985e+001 -2.1173e+002 -3.4807e+000 57468 78318,78439,78344
 5.1000e+000 78689  2.1982e+001 -2.5936e+002 -3.0555e+001 57014 78712,78539,78513
 5.1000e+000 78666 -1.6187e+001 -2.5799e+002 -5.8460e+000 57014 78712,78513,78617
 5.1000e+000 78643 -5.7809e+001 -2.6045e+002  2.4986e+001 57014 78565,78617,78591
 5.1000e+000 78738 -2.7004e+001 -2.1760e+002 -3.0546e+001 57014 78565,78539,78712
 5.1000e+000 78761 -8.3569e+001 -2.5082e+002  9.6805e+000 57014 78565,78712,78617
 5.1000e+000 79241 -8.3844e+001 -2.3147e+002  1.8192e+001 56652 79264,78895,78869
 5.1000e+000 79218 -3.9236e+001 -3.0221e+002 -1.8142e+001 56652 79264,78869,79051
 5.1000e+000 79195 -5.8900e+001 -2.6342e+002 -6.1975e+001 56652 78869,79077,79051
 5.1000e+000 79172 -6.5646e+001 -1.5268e+002 -3.4580e+001 56652 78895,78973,78947
 5.1000e+000 79149 -1.1004e+002 -4.4851e+002 -3.7060e+001 56652 78973,79051,78999
 5.1000e+000 79126 -5.7487e+001 -1.4427e+002 -3.7942e+001 56652 78895,78947,78921
 5.1000e+000 79103 -8.8577e+001 -3.0369e+002  6.9997e+001 56652 78999,79051,79025
 5.1000e+000 79290 -4.9970e+001 -1.8690e+002  4.2889e+001 56652 78973,78895,79264
 5.1000e+000 79313 -2.3245e+000 -2.6282e+002  8.9513e+000 56652 78973,79264,79051
 5.1000e+000 79512 -2.7290e+001 -3.3741e+002  2.7131e+001 56062 79388,79440,79414
 5.1000e+000 79489 -1.2726e+002 -1.7411e+002  4.5120e+001 56062 79336,79440,79388
 5.1000e+000 79466 -4.8098e+001 -2.1212e+002  5.7746e+001 56062 79336,79388,79362
 5.1000e+000 79941 -3.6762e+001 -1.8193e+002  2.9792e+001 55658 79964,79670,79644
 5.1000e+000 79918 -5.5522e+001 -1.8305e+002  3.2964e+001 55658 79964,79644,79800
 5.1000e+000 79895 -5.1905e+001 -1.9653e+002  1.7204e+001 55658 80036,79696,79670
 5.1000e+000 79872 -6.0959e+001 -1.6731e+002 -1.3323e+000 55658 80108,79722,79696
 5.1000e+000 79849 -9.0057e+001 -1.6622e+002  9.9444e+000 55658 79722,79774,79748
 5.1000e+000 79826 -1.0977e-001 -1.6341e+002  9.5291e+000 55658 79618,79800,79644
 5.1000e+000 79990 -5.7255e+001 -1.9780e+002  2.2552e+001 55658 80036,79670,79964
 5.1000e+000 80013 -5.0153e+001 -1.7215e+002  3.5101e+001 55658 79774,79964,79800
 5.1000e+000 80062 -4.4032e+001 -1.7927e+002  1.4661e+001 55658 80108,79696,80036
 5.1000e+000 80085 -5.6560e+001 -1.7431e+002  3.1250e+001 55658 79774,80036,79964
 5.1000e+000 80134 -9.4012e+001 -1.7968e+002  5.6655e+000 55658 79774,79722,80108
 5.1000e+000 80157 -8.4492e+001 -1.9612e+002  2.1497e+001 55658 79774,80108,80036
 5.1000e+000 80307 -1.0422e+002 -1.7738e+002  2.0023e+001 55254 80402,80330,80206
 5.1000e+000 80284 -1.0095e+002 -2.4422e+002  2.1049e+001 55254 80330,80180,80258
 5.1000e+000 80356 -1.2254e+002 -2.1902e+002  4.4726e+001 55254 80232,80206,80330
 5.1000e+000 80379 -3.5933e+001 -1.8003e+002  6.4618e+001 55254 80232,80330,80258
 5.1000e+000 80428 -1.3977e+002 -2.1908e+002  3.1070e+000 55254 80180,80330,80402
 5.1000e+000 80659 -5.0312e+001 -2.5941e+002 -2.0364e+001 54850 80558,80610,80584
 5.1000e+000 80636 -1.8457e+000 -2.4788e+002 -2.5542e+001 54850 80532,80610,80558
 5.1000e+000 80760 -1.5805e+001 -1.7988e+002 -1.4118e+001 54652 80682,80734,80708
 5.1000e+000 81164 -1.3029e+001 -1.9238e+002 -3.7944e+000 54248 81187,80942,80890
 5.1000e+000 81141 -1.7196e+001 -1.9617e+002 -2.0868e+000 54248 81187,80890,81046
 5.1000e+000 81118 -1.9143e+001 -2.0036e+002  4.1291e+001 54248 80942,81020,80994
 5.1000e+000 81095 -1.0622e+001 -1.9333e+002  1.3622e+000 54248 80890,80942,80916
 5.1000e+000 81072 -2.7416e+001 -1.1055e+002  5.6156e+000 54248 80942,80994,80968
 5.1000e+000 81213 -1.8058e+001 -1.8907e+002 -3.2528e+000 54248 81020,80942,81187
 5.1000e+000 81236 -2.0993e+001 -1.9128e+002 -2.1639e+000 54248 81020,81187,81046
 5.1000e+000 81663 -1.0999e+002 -2.0605e+002  1.8663e+001 53594 81340,81444,81366
 5.1000e+000 81640 -1.0402e+002 -2.9874e+002  8.4494e+000 53594 81340,81470,81444
 5.1000e+000 81617 -4.5593e+001 -2.6198e+002 -2.1370e+001 53594 81340,81522,81470
 5.1000e+000 81594 -6.1123e+001 -1.4983e+002 -1.6523e+001 53594 81392,81444,81418
 5.1000e+000 81571 -8.0072e+001 -1.7775e+002 -2.5609e+001 53594 81366,81444,81392
 5.1000e+000 81548  3.9085e+000 -3.7465e+002  5.6258e+001 53594 81470,81522,81496
 5.1000e+000 81943 -2.7475e+001 -1.4083e+002 -1.7266e+001 53104 81966,81845,81819
 5.1000e+000 81920 -4.1194e+001 -1.1576e+002 -2.1387e+001 53104 81966,81819,81767
 5.1000e+000 81897 -4.2615e+001 -1.1782e+002 -2.3081e+001 53104 81767,81819,81793
 5.1000e+000 81992 -1.8234e+001 -1.2482e+002 -2.1018e+001 53104 81871,81845,81966
 5.1000e+000 82015 -2.5041e+001 -8.9646e+001 -2.8430e+001 53104 81871,81966,81767
 5.1000e+000 82491 -2.7945e+001 -1.4267e+002 -1.2926e+001 52650 82145,82249,82171
 5.1000e+000 82468 -1.1734e+002 -1.6690e+002 -2.0278e+001 52650 82145,82301,82249
 5.1000e+000 82445 -1.2267e+002 -2.5439e+002 -4.4677e+001 52650 82249,82301,82275
 5.1000e+000 82422 -6.1582e+001 -3.2141e+002 -5.8830e+001 52650 82119,82301,82145
 5.1000e+000 82399 -3.9513e+001 -1.1398e+002  1.3813e+001 52650 82171,82249,82223
 5.1000e+000 82376  8.3540e+000 -2.9463e+002 -3.8116e+001 52650 82119,82327,82301
 5.1000e+000 82353 -1.0502e+001 -5.7672e+001 -2.3878e+001 52650 82171,82223,82197
 5.1000e+000 82739 -3.5868e+001 -1.3243e+002  2.3305e+000 52246 82762,82540,82514
 5.1000e+000 82716 -2.3925e+001 -5.6011e+001 -9.9428e+000 52246 82762,82514,82644
 5.1000e+000 82693 -6.3814e+001 -1.4955e+002  3.2293e+001 52246 82540,82618,82592
 5.1000e+000 82670 -7.3899e+001 -1.4125e+002  2.5329e+001 52246 82540,82592,82566
 5.1000e+000 82788 -2.3600e+001 -1.6850e+002  9.6982e+000 52246 82618,82540,82762
 5.1000e+000 82811 -4.4267e+001 -1.4452e+002 -1.2145e+001 52246 82618,82762,82644
 5.1000e+000 83059 -2.1173e+001 -1.8932e+002  1.7990e+001 51578 82860,82964,82938
 5.1000e+000 83036 -1.1963e+000 -1.2763e+002 -4.1108e+001 51578 82834,82964,82860
 5.1000e+000 83013 -9.6868e+000 -1.4635e+002  3.8758e+001 51578 82860,82938,82886
 5.1000e+000 82990 -7.2891e+000 -9.3570e+001  7.3150e+000 51578 82886,82938,82912
 5.1000e+000 83309 -3.4807e+001 -1.0622e+002  3.0883e+001 51138 83332,83162,83136
 5.1000e+000 83286 -1.3182e+001 -1.3942e+002  1.0081e+001 51138 83332,83136,83110
 5.1000e+000 83263 -5.3029e+001 -1.4394e+002 -7.5528e+000 51138 83404,83214,83188
 5.1000e+000 83240 -7.5904e-001 -8.7136e+001  7.8649e+000 51138 83084,83214,83110
 5.1000e+000 83358 -5.7493e+001 -1.4783e+002  4.1164e+001 51138 83188,83162,83332
 5.1000e+000 83381 -3.7080e+001 -1.6013e+002  7.5987e+000 51138 83404,83188,83332
 5.1000e+000 83430 -3.3289e+001 -1.0317e+002 -7.0563e-001 51138 83110,83214,83404
 5.1000e+000 83453 -2.0346e+001 -1.2834e+002  1.3895e+001 51138 83110,83404,83332
 5.1000e+000 83835 -3.3225e+001 -1.8011e+002 -1.2580e+000 50734 83613,83717,83691
 5.1000e+000 83812 -3.7504e+001 -1.9509e+002 -3.7931e+001 50734 83561,83717,83613
 5.1000e+000 83789 -2.0099e+001 -9.9913e+001 -5.5236e+001 50734 83561,83613,83587
 5.1000e+000 83766 -6.9419e+001 -1.2262e+002 -1.6181e-001 50734 83613,83691,83639
 5.1000e+000 83743 -7.3784e+001 -1.2388e+002  2.6580e+001 50734 83639,83691,83665
 5.1000e+000 84034 -4.6119e+001 -1.1275e+002  7.1789e+000 50230 84057,83884,83858
 5.1000e+000 84011 -4.5797e+001 -1.2275e+002 -1.0832e+001 50230 84129,84057,83858
 5.1000e+000 83988 -1.4121e+001 -1.3208e+002 -1.8727e+001 50230 84129,83858,83962
 5.1000e+000 84083 -2.0912e+001 -1.0257e+002  7.8864e+000 50230 83910,83884,84057
 5.1000e+000 84106 -2.8504e+001 -1.1300e+002  2.7538e+000 50230 83910,84057,83936
 5.1000e+000 84155 -4.6716e+000 -1.0311e+002 -1.3331e+000 50230 83936,84057,84129
 5.1000e+000 84178  7.2987e+000 -1.2647e+002 -1.3924e+001 50230 83936,84129,83962
 5.1000e+000 84558 -5.0538e+001 -1.4978e+002 -2.4296e+001 49768 84581,84388,84362
 5.1000e+000 84535 -1.0421e+002 -1.5224e+002 -9.6126e+000 49768 84581,84362,84310
 5.1000e+000 84512  3.4678e+000 -1.6423e+002 -2.6356e+001 49768 84653,84440,84414
 5.1000e+000 84489 -8.2004e+001 -1.6679e+002  1.2281e+001 49768 84310,84362,84336
 5.1000e+000 84466 -2.9753e+000 -1.1867e+002  1.8883e+001 49768 84284,84440,84310
 5.1000e+000 84607 -1.4144e+001 -1.2733e+002 -4.1160e+001 49768 84414,84388,84581
 5.1000e+000 84630 -1.8117e+001 -1.5406e+002 -1.8578e+001 49768 84653,84414,84581
 5.1000e+000 84679 -2.5568e+001 -1.5485e+002 -3.6111e+001 49768 84310,84440,84653
 5.1000e+000 84702 -5.6419e+001 -1.5510e+002 -3.6708e+001 49768 84310,84653,84581
 5.1000e+000 85159 -8.3552e+001 -2.1149e+002 -5.9427e+001 49192 84885,84937,84911
 5.1000e+000 85136 -8.2872e+001 -1.6488e+002 -4.2263e+001 49192 84885,85041,84937
 5.1000e+000 85113 -5.7516e+001 -1.4160e+002 -1.9358e+001 49192 84963,85041,84989
 5.1000e+000 85090 -4.9910e+001 -1.2749e+002 -2.7272e+001 49192 84937,85041,84963
 5.1000e+000 85067 -5.0275e+001 -1.3698e+002 -2.1588e+001 49192 84989,85041,85015
 5.1000e+000 85714 -8.4256e+001 -1.3927e+002 -3.7037e-001 48638 85368,85498,85394
 5.1000e+000 85691 -1.0528e+002 -1.6301e+002  8.8756e+000 48638 85368,85524,85498
 5.1000e+000 85668 -9.7050e+001 -1.3491e+002  3.7259e+001 48638 85737,85420,85394
 5.1000e+000 85645 -8.1082e+001 -1.5287e+002  1.9183e+001 48638 85737,85394,85498
 5.1000e+000 85622 -6.4032e+001 -1.5450e+002  3.1342e+001 48638 85446,85498,85472
 5.1000e+000 85599 -2.7277e+001 -1.3305e+002  1.5186e+001 48638 85342,85524,85368
 5.1000e+000 85576 -1.0240e+002 -1.5017e+002  1.4710e+001 48638 85342,85550,85524
 5.1000e+000 85763 -6.8843e+001 -1.2003e+002  4.8594e+001 48638 85446,85420,85737
 5.1000e+000 85786 -6.9588e+001 -1.3867e+002  2.8004e+001 48638 85446,85737,85498
 5.1000e+000 86371 -7.2080e+001 -1.0387e+002 -5.5578e+000 48084 86100,86230,86178
 5.1000e+000 86348 -8.9379e+001 -1.3496e+002 -1.4574e+001 48084 86048,86230,86100
 5.1000e+000 86325 -6.8608e+001 -9.5100e+001  2.6550e+001 48084 86100,86178,86126
 5.1000e+000 86302 -4.6552e+001 -3.4052e+001 -2.7255e+001 48084 86048,86100,86074
 5.1000e+000 86279 -9.0515e+001 -1.6851e+002 -2.8683e+000 48084 86178,86230,86204
 5.1000e+000 86256 -6.2344e+001 -1.0427e+002  2.6284e+001 48084 86126,86178,86152
 5.1000e+000 86619 -5.1176e+001 -1.1581e+002  1.0927e+001 47630 86642,86446,86420
 5.1000e+000 86596 -6.2166e+001 -1.2932e+002 -1.4797e+001 47630 86642,86420,86394
 5.1000e+000 86573 -8.1646e+001 -1.4957e+002 -2.1700e+001 47630 86394,86524,86498
 5.1000e+000 86550 -3.4557e+001 -1.3109e+002  9.8692e+000 47630 86446,86498,86472
 5.1000e+000 86668 -6.4407e+001 -1.4520e+002  1.1337e+000 47630 86498,86446,86642
 5.1000e+000 86691 -7.0125e+001 -1.4971e+002 -2.4065e+001 47630 86498,86642,86394
 5.1000e+000 87022 -6.8750e+000 -8.1627e+001 -4.7549e+001 47226 87045,86875,86849
 5.1000e+000 86999 -3.2411e+000 -9.2633e+001 -4.4910e+001 47226 87045,86849,86797
 5.1000e+000 86976  2.8107e-001 -4.2314e+001 -1.2705e+001 47226 86797,86849,86823
 5.1000e+000 86953  1.9559e+000 -5.9115e+001 -2.5166e+001 47226 86875,86927,86901
 5.1000e+000 87071 -1.2934e+001 -8.9776e+001 -4.4900e+001 47226 86927,86875,87045
 5.1000e+000 87094 -6.3788e+000 -9.7271e+001 -4.3402e+001 47226 86927,87045,86797
 5.1000e+000 87244 -1.0274e+001 -1.6451e+002  4.3999e+001 46814 87267,87169,87143
 5.1000e+000 87221 -7.8690e+001 -1.4943e+002 -8.5391e+000 46814 87267,87143,87117
 5.1000e+000 87293 -8.6286e+000 -1.2164e+002  2.7469e+001 46814 87339,87267,87195
 5.1000e+000 87316 -3.5502e+000 -1.1726e+002  2.6192e+000 46814 87469,87267,87117
 5.1000e+000 87365 -2.7907e+000 -1.1684e+002  3.3029e+001 46814 87169,87267,87339
 5.1000e+000 87495 -4.0551e-001 -8.9387e+000 -2.0912e+000 46814 87195,87267,87469
 5.1000e+000 88001 -4.8295e+001 -1.1216e+002  3.0502e+001 46310 88024,87834,87808
 5.1000e+000 87978 -6.0324e+001 -1.1485e+002  1.7959e+001 46310 88024,87808,87756
 5.1000e+000 87955 -3.1909e+001 -1.5135e+002  7.8918e+000 46310 88096,87730,87860
 5.1000e+000 87932 -4.4015e+001 -1.4916e+002  1.8720e+001 46310 87756,87808,87782
 5.1000e+000 87909 -4.0601e+001 -1.8050e+002  6.9188e+000 46310 87678,87860,87730
 5.1000e+000 87886 -6.0835e+001 -2.9287e+002 -1.6137e+001 46310 87678,87730,87704
 5.1000e+000 88050 -4.1962e+001 -9.8721e+001  1.8471e+001 46310 87860,87834,88024
 5.1000e+000 88073 -3.2600e+001 -1.0794e+002  2.1561e+001 46310 88096,87860,88024
 5.1000e+000 88122 -4.1269e+001 -1.7185e+002 -6.9114e+000 46310 87756,87730,88096
 5.1000e+000 88145 -6.8736e+001 -1.5466e+002  7.8407e-001 46310 87756,88096,88024
 5.1000e+000 88572 -3.3107e+001 -1.5192e+002  9.7226e+000 45856 88249,88405,88275
 5.1000e+000 88549 -2.7719e+001 -4.7340e+001 -3.0287e+001 45856 88249,88431,88405
 5.1000e+000 88526 -7.7298e+001 -2.1327e+002 -2.8290e+001 45856 88327,88405,88353
 5.1000e+000 88503 -3.4618e+001 -1.8397e+002 -1.2271e+001 45856 88275,88405,88327
 5.1000e+000 88480 -6.4706e+001 -1.8833e+002 -3.4309e+001 45856 88353,88405,88379
 5.1000e+000 88457 -1.4381e+002 -3.9375e+002  3.2307e+001 45856 88275,88327,88301
 5.1000e+000 88950 -2.3916e+001 -8.8512e+001 -2.7836e+000 45658 88973,88754,88728
 5.1000e+000 88927 -2.0910e+001 -8.7123e+001 -1.8293e+000 45658 88973,88728,88676
 5.1000e+000 88904 -2.6715e+001 -1.0440e+002  3.5205e+001 45658 88676,88832,88806
 5.1000e+000 88881 -4.1242e+001 -1.2702e+002  1.1434e+001 45658 88676,88728,88702
 5.1000e+000 88858 -3.7789e+001 -8.6561e+001 -1.9779e+001 45658 88754,88806,88780
 5.1000e+000 88999 -2.5896e+001 -8.6317e+001 -1.5817e+000 45658 88806,88754,88973
 5.1000e+000 89022 -2.3593e+001 -8.5615e+001 -1.1823e+000 45658 88806,88973,88676
 5.1000e+000 89351 -4.4781e+001 -1.5125e+002 -7.3269e+000 45254 89152,89230,89204
 5.1000e+000 89328 -4.1938e+001 -1.5018e+002 -7.7265e+000 45254 89152,89256,89230
 5.1000e+000 89305 -1.4529e+001 -1.5932e+002 -2.0243e+001 45254 89126,89256,89152
 5.1000e+000 89282  2.1481e+000 -1.5106e+002 -2.7395e+001 45254 89152,89204,89178
 5.1000e+000 89523 -1.8470e+001 -1.0683e+002 -4.7240e-001 45006 89422,89474,89448
 5.1000e+000 89500 -1.3925e+001 -1.0492e+002  3.1572e+000 45006 89396,89474,89422
 5.1000e+000 89673 -1.2399e+002 -2.1712e+002  1.8402e+001 44495 89572,89624,89598
 5.1000e+000 89650 -1.2744e+002 -2.1869e+002  1.2109e+001 44495 89546,89624,89572
 5.1000e+000 90104 -1.2710e+001 -1.6179e+002 -8.4822e+000 44005 90199,90127,89937
 5.1000e+000 90081 -3.1867e+001 -1.5822e+002  2.2823e+000 44005 90271,90127,89859
 5.1000e+000 90058 -3.5866e+000 -1.6588e+002 -8.8501e+000 44005 90199,89937,89885
 5.1000e+000 90035 -4.4628e+001 -1.4922e+002  9.5814e+000 44005 90271,89859,89807
 5.1000e+000 90012 -2.4354e+001 -1.8078e+002 -2.1453e+001 44005 89885,89937,89911
 5.1000e+000 89989 -1.2401e+001 -1.5929e+002  2.7028e+001 44005 89807,89859,89833
 5.1000e+000 90153 -3.3576e+001 -1.6942e+002 -5.5572e+000 44005 89963,89937,90127
 5.1000e+000 90176 -3.5952e+001 -1.8109e+002  3.4647e+000 44005 89963,90127,89781
 5.1000e+000 90225 -3.5296e+001 -1.6010e+002 -3.2002e+000 44005 89859,90127,90199
 5.1000e+000 90248 -1.5531e+001 -1.5708e+002  5.0564e-001 44005 89859,90199,89885
 5.1000e+000 90297 -4.8969e+001 -1.6905e+002 -2.4872e+000 44005 89781,90127,90271
 5.1000e+000 90320 -5.6342e+001 -1.5728e+002  5.9816e+000 44005 89781,90271,89807
 5.1000e+000 90470 -2.6694e+001 -1.7074e+002 -4.9365e+000 43601 90493,90369,90343
 5.1000e+000 90447 -4.5306e+001 -1.3748e+002  1.0951e+001 43601 90493,90343,90421
 5.1000e+000 90519 -5.5330e+001 -2.3262e+002 -2.6429e+001 43601 90395,90369,90493
 5.1000e+000 90542 -4.3248e+001 -1.6211e+002 -6.2947e+000 43601 90395,90493,90421
 5.1000e+000 90922 -5.6978e+001 -1.8215e+002  1.1744e+001 43154 90945,90700,90674
 5.1000e+000 90899 -5.0397e+001 -1.8588e+002 -2.1376e+001 43154 90945,90674,90648
 5.1000e+000 90876 -6.2302e+001 -1.4569e+002 -1.3928e+001 43154 90648,90778,90752
 5.1000e+000 90853 -3.2305e+001 -2.9529e+002  8.9205e+000 43154 90700,90752,90726
 5.1000e+000 90830 -3.8339e+001 -1.4592e+002 -6.6917e+000 43154 90648,90804,90778
 5.1000e+000 90971 -6.6421e+001 -2.1103e+002  1.7268e+001 43154 90752,90700,90945
 5.1000e+000 90994 -5.7440e+001 -2.0330e+002 -1.4969e+001 43154 90752,90945,90648
 5.1000e+000 91451 -1.6925e+001 -1.4263e+002 -2.7178e+001 42650 91203,91255,91229
 5.1000e+000 91428  1.3889e+001 -1.2919e+002 -1.2481e+001 42650 91203,91333,91255
 5.1000e+000 91405 -1.7209e+000 -2.0875e+002 -3.5674e+001 42650 91177,91333,91203
 5.1000e+000 91382 -6.4584e+001 -2.2394e+002  2.8262e+001 42650 91255,91333,91281
 5.1000e+000 91359 -1.4440e+001 -1.8820e+002  9.6096e+000 42650 91281,91333,91307
 5.1000e+000 91721 -9.5389e+001 -2.1478e+002  1.5277e+001 42288 91496,91600,91522
 5.1000e+000 91698 -5.1316e+001 -1.2477e+002 -5.5968e+000 42288 91496,91626,91600
 5.1000e+000 91675 -5.8741e+001 -1.9265e+002  1.6954e+001 42288 91522,91574,91548
 5.1000e+000 91652 -4.8517e+001 -1.9656e+002  1.5952e+001 42288 91522,91600,91574
 5.1000e+000 92199 -1.4227e+002 -2.3295e+002 -5.9453e+000 41898 92222,91983,91879
 5.1000e+000 92176 -1.4603e+002 -2.5577e+002 -1.5017e+001 41898 92294,92222,91879
 5.1000e+000 92153 -1.5455e+002 -2.5205e+002 -2.1316e+001 41898 92294,91879,91853
 5.1000e+000 92130 -1.2341e+002 -1.4129e+002  1.5600e+001 41898 91879,91957,91931
 5.1000e+000 92107 -1.2701e+002 -2.2706e+002 -7.6893e-001 41898 91879,91983,91957
 5.1000e+000 92084 -1.3710e+002 -1.3276e+002  3.0987e+001 41898 91879,91931,91905
 5.1000e+000 92061 -1.3600e+002 -2.2670e+002 -1.7169e+001 41898 91827,92035,91853
 5.1000e+000 92248 -1.3997e+002 -2.6103e+002 -1.0349e-001 41898 92009,91983,92222
 5.1000e+000 92271 -1.3704e+002 -2.6643e+002 -2.0162e+001 41898 92009,92222,92035
 5.1000e+000 92320 -1.3177e+002 -2.4991e+002 -1.6168e+001 41898 92035,92222,92294
 5.1000e+000 92343 -1.3805e+002 -2.4506e+002 -2.2097e+001 41898 92035,92294,91853
 5.1000e+000 92770 -4.1773e+001 -1.9943e+002 -1.4645e+001 41437 92865,92793,92525
 5.1000e+000 92747 -5.9705e+001 -2.3003e+002 -2.0891e+001 41437 92793,92473,92629
 5.1000e+000 92724 -1.7880e+001 -2.0555e+002 -2.7538e+001 41437 92865,92525,92499
 5.1000e+000 92701 -6.6753e+001 -1.7785e+002 -3.2468e+001 41437 92525,92603,92577
 5.1000e+000 92678  2.1443e+000 -2.2219e+002 -1.8454e+001 41437 92447,92629,92473
 5.1000e+000 92655 -1.0460e+002 -1.5920e+002 -1.9510e+001 41437 92525,92577,92551
 5.1000e+000 92819 -4.7942e+001 -2.1351e+002 -3.2377e+001 41437 92603,92525,92793
 5.1000e+000 92842 -9.5274e+001 -2.2977e+002 -5.9376e+001 41437 92603,92793,92629
 5.1000e+000 92891  5.1283e+000 -2.1687e+002 -1.8705e+001 41437 92473,92793,92865
 5.1000e+000 92914  3.9598e+001 -2.0872e+002 -3.7461e+001 41437 92473,92865,92499
 5.1000e+000 93243 -3.5881e+001 -3.0794e+002  1.1268e+002 41097 93044,93096,93070
 5.1000e+000 93220 -6.1974e+001 -2.7085e+002  5.9856e+001 41097 93044,93122,93096
 5.1000e+000 93197  1.2748e+001 -1.8039e+002  2.3795e+001 41097 93044,93148,93122
 5.1000e+000 93174 -5.8180e+001 -1.3580e+002  5.7728e+001 41097 93018,93148,93044
 5.1000e+000 93393 -4.8287e+000 -2.2629e+002  1.5737e+001 40643 93416,93292,93344
 5.1000e+000 93370 -1.0662e+001 -2.0869e+002  1.7625e+001 40643 93266,93344,93292
 5.1000e+000 93442 -7.2825e+000 -2.2316e+002  2.1862e+001 40643 93318,93292,93416
 5.1000e+000 93901 -6.7845e+001 -2.0662e+002 -1.4363e+001 40132 93924,93731,93705
 5.1000e+000 93878 -7.0804e+001 -2.1199e+002 -1.5803e+001 40132 93996,93924,93705
 5.1000e+000 93855 -8.3709e+001 -2.4362e+002 -5.4129e+000 40132 93996,93705,93653
 5.1000e+000 93832 -3.6507e+001 -2.3684e+002 -1.2584e+001 40132 93653,93705,93679
 5.1000e+000 93809 -6.9337e+001 -2.0459e+002  1.3504e+000 40132 93627,93783,93757
 5.1000e+000 93950 -6.4821e+001 -2.1842e+002 -1.7204e+001 40132 93757,93731,93924
 5.1000e+000 93973 -7.3944e+001 -1.9448e+002 -4.6940e+000 40132 93757,93924,93627
 5.1000e+000 94022 -9.4598e+001 -2.3199e+002  6.7942e+000 40132 93627,93924,93996
 5.1000e+000 94045 -8.7626e+001 -2.4294e+002  1.4453e+001 40132 93627,93996,93653
 5.1000e+000 94423 -1.4542e+001 -2.4318e+002 -3.4482e+001 39514 94149,94227,94175
 5.1000e+000 94400 -2.4874e+001 -2.2827e+002  2.5892e+001 39514 94149,94305,94227
 5.1000e+000 94377  6.0733e+000 -2.8624e+002 -3.3196e+001 39514 94175,94227,94201
 5.1000e+000 94354 -7.0907e+001 -2.1349e+002  1.1043e+001 39514 94227,94305,94279
 5.1000e+000 94331 -2.9739e+001 -1.9425e+002  2.1220e+001 39514 94227,94279,94253
 5.1000e+000 94573 -1.9460e+001 -1.3779e+002 -2.7462e+001 38822 94596,94498,94472
 5.1000e+000 94550  2.6481e+001 -1.4754e+002  3.2364e+001 38822 94596,94472,94446
 5.1000e+000 94622 -7.2454e+001 -1.6035e+002 -2.9251e+001 38822 94524,94498,94596
 5.1000e+000 94645 -6.1628e+001 -1.8514e+002  3.6700e+001 38822 94524,94596,94446
 5.1000e+000 95025 -1.1475e+001 -1.7682e+002 -1.2745e+001 38418 95048,94829,94777
 5.1000e+000 95002 -1.7212e+001 -1.8699e+002 -2.2385e+001 38418 95120,95048,94777
 5.1000e+000 94979 -1.2386e+001 -1.8559e+002 -2.0867e+001 38418 95120,94777,94751
 5.1000e+000 94956 -1.0190e+001 -1.6695e+002 -2.4542e+001 38418 95192,94881,94855
 5.1000e+000 94933 -5.2973e+001 -1.5337e+002 -8.7486e+000 38418 94777,94829,94803
 5.1000e+000 95074 -3.0848e+001 -2.3441e+002 -4.9862e+000 38418 94855,94829,95048
 5.1000e+000 95097 -1.4782e+001 -1.8516e+002 -2.6535e+001 38418 95192,94855,95048
 5.1000e+000 95146 -3.2619e+001 -1.7873e+002 -1.7811e+001 38418 94907,95048,95120
 5.1000e+000 95169 -1.9808e+001 -1.7073e+002 -1.3537e+001 38418 94907,95120,94751
 5.1000e+000 95218 -1.5733e+001 -1.3267e+002 -2.1992e+001 38418 94907,94881,95192
 5.1000e+000 95241 -2.6889e+001 -1.6217e+002 -1.9137e+001 38418 94907,95192,95048
 5.1000e+000 95511 -5.8334e+001 -1.8853e+002  9.9784e+000 38049 95312,95390,95364
 5.1000e+000 95488 -3.8046e+001 -1.7962e+002  8.6693e+000 38049 95312,95416,95390
 5.1000e+000 95465 -1.8646e+001 -1.7941e+002 -1.0533e+001 38049 95312,95364,95338
 5.1000e+000 95442 -1.5676e+001 -1.6372e+002  1.6334e+001 38049 95286,95416,95312
 5.1000e+000 95808 -5.6629e+001 -2.2442e+002 -5.4205e+000 37437 95831,95586,95560
 5.1000e+000 95785  2.3434e+001 -2.3610e+002 -1.0100e+001 37437 95831,95560,95534
 5.1000e+000 95762 -1.1530e+002 -2.1513e+002  7.1636e+000 37437 95586,95664,95638
 5.1000e+000 95739 -1.5945e+001 -1.0774e+002 -5.8142e+001 37437 95534,95690,95664
 5.1000e+000 95716 -1.0821e+002 -1.5402e+002  6.0912e+000 37437 95586,95638,95612
 5.1000e+000 95857 -1.0832e+002 -2.1780e+002  2.6903e+001 37437 95664,95586,95831
 5.1000e+000 95880 -2.3689e+001 -2.2725e+002  2.3374e+001 37437 95664,95831,95534
 5.1000e+000 96390 -7.8001e+001 -1.6945e+002 -1.0118e+001 36883 96413,96145,96093
 5.1000e+000 96367 -6.4831e+001 -1.6259e+002 -5.0983e+000 36883 96413,96093,96067
 5.1000e+000 96344 -4.6186e+001 -1.9988e+002 -1.9822e-001 36883 96067,96249,96171
 5.1000e+000 96321 -6.8161e+001 -1.9522e+002 -3.8329e+000 36883 96093,96145,96119
 5.1000e+000 96298 -9.6041e+001 -3.2667e+002  3.0157e+001 36883 96171,96249,96197
 5.1000e+000 96275 -2.6177e+001 -2.6244e+002 -3.5257e+000 36883 96197,96249,96223
 5.1000e+000 96439 -7.3459e+001 -1.6267e+002  1.4282e+000 36883 96171,96145,96413
 5.1000e+000 96462 -6.3060e+001 -1.6080e+002  5.3845e+000 36883 96171,96413,96067
 5.1000e+000 96781 -6.1504e+001 -1.9378e+002 -2.8234e+001 36215 96559,96663,96637
 5.1000e+000 96758 -7.8017e+001 -2.0903e+002 -3.4721e+001 36215 96507,96663,96559
 5.1000e+000 96735 -7.5855e+001 -1.4144e+002  1.4579e+001 36215 96585,96637,96611
 5.1000e+000 96712 -1.6190e+002 -2.2451e+002 -2.4582e+001 36215 96559,96637,96585
 5.1000e+000 96689 -2.9867e+001 -2.3723e+002 -7.0838e+000 36215 96507,96559,96533
 5.1000e+000 97161  3.3374e+000 -1.0539e+002 -4.6785e+000 35818 97184,96965,96939
 5.1000e+000 97138 -1.0396e+001 -1.2285e+002 -1.1536e+001 35818 97184,96939,96887
 5.1000e+000 97115 -5.5748e+000 -1.3408e+002  2.4823e+001 35818 96965,97043,97017
 5.1000e+000 97092 -5.1521e+000 -1.1716e+002 -1.4155e+001 35818 96887,96939,96913
 5.1000e+000 97069 -7.0143e+001 -1.3696e+002  1.5568e+001 35818 96965,97017,96991
 5.1000e+000 97210  1.8222e+001 -1.2051e+002  5.3387e+000 35818 97043,96965,97184
 5.1000e+000 97233  7.1605e+000 -1.3276e+002 -2.1275e-001 35818 97043,97184,96887
 5.1000e+000 97739 -6.3225e+001 -1.9428e+002 -4.6824e+001 35214 97416,97468,97442
 5.1000e+000 97716 -7.5105e+001 -1.3950e+002 -1.4978e+001 35214 97416,97598,97468
 5.1000e+000 97693 -6.4863e+001 -1.3093e+002 -5.8796e+000 35214 97762,97520,97468
 5.1000e+000 97670 -6.8026e+001 -1.3490e+002 -1.1651e+001 35214 97762,97468,97598
 5.1000e+000 97647 -5.0887e+001 -1.3078e+002 -1.8880e+001 35214 97546,97598,97572
 5.1000e+000 97624 -3.8714e+001 -1.3371e+002 -8.6149e+000 35214 97468,97520,97494
 5.1000e+000 97788 -6.7080e+001 -1.3792e+002 -9.1712e+000 35214 97546,97520,97762
 5.1000e+000 97811 -6.8274e+001 -1.4094e+002 -1.4519e+001 35214 97546,97762,97598
 5.1000e+000 98189 -9.0069e+000 -1.0131e+002 -1.0967e+001 34760 98356,98212,97967
 5.1000e+000 98166 -2.0266e+001 -1.2023e+002 -2.0820e+001 34760 98284,98212,97941
 5.1000e+000 98143 -4.1214e+001 -1.0791e+002 -1.1078e+001 34760 98284,97941,97915
 5.1000e+000 98120 -1.0832e+001 -1.3567e+002 -5.1598e+000 34760 98484,97993,97967
 5.1000e+000 98097 -9.6841e+000 -1.1193e+002 -3.7670e+000 34760 98556,98045,98019
 5.1000e+000 98238 -1.7183e+001 -1.2718e+002 -5.4212e+000 34760 98484,97967,98212
 5.1000e+000 98261  1.2931e+000 -1.1707e+002 -9.4459e+000 34760 98556,98019,98212
 5.1000e+000 98310 -3.2454e+000 -9.7256e+001 -2.8511e+001 34760 98071,98212,98284
 5.1000e+000 98333 -1.6129e+001 -6.6590e+001 -2.2761e+001 34760 98071,98284,97915
 5.1000e+000 98382 -6.1513e+001 -1.3473e+002 -2.6314e+001 34760 97941,98212,98356
 5.1000e+000 98510 -1.0907e+000 -1.2820e+002 -8.7100e+000 34760 98019,97993,98484
 5.1000e+000 98533 -1.1187e+001 -1.2278e+002 -8.0186e+000 34760 98019,98484,98212
 5.1000e+000 98582  4.1220e+000 -1.0494e+002 -9.4559e-001 34760 98071,98045,98556
 5.1000e+000 98605  8.6999e+000 -1.1397e+002 -7.8807e+000 34760 98071,98556,98212
 5.1000e+000 99032 -7.6722e+001 -1.7595e+002  2.6718e+001 34156 98735,98891,98839
 5.1000e+000 99009 -6.4873e+001 -1.8199e+002  1.2314e+001 34156 98709,98891,98735
 5.1000e+000 98986 -2.1967e+001 -1.5660e+002  2.4523e+001 34156 98735,98813,98787
 5.1000e+000 98963 -2.6646e+001 -1.7115e+002  2.1214e+001 34156 98735,98839,98813
 5.1000e+000 98940  1.1093e+001 -2.3426e+002  2.7919e+001 34156 98735,98787,98761
 5.1000e+000 98917 -6.9409e+001 -1.5709e+002  1.7379e+001 34156 98839,98891,98865
 5.1000e+000 99231 -1.9944e+001 -8.9505e+001  8.0910e+000 33766 99055,99133,99107
 5.1000e+000 99208 -3.8691e+001 -1.2094e+002  1.7166e+001 33766 99055,99159,99133
 5.1000e+000 99185 -9.2728e+000 -1.0824e+002  2.1277e+001 33766 99055,99107,99081
 5.1000e+000 99818 -4.0233e+001 -1.2639e+002  2.6327e+000 33248 99521,99651,99573
 5.1000e+000 99795 -4.0140e+001 -1.2053e+002  1.2824e+001 33248 99521,99677,99651
 5.1000e+000 99772 -6.3577e+001 -1.5547e+002 -8.8847e+000 33248 99573,99651,99599
 5.1000e+000 99749 -4.2287e+001 -1.5070e+002  1.3835e+001 33248 99495,99677,99521
 5.1000e+000 99726 -2.7725e+001 -1.3236e+002 -3.2332e+001 33248 99599,99651,99625
 5.1000e+000 99703 -5.1797e+001 -1.5354e+002  9.1508e+000 33248 99521,99573,99547
 5.1000e+000 100196 -4.6458e+001 -1.4379e+002 -2.7002e+001 32794 100219,99948,99922
 5.1000e+000 100173 -5.4182e+001 -1.5995e+002 -1.2718e+001 32794 100219,99922,100052
 5.1000e+000 100150 -7.2000e+001 -1.4459e+002  8.7787e+000 32794 99974,100052,100026
 5.1000e+000 100127 -6.6628e+001 -1.2998e+002 -2.0877e+001 32794 99922,100078,100052
 5.1000e+000 100104 -7.3523e+001 -1.7412e+002  3.2564e+001 32794 99974,100026,100000
 5.1000e+000 100245 -6.2581e+001 -1.4133e+002 -1.1411e+001 32794 99974,99948,100219
 5.1000e+000 100268 -6.7117e+001 -1.6269e+002  3.0059e+000 32794 99974,100219,100052
 5.1000e+000 100418 -1.0477e+001 -1.3636e+002 -1.5081e+001 32504 100571,100343,100317
 5.1000e+000 100395 -5.6397e+001 -1.5719e+002  1.3718e+001 32504 100571,100317,100441
 5.1000e+000 100467  3.8572e+001 -7.5403e+001 -4.2045e+001 32504 100291,100369,100441
 5.1000e+000 100597  9.7859e+000 -1.1455e+002 -5.1307e+001 32504 100369,100343,100571
 5.1000e+000 100620 -1.0967e+001 -1.0709e+002 -2.6438e+001 32504 100369,100571,100441
 5.1000e+000 101020 -1.5655e+001 -1.0767e+002  4.1713e+000 32142 100772,100902,100876
 5.1000e+000 100997 -1.0380e+001 -9.4672e+001  6.1306e+000 32142 100746,100902,100772
 5.1000e+000 100974  1.8503e+000 -1.1930e+002  1.6328e+001 32142 101043,100824,100798
 5.1000e+000 100951 -1.9742e+001 -1.2993e+002  1.1884e+001 32142 101043,100798,100772
 5.1000e+000 100928 -6.7701e+001 -1.5295e+002 -3.8765e+001 32142 101115,100876,100850
 5.1000e+000 101069  2.5058e+001 -1.3278e+002 -1.2548e+001 32142 100850,100824,101043
 5.1000e+000 101092 -3.2325e+001 -1.5817e+002 -1.7953e+001 32142 101115,100850,101043
 5.1000e+000 101141 -2.3941e+001 -1.2689e+002 -1.4585e+001 32142 100772,100876,101115
 5.1000e+000 101164  3.7558e+000 -1.3034e+002  8.0232e+000 32142 100772,101115,101043
 5.1000e+000 101719 -7.5862e+001 -1.8205e+002  2.4103e+001 31538 101742,101477,101399
 5.1000e+000 101696 -9.3338e+001 -2.2058e+002  5.7069e+000 31538 101814,101742,101399
 5.1000e+000 101673 -1.0713e+002 -1.8959e+002 -1.5116e+001 31538 101814,101399,101373
 5.1000e+000 101650 -7.5752e+001 -1.3042e+002  1.6895e+001 31538 101425,101477,101451
 5.1000e+000 101627 -7.1200e+001 -1.5410e+002  4.2602e+000 31538 101399,101477,101425
 5.1000e+000 101604 -4.4951e+001 -2.1930e+002  4.4709e+001 31538 101477,101529,101503
 5.1000e+000 101581 -2.8669e+001 -1.2752e+002 -1.1683e+001 31538 101347,101555,101373
 5.1000e+000 101768 -8.6117e+001 -2.2267e+002  2.3322e+001 31538 101529,101477,101742
 5.1000e+000 101791 -7.5160e+001 -2.2861e+002 -8.1087e+000 31538 101529,101742,101555
 5.1000e+000 101840 -5.8699e+001 -1.8905e+002 -8.7540e+000 31538 101555,101742,101814
 5.1000e+000 101863 -7.8726e+001 -1.6376e+002 -2.7826e+001 31538 101555,101814,101373
 5.1000e+000 102111 -1.1506e+002 -2.9205e+002  3.8140e+001 31112 101886,101990,101912
 5.1000e+000 102088 -4.3104e+001 -1.7588e+002  2.0722e+000 31112 101886,102016,101990
 5.1000e+000 102065 -5.2511e+001 -2.8004e+002  5.4298e+001 31112 101912,101990,101964
 5.1000e+000 102042 -8.0069e+001 -3.4248e+002  6.3779e+001 31112 101912,101964,101938
 5.1000e+000 102408 -2.7879e+001 -1.7500e+002  1.4265e+001 30658 102431,102186,102160
 5.1000e+000 102385 -5.8975e+001 -1.7269e+002 -1.6793e-001 30658 102431,102160,102264
 5.1000e+000 102362 -5.7089e+001 -1.9044e+002  2.7452e+000 30658 102186,102238,102212
 5.1000e+000 102339 -6.4412e+001 -1.8348e+002 -1.1279e+001 30658 102134,102264,102160
 5.1000e+000 102316 -4.4686e+001 -1.5378e+002 -5.1322e+001 30658 102134,102290,102264
 5.1000e+000 102457 -5.3677e+001 -1.8512e+002  7.4832e+000 30658 102238,102186,102431
 5.1000e+000 102480 -8.6923e+001 -1.8586e+002 -8.2356e+000 30658 102238,102431,102264
 5.1000e+000 102681 -2.2683e+001 -2.0984e+002  3.0635e+001 30004 102704,102557,102505
 5.1000e+000 102658 -2.7460e+001 -2.1285e+002  3.1942e+001 30004 102704,102505,102609
 5.1000e+000 102635  3.7429e+000 -1.7867e+002  8.1637e+000 30004 102505,102557,102531
 5.1000e+000 102730 -2.7125e+001 -2.0290e+002  2.7412e+001 30004 102583,102557,102704
 5.1000e+000 102753 -3.8153e+001 -2.0922e+002  3.0009e+001 30004 102583,102704,102609
 5.1000e+000 103003 -2.3228e+001 -1.6960e+002 -1.3967e+001 29564 103026,102804,102778
 5.1000e+000 102980 -3.0145e+001 -2.0285e+002 -2.1281e+001 29564 103026,102778,102908
 5.1000e+000 102957 -3.2294e+001 -1.7297e+002 -2.5140e+000 29564 102856,102908,102882
 5.1000e+000 102934 -4.5102e+001 -1.5315e+002  1.1091e+001 29564 102804,102856,102830
 5.1000e+000 103052 -2.0815e+001 -1.5328e+002  8.4997e+000 29564 102856,102804,103026
 5.1000e+000 103075 -3.0297e+001 -1.8027e+002 -1.9158e+000 29564 102856,103026,102908
 5.1000e+000 103634 -7.6138e+001 -1.9127e+002 -2.2826e+001 29160 103657,103418,103392
 5.1000e+000 103611 -7.1869e+001 -1.8319e+002 -1.0933e+001 29160 103657,103392,103314
 5.1000e+000 103588 -5.2026e+001 -1.5700e+002 -1.9747e+001 29160 103314,103392,103366
 5.1000e+000 103565 -4.4630e+001 -1.6579e+002 -2.3052e+001 29160 103314,103366,103340
 5.1000e+000 103542 -8.9609e+001 -1.8016e+002 -2.2186e+001 29160 103262,103444,103314
 5.1000e+000 103519 -1.0769e+002 -2.1620e+002 -3.1208e+001 29160 103262,103314,103288
 5.1000e+000 103496 -6.8913e+001 -1.9559e+002 -1.0659e+001 29160 103262,103470,103444
 5.1000e+000 103683 -9.4642e+001 -2.0630e+002 -3.7503e+001 29160 103444,103418,103657
 5.1000e+000 103706 -7.8733e+001 -1.8165e+002 -2.3681e+001 29160 103444,103657,103314
 5.1000e+000 104035 -5.0749e+001 -1.8313e+002  1.7303e+001 28770 103836,103914,103862
 5.1000e+000 104012 -4.8549e+001 -1.7445e+002  2.3239e+001 28770 103810,103914,103836
 5.1000e+000 103989  1.0920e+001 -1.5839e+002  2.8561e+001 28770 103810,103940,103914
 5.1000e+000 103966 -1.0518e+001 -1.4730e+002  3.5317e+001 28770 103862,103914,103888
 5.1000e+000 104185 -1.7883e+001 -1.6543e+002  3.1685e+001 28366 104208,104110,104084
 5.1000e+000 104162 -1.6509e+001 -1.4216e+002  2.4841e+001 28366 104280,104208,104084
 5.1000e+000 104234  3.4005e+001 -1.6604e+002  1.9189e+001 28366 104610,104208,104136
 5.1000e+000 104257 -3.0897e+001 -1.5637e+002  1.9451e+001 28366 104538,104410,104208
 5.1000e+000 104306 -5.1715e+001 -1.5925e+002  1.9497e+001 28366 104538,104208,104280
 5.1000e+000 104436 -1.0645e+001 -1.6695e+002  2.0422e+000 28366 104136,104208,104410
 5.1000e+000 104564 -5.2814e+001 -1.5414e+002  8.2715e+000 28366 104058,104410,104538
 5.1000e+000 104587 -6.5383e+001 -1.5203e+002  6.7639e+000 28366 104058,104538,104280
 5.1000e+000 104636  2.4284e+001 -1.6878e+002  2.5715e+001 28366 104110,104208,104610
 5.1000e+000 105349 -4.0437e+001 -1.5155e+002 -1.5519e+001 27976 105516,105372,105107
 5.1000e+000 105326 -6.4214e+001 -1.5355e+002  4.1482e+000 27976 105588,105372,105055
 5.1000e+000 105303 -6.9142e+001 -1.4934e+002 -1.6183e+001 27976 105444,105159,105133
 5.1000e+000 105280 -2.3524e+001 -1.5673e+002 -9.7331e+000 27976 105516,105107,105081
 5.1000e+000 105257 -5.9661e+001 -1.7004e+002  1.4680e+001 27976 105588,105055,105029
 5.1000e+000 105234 -3.2124e+001 -1.2957e+002  2.4726e+000 27976 105003,105185,105159
 5.1000e+000 105211 -4.4976e+001 -1.0476e+002  1.9884e+001 27976 104977,105185,105003
 5.1000e+000 105398 -3.2660e+001 -1.5415e+002 -1.9845e+001 27976 105133,105107,105372
 5.1000e+000 105421 -5.4984e+001 -1.6061e+002 -9.6244e+000 27976 105444,105133,105372
 5.1000e+000 105470 -5.6014e+001 -1.3025e+002 -8.7494e+000 27976 105003,105159,105444
 5.1000e+000 105493 -4.5896e+001 -1.4315e+002 -5.5666e+000 27976 105003,105444,105372
 5.1000e+000 105542 -2.9164e+001 -1.5090e+002 -1.0476e+000 27976 105055,105372,105516
 5.1000e+000 105565 -3.4831e+000 -1.5251e+002  2.9036e+000 27976 105055,105516,105081
 5.1000e+000 105614 -7.3839e+001 -1.6981e+002  1.2050e+001 27976 105003,105372,105588
 5.1000e+000 105637 -7.1797e+001 -1.8599e+002  2.3556e+001 27976 105003,105588,105029
 5.1000e+000 106143 -6.8552e+001 -2.2668e+002  1.3918e+001 27664 106166,105846,105820
 5.1000e+000 106120 -4.7014e+001 -1.7008e+002  6.4103e+000 27664 106310,106166,105820
 5.1000e+000 106097 -2.2388e+001 -2.0392e+002 -4.2144e+001 27664 106382,106238,105950
 5.1000e+000 106074 -3.1097e+001 -1.6541e+002  5.7079e+000 27664 106310,105820,106002
 5.1000e+000 106051  1.5428e+001 -1.8386e+002 -3.4565e+001 27664 106382,105950,105924
 5.1000e+000 106028 -7.8696e+000 -3.2491e+002 -1.1635e+001 27664 105846,105898,105872
 5.1000e+000 106192 -6.1438e+001 -2.5300e+002 -3.3343e+001 27664 105898,105846,106166
 5.1000e+000 106215 -3.6750e+001 -2.1116e+002 -1.3659e+001 27664 106238,105898,106166
 5.1000e+000 106264 -1.1280e+002 -2.2727e+002 -5.5629e+001 27664 105976,105950,106238
 5.1000e+000 106287 -3.7602e+001 -2.0858e+002 -1.4355e+001 27664 105976,106238,106166
 5.1000e+000 106336 -3.0845e+001 -1.8191e+002  2.1819e+001 27664 105976,106166,106310
 5.1000e+000 106359 -1.2309e+001 -1.7578e+002  2.0446e+001 27664 105976,106310,106002
 5.1000e+000 106408 -3.9777e+001 -1.7306e+002  2.8472e-001 27664 105898,106238,106382
 5.1000e+000 106431 -1.6611e+001 -1.6205e+002  4.4661e+000 27664 105898,106382,105924
 5.1000e+000 106728 -1.8302e+001 -1.2169e+002  2.2268e+001 27153 106751,106506,106454
 5.1000e+000 106705 -1.7730e+001 -1.2385e+002  1.8480e+001 27153 106751,106454,106610
 5.1000e+000 106682 -3.0418e+001 -9.1729e+001  3.8937e+000 27153 106454,106506,106480
 5.1000e+000 106659 -2.8093e+001 -1.1884e+002  1.2727e+001 27153 106532,106610,106584
 5.1000e+000 106636 -4.7444e+001 -6.8898e+001  2.6087e+001 27153 106532,106584,106558
 5.1000e+000 106777 -1.3527e+001 -1.1896e+002  2.3599e+001 27153 106532,106506,106751
 5.1000e+000 106800 -1.4286e+001 -1.2204e+002  1.9199e+001 27153 106532,106751,106610
 5.1000e+000 107180 -2.2697e+001 -1.4770e+002  9.4637e+000 26642 107203,106984,106958
 5.1000e+000 107157 -7.4124e+001 -1.7127e+002  2.3538e+000 26642 107203,106958,106932
 5.1000e+000 107134 -8.6917e+001 -1.8715e+002 -2.8065e+001 26642 107275,107036,107010
 5.1000e+000 107111 -5.5617e+001 -1.8483e+002 -3.4871e+001 26642 106932,107062,107036
 5.1000e+000 107088 -2.0466e+000 -1.4513e+002  1.7337e+001 26642 106906,107062,106932
 5.1000e+000 107229  2.2555e+000 -1.3911e+002 -4.5651e+001 26642 107010,106984,107203
 5.1000e+000 107252 -7.6927e+001 -1.7423e+002 -3.3597e+001 26642 107275,107010,107203
 5.1000e+000 107301 -7.4788e+001 -1.8521e+002 -3.5289e+001 26642 106932,107036,107275
 5.1000e+000 107324 -7.1188e+001 -1.8563e+002 -3.7085e+001 26642 106932,107275,107203
 5.1000e+000 107675 -4.1018e+001 -1.1373e+002  1.2209e+001 26045 107450,107554,107476
 5.1000e+000 107652 -3.2732e+001 -9.9790e+001  4.3782e+000 26045 107450,107580,107554
 5.1000e+000 107629 -1.5250e+001 -9.2919e+001  2.6892e+000 26045 107476,107528,107502
 5.1000e+000 107606 -1.0523e+001 -1.0639e+002  7.3369e+000 26045 107476,107554,107528
 5.1000e+000 107874 -2.8855e+001 -1.6884e+002  4.2311e+001 25641 107750,107802,107776
 5.1000e+000 107851 -3.5008e+001 -1.1736e+002  2.3529e+001 25641 107724,107802,107750
 5.1000e+000 107828 -3.6415e+001 -1.1923e+002  2.1805e+001 25641 107698,107802,107724
 5.1000e+000 108431 -1.4440e+001 -1.8210e+002  3.2978e+001 25023 108526,108267,108241
 5.1000e+000 108408 -1.8188e-001 -1.7302e+002  6.0006e+000 25023 108059,108267,108085
 5.1000e+000 108385 -2.4866e+001 -1.8665e+002  3.3173e+001 25023 108454,108163,108111
 5.1000e+000 108362 -8.3910e+001 -1.8819e+002  5.5553e+001 25023 108454,108111,108085
 5.1000e+000 108339 -6.6327e+001 -2.4426e+002  5.7531e+001 25023 108111,108163,108137
 5.1000e+000 108316 -4.3355e+001 -1.3472e+002 -8.6577e+000 25023 108163,108241,108215
 5.1000e+000 108293  1.7080e+001 -1.0755e+002 -8.6396e-001 25023 108163,108215,108189
 5.1000e+000 108480 -4.7726e+000 -1.6637e+002  2.6292e+000 25023 108241,108163,108454
 5.1000e+000 108503 -2.6744e+001 -1.7745e+002  3.1945e+001 25023 108526,108241,108454
 5.1000e+000 108552 -2.9086e+001 -1.8322e+002  2.6079e+001 25023 108085,108267,108526
 5.1000e+000 108575 -4.2101e+001 -1.7939e+002  2.4738e+001 25023 108085,108526,108454
 5.1000e+000 108823  3.2508e+000 -1.3297e+002  1.9372e+001 24461 108624,108728,108650
 5.1000e+000 108800 -1.8024e+001 -2.7760e+002 -1.9498e+001 24461 108598,108728,108624
 5.1000e+000 108777  8.2681e-001 -1.7634e+002  1.4027e+001 24461 108650,108728,108676
 5.1000e+000 108754 -7.6564e+001 -5.0024e+002  4.3431e+001 24461 108676,108728,108702
 5.1000e+000 109022 -4.8428e+001 -1.3663e+002  1.9250e+001 24121 108872,108924,108898
 5.1000e+000 108999 -3.3330e+001 -1.3421e+002  2.1929e+001 24121 108846,108924,108872
 5.1000e+000 108976 -5.6110e+001 -1.4421e+002  2.3403e+001 24121 108846,108950,108924
 5.1000e+000 109483 -5.6687e+001 -1.8859e+002 -1.8399e+001 23717 109209,109339,109235
 5.1000e+000 109460 -2.1608e+001 -2.1407e+002 -4.3908e+001 23717 109209,109365,109339
 5.1000e+000 109437 -1.1263e+000 -2.4000e+002 -1.3931e+001 23717 109287,109339,109313
 5.1000e+000 109414 -1.0792e+002 -2.4048e+002  1.4097e+001 23717 109235,109339,109287
 5.1000e+000 109391  4.4696e+000 -2.8120e+002  1.0305e+002 23717 109235,109287,109261
 5.1000e+000 109910 -7.5815e+001 -2.2123e+002 -2.3069e+001 23305 109613,109743,109717
 5.1000e+000 109887 -7.4776e+001 -2.2243e+002 -1.3977e+001 23305 109613,109769,109743
 5.1000e+000 109864 -8.9680e+001 -2.1334e+002 -2.0231e+001 23305 109613,109717,109639
 5.1000e+000 109841 -5.8090e+001 -2.0563e+002 -5.8318e+000 23305 109587,109769,109613
 5.1000e+000 109818  2.2471e+000 -1.7425e+002  1.6339e+001 23305 109639,109717,109691
 5.1000e+000 109795 -1.7495e+001 -1.3851e+002 -3.3260e+001 23305 109639,109691,109665
 5.1000e+000 110180 -3.7402e+000 -6.2808e+001 -1.4221e+001 22851 110007,110059,110033
 5.1000e+000 110157 -4.4072e+001 -1.7287e+002  8.0187e+000 22851 109981,110059,110007
 5.1000e+000 110134 -6.2637e+001 -1.8717e+002  1.1813e+000 22851 109955,110059,109981
 5.1000e+000 110111 -2.5096e+001 -2.0643e+002 -1.5821e+001 22851 109955,110085,110059
 5.1000e+000 110737 -2.3012e+001 -1.9355e+002 -5.2865e+001 22333 110760,110469,110391
 5.1000e+000 110714 -5.3981e+000 -2.2413e+002 -4.0660e+001 22333 110760,110391,110365
 5.1000e+000 110691 -1.6432e+001 -1.7496e+002 -4.2793e+001 22333 110832,110521,110469
 5.1000e+000 110668 -4.2282e+001 -3.4888e+002  2.6781e+001 22333 110417,110469,110443
 5.1000e+000 110645 -8.9612e+001 -3.0716e+002  1.4844e+001 22333 110391,110469,110417
 5.1000e+000 110622 -2.5078e+000 -1.7692e+002 -2.1079e+001 22333 110469,110521,110495
 5.1000e+000 110599 -1.4599e+001 -1.2257e+002  1.4994e+001 22333 110365,110573,110547
 5.1000e+000 110786 -1.1399e+001 -1.7951e+002 -4.7877e+001 22333 110832,110469,110760
 5.1000e+000 110809  1.3923e+001 -1.9422e+002 -3.2202e+001 22333 110547,110760,110365
 5.1000e+000 110858 -1.5353e+001 -1.8540e+002 -4.2044e+001 22333 110547,110521,110832
 5.1000e+000 110881 -1.5441e+001 -1.9560e+002 -4.8533e+001 22333 110547,110832,110760
 5.1000e+000 111308 -9.7877e+001 -2.3560e+002  1.6229e+001 21829 111331,111063,111011
 5.1000e+000 111285 -8.6142e+001 -2.1597e+002 -4.4961e+000 21829 111331,111011,111167
 5.1000e+000 111262 -1.0104e+002 -2.3514e+002  1.7255e+001 21829 111403,111089,111063
 5.1000e+000 111239 -1.2516e+002 -2.5141e+002  3.6702e+001 21829 111011,111063,111037
 5.1000e+000 111216 -5.5924e+001 -1.5852e+002  7.8917e+000 21829 110985,111167,111011
 5.1000e+000 111193 -1.2333e+002 -4.0268e+002  8.8566e+001 21829 111089,111141,111115
 5.1000e+000 111357 -9.7759e+001 -2.3800e+002  1.7184e+001 21829 111403,111063,111331
 5.1000e+000 111380 -1.0108e+002 -2.4677e+002  8.1740e-002 21829 111141,111331,111167
 5.1000e+000 111429 -1.0826e+002 -2.3934e+002  1.9252e+001 21829 111141,111089,111403
 5.1000e+000 111452 -1.0200e+002 -2.4168e+002  1.8747e+001 21829 111141,111403,111331
 5.1000e+000 112056  7.8194e+001 -1.7123e+002  4.7072e+000 21489 111687,111765,111739
 5.1000e+000 112033  2.3549e+001 -1.9806e+002  2.1225e+001 21489 112151,112079,111687
 5.1000e+000 112010  1.4200e+000 -3.0934e+002  1.7689e+001 21489 111791,111843,111817
 5.1000e+000 111987 -4.9386e+001 -2.4870e+002 -1.9974e+001 21489 112079,111843,111791
 5.1000e+000 111964  5.4409e+001 -1.8214e+002  3.9356e+001 21489 112151,111687,111661
 5.1000e+000 111941 -8.4971e+000 -1.3262e+002  3.1662e+001 21489 111661,111869,111843
 5.1000e+000 111918  7.8763e+001 -1.8578e+002  2.7960e+001 21489 111687,111739,111713
 5.1000e+000 111895  2.2849e+001 -5.9882e+001  9.0352e+000 21489 111635,111869,111661
 5.1000e+000 112105 -2.4500e+001 -2.1621e+002  1.2030e+001 21489 111765,111687,112079
 5.1000e+000 112128 -2.2174e+001 -2.0494e+002  1.2019e+001 21489 111765,112079,111791
 5.1000e+000 112177 -2.8196e+001 -1.9412e+002 -5.8344e+000 21489 111843,112079,112151
 5.1000e+000 112200 -2.1878e-001 -1.8770e+002  8.8629e+000 21489 111843,112151,111661
 5.1000e+000 112578 -3.7884e+001 -2.4926e+002  1.2096e+001 21177 112382,112434,112408
 5.1000e+000 112555 -5.0393e+001 -2.4753e+002  3.0938e-001 21177 112330,112434,112382
 5.1000e+000 112532 -3.4872e+001 -2.0813e+002  4.0684e+001 21177 112304,112434,112330
 5.1000e+000 112509 -5.0879e+001 -2.3551e+002  0.0000e+000 21177 112330,112382,112356
 5.1000e+000 112486 -9.8973e+000 -1.1710e+002  6.4449e+000 21177 112304,112460,112434
 5.1000e+000 112679 -1.8313e+000 -1.3755e+002 -3.2101e+001 20666 112601,112653,112627
 5.1000e+000 112927 -7.4608e+001 -2.4999e+002  8.9000e+000 19762 112702,112754,112728
 5.1000e+000 112904 -2.8089e+001 -2.3933e+002 -2.1179e+000 19762 112702,112832,112754
 5.1000e+000 112881 -6.3064e+001 -2.5729e+002  4.1091e+001 19762 112754,112832,112806
 5.1000e+000 112858 -8.9471e+001 -3.2776e+002  4.2118e+001 19762 112754,112806,112780
 5.1000e+000 113297 -6.8194e+001 -3.0466e+002  1.9748e+001 19308 112974,113052,113026
 5.1000e+000 113274 -4.6069e+001 -2.5444e+002  6.7858e+000 19308 112974,113156,113052
 5.1000e+000 113251 -2.4727e+001 -3.3750e+002 -4.0772e+001 19308 113052,113130,113104
 5.1000e+000 113228 -5.0358e+001 -2.5401e+002 -1.6808e-001 19308 113052,113156,113130
 5.1000e+000 113205 -4.8057e+001 -2.9390e+002  0.0000e+000 19308 113052,113104,113078
 5.1000e+000 113182 -9.8022e+001 -3.1689e+002 -1.4083e+000 19308 112974,113026,113000
 5.1000e+000 113547 -1.3225e+000 -2.7511e+002 -1.9231e+001 18711 113570,113374,113348
 5.1000e+000 113524 -1.0188e+001 -2.5103e+002 -1.1284e+001 18711 113570,113348,113452
 5.1000e+000 113501 -4.2587e-001 -1.8502e+002 -5.2930e+001 18711 113322,113452,113348
 5.1000e+000 113478 -2.5231e+001 -2.4687e+002 -9.1856e+001 18711 113374,113426,113400
 5.1000e+000 113596 -2.2050e-001 -2.4857e+002 -2.5251e+001 18711 113426,113374,113570
 5.1000e+000 113619 -1.0764e+001 -2.2822e+002 -1.2277e+001 18711 113426,113570,113452
 5.1000e+000 113771 -1.3917e+002 -3.4440e+002 -1.8803e+001 18307 113670,113722,113696
 5.1000e+000 113748 -1.0837e+002 -3.2414e+002 -8.8967e+000 18307 113644,113722,113670
 5.1000e+000 113972 -6.0670e+001 -2.9151e+002  6.1186e+000 17945 113822,113874,113848
 5.1000e+000 113949 -6.1634e+001 -2.9010e+002  7.2138e+000 17945 113822,113900,113874
 5.1000e+000 113926 -8.5402e+001 -2.2996e+002  1.2159e+002 17945 113796,113900,113822
 5.1000e+000 114075 -3.9984e+001 -4.2623e+002  4.6698e+001 17482 113997,114049,114023
 5.1000e+000 114479 -1.5720e+001 -2.3609e+002 -3.6675e+001 17042 114257,114361,114335
 5.1000e+000 114456 -5.5931e+001 -2.2789e+002 -5.7174e+000 17042 114205,114361,114257
 5.1000e+000 114433 -6.3228e+001 -2.6383e+002  1.0270e+001 17042 114205,114257,114231
 5.1000e+000 114410  5.2176e+001 -3.5086e+002 -2.1866e+001 17042 114283,114335,114309
 5.1000e+000 114387 -1.9753e+000 -3.0347e+002 -1.5450e+001 17042 114257,114335,114283
 5.1000e+000 114879 -1.3165e+002 -2.4181e+002 -2.1773e+000 16638 114631,114683,114657
 5.1000e+000 114856 -2.5347e+001 -1.9752e+002  3.4630e+000 16638 114605,114683,114631
 5.1000e+000 114833  3.2921e+001 -1.0860e+002 -2.5521e+001 16638 114605,114761,114683
 5.1000e+000 114810 -9.5776e+000 -2.7174e+002 -1.3398e+001 16638 114683,114735,114709
 5.1000e+000 114787 -2.1829e+001 -2.8260e+002 -1.8887e+001 16638 114683,114761,114735
 5.1000e+000 115078 -1.1614e+002 -2.6302e+002  6.9403e+000 16232 114954,115006,114980
 5.1000e+000 115055 -1.1618e+002 -2.9053e+002  1.2966e+001 16232 114928,115006,114954
 5.1000e+000 115032 -5.6006e+001 -3.6061e+002  2.4794e+001 16232 114902,115006,114928
 5.1000e+000 115228 -6.5494e+001 -2.6090e+002  8.6144e+000 15482 115101,115153,115127
 5.1000e+000 115205 -6.1731e+001 -2.4805e+002 -2.6193e+000 15482 115101,115179,115153
 5.1000e+000 115331 -4.9722e+001 -2.3876e+002 -3.0814e+001 15163 115253,115305,115279
 5.1000e+000 115434 -8.2436e+001 -2.6163e+002  4.5865e+001 421 115356,115408,115382
 5.2000e+000 68213 -1.5438e+001 -1.3324e+002 -1.3944e+001 67888 68112,68164,68138
 5.2000e+000 68190 -1.6534e+002 -1.7653e+002 -2.4946e+001 67888 68086,68164,68112
 5.2000e+000 68314 -1.9268e+001 -1.9288e+002  1.7964e+001 67576 68236,68288,68262
 5.2000e+000 68584 -7.6032e+001 -3.5434e+002  1.7615e+001 67378 68385,68489,68463
 5.2000e+000 68561 -2.4996e+001 -3.2994e+002  9.6676e+000 67378 68359,68489,68385
 5.2000e+000 68538 -5.7689e+001 -3.0176e+002  2.5430e+001 67378 68385,68463,68411
 5.2000e+000 68515 -2.9301e+001 -1.9942e+002  1.4886e+001 67378 68411,68463,68437
 5.2000e+000 68964 -8.1113e+001 -3.1756e+002  4.7440e+001 67130 68690,68820,68716
 5.2000e+000 68941  5.8565e+001 -3.2969e+002  8.7984e+001 67130 68690,68846,68820
 5.2000e+000 68918 -7.4042e+001 -2.1123e+002  6.0497e+000 67130 68742,68820,68794
 5.2000e+000 68895 -2.0116e+001 -2.1054e+002  1.9901e+001 67130 68716,68820,68742
 5.2000e+000 68872 -5.0256e+001 -1.7833e+002 -2.1002e+001 67130 68742,68794,68768
 5.2000e+000 69065 -6.2840e+001 -1.8352e+002  3.2292e+000 66926 68987,69039,69013
 5.2000e+000 69445 -3.6006e+001 -1.6954e+002 -9.0279e+000 66614 69223,69301,69275
 5.2000e+000 69422 -5.6453e+001 -1.8092e+002 -3.6703e+000 66614 69171,69301,69223
 5.2000e+000 69399 -6.4572e+001 -1.8364e+002  2.1120e-001 66614 69171,69327,69301
 5.2000e+000 69376 -1.6270e+001 -8.5111e+001  1.7688e+000 66614 69223,69275,69249
 5.2000e+000 69353 -4.9599e+001 -1.9060e+002 -3.4304e+000 66614 69171,69223,69197
 5.2000e+000 69546 -6.2477e+001 -2.8802e+002  1.6358e+001 66416 69468,69520,69494
 5.2000e+000 69997 -5.7654e+001 -2.9079e+002 -2.2048e+001 66104 69700,69830,69726
 5.2000e+000 69974 -8.1537e+001 -3.5414e+002 -4.5980e+001 66104 69700,69856,69830
 5.2000e+000 69951 -6.0940e+001 -2.2491e+002 -1.6170e+001 66104 69726,69804,69778
 5.2000e+000 69928 -5.0080e+001 -2.7147e+002 -2.2583e+001 66104 69726,69830,69804
 5.2000e+000 69905 -6.3766e+001 -2.1460e+002 -8.0474e+000 66104 69726,69778,69752
 5.2000e+000 69882 -2.5568e+001 -4.8574e+002 -8.9480e+001 66104 69674,69856,69700
 5.2000e+000 70326 -5.3053e+001 -1.3514e+002  2.7397e+000 65814 70349,70153,70127
 5.2000e+000 70303 -3.2415e+001 -1.3280e+002  6.1824e+000 65814 70349,70127,70101
 5.2000e+000 70280 -2.9571e+001 -1.2662e+002  5.0271e+001 65814 70101,70231,70205
 5.2000e+000 70257  3.8641e+000 -1.4828e+002  1.7575e+001 65814 70153,70205,70179
 5.2000e+000 70375 -4.3475e+001 -1.4246e+002  1.9124e+001 65814 70205,70153,70349
 5.2000e+000 70398 -1.1943e+001 -1.3510e+002  2.0231e+001 65814 70205,70349,70101
 5.2000e+000 70904 -2.2545e+001 -7.2200e+001 -2.3432e+001 65502 70607,70737,70685
 5.2000e+000 70881 -3.1452e+001 -5.8571e+001 -3.0352e+001 65502 70581,70737,70607
 5.2000e+000 70858 -2.9827e+001 -1.5843e+001 -8.0249e+000 65502 70581,70763,70737
 5.2000e+000 70835 -3.3823e+001 -7.9071e+001 -3.1393e+001 65502 70685,70737,70711
 5.2000e+000 70812 -1.1887e+002 -9.5156e+001 -1.4258e+000 65502 70607,70659,70633
 5.2000e+000 70789 -3.7625e+001 -9.9630e+001  1.2149e+000 65502 70607,70685,70659
 5.2000e+000 71103 -3.2781e+001 -2.5084e+002 -7.4437e+000 65304 71126,70979,70953
 5.2000e+000 71080 -6.1962e+001 -2.4868e+002 -3.1831e+000 65304 71126,70953,70927
 5.2000e+000 71057 -8.6720e+001 -2.5393e+002  1.5800e+001 65304 70927,71031,71005
 5.2000e+000 71152 -6.1358e+001 -2.3909e+002 -1.5910e+001 65304 71005,70979,71126
 5.2000e+000 71175 -9.3555e+001 -2.4047e+002 -5.2089e+000 65304 71005,71126,70927
 5.2000e+000 71374 -4.2241e+001 -2.4086e+002  1.2020e+001 65106 71198,71276,71224
 5.2000e+000 71351 -7.2568e+001 -2.5686e+002  5.3707e+000 65106 71198,71302,71276
 5.2000e+000 71328 -2.9218e+001 -2.0548e+002  3.0246e+001 65106 71224,71276,71250
 5.2000e+000 71756 -3.0467e+001 -1.6931e+002 -1.1286e+001 64652 71508,71638,71534
 5.2000e+000 71733  8.0681e-001 -1.5599e+002  7.8843e-001 64652 71482,71638,71508
 5.2000e+000 71710 -6.3243e+001 -1.7037e+002 -1.4062e+001 64652 71534,71586,71560
 5.2000e+000 71687 -5.5421e+001 -1.8598e+002 -2.7724e+001 64652 71534,71612,71586
 5.2000e+000 71664 -8.1027e+001 -1.9260e+002 -2.9994e+001 64652 71534,71638,71612
 5.2000e+000 72085 -7.7532e+001 -1.9015e+002 -2.3812e+001 64248 71886,71964,71912
 5.2000e+000 72062 -6.2487e+001 -1.8523e+002 -2.3876e+001 64248 71860,71964,71886
 5.2000e+000 72039 -3.3242e+001 -2.0415e+002 -1.6263e+001 64248 71912,71964,71938
 5.2000e+000 72016 -6.3569e+001 -1.7507e+002 -2.4368e+001 64248 71860,71990,71964
 5.2000e+000 72235 -6.2138e+000 -1.2335e+002 -1.6725e+001 63858 72588,72258,72134
 5.2000e+000 72212 -2.8871e+001 -1.0800e+002  3.8221e+000 63858 72330,72258,72108
 5.2000e+000 72284 -2.0482e+001 -8.7500e+001 -1.1656e+001 63858 72160,72134,72258
 5.2000e+000 72307 -6.7991e+001 -1.1974e+002 -1.9315e+001 63858 72460,72258,72186
 5.2000e+000 72356 -5.6139e+001 -1.1542e+002 -1.9067e+001 63858 72186,72258,72330
 5.2000e+000 72486 -2.7420e+001 -1.1154e+002 -1.8446e+001 63858 72160,72258,72460
 5.2000e+000 72614 -1.1593e+001 -1.3164e+002 -2.9121e-001 63858 72108,72258,72588
 5.2000e+000 73248 -4.2884e+001 -2.0206e+002  4.6642e+001 63404 72902,72954,72928
 5.2000e+000 73225 -1.0040e+002 -2.0799e+002  2.0859e+001 63404 73271,72954,72902
 5.2000e+000 73202 -8.9634e+001 -1.7145e+002  1.7858e+001 63404 73271,72902,73032
 5.2000e+000 73179 -5.8684e+001 -1.4904e+002  5.4495e+000 63404 72902,73058,73032
 5.2000e+000 73156 -7.7501e+001 -1.9249e+002  8.3436e+000 63404 72980,73032,73006
 5.2000e+000 73133 -5.4254e+001 -1.5131e+002  4.5629e+000 63404 72876,73058,72902
 5.2000e+000 73110 -1.9351e+001 -7.4491e+001 -3.8277e+001 63404 72876,73084,73058
 5.2000e+000 73297 -8.6679e+001 -2.1292e+002 -1.5729e+000 63404 72980,72954,73271
 5.2000e+000 73320 -8.5152e+001 -1.9328e+002 -1.2491e+000 63404 72980,73271,73032
 5.2000e+000 73470 -7.3065e+001 -4.7503e+002  5.0335e+001 63014 73343,73395,73369
 5.2000e+000 73447 -2.2398e+002 -5.7992e+002 -1.0403e+001 63014 73343,73421,73395
 5.2000e+000 73929 -1.6872e+000 -2.1322e+002  1.4341e+001 62702 73759,73811,73785
 5.2000e+000 73906  8.3943e+000 -2.0831e+002  1.5646e+001 62702 73655,73811,73759
 5.2000e+000 73883 -2.6883e+001 -2.3825e+002 -5.1922e-001 62702 73655,73759,73681
 5.2000e+000 73860  3.0575e+000 -1.7762e+002 -3.6684e+001 62702 73681,73759,73707
 5.2000e+000 73837 -9.8030e+001 -2.0613e+002  3.9792e+000 62702 73707,73759,73733
 5.2000e+000 74209 -1.3073e+002 -2.0716e+002  2.3872e+000 62404 74059,74137,74085
 5.2000e+000 74186 -1.5313e+002 -2.6691e+002  3.0865e+001 62404 74033,74137,74059
 5.2000e+000 74163 -1.3642e+002 -1.9228e+002  2.0301e+000 62404 74085,74137,74111
 5.2000e+000 74408 -6.2881e+000 -1.7864e+002  1.0300e+001 62000 74258,74336,74284
 5.2000e+000 74385 -4.1363e+000 -1.7410e+002  2.0533e+001 62000 74232,74336,74258
 5.2000e+000 74362 -4.3221e+001 -1.7953e+002 -2.5016e+000 62000 74284,74336,74310
 5.2000e+000 74509 -1.6801e+001 -2.0098e+002  1.5718e+001 61802 74431,74483,74457
 5.2000e+000 74759 -6.8253e+001 -1.8149e+002  2.9951e+000 61554 74782,74586,74560
 5.2000e+000 74736 -4.3930e+001 -1.6974e+002  6.8872e+000 61554 74782,74560,74664
 5.2000e+000 74713 -5.9831e+001 -1.3682e+002  4.6837e+001 61554 74854,74612,74586
 5.2000e+000 74690 -5.3390e+001 -1.8310e+002  1.8342e+000 61554 74534,74664,74560
 5.2000e+000 74808 -8.0981e+001 -1.6842e+002  1.3614e+001 61554 74854,74586,74782
 5.2000e+000 74831 -5.1587e+001 -2.1365e+002  1.1830e+001 61554 74638,74782,74664
 5.2000e+000 74880 -1.6849e+001 -1.6997e+002  5.1212e+001 61554 74638,74612,74854
 5.2000e+000 74903 -1.7889e+001 -1.6774e+002  2.6544e+001 61554 74638,74854,74782
 5.2000e+000 75285 -2.9384e+001 -1.8311e+002  1.9527e+000 61356 75063,75167,75115
 5.2000e+000 75262 -3.9004e+001 -1.9561e+002 -1.0403e+001 61356 75037,75167,75063
 5.2000e+000 75239  9.8417e+000 -1.8984e+002 -1.0697e+000 61356 75115,75167,75141
 5.2000e+000 75216 -9.4314e+000 -1.7112e+002  6.9637e+000 61356 75063,75115,75089
 5.2000e+000 75193 -8.3990e+001 -1.5552e+002  1.2262e+001 61356 75011,75167,75037
 5.2000e+000 75631 -1.2706e+001 -1.4659e+002  4.3946e+000 60952 75654,75412,75360
 5.2000e+000 75608 -2.6415e+001 -1.6777e+002 -4.0143e+000 60952 75654,75360,75334
 5.2000e+000 75585 -2.8058e+001 -2.1466e+002  1.1376e+001 60952 75726,75438,75412
 5.2000e+000 75562 -2.0365e+001 -1.7075e+002 -2.6835e+001 60952 75308,75490,75334
 5.2000e+000 75539 -1.8515e+001 -1.4739e+002  3.3302e-001 60952 75360,75412,75386
 5.2000e+000 75516 -4.2233e+001 -2.6546e+002 -9.2597e+000 60952 75438,75490,75464
 5.2000e+000 75680 -1.1927e+001 -1.7932e+002  4.4667e+000 60952 75726,75412,75654
 5.2000e+000 75703 -1.1679e+001 -1.7021e+002 -6.3588e+000 60952 75490,75654,75334
 5.2000e+000 75752 -1.2533e+001 -1.7393e+002 -4.5420e-001 60952 75490,75438,75726
 5.2000e+000 75775 -1.3192e+001 -1.7057e+002 -6.8553e+000 60952 75490,75726,75654
 5.2000e+000 76155 -3.0897e+001 -1.7517e+002 -3.7897e-001 60754 75933,75985,75959
 5.2000e+000 76132 -4.9629e+001 -1.8663e+002  1.8937e+001 60754 75933,76037,75985
 5.2000e+000 76109  1.6306e+000 -1.8199e+002  5.8643e+000 60754 75985,76037,76011
 5.2000e+000 76086 -7.5412e+001 -1.5765e+002  4.5399e+000 60754 75881,76037,75933
 5.2000e+000 76063 -1.0437e+002 -1.4129e+002  3.9744e+001 60754 75881,75933,75907
 5.2000e+000 76612 -3.2753e+001 -1.6766e+002  7.8449e+000 60350 76635,76442,76390
 5.2000e+000 76589 -2.7598e+000 -1.9024e+002  1.4300e+001 60350 76635,76390,76364
 5.2000e+000 76566 -1.0796e+001 -2.4447e+002 -1.6420e+001 60350 76364,76494,76468
 5.2000e+000 76543 -2.7079e+000 -1.5287e+002  1.5232e+001 60350 76390,76442,76416
 5.2000e+000 76520 -8.7103e+001 -1.5622e+002 -3.8199e+001 60350 76338,76494,76364
 5.2000e+000 76661 -4.8935e+001 -1.8324e+002  1.4736e+001 60350 76468,76442,76635
 5.2000e+000 76684 -2.6863e+001 -2.0858e+002  2.3472e+001 60350 76468,76635,76364
 5.2000e+000 76932 -6.7292e+001 -1.9693e+002  1.7721e+000 59946 76955,76733,76707
 5.2000e+000 76909 -6.7444e+001 -1.9637e+002  5.6928e+000 59946 77027,76955,76707
 5.2000e+000 76886 -6.4069e+001 -1.9713e+002  4.5444e+000 59946 77027,76707,76837
 5.2000e+000 76863 -3.0535e+001 -2.1612e+002 -2.0871e+001 59946 76733,76785,76759
 5.2000e+000 76981 -7.6542e+001 -1.9778e+002 -2.3697e+000 59946 76785,76733,76955
 5.2000e+000 77004 -6.9539e+001 -1.9170e+002  3.3611e+000 59946 76785,76955,76811
 5.2000e+000 77053 -6.3011e+001 -1.9523e+002  5.6729e+000 59946 76811,76955,77027
 5.2000e+000 77076 -6.0691e+001 -1.9634e+002  3.9897e+000 59946 76811,77027,76837
 5.2000e+000 77226 -8.0279e+001 -2.0593e+002  5.2625e+000 59542 77099,77151,77125
 5.2000e+000 77203 -1.0153e+002 -2.4860e+002  1.2430e+001 59542 77099,77177,77151
 5.2000e+000 77427 -1.0545e+002 -2.1571e+002 -1.3011e+001 59030 77450,77277,77251
 5.2000e+000 77404 -6.5924e+001 -1.7488e+002 -5.7653e+001 59030 77450,77251,77355
 5.2000e+000 77381 -2.0744e+001 -2.5226e+002 -5.0972e+000 59030 77277,77329,77303
 5.2000e+000 77476 -5.7124e+001 -2.2407e+002 -3.8745e+001 59030 77329,77277,77450
 5.2000e+000 77499 -1.3936e+001 -2.0464e+002 -7.3996e+001 59030 77329,77450,77355
 5.2000e+000 77749 -8.6236e+001 -2.6845e+002  2.0707e+001 58426 77772,77628,77602
 5.2000e+000 77726 -5.6971e+001 -3.1299e+002  6.4514e+001 58426 77524,77654,77628
 5.2000e+000 77703 -7.1697e+001 -2.6509e+002  1.5229e+001 58426 77772,77602,77550
 5.2000e+000 77680 -4.3711e+001 -2.4913e+002 -1.1489e+001 58426 77550,77602,77576
 5.2000e+000 77798 -6.9208e+001 -2.7071e+002  2.0038e+001 58426 77524,77628,77772
 5.2000e+000 77821 -6.1392e+001 -2.7077e+002  1.3007e+001 58426 77524,77772,77550
 5.2000e+000 78071 -1.1155e+002 -2.4202e+002  2.5255e+001 57922 78094,77924,77898
 5.2000e+000 78048 -1.2877e+002 -2.4236e+002  2.3006e+000 57922 78094,77898,77872
 5.2000e+000 78025 -1.0476e+002 -2.1939e+002  2.4202e+001 57922 78166,77846,77950
 5.2000e+000 78002 -5.6163e+001 -2.1432e+002  2.7734e+001 57922 77846,77976,77950
 5.2000e+000 78120 -9.2785e+001 -2.3961e+002  1.7288e+001 57922 77950,77924,78094
 5.2000e+000 78143 -1.0664e+002 -2.2330e+002  1.7967e+001 57922 78166,77950,78094
 5.2000e+000 78192 -9.9141e+001 -2.2991e+002  1.7406e+001 57922 77872,77846,78166
 5.2000e+000 78215 -1.0683e+002 -2.4089e+002  1.0616e+001 57922 77872,78166,78094
 5.2000e+000 78416  2.2344e+001 -2.0386e+002 -1.0993e+001 57468 78439,78292,78240
 5.2000e+000 78393 -1.1566e+001 -1.9304e+002  1.7457e-001 57468 78439,78240,78344
 5.2000e+000 78370  8.3987e+000 -2.7708e+002 -7.9222e+000 57468 78240,78292,78266
 5.2000e+000 78465 -1.0491e+001 -2.2016e+002 -1.7377e+001 57468 78318,78292,78439
 5.2000e+000 78488 -2.4389e+001 -2.0090e+002 -3.2097e+000 57468 78318,78439,78344
 5.2000e+000 78689  2.1020e+001 -2.4630e+002 -2.8477e+001 57014 78712,78539,78513
 5.2000e+000 78666 -1.4885e+001 -2.4472e+002 -5.1966e+000 57014 78712,78513,78617
 5.2000e+000 78643 -5.4359e+001 -2.4744e+002  2.3527e+001 57014 78565,78617,78591
 5.2000e+000 78738 -2.5192e+001 -2.0739e+002 -2.8558e+001 57014 78565,78539,78712
 5.2000e+000 78761 -7.8236e+001 -2.3812e+002  9.3017e+000 57014 78565,78712,78617
 5.2000e+000 79241 -7.8788e+001 -2.1915e+002  1.7306e+001 56652 79264,78895,78869
 5.2000e+000 79218 -3.6750e+001 -2.8517e+002 -1.6881e+001 56652 79264,78869,79051
 5.2000e+000 79195 -5.6411e+001 -2.4866e+002 -5.8468e+001 56652 78869,79077,79051
 5.2000e+000 79172 -6.1262e+001 -1.4543e+002 -3.2633e+001 56652 78895,78973,78947
 5.2000e+000 79149 -1.0324e+002 -4.2571e+002 -3.5079e+001 56652 78973,79051,78999
 5.2000e+000 79126 -5.4032e+001 -1.3684e+002 -3.5731e+001 56652 78895,78947,78921
 5.2000e+000 79103 -8.1709e+001 -2.8599e+002  6.6160e+001 56652 78999,79051,79025
 5.2000e+000 79290 -4.6704e+001 -1.7765e+002  4.0217e+001 56652 78973,78895,79264
 5.2000e+000 79313 -1.7541e+000 -2.4845e+002  8.2217e+000 56652 78973,79264,79051
 5.2000e+000 79512 -2.5797e+001 -3.2019e+002  2.5648e+001 56062 79388,79440,79414
 5.2000e+000 79489 -1.2022e+002 -1.6521e+002  4.2858e+001 56062 79336,79440,79388
 5.2000e+000 79466 -4.4057e+001 -2.0576e+002  5.4287e+001 56062 79336,79388,79362
 5.2000e+000 79941 -3.4393e+001 -1.7286e+002  2.8274e+001 55658 79964,79670,79644
 5.2000e+000 79918 -5.3350e+001 -1.7553e+002  3.1862e+001 55658 79964,79644,79800
 5.2000e+000 79895 -4.9331e+001 -1.8503e+002  1.6439e+001 55658 80036,79696,79670
 5.2000e+000 79872 -5.8090e+001 -1.5679e+002 -2.0948e+000 55658 80108,79722,79696
 5.2000e+000 79849 -8.6022e+001 -1.5549e+002  9.0780e+000 55658 79722,79774,79748
 5.2000e+000 79826 -5.0879e-001 -1.5694e+002  8.7105e+000 55658 79618,79800,79644
 5.2000e+000 79990 -5.5028e+001 -1.8650e+002  2.1467e+001 55658 80036,79670,79964
 5.2000e+000 80013 -4.9352e+001 -1.6342e+002  3.3188e+001 55658 79774,79964,79800
 5.2000e+000 80062 -4.1633e+001 -1.6842e+002  1.3456e+001 55658 80108,79696,80036
 5.2000e+000 80085 -5.4371e+001 -1.6499e+002  2.9405e+001 55658 79774,80036,79964
 5.2000e+000 80134 -9.0151e+001 -1.6932e+002  4.8613e+000 55658 79774,79722,80108
 5.2000e+000 80157 -8.0827e+001 -1.8517e+002  2.0282e+001 55658 79774,80108,80036
 5.2000e+000 80307 -9.9710e+001 -1.6835e+002  1.8335e+001 55254 80402,80330,80206
 5.2000e+000 80284 -9.6679e+001 -2.3249e+002  1.9967e+001 55254 80330,80180,80258
 5.2000e+000 80356 -1.1687e+002 -2.0731e+002  4.1160e+001 55254 80232,80206,80330
 5.2000e+000 80379 -3.5672e+001 -1.7068e+002  6.0345e+001 55254 80232,80330,80258
 5.2000e+000 80428 -1.3214e+002 -2.0762e+002  2.4774e+000 55254 80180,80330,80402
 5.2000e+000 80659 -4.6833e+001 -2.4622e+002 -1.9245e+001 54850 80558,80610,80584
 5.2000e+000 80636 -2.8359e+000 -2.3576e+002 -2.3952e+001 54850 80532,80610,80558
 5.2000e+000 80760 -1.6526e+001 -1.6873e+002 -1.3607e+001 54652 80682,80734,80708
 5.2000e+000 81164 -1.3456e+001 -1.7993e+002 -3.4257e+000 54248 81187,80942,80890
 5.2000e+000 81141 -1.6165e+001 -1.8169e+002 -2.3620e+000 54248 81187,80890,81046
 5.2000e+000 81118 -1.8912e+001 -1.8971e+002  3.9400e+001 54248 80942,81020,80994
 5.2000e+000 81095 -1.1713e+001 -1.8157e+002  1.0238e+000 54248 80890,80942,80916
 5.2000e+000 81072 -2.5547e+001 -1.0516e+002  5.8090e+000 54248 80942,80994,80968
 5.2000e+000 81213 -1.6498e+001 -1.7829e+002 -3.2101e+000 54248 81020,80942,81187
 5.2000e+000 81236 -1.8577e+001 -1.7924e+002 -2.5201e+000 54248 81020,81187,81046
 5.2000e+000 81663 -1.0484e+002 -1.9563e+002  1.7602e+001 53594 81340,81444,81366
 5.2000e+000 81640 -9.9455e+001 -2.8444e+002  7.9695e+000 53594 81340,81470,81444
 5.2000e+000 81617 -4.4750e+001 -2.4944e+002 -2.1240e+001 53594 81340,81522,81470
 5.2000e+000 81594 -5.8321e+001 -1.4198e+002 -1.5975e+001 53594 81392,81444,81418
 5.2000e+000 81571 -7.6348e+001 -1.6865e+002 -2.4636e+001 53594 81366,81444,81392
 5.2000e+000 81548  2.7146e+000 -3.5214e+002  4.9619e+001 53594 81470,81522,81496
 5.2000e+000 81943 -2.6177e+001 -1.3408e+002 -1.6690e+001 53104 81966,81845,81819
 5.2000e+000 81920 -3.9357e+001 -1.1048e+002 -2.0682e+001 53104 81966,81819,81767
 5.2000e+000 81897 -4.1018e+001 -1.1347e+002 -2.1932e+001 53104 81767,81819,81793
 5.2000e+000 81992 -1.7325e+001 -1.1919e+002 -2.0356e+001 53104 81871,81845,81966
 5.2000e+000 82015 -2.3976e+001 -8.6062e+001 -2.7493e+001 53104 81871,81966,81767
 5.2000e+000 82491 -2.6780e+001 -1.3533e+002 -1.2584e+001 52650 82145,82249,82171
 5.2000e+000 82468 -1.1055e+002 -1.5825e+002 -1.9295e+001 52650 82145,82301,82249
 5.2000e+000 82445 -1.1688e+002 -2.4201e+002 -4.1313e+001 52650 82249,82301,82275
 5.2000e+000 82422 -5.8041e+001 -3.0486e+002 -5.5683e+001 52650 82119,82301,82145
 5.2000e+000 82399 -3.7078e+001 -1.0727e+002  1.3257e+001 52650 82171,82249,82223
 5.2000e+000 82376  8.8911e+000 -2.7920e+002 -3.5508e+001 52650 82119,82327,82301
 5.2000e+000 82353 -1.0293e+001 -5.4465e+001 -2.2245e+001 52650 82171,82223,82197
 5.2000e+000 82739 -3.3552e+001 -1.2406e+002  1.9418e+000 52246 82762,82540,82514
 5.2000e+000 82716 -2.2481e+001 -5.2383e+001 -9.5646e+000 52246 82762,82514,82644
 5.2000e+000 82693 -6.0050e+001 -1.3997e+002  2.9992e+001 52246 82540,82618,82592
 5.2000e+000 82670 -6.8230e+001 -1.2832e+002  2.1105e+001 52246 82540,82592,82566
 5.2000e+000 82788 -2.2253e+001 -1.5782e+002  8.7783e+000 52246 82618,82540,82762
 5.2000e+000 82811 -4.1818e+001 -1.3543e+002 -1.1738e+001 52246 82618,82762,82644
 5.2000e+000 83059 -1.9958e+001 -1.7786e+002  1.7017e+001 51578 82860,82964,82938
 5.2000e+000 83036 -1.3777e+000 -1.2055e+002 -3.9034e+001 51578 82834,82964,82860
 5.2000e+000 83013 -9.0173e+000 -1.3772e+002  3.6351e+001 51578 82860,82938,82886
 5.2000e+000 82990 -6.5085e+000 -8.8128e+001  7.1006e+000 51578 82886,82938,82912
 5.2000e+000 83309 -3.2775e+001 -9.9928e+001  2.9151e+001 51138 83332,83162,83136
 5.2000e+000 83286 -1.2354e+001 -1.3186e+002  9.1855e+000 51138 83332,83136,83110
 5.2000e+000 83263 -4.9957e+001 -1.3613e+002 -7.6410e+000 51138 83404,83214,83188
 5.2000e+000 83240 -7.4958e-001 -8.1741e+001  7.2924e+000 51138 83084,83214,83110
 5.2000e+000 83358 -5.4624e+001 -1.3997e+002  3.9069e+001 51138 83188,83162,83332
 5.2000e+000 83381 -3.4841e+001 -1.5169e+002  6.8983e+000 51138 83404,83188,83332
 5.2000e+000 83430 -3.1084e+001 -9.6873e+001 -1.3371e+000 51138 83110,83214,83404
 5.2000e+000 83453 -1.8943e+001 -1.2109e+002  1.2707e+001 51138 83110,83404,83332
 5.2000e+000 83835 -3.2085e+001 -1.7060e+002 -1.2856e+000 50734 83613,83717,83691
 5.2000e+000 83812 -3.5982e+001 -1.8452e+002 -3.6097e+001 50734 83561,83717,83613
 5.2000e+000 83789 -2.0228e+001 -9.5112e+001 -5.2217e+001 50734 83561,83613,83587
 5.2000e+000 83766 -6.5918e+001 -1.1595e+002 -1.3984e-001 50734 83613,83691,83639
 5.2000e+000 83743 -7.0186e+001 -1.1755e+002  2.4771e+001 50734 83639,83691,83665
 5.2000e+000 84034 -4.3478e+001 -1.0669e+002  6.8070e+000 50230 84057,83884,83858
 5.2000e+000 84011 -4.2920e+001 -1.1547e+002 -1.0054e+001 50230 84129,84057,83858
 5.2000e+000 83988 -1.2843e+001 -1.2399e+002 -1.7587e+001 50230 84129,83858,83962
 5.2000e+000 84083 -2.0310e+001 -9.7054e+001  6.7094e+000 50230 83910,83884,84057
 5.2000e+000 84106 -2.6833e+001 -1.0611e+002  2.3458e+000 50230 83910,84057,83936
 5.2000e+000 84155 -3.7746e+000 -9.7361e+001 -1.2171e+000 50230 83936,84057,84129
 5.2000e+000 84178  7.6299e+000 -1.1920e+002 -1.3131e+001 50230 83936,84129,83962
 5.2000e+000 84558 -4.7989e+001 -1.4170e+002 -2.3120e+001 49768 84581,84388,84362
 5.2000e+000 84535 -9.8920e+001 -1.4418e+002 -9.3232e+000 49768 84581,84362,84310
 5.2000e+000 84512  3.3718e+000 -1.5573e+002 -2.5153e+001 49768 84653,84440,84414
 5.2000e+000 84489 -7.7820e+001 -1.5837e+002  1.1572e+001 49768 84310,84362,84336
 5.2000e+000 84466 -2.9970e+000 -1.1265e+002  1.7932e+001 49768 84284,84440,84310
 5.2000e+000 84607 -1.3646e+001 -1.2077e+002 -3.9039e+001 49768 84414,84388,84581
 5.2000e+000 84630 -1.7133e+001 -1.4586e+002 -1.7769e+001 49768 84653,84414,84581
 5.2000e+000 84679 -2.4235e+001 -1.4693e+002 -3.4427e+001 49768 84310,84440,84653
 5.2000e+000 84702 -5.3620e+001 -1.4707e+002 -3.5028e+001 49768 84310,84653,84581
 5.2000e+000 85159 -7.8423e+001 -1.9998e+002 -5.6681e+001 49192 84885,84937,84911
 5.2000e+000 85136 -7.6585e+001 -1.5452e+002 -4.1236e+001 49192 84885,85041,84937
 5.2000e+000 85113 -5.2916e+001 -1.3137e+002 -1.9366e+001 49192 84963,85041,84989
 5.2000e+000 85090 -4.5459e+001 -1.1757e+002 -2.7175e+001 49192 84937,85041,84963
 5.2000e+000 85067 -4.5293e+001 -1.2678e+002 -2.1466e+001 49192 84989,85041,85015
 5.2000e+000 85714 -8.0124e+001 -1.3187e+002 -2.8248e-001 48638 85368,85498,85394
 5.2000e+000 85691 -1.0020e+002 -1.5461e+002  8.5440e+000 48638 85368,85524,85498
 5.2000e+000 85668 -9.2316e+001 -1.2782e+002  3.5798e+001 48638 85737,85420,85394
 5.2000e+000 85645 -7.6908e+001 -1.4483e+002  1.8445e+001 48638 85737,85394,85498
 5.2000e+000 85622 -6.0588e+001 -1.4586e+002  2.9935e+001 48638 85446,85498,85472
 5.2000e+000 85599 -2.6016e+001 -1.2602e+002  1.4279e+001 48638 85342,85524,85368
 5.2000e+000 85576 -9.8387e+001 -1.4273e+002  1.3965e+001 48638 85342,85550,85524
 5.2000e+000 85763 -6.5157e+001 -1.1354e+002  4.6531e+001 48638 85446,85420,85737
 5.2000e+000 85786 -6.5837e+001 -1.3133e+002  2.6796e+001 48638 85446,85737,85498
 5.2000e+000 86371 -6.8619e+001 -9.8260e+001 -5.4686e+000 48084 86100,86230,86178
 5.2000e+000 86348 -8.5081e+001 -1.2784e+002 -1.4044e+001 48084 86048,86230,86100
 5.2000e+000 86325 -6.4839e+001 -8.9671e+001  2.5191e+001 48084 86100,86178,86126
 5.2000e+000 86302 -4.5018e+001 -3.3464e+001 -2.5965e+001 48084 86048,86100,86074
 5.2000e+000 86279 -8.6524e+001 -1.6037e+002 -2.7489e+000 48084 86178,86230,86204
 5.2000e+000 86256 -5.8795e+001 -9.7655e+001  2.5095e+001 48084 86126,86178,86152
 5.2000e+000 86619 -4.7365e+001 -1.0734e+002  1.0587e+001 47630 86642,86446,86420
 5.2000e+000 86596 -5.7597e+001 -1.2033e+002 -1.4507e+001 47630 86642,86420,86394
 5.2000e+000 86573 -7.6733e+001 -1.4058e+002 -2.0737e+001 47630 86394,86524,86498
 5.2000e+000 86550 -3.1734e+001 -1.2292e+002  9.7360e+000 47630 86446,86498,86472
 5.2000e+000 86668 -6.0263e+001 -1.3606e+002  1.4554e+000 47630 86498,86446,86642
 5.2000e+000 86691 -6.5421e+001 -1.4029e+002 -2.3137e+001 47630 86498,86642,86394
 5.2000e+000 87022 -6.5102e+000 -7.8249e+001 -4.5062e+001 47226 87045,86875,86849
 5.2000e+000 86999 -2.9809e+000 -8.7294e+001 -4.2614e+001 47226 87045,86849,86797
 5.2000e+000 86976  1.5228e-001 -4.0159e+001 -1.2057e+001 47226 86797,86849,86823
 5.2000e+000 86953  2.0938e+000 -5.5560e+001 -2.3970e+001 47226 86875,86927,86901
 5.2000e+000 87071 -1.2069e+001 -8.4672e+001 -4.2683e+001 47226 86927,86875,87045
 5.2000e+000 87094 -6.1294e+000 -9.0858e+001 -4.1281e+001 47226 86927,87045,86797
 5.2000e+000 87244 -9.8191e+000 -1.5492e+002  4.1779e+001 46814 87267,87169,87143
 5.2000e+000 87221 -7.4912e+001 -1.4067e+002 -8.2770e+000 46814 87267,87143,87117
 5.2000e+000 87293 -8.3032e+000 -1.1467e+002  2.5903e+001 46814 87339,87267,87195
 5.2000e+000 87316 -3.4461e+000 -1.1006e+002  2.2168e+000 46814 87469,87267,87117
 5.2000e+000 87365 -2.1842e+000 -1.0983e+002  3.1263e+001 46814 87169,87267,87339
 5.2000e+000 87495 -5.2343e-001 -7.8573e+000 -2.2482e+000 46814 87195,87267,87469
 5.2000e+000 88001 -4.6137e+001 -1.0660e+002  2.8580e+001 46310 88024,87834,87808
 5.2000e+000 87978 -5.7432e+001 -1.0920e+002  1.7156e+001 46310 88024,87808,87756
 5.2000e+000 87955 -2.9804e+001 -1.4320e+002  7.4962e+000 46310 88096,87730,87860
 5.2000e+000 87932 -4.1065e+001 -1.4225e+002  1.8106e+001 46310 87756,87808,87782
 5.2000e+000 87909 -3.8169e+001 -1.6963e+002  6.2697e+000 46310 87678,87860,87730
 5.2000e+000 87886 -5.7812e+001 -2.7842e+002 -1.5981e+001 46310 87678,87730,87704
 5.2000e+000 88050 -4.0264e+001 -9.4131e+001  1.7640e+001 46310 87860,87834,88024
 5.2000e+000 88073 -3.0649e+001 -1.0263e+002  2.0450e+001 46310 88096,87860,88024
 5.2000e+000 88122 -3.9287e+001 -1.6244e+002 -6.2213e+000 46310 87756,87730,88096
 5.2000e+000 88145 -6.5201e+001 -1.4632e+002  1.0361e+000 46310 87756,88096,88024
 5.2000e+000 88572 -3.1087e+001 -1.4312e+002  9.3842e+000 45856 88249,88405,88275
 5.2000e+000 88549 -2.5530e+001 -4.4093e+001 -2.8516e+001 45856 88249,88431,88405
 5.2000e+000 88526 -7.3527e+001 -2.0139e+002 -2.6565e+001 45856 88327,88405,88353
 5.2000e+000 88503 -3.3384e+001 -1.7373e+002 -1.1489e+001 45856 88275,88405,88327
 5.2000e+000 88480 -6.1845e+001 -1.7886e+002 -3.2826e+001 45856 88353,88405,88379
 5.2000e+000 88457 -1.3700e+002 -3.7296e+002  3.0790e+001 45856 88275,88327,88301
 5.2000e+000 88950 -2.3134e+001 -8.4240e+001 -2.3629e+000 45658 88973,88754,88728
 5.2000e+000 88927 -1.9876e+001 -8.3142e+001 -1.3909e+000 45658 88973,88728,88676
 5.2000e+000 88904 -2.5155e+001 -9.8877e+001  3.3022e+001 45658 88676,88832,88806
 5.2000e+000 88881 -3.8775e+001 -1.2070e+002  1.0126e+001 45658 88676,88728,88702
 5.2000e+000 88858 -3.6849e+001 -8.2089e+001 -1.8862e+001 45658 88754,88806,88780
 5.2000e+000 88999 -2.5368e+001 -8.2221e+001 -1.0398e+000 45658 88806,88754,88973
 5.2000e+000 89022 -2.2751e+001 -8.1700e+001 -6.8086e-001 45658 88806,88973,88676
 5.2000e+000 89351 -4.2308e+001 -1.4301e+002 -6.8378e+000 45254 89152,89230,89204
 5.2000e+000 89328 -3.9960e+001 -1.4219e+002 -7.4253e+000 45254 89152,89256,89230
 5.2000e+000 89305 -1.4631e+001 -1.5114e+002 -1.9372e+001 45254 89126,89256,89152
 5.2000e+000 89282  1.4036e+000 -1.4324e+002 -2.5536e+001 45254 89152,89204,89178
 5.2000e+000 89523 -1.5171e+001 -9.8813e+001 -2.3949e-001 45006 89422,89474,89448
 5.2000e+000 89500 -1.1902e+001 -9.7440e+001  2.3683e+000 45006 89396,89474,89422
 5.2000e+000 89673 -1.1727e+002 -2.0536e+002  1.7439e+001 44495 89572,89624,89598
 5.2000e+000 89650 -1.2077e+002 -2.0741e+002  1.1469e+001 44495 89546,89624,89572
 5.2000e+000 90104 -1.1402e+001 -1.5281e+002 -8.1096e+000 44005 90199,90127,89937
 5.2000e+000 90081 -2.9900e+001 -1.4967e+002  2.3961e+000 44005 90271,90127,89859
 5.2000e+000 90058 -2.4660e+000 -1.5687e+002 -8.4879e+000 44005 90199,89937,89885
 5.2000e+000 90035 -4.2108e+001 -1.4108e+002  9.3768e+000 44005 90271,89859,89807
 5.2000e+000 90012 -2.1970e+001 -1.7205e+002 -2.0083e+001 44005 89885,89937,89911
 5.2000e+000 89989 -1.0956e+001 -1.4976e+002  2.5322e+001 44005 89807,89859,89833
 5.2000e+000 90153 -3.1576e+001 -1.6011e+002 -5.0685e+000 44005 89963,89937,90127
 5.2000e+000 90176 -3.4075e+001 -1.7194e+002  3.7553e+000 44005 89963,90127,89781
 5.2000e+000 90225 -3.3193e+001 -1.5133e+002 -2.9889e+000 44005 89859,90127,90199
 5.2000e+000 90248 -1.4055e+001 -1.4862e+002  5.4586e-001 44005 89859,90199,89885
 5.2000e+000 90297 -4.6284e+001 -1.5999e+002 -2.1338e+000 44005 89781,90127,90271
 5.2000e+000 90320 -5.3336e+001 -1.4874e+002  5.9629e+000 44005 89781,90271,89807
 5.2000e+000 90470 -2.3998e+001 -1.6200e+002 -5.1607e+000 43601 90493,90369,90343
 5.2000e+000 90447 -4.2311e+001 -1.3083e+002  1.0266e+001 43601 90493,90343,90421
 5.2000e+000 90519 -5.1960e+001 -2.1914e+002 -2.5168e+001 43601 90395,90369,90493
 5.2000e+000 90542 -4.1467e+001 -1.5356e+002 -5.4570e+000 43601 90395,90493,90421
 5.2000e+000 90922 -5.3465e+001 -1.7240e+002  1.0599e+001 43154 90945,90700,90674
 5.2000e+000 90899 -4.6810e+001 -1.7570e+002 -2.0360e+001 43154 90945,90674,90648
 5.2000e+000 90876 -5.8718e+001 -1.3740e+002 -1.2860e+001 43154 90648,90778,90752
 5.2000e+000 90853 -2.9962e+001 -2.7852e+002  8.3073e+000 43154 90700,90752,90726
 5.2000e+000 90830 -3.5623e+001 -1.3695e+002 -6.4868e+000 43154 90648,90804,90778
 5.2000e+000 90971 -6.2201e+001 -1.9947e+002  1.6048e+001 43154 90752,90700,90945
 5.2000e+000 90994 -5.3438e+001 -1.9210e+002 -1.4094e+001 43154 90752,90945,90648
 5.2000e+000 91451 -1.6908e+001 -1.3595e+002 -2.5854e+001 42650 91203,91255,91229
 5.2000e+000 91428  1.2670e+001 -1.2307e+002 -1.2044e+001 42650 91203,91333,91255
 5.2000e+000 91405 -1.9761e+000 -1.9837e+002 -3.3990e+001 42650 91177,91333,91203
 5.2000e+000 91382 -6.2726e+001 -2.1361e+002  2.7223e+001 42650 91255,91333,91281
 5.2000e+000 91359 -1.4163e+001 -1.7922e+002  9.3801e+000 42650 91281,91333,91307
 5.2000e+000 91721 -9.0840e+001 -2.0392e+002  1.4517e+001 42288 91496,91600,91522
 5.2000e+000 91698 -4.8928e+001 -1.1816e+002 -5.1091e+000 42288 91496,91626,91600
 5.2000e+000 91675 -5.6264e+001 -1.8268e+002  1.6064e+001 42288 91522,91574,91548
 5.2000e+000 91652 -4.6411e+001 -1.8665e+002  1.5146e+001 42288 91522,91600,91574
 5.2000e+000 92199 -1.3509e+002 -2.2040e+002 -5.9058e+000 41898 92222,91983,91879
 5.2000e+000 92176 -1.3829e+002 -2.4242e+002 -1.4648e+001 41898 92294,92222,91879
 5.2000e+000 92153 -1.4621e+002 -2.3907e+002 -2.0485e+001 41898 92294,91879,91853
 5.2000e+000 92130 -1.1734e+002 -1.3378e+002  1.4946e+001 41898 91879,91957,91931
 5.2000e+000 92107 -1.2058e+002 -2.1484e+002 -6.4662e-001 41898 91879,91983,91957
 5.2000e+000 92084 -1.3061e+002 -1.2612e+002  2.9665e+001 41898 91879,91931,91905
 5.2000e+000 92061 -1.2864e+002 -2.1533e+002 -1.6443e+001 41898 91827,92035,91853
 5.2000e+000 92248 -1.3364e+002 -2.4774e+002 -8.1091e-002 41898 92009,91983,92222
 5.2000e+000 92271 -1.3000e+002 -2.5260e+002 -1.9428e+001 41898 92009,92222,92035
 5.2000e+000 92320 -1.2504e+002 -2.3705e+002 -1.5649e+001 41898 92035,92222,92294
 5.2000e+000 92343 -1.3087e+002 -2.3262e+002 -2.1134e+001 41898 92035,92294,91853
 5.2000e+000 92770 -3.9566e+001 -1.8897e+002 -1.4321e+001 41437 92865,92793,92525
 5.2000e+000 92747 -5.6224e+001 -2.1735e+002 -1.9925e+001 41437 92793,92473,92629
 5.2000e+000 92724 -1.6767e+001 -1.9497e+002 -2.6627e+001 41437 92865,92525,92499
 5.2000e+000 92701 -6.3046e+001 -1.6797e+002 -3.1068e+001 41437 92525,92603,92577
 5.2000e+000 92678  2.5568e+000 -2.0990e+002 -1.7583e+001 41437 92447,92629,92473
 5.2000e+000 92655 -9.7273e+001 -1.4874e+002 -1.8047e+001 41437 92525,92577,92551
 5.2000e+000 92819 -4.5195e+001 -2.0182e+002 -3.0985e+001 41437 92603,92525,92793
 5.2000e+000 92842 -8.9702e+001 -2.1716e+002 -5.6180e+001 41437 92603,92793,92629
 5.2000e+000 92891  4.9425e+000 -2.0484e+002 -1.7902e+001 41437 92473,92793,92865
 5.2000e+000 92914  3.7657e+001 -1.9752e+002 -3.5723e+001 41437 92473,92865,92499
 5.2000e+000 93243 -3.4304e+001 -2.9260e+002  1.0625e+002 41097 93044,93096,93070
 5.2000e+000 93220 -5.8865e+001 -2.5844e+002  5.6893e+001 41097 93044,93122,93096
 5.2000e+000 93197  1.2447e+001 -1.7177e+002  2.2371e+001 41097 93044,93148,93122
 5.2000e+000 93174 -5.4674e+001 -1.2919e+002  5.4761e+001 41097 93018,93148,93044
 5.2000e+000 93393 -4.8007e+000 -2.1409e+002  1.4466e+001 40643 93416,93292,93344
 5.2000e+000 93370 -9.7805e+000 -1.9783e+002  1.6303e+001 40643 93266,93344,93292
 5.2000e+000 93442 -7.3760e+000 -2.1074e+002  2.1003e+001 40643 93318,93292,93416
 5.2000e+000 93901 -6.4101e+001 -1.9488e+002 -1.3548e+001 40132 93924,93731,93705
 5.2000e+000 93878 -6.6622e+001 -2.0030e+002 -1.4853e+001 40132 93996,93924,93705
 5.2000e+000 93855 -7.8594e+001 -2.2963e+002 -5.2345e+000 40132 93996,93705,93653
 5.2000e+000 93832 -3.3261e+001 -2.2261e+002 -1.2267e+001 40132 93653,93705,93679
 5.2000e+000 93809 -6.3724e+001 -1.9357e+002  1.6998e+000 40132 93627,93783,93757
 5.2000e+000 93950 -6.1864e+001 -2.0620e+002 -1.5890e+001 40132 93757,93731,93924
 5.2000e+000 93973 -6.9544e+001 -1.8382e+002 -4.2397e+000 40132 93757,93924,93627
 5.2000e+000 94022 -8.8702e+001 -2.1889e+002  6.1907e+000 40132 93627,93924,93996
 5.2000e+000 94045 -8.2235e+001 -2.2898e+002  1.3282e+001 40132 93627,93996,93653
 5.2000e+000 94423 -1.3876e+001 -2.3069e+002 -3.2657e+001 39514 94149,94227,94175
 5.2000e+000 94400 -2.3627e+001 -2.1634e+002  2.4689e+001 39514 94149,94305,94227
 5.2000e+000 94377  5.9617e+000 -2.7086e+002 -3.1619e+001 39514 94175,94227,94201
 5.2000e+000 94354 -6.7113e+001 -2.0245e+002  1.0645e+001 39514 94227,94305,94279
 5.2000e+000 94331 -2.7619e+001 -1.8403e+002  2.0184e+001 39514 94227,94279,94253
 5.2000e+000 94573 -1.8506e+001 -1.2949e+002 -2.6404e+001 38822 94596,94498,94472
 5.2000e+000 94550  2.5033e+001 -1.3861e+002  3.0307e+001 38822 94596,94472,94446
 5.2000e+000 94622 -6.8636e+001 -1.5083e+002 -2.8108e+001 38822 94524,94498,94596
 5.2000e+000 94645 -5.8383e+001 -1.7420e+002  3.4380e+001 38822 94524,94596,94446
 5.2000e+000 95025 -1.1717e+001 -1.6738e+002 -1.1830e+001 38418 95048,94829,94777
 5.2000e+000 95002 -1.6825e+001 -1.7672e+002 -2.0739e+001 38418 95120,95048,94777
 5.2000e+000 94979 -1.2124e+001 -1.7564e+002 -1.9296e+001 38418 95120,94777,94751
 5.2000e+000 94956 -1.0150e+001 -1.5845e+002 -2.2665e+001 38418 95192,94881,94855
 5.2000e+000 94933 -5.1059e+001 -1.4646e+002 -7.7967e+000 38418 94777,94829,94803
 5.2000e+000 95074 -2.9591e+001 -2.2078e+002 -4.4510e+000 38418 94855,94829,95048
 5.2000e+000 95097 -1.4403e+001 -1.7513e+002 -2.4435e+001 38418 95192,94855,95048
 5.2000e+000 95146 -3.1297e+001 -1.6942e+002 -1.6412e+001 38418 94907,95048,95120
 5.2000e+000 95169 -1.9188e+001 -1.6224e+002 -1.2442e+001 38418 94907,95120,94751
 5.2000e+000 95218 -1.5423e+001 -1.2657e+002 -2.0336e+001 38418 94907,94881,95192
 5.2000e+000 95241 -2.5867e+001 -1.5382e+002 -1.7602e+001 38418 94907,95192,95048
 5.2000e+000 95511 -5.5268e+001 -1.7902e+002  9.6310e+000 38049 95312,95390,95364
 5.2000e+000 95488 -3.6107e+001 -1.7052e+002  8.1083e+000 38049 95312,95416,95390
 5.2000e+000 95465 -1.7726e+001 -1.6903e+002 -9.6818e+000 38049 95312,95364,95338
 5.2000e+000 95442 -1.4193e+001 -1.5510e+002  1.5585e+001 38049 95286,95416,95312
 5.2000e+000 95808 -5.3485e+001 -2.1328e+002 -5.2514e+000 37437 95831,95586,95560
 5.2000e+000 95785  2.1613e+001 -2.2354e+002 -9.3042e+000 37437 95831,95560,95534
 5.2000e+000 95762 -1.0821e+002 -2.0348e+002  7.1414e+000 37437 95586,95664,95638
 5.2000e+000 95739 -1.5103e+001 -1.0226e+002 -5.4625e+001 37437 95534,95690,95664
 5.2000e+000 95716 -1.0309e+002 -1.4637e+002  5.2862e+000 37437 95586,95638,95612
 5.2000e+000 95857 -1.0207e+002 -2.0642e+002  2.5164e+001 37437 95664,95586,95831
 5.2000e+000 95880 -2.2715e+001 -2.1459e+002  2.2208e+001 37437 95664,95831,95534
 5.2000e+000 96390 -7.3813e+001 -1.6046e+002 -9.8832e+000 36883 96413,96145,96093
 5.2000e+000 96367 -6.1244e+001 -1.5389e+002 -5.0227e+000 36883 96413,96093,96067
 5.2000e+000 96344 -4.3374e+001 -1.8921e+002 -3.5128e-001 36883 96067,96249,96171
 5.2000e+000 96321 -6.4670e+001 -1.8425e+002 -4.0952e+000 36883 96093,96145,96119
 5.2000e+000 96298 -9.0850e+001 -3.1004e+002  2.8705e+001 36883 96171,96249,96197
 5.2000e+000 96275 -2.3750e+001 -2.4913e+002 -3.0776e+000 36883 96197,96249,96223
 5.2000e+000 96439 -6.9424e+001 -1.5387e+002  1.1668e+000 36883 96171,96145,96413
 5.2000e+000 96462 -5.9529e+001 -1.5214e+002  5.0124e+000 36883 96171,96413,96067
 5.2000e+000 96781 -5.8369e+001 -1.8374e+002 -2.6717e+001 36215 96559,96663,96637
 5.2000e+000 96758 -7.3854e+001 -1.9756e+002 -3.2616e+001 36215 96507,96663,96559
 5.2000e+000 96735 -7.1828e+001 -1.3390e+002  1.3990e+001 36215 96585,96637,96611
 5.2000e+000 96712 -1.5367e+002 -2.1290e+002 -2.3257e+001 36215 96559,96637,96585
 5.2000e+000 96689 -2.7870e+001 -2.2323e+002 -6.3008e+000 36215 96507,96559,96533
 5.2000e+000 97161  2.9684e+000 -9.9364e+001 -4.2363e+000 35818 97184,96965,96939
 5.2000e+000 97138 -1.0077e+001 -1.1589e+002 -1.0764e+001 35818 97184,96939,96887
 5.2000e+000 97115 -5.1221e+000 -1.2696e+002  2.3302e+001 35818 96965,97043,97017
 5.2000e+000 97092 -4.8683e+000 -1.1020e+002 -1.3360e+001 35818 96887,96939,96913
 5.2000e+000 97069 -6.6399e+001 -1.2955e+002  1.4555e+001 35818 96965,97017,96991
 5.2000e+000 97210  1.7134e+001 -1.1371e+002  5.2752e+000 35818 97043,96965,97184
 5.2000e+000 97233  6.6215e+000 -1.2529e+002 -1.0966e-002 35818 97043,97184,96887
 5.2000e+000 97739 -5.9576e+001 -1.8352e+002 -4.4392e+001 35214 97416,97468,97442
 5.2000e+000 97716 -7.0572e+001 -1.3104e+002 -1.4305e+001 35214 97416,97598,97468
 5.2000e+000 97693 -6.0662e+001 -1.2299e+002 -5.6285e+000 35214 97762,97520,97468
 5.2000e+000 97670 -6.3753e+001 -1.2679e+002 -1.1090e+001 35214 97762,97468,97598
 5.2000e+000 97647 -4.8100e+001 -1.2338e+002 -1.7766e+001 35214 97546,97598,97572
 5.2000e+000 97624 -3.7094e+001 -1.2621e+002 -7.8964e+000 35214 97468,97520,97494
 5.2000e+000 97788 -6.2743e+001 -1.2960e+002 -8.8096e+000 35214 97546,97520,97762
 5.2000e+000 97811 -6.3933e+001 -1.3248e+002 -1.3868e+001 35214 97546,97762,97598
 5.2000e+000 98189 -7.3848e+000 -9.4721e+001 -1.0157e+001 34760 98356,98212,97967
 5.2000e+000 98166 -1.9295e+001 -1.1450e+002 -1.9676e+001 34760 98284,98212,97941
 5.2000e+000 98143 -3.9757e+001 -1.0253e+002 -1.0195e+001 34760 98284,97941,97915
 5.2000e+000 98120 -1.0291e+001 -1.2813e+002 -5.2907e+000 34760 98484,97993,97967
 5.2000e+000 98097 -8.9401e+000 -1.0575e+002 -3.6544e+000 34760 98556,98045,98019
 5.2000e+000 98238 -1.5852e+001 -1.2037e+002 -5.4744e+000 34760 98484,97967,98212
 5.2000e+000 98261  1.6701e+000 -1.1052e+002 -9.1303e+000 34760 98556,98019,98212
 5.2000e+000 98310 -2.5885e+000 -9.2251e+001 -2.7257e+001 34760 98071,98212,98284
 5.2000e+000 98333 -1.5274e+001 -6.2464e+001 -2.1697e+001 34760 98071,98284,97915
 5.2000e+000 98382 -5.7627e+001 -1.2780e+002 -2.5204e+001 34760 97941,98212,98356
 5.2000e+000 98510 -1.8708e+000 -1.2124e+002 -8.4264e+000 34760 98019,97993,98484
 5.2000e+000 98533 -1.0678e+001 -1.1617e+002 -7.7175e+000 34760 98019,98484,98212
 5.2000e+000 98582  4.4113e+000 -9.9214e+001 -1.0379e+000 34760 98071,98045,98556
 5.2000e+000 98605  8.8544e+000 -1.0775e+002 -7.6956e+000 34760 98071,98556,98212
 5.2000e+000 99032 -7.2411e+001 -1.6605e+002  2.4887e+001 34156 98735,98891,98839
 5.2000e+000 99009 -6.1161e+001 -1.7190e+002  1.1065e+001 34156 98709,98891,98735
 5.2000e+000 98986 -2.1499e+001 -1.4833e+002  2.3313e+001 34156 98735,98813,98787
 5.2000e+000 98963 -2.5753e+001 -1.6196e+002  1.9886e+001 34156 98735,98839,98813
 5.2000e+000 98940  1.0363e+001 -2.2195e+002  2.6701e+001 34156 98735,98787,98761
 5.2000e+000 98917 -6.5711e+001 -1.4886e+002  1.6857e+001 34156 98839,98891,98865
 5.2000e+000 99231 -1.8945e+001 -8.5125e+001  7.9480e+000 33766 99055,99133,99107
 5.2000e+000 99208 -3.6786e+001 -1.1428e+002  1.6499e+001 33766 99055,99159,99133
 5.2000e+000 99185 -9.6134e+000 -1.0382e+002  2.0049e+001 33766 99055,99107,99081
 5.2000e+000 99818 -3.8176e+001 -1.1936e+002  2.7114e+000 33248 99521,99651,99573
 5.2000e+000 99795 -3.7700e+001 -1.1374e+002  1.2201e+001 33248 99521,99677,99651
 5.2000e+000 99772 -6.0585e+001 -1.4787e+002 -8.2413e+000 33248 99573,99651,99599
 5.2000e+000 99749 -3.9783e+001 -1.4156e+002  1.3086e+001 33248 99495,99677,99521
 5.2000e+000 99726 -2.6355e+001 -1.2548e+002 -3.0544e+001 33248 99599,99651,99625
 5.2000e+000 99703 -4.8488e+001 -1.4478e+002  8.6684e+000 33248 99521,99573,99547
 5.2000e+000 100196 -4.3278e+001 -1.3522e+002 -2.5656e+001 32794 100219,99948,99922
 5.2000e+000 100173 -5.0751e+001 -1.5083e+002 -1.1928e+001 32794 100219,99922,100052
 5.2000e+000 100150 -6.7840e+001 -1.3628e+002  8.7586e+000 32794 99974,100052,100026
 5.2000e+000 100127 -6.2557e+001 -1.2289e+002 -1.9537e+001 32794 99922,100078,100052
 5.2000e+000 100104 -6.9671e+001 -1.6421e+002  3.1174e+001 32794 99974,100026,100000
 5.2000e+000 100245 -5.8795e+001 -1.3278e+002 -1.0569e+001 32794 99974,99948,100219
 5.2000e+000 100268 -6.3225e+001 -1.5346e+002  3.2831e+000 32794 99974,100219,100052
 5.2000e+000 100418 -9.8333e+000 -1.2915e+002 -1.4229e+001 32504 100571,100343,100317
 5.2000e+000 100395 -5.3357e+001 -1.4890e+002  1.3149e+001 32504 100571,100317,100441
 5.2000e+000 100467  3.7032e+001 -7.1030e+001 -3.9799e+001 32504 100291,100369,100441
 5.2000e+000 100597  9.4231e+000 -1.0837e+002 -4.8572e+001 32504 100369,100343,100571
 5.2000e+000 100620 -1.0248e+001 -1.0126e+002 -2.4920e+001 32504 100369,100571,100441
 5.2000e+000 101020 -1.5200e+001 -1.0274e+002  3.5977e+000 32142 100772,100902,100876
 5.2000e+000 100997 -1.0031e+001 -8.9017e+001  5.4541e+000 32142 100746,100902,100772
 5.2000e+000 100974  2.0417e+000 -1.1319e+002  1.5104e+001 32142 101043,100824,100798
 5.2000e+000 100951 -1.8209e+001 -1.2268e+002  1.1166e+001 32142 101043,100798,100772
 5.2000e+000 100928 -6.3645e+001 -1.4430e+002 -3.6435e+001 32142 101115,100876,100850
 5.2000e+000 101069  2.4346e+001 -1.2522e+002 -1.2327e+001 32142 100850,100824,101043
 5.2000e+000 101092 -3.0226e+001 -1.4902e+002 -1.7024e+001 32142 101115,100850,101043
 5.2000e+000 101141 -2.2303e+001 -1.2014e+002 -1.3528e+001 32142 100772,100876,101115
 5.2000e+000 101164  3.7771e+000 -1.2327e+002  7.6041e+000 32142 100772,101115,101043
 5.2000e+000 101719 -7.1904e+001 -1.7229e+002  2.2958e+001 31538 101742,101477,101399
 5.2000e+000 101696 -8.8544e+001 -2.0870e+002  5.5754e+000 31538 101814,101742,101399
 5.2000e+000 101673 -1.0162e+002 -1.7925e+002 -1.4173e+001 31538 101814,101399,101373
 5.2000e+000 101650 -7.2844e+001 -1.2319e+002  1.6441e+001 31538 101425,101477,101451
 5.2000e+000 101627 -6.7734e+001 -1.4597e+002  4.2372e+000 31538 101399,101477,101425
 5.2000e+000 101604 -4.2645e+001 -2.0910e+002  4.2372e+001 31538 101477,101529,101503
 5.2000e+000 101581 -2.6869e+001 -1.2003e+002 -1.0804e+001 31538 101347,101555,101373
 5.2000e+000 101768 -8.1462e+001 -2.1066e+002  2.2115e+001 31538 101529,101477,101742
 5.2000e+000 101791 -7.1367e+001 -2.1639e+002 -7.6363e+000 31538 101529,101742,101555
 5.2000e+000 101840 -5.5742e+001 -1.7875e+002 -8.1689e+000 31538 101555,101742,101814
 5.2000e+000 101863 -7.4734e+001 -1.5472e+002 -2.6260e+001 31538 101555,101814,101373
 5.2000e+000 102111 -1.0893e+002 -2.7731e+002  3.6670e+001 31112 101886,101990,101912
 5.2000e+000 102088 -4.0154e+001 -1.6681e+002  1.9698e+000 31112 101886,102016,101990
 5.2000e+000 102065 -4.9512e+001 -2.6540e+002  5.1307e+001 31112 101912,101990,101964
 5.2000e+000 102042 -7.6374e+001 -3.2387e+002  6.0827e+001 31112 101912,101964,101938
 5.2000e+000 102408 -2.7030e+001 -1.6594e+002  1.3813e+001 30658 102431,102186,102160
 5.2000e+000 102385 -5.6292e+001 -1.6337e+002 -2.1676e-001 30658 102431,102160,102264
 5.2000e+000 102362 -5.4446e+001 -1.8131e+002  2.6229e+000 30658 102186,102238,102212
 5.2000e+000 102339 -6.1048e+001 -1.7365e+002 -1.0984e+001 30658 102134,102264,102160
 5.2000e+000 102316 -4.2243e+001 -1.4575e+002 -4.8479e+001 30658 102134,102290,102264
 5.2000e+000 102457 -5.1084e+001 -1.7602e+002  7.3416e+000 30658 102238,102186,102431
 5.2000e+000 102480 -8.2415e+001 -1.7640e+002 -7.9121e+000 30658 102238,102431,102264
 5.2000e+000 102681 -2.1722e+001 -1.9924e+002  2.9535e+001 30004 102704,102557,102505
 5.2000e+000 102658 -2.6348e+001 -2.0218e+002  3.0814e+001 30004 102704,102505,102609
 5.2000e+000 102635  4.2101e+000 -1.6851e+002  7.5978e+000 30004 102505,102557,102531
 5.2000e+000 102730 -2.5975e+001 -1.9256e+002  2.6442e+001 30004 102583,102557,102704
 5.2000e+000 102753 -3.6598e+001 -1.9867e+002  2.8962e+001 30004 102583,102704,102609
 5.2000e+000 103003 -2.2314e+001 -1.6044e+002 -1.2941e+001 29564 103026,102804,102778
 5.2000e+000 102980 -2.8885e+001 -1.9153e+002 -1.9638e+001 29564 103026,102778,102908
 5.2000e+000 102957 -3.0722e+001 -1.6353e+002 -1.9586e+000 29564 102856,102908,102882
 5.2000e+000 102934 -4.4010e+001 -1.4599e+002  1.0888e+001 29564 102804,102856,102830
 5.2000e+000 103052 -2.0246e+001 -1.4523e+002  8.0870e+000 29564 102856,102804,103026
 5.2000e+000 103075 -2.9122e+001 -1.7042e+002 -1.5090e+000 29564 102856,103026,102908
 5.2000e+000 103634 -7.1489e+001 -1.8035e+002 -2.1803e+001 29160 103657,103418,103392
 5.2000e+000 103611 -6.7405e+001 -1.7263e+002 -1.0300e+001 29160 103657,103392,103314
 5.2000e+000 103588 -4.8828e+001 -1.4903e+002 -1.8442e+001 29160 103314,103392,103366
 5.2000e+000 103565 -4.1717e+001 -1.5779e+002 -2.1618e+001 29160 103314,103366,103340
 5.2000e+000 103542 -8.4548e+001 -1.6926e+002 -2.0819e+001 29160 103262,103444,103314
 5.2000e+000 103519 -1.0200e+002 -2.0362e+002 -3.0096e+001 29160 103262,103314,103288
 5.2000e+000 103496 -6.3584e+001 -1.8465e+002 -9.2786e+000 29160 103262,103470,103444
 5.2000e+000 103683 -8.9368e+001 -1.9483e+002 -3.5883e+001 29160 103444,103418,103657
 5.2000e+000 103706 -7.4080e+001 -1.7121e+002 -2.2523e+001 29160 103444,103657,103314
 5.2000e+000 104035 -4.8337e+001 -1.7353e+002  1.6354e+001 28770 103836,103914,103862
 5.2000e+000 104012 -4.6514e+001 -1.6529e+002  2.2042e+001 28770 103810,103914,103836
 5.2000e+000 103989  1.0303e+001 -1.4976e+002  2.6919e+001 28770 103810,103940,103914
 5.2000e+000 103966 -9.9453e+000 -1.3954e+002  3.3551e+001 28770 103862,103914,103888
 5.2000e+000 104185 -1.6728e+001 -1.5582e+002  2.9851e+001 28366 104208,104110,104084
 5.2000e+000 104162 -1.5378e+001 -1.3399e+002  2.3479e+001 28366 104280,104208,104084
 5.2000e+000 104234  3.1756e+001 -1.5713e+002  1.8099e+001 28366 104610,104208,104136
 5.2000e+000 104257 -2.9131e+001 -1.4893e+002  1.8602e+001 28366 104538,104410,104208
 5.2000e+000 104306 -4.9366e+001 -1.5066e+002  1.8055e+001 28366 104538,104208,104280
 5.2000e+000 104436 -9.6131e+000 -1.5722e+002  2.2261e+000 28366 104136,104208,104410
 5.2000e+000 104564 -5.0253e+001 -1.4819e+002  7.8831e+000 28366 104058,104410,104538
 5.2000e+000 104587 -6.2743e+001 -1.4526e+002  5.9670e+000 28366 104058,104538,104280
 5.2000e+000 104636  2.3045e+001 -1.5948e+002  2.4361e+001 28366 104110,104208,104610
 5.2000e+000 105349 -3.8191e+001 -1.4334e+002 -1.4505e+001 27976 105516,105372,105107
 5.2000e+000 105326 -6.0990e+001 -1.4555e+002  3.9617e+000 27976 105588,105372,105055
 5.2000e+000 105303 -6.5381e+001 -1.4157e+002 -1.5414e+001 27976 105444,105159,105133
 5.2000e+000 105280 -2.2265e+001 -1.4821e+002 -9.0729e+000 27976 105516,105107,105081
 5.2000e+000 105257 -5.6704e+001 -1.6143e+002  1.4004e+001 27976 105588,105055,105029
 5.2000e+000 105234 -3.0363e+001 -1.2276e+002  2.6814e+000 27976 105003,105185,105159
 5.2000e+000 105211 -4.2799e+001 -9.9155e+001  1.9287e+001 27976 104977,105185,105003
 5.2000e+000 105398 -3.0937e+001 -1.4637e+002 -1.8581e+001 27976 105133,105107,105372
 5.2000e+000 105421 -5.1973e+001 -1.5250e+002 -9.0725e+000 27976 105444,105133,105372
 5.2000e+000 105470 -5.3047e+001 -1.2318e+002 -8.2787e+000 27976 105003,105159,105444
 5.2000e+000 105493 -4.3367e+001 -1.3556e+002 -5.2221e+000 27976 105003,105444,105372
 5.2000e+000 105542 -2.7573e+001 -1.4282e+002 -8.3396e-001 27976 105055,105372,105516
 5.2000e+000 105565 -3.3487e+000 -1.4428e+002  2.8618e+000 27976 105055,105516,105081
 5.2000e+000 105614 -7.0092e+001 -1.6122e+002  1.1588e+001 27976 105003,105372,105588
 5.2000e+000 105637 -6.8183e+001 -1.7678e+002  2.2571e+001 27976 105003,105588,105029
 5.2000e+000 106143 -6.4281e+001 -2.1328e+002  1.3014e+001 27664 106166,105846,105820
 5.2000e+000 106120 -4.3786e+001 -1.5965e+002  5.8535e+000 27664 106310,106166,105820
 5.2000e+000 106097 -2.0495e+001 -1.9188e+002 -3.9741e+001 27664 106382,106238,105950
 5.2000e+000 106074 -2.9135e+001 -1.5476e+002  4.8112e+000 27664 106310,105820,106002
 5.2000e+000 106051  1.5270e+001 -1.7305e+002 -3.2724e+001 27664 106382,105950,105924
 5.2000e+000 106028 -7.5566e+000 -3.0781e+002 -1.0197e+001 27664 105846,105898,105872
 5.2000e+000 106192 -5.7582e+001 -2.3803e+002 -3.1403e+001 27664 105898,105846,106166
 5.2000e+000 106215 -3.4398e+001 -1.9886e+002 -1.2745e+001 27664 106238,105898,106166
 5.2000e+000 106264 -1.0572e+002 -2.1402e+002 -5.2302e+001 27664 105976,105950,106238
 5.2000e+000 106287 -3.4934e+001 -1.9648e+002 -1.3417e+001 27664 105976,106238,106166
 5.2000e+000 106336 -2.8823e+001 -1.7163e+002  2.0347e+001 27664 105976,106166,106310
 5.2000e+000 106359 -1.1670e+001 -1.6532e+002  1.8665e+001 27664 105976,106310,106002
 5.2000e+000 106408 -3.7058e+001 -1.6299e+002  3.7734e-001 27664 105898,106238,106382
 5.2000e+000 106431 -1.5089e+001 -1.5260e+002  4.1810e+000 27664 105898,106382,105924
 5.2000e+000 106728 -1.7019e+001 -1.1518e+002  2.0991e+001 27153 106751,106506,106454
 5.2000e+000 106705 -1.6627e+001 -1.1745e+002  1.7552e+001 27153 106751,106454,106610
 5.2000e+000 106682 -2.8707e+001 -8.7451e+001  3.5672e+000 27153 106454,106506,106480
 5.2000e+000 106659 -2.6780e+001 -1.1217e+002  1.2292e+001 27153 106532,106610,106584
 5.2000e+000 106636 -4.5384e+001 -6.5574e+001  2.4704e+001 27153 106532,106584,106558
 5.2000e+000 106777 -1.2800e+001 -1.1209e+002  2.2371e+001 27153 106532,106506,106751
 5.2000e+000 106800 -1.3750e+001 -1.1549e+002  1.8410e+001 27153 106532,106751,106610
 5.2000e+000 107180 -2.1613e+001 -1.3988e+002  8.6947e+000 26642 107203,106984,106958
 5.2000e+000 107157 -6.9786e+001 -1.6193e+002  2.1427e+000 26642 107203,106958,106932
 5.2000e+000 107134 -8.2496e+001 -1.7749e+002 -2.6197e+001 26642 107275,107036,107010
 5.2000e+000 107111 -5.3139e+001 -1.7484e+002 -3.3100e+001 26642 106932,107062,107036
 5.2000e+000 107088 -2.0057e+000 -1.3721e+002  1.6143e+001 26642 106906,107062,106932
 5.2000e+000 107229  2.3176e+000 -1.3082e+002 -4.3368e+001 26642 107010,106984,107203
 5.2000e+000 107252 -7.2749e+001 -1.6473e+002 -3.1550e+001 26642 107275,107010,107203
 5.2000e+000 107301 -7.0703e+001 -1.7562e+002 -3.3273e+001 26642 106932,107036,107275
 5.2000e+000 107324 -6.7243e+001 -1.7595e+002 -3.4997e+001 26642 106932,107275,107203
 5.2000e+000 107675 -3.8993e+001 -1.0783e+002  1.2013e+001 26045 107450,107554,107476
 5.2000e+000 107652 -3.1465e+001 -9.4782e+001  4.6498e+000 26045 107450,107580,107554
 5.2000e+000 107629 -1.4671e+001 -8.6322e+001  2.4281e+000 26045 107476,107528,107502
 5.2000e+000 107606 -9.8675e+000 -1.0077e+002  7.4262e+000 26045 107476,107554,107528
 5.2000e+000 107874 -2.7347e+001 -1.5976e+002  4.0262e+001 25641 107750,107802,107776
 5.2000e+000 107851 -3.3291e+001 -1.1113e+002  2.2395e+001 25641 107724,107802,107750
 5.2000e+000 107828 -3.4734e+001 -1.1287e+002  2.0856e+001 25641 107698,107802,107724
 5.2000e+000 108431 -1.3591e+001 -1.7242e+002  3.1190e+001 25023 108526,108267,108241
 5.2000e+000 108408 -2.0529e-001 -1.6322e+002  5.5450e+000 25023 108059,108267,108085
 5.2000e+000 108385 -2.3643e+001 -1.7734e+002  3.1230e+001 25023 108454,108163,108111
 5.2000e+000 108362 -7.9624e+001 -1.7856e+002  5.2686e+001 25023 108454,108111,108085
 5.2000e+000 108339 -6.2876e+001 -2.3136e+002  5.4088e+001 25023 108111,108163,108137
 5.2000e+000 108316 -4.1474e+001 -1.2811e+002 -8.2875e+000 25023 108163,108241,108215
 5.2000e+000 108293  1.5499e+001 -1.0240e+002 -4.5575e-001 25023 108163,108215,108189
 5.2000e+000 108480 -4.6252e+000 -1.5802e+002  2.5245e+000 25023 108241,108163,108454
 5.2000e+000 108503 -2.5227e+001 -1.6842e+002  3.0356e+001 25023 108526,108241,108454
 5.2000e+000 108552 -2.7527e+001 -1.7285e+002  2.4608e+001 25023 108085,108267,108526
 5.2000e+000 108575 -3.9817e+001 -1.6960e+002  2.3490e+001 25023 108085,108526,108454
 5.2000e+000 108823  2.8118e+000 -1.2579e+002  1.8748e+001 24461 108624,108728,108650
 5.2000e+000 108800 -1.7715e+001 -2.6400e+002 -1.8463e+001 24461 108598,108728,108624
 5.2000e+000 108777  7.8631e-002 -1.6648e+002  1.3582e+001 24461 108650,108728,108676
 5.2000e+000 108754 -7.3072e+001 -4.7085e+002  4.0817e+001 24461 108676,108728,108702
 5.2000e+000 109022 -4.6154e+001 -1.2962e+002  1.8367e+001 24121 108872,108924,108898
 5.2000e+000 108999 -3.1808e+001 -1.2722e+002  2.0941e+001 24121 108846,108924,108872
 5.2000e+000 108976 -5.3379e+001 -1.3670e+002  2.2365e+001 24121 108846,108950,108924
 5.2000e+000 109483 -5.4010e+001 -1.7882e+002 -1.6826e+001 23717 109209,109339,109235
 5.2000e+000 109460 -2.0343e+001 -2.0322e+002 -4.1321e+001 23717 109209,109365,109339
 5.2000e+000 109437 -6.6040e-001 -2.2709e+002 -1.3562e+001 23717 109287,109339,109313
 5.2000e+000 109414 -1.0198e+002 -2.2718e+002  1.3378e+001 23717 109235,109339,109287
 5.2000e+000 109391  5.2097e+000 -2.6498e+002  9.8023e+001 23717 109235,109287,109261
 5.2000e+000 109910 -7.1584e+001 -2.0981e+002 -2.1928e+001 23305 109613,109743,109717
 5.2000e+000 109887 -7.0816e+001 -2.1111e+002 -1.2977e+001 23305 109613,109769,109743
 5.2000e+000 109864 -8.5317e+001 -2.0119e+002 -1.9213e+001 23305 109613,109717,109639
 5.2000e+000 109841 -5.5026e+001 -1.9342e+002 -5.4616e+000 23305 109587,109769,109613
 5.2000e+000 109818  1.8844e+000 -1.6414e+002  1.5179e+001 23305 109639,109717,109691
 5.2000e+000 109795 -1.6687e+001 -1.3128e+002 -3.0557e+001 23305 109639,109691,109665
 5.2000e+000 110180 -3.7908e+000 -5.9519e+001 -1.3435e+001 22851 110007,110059,110033
 5.2000e+000 110157 -4.1965e+001 -1.6373e+002  7.6742e+000 22851 109981,110059,110007
 5.2000e+000 110134 -5.9589e+001 -1.7744e+002  1.0890e+000 22851 109955,110059,109981
 5.2000e+000 110111 -2.3927e+001 -1.9614e+002 -1.5066e+001 22851 109955,110085,110059
 5.2000e+000 110737 -2.1183e+001 -1.8268e+002 -5.0485e+001 22333 110760,110469,110391
 5.2000e+000 110714 -4.5168e+000 -2.1208e+002 -3.8768e+001 22333 110760,110391,110365
 5.2000e+000 110691 -1.5159e+001 -1.6481e+002 -4.0815e+001 22333 110832,110521,110469
 5.2000e+000 110668 -3.9952e+001 -3.2923e+002  2.5277e+001 22333 110417,110469,110443
 5.2000e+000 110645 -8.4531e+001 -2.9055e+002  1.4272e+001 22333 110391,110469,110417
 5.2000e+000 110622 -2.5350e+000 -1.6683e+002 -2.0539e+001 22333 110469,110521,110495
 5.2000e+000 110599 -1.3211e+001 -1.1530e+002  1.4348e+001 22333 110365,110573,110547
 5.2000e+000 110786 -1.0229e+001 -1.6923e+002 -4.5761e+001 22333 110832,110469,110760
 5.2000e+000 110809  1.4042e+001 -1.8329e+002 -3.0654e+001 22333 110547,110760,110365
 5.2000e+000 110858 -1.4369e+001 -1.7487e+002 -4.0020e+001 22333 110547,110521,110832
 5.2000e+000 110881 -1.4236e+001 -1.8466e+002 -4.6282e+001 22333 110547,110832,110760
 5.2000e+000 111308 -9.2498e+001 -2.2227e+002  1.5534e+001 21829 111331,111063,111011
 5.2000e+000 111285 -8.1127e+001 -2.0367e+002 -3.9716e+000 21829 111331,111011,111167
 5.2000e+000 111262 -9.5377e+001 -2.2186e+002  1.6593e+001 21829 111403,111089,111063
 5.2000e+000 111239 -1.1851e+002 -2.3794e+002  3.4891e+001 21829 111011,111063,111037
 5.2000e+000 111216 -5.2639e+001 -1.4945e+002  7.7048e+000 21829 110985,111167,111011
 5.2000e+000 111193 -1.1646e+002 -3.8082e+002  8.4409e+001 21829 111089,111141,111115
 5.2000e+000 111357 -9.2252e+001 -2.2447e+002  1.6549e+001 21829 111403,111063,111331
 5.2000e+000 111380 -9.5348e+001 -2.3277e+002  4.9487e-001 21829 111141,111331,111167
 5.2000e+000 111429 -1.0225e+002 -2.2588e+002  1.8516e+001 21829 111141,111089,111403
 5.2000e+000 111452 -9.6323e+001 -2.2803e+002  1.8058e+001 21829 111141,111403,111331
 5.2000e+000 112056  7.4089e+001 -1.6236e+002  3.3772e+000 21489 111687,111765,111739
 5.2000e+000 112033  2.2656e+001 -1.8729e+002  1.9390e+001 21489 112151,112079,111687
 5.2000e+000 112010  2.5897e+000 -2.9112e+002  1.6317e+001 21489 111791,111843,111817
 5.2000e+000 111987 -4.6151e+001 -2.3441e+002 -1.8995e+001 21489 112079,111843,111791
 5.2000e+000 111964  5.1982e+001 -1.7277e+002  3.6712e+001 21489 112151,111687,111661
 5.2000e+000 111941 -8.9555e+000 -1.2584e+002  3.0094e+001 21489 111661,111869,111843
 5.2000e+000 111918  7.5533e+001 -1.7679e+002  2.6980e+001 21489 111687,111739,111713
 5.2000e+000 111895  2.0398e+001 -5.7730e+001  9.0003e+000 21489 111635,111869,111661
 5.2000e+000 112105 -2.2721e+001 -2.0485e+002  1.0554e+001 21489 111765,111687,112079
 5.2000e+000 112128 -2.0483e+001 -1.9381e+002  1.0571e+001 21489 111765,112079,111791
 5.2000e+000 112177 -2.6675e+001 -1.8412e+002 -5.7104e+000 21489 111843,112079,112151
 5.2000e+000 112200  3.2407e-002 -1.7842e+002  8.3619e+000 21489 111843,112151,111661
 5.2000e+000 112578 -3.6164e+001 -2.3726e+002  1.0769e+001 21177 112382,112434,112408
 5.2000e+000 112555 -4.6540e+001 -2.3274e+002  1.2579e-001 21177 112330,112434,112382
 5.2000e+000 112532 -3.2027e+001 -1.9506e+002  3.8901e+001 21177 112304,112434,112330
 5.2000e+000 112509 -4.7208e+001 -2.2349e+002  0.0000e+000 21177 112330,112382,112356
 5.2000e+000 112486 -8.5846e+000 -1.0893e+002  6.5260e+000 21177 112304,112460,112434
 5.2000e+000 112679 -1.6070e+000 -1.2953e+002 -3.0435e+001 20666 112601,112653,112627
 5.2000e+000 112927 -7.0760e+001 -2.3734e+002  8.4262e+000 19762 112702,112754,112728
 5.2000e+000 112904 -2.6586e+001 -2.2704e+002 -2.0762e+000 19762 112702,112832,112754
 5.2000e+000 112881 -5.9471e+001 -2.4349e+002  3.8812e+001 19762 112754,112832,112806
 5.2000e+000 112858 -8.4837e+001 -3.1155e+002  4.0016e+001 19762 112754,112806,112780
 5.2000e+000 113297 -6.4564e+001 -2.8859e+002  1.8718e+001 19308 112974,113052,113026
 5.2000e+000 113274 -4.3653e+001 -2.4101e+002  6.4525e+000 19308 112974,113156,113052
 5.2000e+000 113251 -2.3591e+001 -3.1976e+002 -3.8605e+001 19308 113052,113130,113104
 5.2000e+000 113228 -4.7730e+001 -2.4063e+002 -1.4094e-001 19308 113052,113156,113130
 5.2000e+000 113205 -4.5567e+001 -2.7841e+002  0.0000e+000 19308 113052,113104,113078
 5.2000e+000 113182 -9.2870e+001 -3.0029e+002 -1.3240e+000 19308 112974,113026,113000
 5.2000e+000 113547 -7.5444e-001 -2.5956e+002 -1.8381e+001 18711 113570,113374,113348
 5.2000e+000 113524 -8.7093e+000 -2.3748e+002 -1.1081e+001 18711 113570,113348,113452
 5.2000e+000 113501 -2.9685e-001 -1.7771e+002 -4.9728e+001 18711 113322,113452,113348
 5.2000e+000 113478 -2.3488e+001 -2.3296e+002 -8.6817e+001 18711 113374,113426,113400
 5.2000e+000 113596 -8.0659e-002 -2.3515e+002 -2.3860e+001 18711 113426,113374,113570
 5.2000e+000 113619 -9.4265e+000 -2.1637e+002 -1.1932e+001 18711 113426,113570,113452
 5.2000e+000 113771 -1.3191e+002 -3.2697e+002 -1.8005e+001 18307 113670,113722,113696
 5.2000e+000 113748 -1.0288e+002 -3.0775e+002 -8.6381e+000 18307 113644,113722,113670
 5.2000e+000 113972 -5.7656e+001 -2.7701e+002  5.6995e+000 17945 113822,113874,113848
 5.2000e+000 113949 -5.8359e+001 -2.7554e+002  6.7943e+000 17945 113822,113900,113874
 5.2000e+000 113926 -8.1017e+001 -2.1825e+002  1.1556e+002 17945 113796,113900,113822
 5.2000e+000 114075 -3.7774e+001 -4.0331e+002  4.4285e+001 17482 113997,114049,114023
 5.2000e+000 114479 -1.5162e+001 -2.2435e+002 -3.4821e+001 17042 114257,114361,114335
 5.2000e+000 114456 -5.3058e+001 -2.1612e+002 -5.5414e+000 17042 114205,114361,114257
 5.2000e+000 114433 -5.9832e+001 -2.5030e+002  9.6667e+000 17042 114205,114257,114231
 5.2000e+000 114410  4.8709e+001 -3.3298e+002 -2.0547e+001 17042 114283,114335,114309
 5.2000e+000 114387 -1.9618e+000 -2.8769e+002 -1.4676e+001 17042 114257,114335,114283
 5.2000e+000 114879 -1.2372e+002 -2.2679e+002 -2.6277e+000 16638 114631,114683,114657
 5.2000e+000 114856 -2.3819e+001 -1.8516e+002  2.7764e+000 16638 114605,114683,114631
 5.2000e+000 114833  3.1343e+001 -1.0179e+002 -2.4948e+001 16638 114605,114761,114683
 5.2000e+000 114810 -9.3258e+000 -2.5530e+002 -1.2335e+001 16638 114683,114735,114709
 5.2000e+000 114787 -1.9793e+001 -2.6610e+002 -1.8071e+001 16638 114683,114761,114735
 5.2000e+000 115078 -1.1006e+002 -2.4793e+002  6.6667e+000 16232 114954,115006,114980
 5.2000e+000 115055 -1.0941e+002 -2.7436e+002  1.2329e+001 16232 114928,115006,114954
 5.2000e+000 115032 -5.2976e+001 -3.3998e+002  2.3452e+001 16232 114902,115006,114928
 5.2000e+000 115228 -6.1367e+001 -2.4696e+002  8.1466e+000 15482 115101,115153,115127
 5.2000e+000 115205 -5.8652e+001 -2.3442e+002 -3.1131e+000 15482 115101,115179,115153
 5.2000e+000 115331 -4.7163e+001 -2.2648e+002 -2.9865e+001 15163 115253,115305,115279
 5.2000e+000 115434 -7.7362e+001 -2.4598e+002  4.2984e+001 421 115356,115408,115382
 5.3000e+000 68213 -1.5649e+001 -1.2621e+002 -1.3015e+001 67888 68112,68164,68138
 5.3000e+000 68190 -1.5611e+002 -1.6804e+002 -2.2029e+001 67888 68086,68164,68112
 5.3000e+000 68314 -1.7962e+001 -1.7974e+002  1.7324e+001 67576 68236,68288,68262
 5.3000e+000 68584 -6.9720e+001 -3.3286e+002  1.6801e+001 67378 68385,68489,68463
 5.3000e+000 68561 -2.5233e+001 -3.1127e+002  9.1380e+000 67378 68359,68489,68385
 5.3000e+000 68538 -5.1848e+001 -2.8266e+002  2.4425e+001 67378 68385,68463,68411
 5.3000e+000 68515 -2.6214e+001 -1.8737e+002  1.4990e+001 67378 68411,68463,68437
 5.3000e+000 68964 -7.6531e+001 -3.0103e+002  4.5049e+001 67130 68690,68820,68716
 5.3000e+000 68941  5.6723e+001 -3.1276e+002  8.3704e+001 67130 68690,68846,68820
 5.3000e+000 68918 -7.0049e+001 -1.9982e+002  5.7605e+000 67130 68742,68820,68794
 5.3000e+000 68895 -1.8170e+001 -1.9874e+002  1.8710e+001 67130 68716,68820,68742
 5.3000e+000 68872 -4.7043e+001 -1.6786e+002 -2.0275e+001 67130 68742,68794,68768
 5.3000e+000 69065 -6.1074e+001 -1.7321e+002  3.4287e+000 66926 68987,69039,69013
 5.3000e+000 69445 -3.6064e+001 -1.5927e+002 -8.6650e+000 66614 69223,69301,69275
 5.3000e+000 69422 -5.3963e+001 -1.6949e+002 -3.5853e+000 66614 69171,69301,69223
 5.3000e+000 69399 -6.0905e+001 -1.7224e+002 -2.8440e-001 66614 69171,69327,69301
 5.3000e+000 69376 -1.6032e+001 -7.8402e+001  4.2230e-001 66614 69223,69275,69249
 5.3000e+000 69353 -4.7655e+001 -1.7819e+002 -3.3321e+000 66614 69171,69223,69197
 5.3000e+000 69546 -5.8725e+001 -2.7201e+002  1.5844e+001 66416 69468,69520,69494
 5.3000e+000 69997 -5.4634e+001 -2.7464e+002 -2.1011e+001 66104 69700,69830,69726
 5.3000e+000 69974 -7.7139e+001 -3.3437e+002 -4.3565e+001 66104 69700,69856,69830
 5.3000e+000 69951 -5.8084e+001 -2.1204e+002 -1.5452e+001 66104 69726,69804,69778
 5.3000e+000 69928 -4.7499e+001 -2.5643e+002 -2.1515e+001 66104 69726,69830,69804
 5.3000e+000 69905 -6.1134e+001 -2.0235e+002 -7.7425e+000 66104 69726,69778,69752
 5.3000e+000 69882 -2.3613e+001 -4.5826e+002 -8.5004e+001 66104 69674,69856,69700
 5.3000e+000 70326 -5.0789e+001 -1.2766e+002  2.2107e+000 65814 70349,70153,70127
 5.3000e+000 70303 -3.1355e+001 -1.2548e+002  5.4693e+000 65814 70349,70127,70101
 5.3000e+000 70280 -2.8535e+001 -1.1820e+002  4.7674e+001 65814 70101,70231,70205
 5.3000e+000 70257  1.7901e+000 -1.4031e+002  1.6125e+001 65814 70153,70205,70179
 5.3000e+000 70375 -4.1739e+001 -1.3455e+002  1.7698e+001 65814 70205,70153,70349
 5.3000e+000 70398 -1.2004e+001 -1.2762e+002  1.8754e+001 65814 70205,70349,70101
 5.3000e+000 70904 -2.0814e+001 -6.7455e+001 -2.2435e+001 65502 70607,70737,70685
 5.3000e+000 70881 -3.0033e+001 -5.4888e+001 -2.8843e+001 65502 70581,70737,70607
 5.3000e+000 70858 -2.8631e+001 -1.3665e+001 -7.0368e+000 65502 70581,70763,70737
 5.3000e+000 70835 -3.1173e+001 -7.3864e+001 -3.0135e+001 65502 70685,70737,70711
 5.3000e+000 70812 -1.1297e+002 -8.8756e+001 -1.2637e+000 65502 70607,70659,70633
 5.3000e+000 70789 -3.5064e+001 -9.3307e+001  1.1546e+000 65502 70607,70685,70659
 5.3000e+000 71103 -2.9737e+001 -2.3778e+002 -7.1198e+000 65304 71126,70979,70953
 5.3000e+000 71080 -5.8204e+001 -2.3575e+002 -2.9463e+000 65304 71126,70953,70927
 5.3000e+000 71057 -8.3395e+001 -2.4145e+002  1.4649e+001 65304 70927,71031,71005
 5.3000e+000 71152 -5.7688e+001 -2.2600e+002 -1.5375e+001 65304 71005,70979,71126
 5.3000e+000 71175 -8.9189e+001 -2.2753e+002 -4.8888e+000 65304 71005,71126,70927
 5.3000e+000 71374 -4.0639e+001 -2.2686e+002  1.1535e+001 65106 71198,71276,71224
 5.3000e+000 71351 -6.8102e+001 -2.4150e+002  5.4420e+000 65106 71198,71302,71276
 5.3000e+000 71328 -2.7869e+001 -1.9255e+002  2.7349e+001 65106 71224,71276,71250
 5.3000e+000 71756 -2.8866e+001 -1.6016e+002 -1.0214e+001 64652 71508,71638,71534
 5.3000e+000 71733 -1.6300e-001 -1.4799e+002  7.2905e-001 64652 71482,71638,71508
 5.3000e+000 71710 -6.0106e+001 -1.6075e+002 -1.3417e+001 64652 71534,71586,71560
 5.3000e+000 71687 -5.2756e+001 -1.7530e+002 -2.6213e+001 64652 71534,71612,71586
 5.3000e+000 71664 -7.7287e+001 -1.8193e+002 -2.8090e+001 64652 71534,71638,71612
 5.3000e+000 72085 -7.3163e+001 -1.7975e+002 -2.3245e+001 64248 71886,71964,71912
 5.3000e+000 72062 -5.9111e+001 -1.7591e+002 -2.2592e+001 64248 71860,71964,71886
 5.3000e+000 72039 -3.0371e+001 -1.9134e+002 -1.5609e+001 64248 71912,71964,71938
 5.3000e+000 72016 -6.1972e+001 -1.6671e+002 -2.2420e+001 64248 71860,71990,71964
 5.3000e+000 72235 -5.5527e+000 -1.1600e+002 -1.5408e+001 63858 72588,72258,72134
 5.3000e+000 72212 -2.8250e+001 -1.0200e+002  3.7544e+000 63858 72330,72258,72108
 5.3000e+000 72284 -1.9857e+001 -8.1949e+001 -1.0740e+001 63858 72160,72134,72258
 5.3000e+000 72307 -6.5254e+001 -1.1260e+002 -1.8445e+001 63858 72460,72258,72186
 5.3000e+000 72356 -5.3998e+001 -1.0836e+002 -1.8061e+001 63858 72186,72258,72330
 5.3000e+000 72486 -2.6714e+001 -1.0544e+002 -1.7188e+001 63858 72160,72258,72460
 5.3000e+000 72614 -1.2127e+001 -1.2438e+002 -5.3651e-002 63858 72108,72258,72588
 5.3000e+000 73248 -4.3028e+001 -1.9467e+002  4.3738e+001 63404 72902,72954,72928
 5.3000e+000 73225 -9.5698e+001 -1.9766e+002  2.0083e+001 63404 73271,72954,72902
 5.3000e+000 73202 -8.5270e+001 -1.6215e+002  1.7183e+001 63404 73271,72902,73032
 5.3000e+000 73179 -5.6540e+001 -1.4106e+002  5.3465e+000 63404 72902,73058,73032
 5.3000e+000 73156 -7.4791e+001 -1.8364e+002  6.8108e+000 63404 72980,73032,73006
 5.3000e+000 73133 -5.2249e+001 -1.4268e+002  4.7292e+000 63404 72876,73058,72902
 5.3000e+000 73110 -1.7885e+001 -6.9783e+001 -3.5820e+001 63404 72876,73084,73058
 5.3000e+000 73297 -8.2411e+001 -2.0246e+002 -1.6875e+000 63404 72980,72954,73271
 5.3000e+000 73320 -8.0953e+001 -1.8337e+002 -1.3627e+000 63404 72980,73271,73032
 5.3000e+000 73470 -6.7966e+001 -4.5055e+002  4.7963e+001 63014 73343,73395,73369
 5.3000e+000 73447 -2.1204e+002 -5.5121e+002 -1.0062e+001 63014 73343,73421,73395
 5.3000e+000 73929 -4.9512e+000 -2.0280e+002  1.3767e+001 62702 73759,73811,73785
 5.3000e+000 73906  7.2002e+000 -1.9692e+002  1.5336e+001 62702 73655,73811,73759
 5.3000e+000 73883 -2.6927e+001 -2.2502e+002 -3.3576e-001 62702 73655,73759,73681
 5.3000e+000 73860  1.2195e+000 -1.6803e+002 -3.4394e+001 62702 73681,73759,73707
 5.3000e+000 73837 -9.3926e+001 -1.9486e+002  3.8833e+000 62702 73707,73759,73733
 5.3000e+000 74209 -1.2400e+002 -1.9601e+002  1.9023e+000 62404 74059,74137,74085
 5.3000e+000 74186 -1.4548e+002 -2.5277e+002  2.8938e+001 62404 74033,74137,74059
 5.3000e+000 74163 -1.2983e+002 -1.7878e+002  1.7117e+000 62404 74085,74137,74111
 5.3000e+000 74408 -6.6555e+000 -1.6872e+002  9.4457e+000 62000 74258,74336,74284
 5.3000e+000 74385 -5.6380e+000 -1.6477e+002  1.9356e+001 62000 74232,74336,74258
 5.3000e+000 74362 -4.1857e+001 -1.6970e+002 -2.7654e+000 62000 74284,74336,74310
 5.3000e+000 74509 -1.5627e+001 -1.8911e+002  1.5561e+001 61802 74431,74483,74457
 5.3000e+000 74759 -6.4386e+001 -1.7145e+002  2.9924e+000 61554 74782,74586,74560
 5.3000e+000 74736 -4.2567e+001 -1.6058e+002  6.7478e+000 61554 74782,74560,74664
 5.3000e+000 74713 -5.5831e+001 -1.2903e+002  4.3445e+001 61554 74854,74612,74586
 5.3000e+000 74690 -5.2176e+001 -1.7334e+002  1.3349e+000 61554 74534,74664,74560
 5.3000e+000 74808 -7.5819e+001 -1.5924e+002  1.2603e+001 61554 74854,74586,74782
 5.3000e+000 74831 -4.8830e+001 -2.0177e+002  1.1039e+001 61554 74638,74782,74664
 5.3000e+000 74880 -1.5829e+001 -1.6072e+002  4.7771e+001 61554 74638,74612,74854
 5.3000e+000 74903 -1.6927e+001 -1.5897e+002  2.4951e+001 61554 74638,74854,74782
 5.3000e+000 75285 -2.7900e+001 -1.7323e+002  1.6970e+000 61356 75063,75167,75115
 5.3000e+000 75262 -3.6505e+001 -1.8412e+002 -9.6933e+000 61356 75037,75167,75063
 5.3000e+000 75239  8.8059e+000 -1.8004e+002 -9.8243e-001 61356 75115,75167,75141
 5.3000e+000 75216 -1.0854e+001 -1.6299e+002  5.9735e+000 61356 75063,75115,75089
 5.3000e+000 75193 -7.9566e+001 -1.4660e+002  1.1598e+001 61356 75011,75167,75037
 5.3000e+000 75631 -1.2405e+001 -1.3949e+002  4.4459e+000 60952 75654,75412,75360
 5.3000e+000 75608 -2.7688e+001 -1.5956e+002 -3.6571e+000 60952 75654,75360,75334
 5.3000e+000 75585 -2.6669e+001 -2.0561e+002  1.0456e+001 60952 75726,75438,75412
 5.3000e+000 75562 -2.1249e+001 -1.6145e+002 -2.6257e+001 60952 75308,75490,75334
 5.3000e+000 75539 -1.5803e+001 -1.3960e+002  1.1204e+000 60952 75360,75412,75386
 5.3000e+000 75516 -3.9870e+001 -2.4804e+002 -7.5637e+000 60952 75438,75490,75464
 5.3000e+000 75680 -1.0974e+001 -1.7105e+002  4.2240e+000 60952 75726,75412,75654
 5.3000e+000 75703 -1.2046e+001 -1.6058e+002 -6.4720e+000 60952 75490,75654,75334
 5.3000e+000 75752 -1.2242e+001 -1.6570e+002 -9.9435e-001 60952 75490,75438,75726
 5.3000e+000 75775 -1.2889e+001 -1.6265e+002 -6.9443e+000 60952 75490,75726,75654
 5.3000e+000 76155 -2.9918e+001 -1.6619e+002 -8.2435e-001 60754 75933,75985,75959
 5.3000e+000 76132 -4.6218e+001 -1.7644e+002  1.7611e+001 60754 75933,76037,75985
 5.3000e+000 76109  1.1324e+000 -1.7144e+002  5.4256e+000 60754 75985,76037,76011
 5.3000e+000 76086 -7.0576e+001 -1.4944e+002  4.0172e+000 60754 75881,76037,75933
 5.3000e+000 76063 -9.7924e+001 -1.3581e+002  3.6605e+001 60754 75881,75933,75907
 5.3000e+000 76612 -3.1438e+001 -1.5819e+002  7.5166e+000 60350 76635,76442,76390
 5.3000e+000 76589 -3.7151e+000 -1.8024e+002  1.3358e+001 60350 76635,76390,76364
 5.3000e+000 76566 -1.1998e+001 -2.3293e+002 -1.5847e+001 60350 76364,76494,76468
 5.3000e+000 76543 -2.7689e+000 -1.4426e+002  1.3943e+001 60350 76390,76442,76416
 5.3000e+000 76520 -8.3946e+001 -1.4823e+002 -3.6330e+001 60350 76338,76494,76364
 5.3000e+000 76661 -4.6190e+001 -1.7353e+002  1.4324e+001 60350 76468,76442,76635
 5.3000e+000 76684 -2.5677e+001 -1.9787e+002  2.2437e+001 60350 76468,76635,76364
 5.3000e+000 76932 -6.4158e+001 -1.8633e+002  1.9040e+000 59946 76955,76733,76707
 5.3000e+000 76909 -6.4512e+001 -1.8641e+002  5.1386e+000 59946 77027,76955,76707
 5.3000e+000 76886 -6.1415e+001 -1.8742e+002  4.1032e+000 59946 77027,76707,76837
 5.3000e+000 76863 -2.8285e+001 -2.0213e+002 -1.9795e+001 59946 76733,76785,76759
 5.3000e+000 76981 -7.2581e+001 -1.8707e+002 -1.9075e+000 59946 76785,76733,76955
 5.3000e+000 77004 -6.6071e+001 -1.8044e+002  2.9944e+000 59946 76785,76955,76811
 5.3000e+000 77053 -6.0640e+001 -1.8473e+002  5.6346e+000 59946 76811,76955,77027
 5.3000e+000 77076 -5.8738e+001 -1.8641e+002  4.1428e+000 59946 76811,77027,76837
 5.3000e+000 77226 -7.6536e+001 -1.9438e+002  4.9409e+000 59542 77099,77151,77125
 5.3000e+000 77203 -9.7363e+001 -2.3668e+002  1.1703e+001 59542 77099,77177,77151
 5.3000e+000 77427 -9.9513e+001 -2.0360e+002 -1.2472e+001 59030 77450,77277,77251
 5.3000e+000 77404 -6.2492e+001 -1.6585e+002 -5.4730e+001 59030 77450,77251,77355
 5.3000e+000 77381 -1.8911e+001 -2.3682e+002 -5.4873e+000 59030 77277,77329,77303
 5.3000e+000 77476 -5.4034e+001 -2.1129e+002 -3.6507e+001 59030 77329,77277,77450
 5.3000e+000 77499 -1.3276e+001 -1.9337e+002 -6.9905e+001 59030 77329,77450,77355
 5.3000e+000 77749 -8.1037e+001 -2.5394e+002  1.9654e+001 58426 77772,77628,77602
 5.3000e+000 77726 -5.2640e+001 -2.9360e+002  5.9466e+001 58426 77524,77654,77628
 5.3000e+000 77703 -6.7462e+001 -2.5105e+002  1.4556e+001 58426 77772,77602,77550
 5.3000e+000 77680 -4.1433e+001 -2.3620e+002 -1.0461e+001 58426 77550,77602,77576
 5.3000e+000 77798 -6.5160e+001 -2.5576e+002  1.9156e+001 58426 77524,77628,77772
 5.3000e+000 77821 -5.7936e+001 -2.5615e+002  1.2572e+001 58426 77524,77772,77550
 5.3000e+000 78071 -1.0464e+002 -2.2792e+002  2.4028e+001 57922 78094,77924,77898
 5.3000e+000 78048 -1.2024e+002 -2.2750e+002  2.8405e+000 57922 78094,77898,77872
 5.3000e+000 78025 -9.7810e+001 -2.0599e+002  2.3054e+001 57922 78166,77846,77950
 5.3000e+000 78002 -5.2554e+001 -2.0067e+002  2.5945e+001 57922 77846,77976,77950
 5.3000e+000 78120 -8.7773e+001 -2.2491e+002  1.6866e+001 57922 77950,77924,78094
 5.3000e+000 78143 -1.0016e+002 -2.0970e+002  1.7597e+001 57922 78166,77950,78094
 5.3000e+000 78192 -9.2061e+001 -2.1580e+002  1.6309e+001 57922 77872,77846,78166
 5.3000e+000 78215 -9.9828e+001 -2.2586e+002  1.0238e+001 57922 77872,78166,78094
 5.3000e+000 78416  2.0407e+001 -1.9303e+002 -9.7699e+000 57468 78439,78292,78240
 5.3000e+000 78393 -1.1302e+001 -1.8235e+002  6.4051e-001 57468 78439,78240,78344
 5.3000e+000 78370  6.1681e+000 -2.6176e+002 -7.7006e+000 57468 78240,78292,78266
 5.3000e+000 78465 -1.0427e+001 -2.0852e+002 -1.6172e+001 57468 78318,78292,78439
 5.3000e+000 78488 -2.3412e+001 -1.9015e+002 -2.8527e+000 57468 78318,78439,78344
 5.3000e+000 78689  1.8736e+001 -2.3317e+002 -2.6393e+001 57014 78712,78539,78513
 5.3000e+000 78666 -1.5272e+001 -2.3172e+002 -4.3587e+000 57014 78712,78513,78617
 5.3000e+000 78643 -5.1823e+001 -2.3288e+002  2.3107e+001 57014 78565,78617,78591
 5.3000e+000 78738 -2.4951e+001 -1.9635e+002 -2.6456e+001 57014 78565,78539,78712
 5.3000e+000 78761 -7.5124e+001 -2.2544e+002  9.3585e+000 57014 78565,78712,78617
 5.3000e+000 79241 -7.5297e+001 -2.0714e+002  1.6554e+001 56652 79264,78895,78869
 5.3000e+000 79218 -3.5260e+001 -2.6938e+002 -1.5958e+001 56652 79264,78869,79051
 5.3000e+000 79195 -5.2809e+001 -2.3453e+002 -5.5227e+001 56652 78869,79077,79051
 5.3000e+000 79172 -5.9184e+001 -1.3802e+002 -3.1004e+001 56652 78895,78973,78947
 5.3000e+000 79149 -9.7088e+001 -4.0253e+002 -3.3190e+001 56652 78973,79051,78999
 5.3000e+000 79126 -5.2196e+001 -1.2951e+002 -3.4020e+001 56652 78895,78947,78921
 5.3000e+000 79103 -7.7007e+001 -2.7074e+002  6.3090e+001 56652 78999,79051,79025
 5.3000e+000 79290 -4.4603e+001 -1.6819e+002  3.7972e+001 56652 78973,78895,79264
 5.3000e+000 79313 -1.7302e+000 -2.3484e+002  7.4802e+000 56652 78973,79264,79051
 5.3000e+000 79512 -2.4144e+001 -3.0265e+002  2.3686e+001 56062 79388,79440,79414
 5.3000e+000 79489 -1.1240e+002 -1.5562e+002  4.0289e+001 56062 79336,79440,79388
 5.3000e+000 79466 -4.0532e+001 -1.9870e+002  5.0228e+001 56062 79336,79388,79362
 5.3000e+000 79941 -3.2676e+001 -1.6285e+002  2.6715e+001 55658 79964,79670,79644
 5.3000e+000 79918 -4.9953e+001 -1.6563e+002  3.0067e+001 55658 79964,79644,79800
 5.3000e+000 79895 -4.6998e+001 -1.7437e+002  1.5689e+001 55658 80036,79696,79670
 5.3000e+000 79872 -5.4772e+001 -1.4752e+002 -9.8817e-001 55658 80108,79722,79696
 5.3000e+000 79849 -8.0296e+001 -1.4742e+002  8.9538e+000 55658 79722,79774,79748
 5.3000e+000 79826 -4.6804e-001 -1.4847e+002  6.9572e+000 55658 79618,79800,79644
 5.3000e+000 79990 -5.1500e+001 -1.7537e+002  2.0491e+001 55658 80036,79670,79964
 5.3000e+000 80013 -4.5517e+001 -1.5408e+002  3.1662e+001 55658 79774,79964,79800
 5.3000e+000 80062 -3.9779e+001 -1.5859e+002  1.3281e+001 55658 80108,79696,80036
 5.3000e+000 80085 -5.1269e+001 -1.5599e+002  2.8050e+001 55658 79774,80036,79964
 5.3000e+000 80134 -8.4003e+001 -1.5951e+002  5.5339e+000 55658 79774,79722,80108
 5.3000e+000 80157 -7.5501e+001 -1.7432e+002  1.9728e+001 55658 79774,80108,80036
 5.3000e+000 80307 -9.5130e+001 -1.5883e+002  1.6805e+001 55254 80402,80330,80206
 5.3000e+000 80284 -9.2270e+001 -2.1955e+002  1.8992e+001 55254 80330,80180,80258
 5.3000e+000 80356 -1.1097e+002 -1.9476e+002  3.7983e+001 55254 80232,80206,80330
 5.3000e+000 80379 -3.4885e+001 -1.6036e+002  5.6628e+001 55254 80232,80330,80258
 5.3000e+000 80428 -1.2495e+002 -1.9529e+002  2.1050e+000 55254 80180,80330,80402
 5.3000e+000 80659 -4.4582e+001 -2.3310e+002 -1.7882e+001 54850 80558,80610,80584
 5.3000e+000 80636 -3.0375e+000 -2.2316e+002 -2.2259e+001 54850 80532,80610,80558
 5.3000e+000 80760 -1.6333e+001 -1.6091e+002 -1.1824e+001 54652 80682,80734,80708
 5.3000e+000 81164 -1.2820e+001 -1.6985e+002 -3.0064e+000 54248 81187,80942,80890
 5.3000e+000 81141 -1.6221e+001 -1.7083e+002 -1.7518e+000 54248 81187,80890,81046
 5.3000e+000 81118 -1.8062e+001 -1.7909e+002  3.7185e+001 54248 80942,81020,80994
 5.3000e+000 81095 -1.0994e+001 -1.7285e+002  2.5737e+000 54248 80890,80942,80916
 5.3000e+000 81072 -2.4554e+001 -9.9214e+001  5.4707e+000 54248 80942,80994,80968
 5.3000e+000 81213 -1.6456e+001 -1.6859e+002 -2.9683e+000 54248 81020,80942,81187
 5.3000e+000 81236 -1.9311e+001 -1.6889e+002 -2.1535e+000 54248 81020,81187,81046
 5.3000e+000 81663 -9.9512e+001 -1.8503e+002  1.6739e+001 53594 81340,81444,81366
 5.3000e+000 81640 -9.4130e+001 -2.6967e+002  7.3948e+000 53594 81340,81470,81444
 5.3000e+000 81617 -4.2997e+001 -2.3650e+002 -2.0931e+001 53594 81340,81522,81470
 5.3000e+000 81594 -5.4795e+001 -1.3393e+002 -1.4764e+001 53594 81392,81444,81418
 5.3000e+000 81571 -7.2676e+001 -1.5954e+002 -2.3216e+001 53594 81366,81444,81392
 5.3000e+000 81548  1.5827e+000 -3.2993e+002  4.3532e+001 53594 81470,81522,81496
 5.3000e+000 81943 -2.4423e+001 -1.2490e+002 -1.5894e+001 53104 81966,81845,81819
 5.3000e+000 81920 -3.7202e+001 -1.0251e+002 -1.9795e+001 53104 81966,81819,81767
 5.3000e+000 81897 -3.7960e+001 -1.0389e+002 -2.0344e+001 53104 81767,81819,81793
 5.3000e+000 81992 -1.5785e+001 -1.1087e+002 -1.9554e+001 53104 81871,81845,81966
 5.3000e+000 82015 -2.2348e+001 -7.9412e+001 -2.6487e+001 53104 81871,81966,81767
 5.3000e+000 82491 -2.5724e+001 -1.2853e+002 -1.2490e+001 52650 82145,82249,82171
 5.3000e+000 82468 -1.0464e+002 -1.5057e+002 -1.8389e+001 52650 82145,82301,82249
 5.3000e+000 82445 -1.0998e+002 -2.2862e+002 -3.9384e+001 52650 82249,82301,82275
 5.3000e+000 82422 -5.5996e+001 -2.8878e+002 -5.2557e+001 52650 82119,82301,82145
 5.3000e+000 82399 -3.4770e+001 -1.0159e+002  1.2075e+001 52650 82171,82249,82223
 5.3000e+000 82376  5.9889e+000 -2.6497e+002 -3.3582e+001 52650 82119,82327,82301
 5.3000e+000 82353 -8.9508e+000 -5.1543e+001 -2.1533e+001 52650 82171,82223,82197
 5.3000e+000 82739 -3.2914e+001 -1.1585e+002  1.4891e+000 52246 82762,82540,82514
 5.3000e+000 82716 -2.1422e+001 -4.8274e+001 -9.6953e+000 52246 82762,82514,82644
 5.3000e+000 82693 -5.6453e+001 -1.3119e+002  2.8534e+001 52246 82540,82618,82592
 5.3000e+000 82670 -6.3034e+001 -1.2014e+002  2.0246e+001 52246 82540,82592,82566
 5.3000e+000 82788 -2.1264e+001 -1.4827e+002  8.4704e+000 52246 82618,82540,82762
 5.3000e+000 82811 -3.8352e+001 -1.2685e+002 -1.0875e+001 52246 82618,82762,82644
 5.3000e+000 83059 -1.8431e+001 -1.6771e+002  1.5577e+001 51578 82860,82964,82938
 5.3000e+000 83036 -8.7915e-001 -1.1385e+002 -3.7415e+001 51578 82834,82964,82860
 5.3000e+000 83013 -8.0959e+000 -1.2980e+002  3.3803e+001 51578 82860,82938,82886
 5.3000e+000 82990 -6.4749e+000 -8.5410e+001  6.4426e+000 51578 82886,82938,82912
 5.3000e+000 83309 -3.1530e+001 -9.3227e+001  2.7875e+001 51138 83332,83162,83136
 5.3000e+000 83286 -1.1716e+001 -1.2378e+002  8.7531e+000 51138 83332,83136,83110
 5.3000e+000 83263 -4.6375e+001 -1.2772e+002 -6.2573e+000 51138 83404,83214,83188
 5.3000e+000 83240  7.7498e-002 -7.6207e+001  7.5660e+000 51138 83084,83214,83110
 5.3000e+000 83358 -5.2884e+001 -1.3161e+002  3.8035e+001 51138 83188,83162,83332
 5.3000e+000 83381 -3.2579e+001 -1.4227e+002  7.2843e+000 51138 83404,83188,83332
 5.3000e+000 83430 -2.8907e+001 -9.0756e+001 -9.8810e-001 51138 83110,83214,83404
 5.3000e+000 83453 -1.8109e+001 -1.1349e+002  1.2162e+001 51138 83110,83404,83332
 5.3000e+000 83835 -3.0595e+001 -1.6134e+002 -1.0943e+000 50734 83613,83717,83691
 5.3000e+000 83812 -3.4499e+001 -1.7510e+002 -3.3974e+001 50734 83561,83717,83613
 5.3000e+000 83789 -1.8784e+001 -8.9329e+001 -4.9628e+001 50734 83561,83613,83587
 5.3000e+000 83766 -6.2329e+001 -1.0997e+002 -3.3167e-002 50734 83613,83691,83639
 5.3000e+000 83743 -6.6044e+001 -1.1068e+002  2.3521e+001 50734 83639,83691,83665
 5.3000e+000 84034 -4.1577e+001 -1.0062e+002  6.6206e+000 50230 84057,83884,83858
 5.3000e+000 84011 -4.0955e+001 -1.0865e+002 -9.2000e+000 50230 84129,84057,83858
 5.3000e+000 83988 -1.2864e+001 -1.1661e+002 -1.6234e+001 50230 84129,83858,83962
 5.3000e+000 84083 -2.0232e+001 -9.1588e+001  6.1202e+000 50230 83910,83884,84057
 5.3000e+000 84106 -2.5966e+001 -9.9172e+001  2.0809e+000 50230 83910,84057,83936
 5.3000e+000 84155 -4.4042e+000 -9.1681e+001 -9.2710e-001 50230 83936,84057,84129
 5.3000e+000 84178  6.2574e+000 -1.1207e+002 -1.2057e+001 50230 83936,84129,83962
 5.3000e+000 84558 -4.5757e+001 -1.3407e+002 -2.1865e+001 49768 84581,84388,84362
 5.3000e+000 84535 -9.4254e+001 -1.3652e+002 -8.8307e+000 49768 84581,84362,84310
 5.3000e+000 84512  3.0598e+000 -1.4753e+002 -2.3925e+001 49768 84653,84440,84414
 5.3000e+000 84489 -7.4149e+001 -1.4985e+002  1.1040e+001 49768 84310,84362,84336
 5.3000e+000 84466 -2.6898e+000 -1.0650e+002  1.6863e+001 49768 84284,84440,84310
 5.3000e+000 84607 -1.3300e+001 -1.1464e+002 -3.6918e+001 49768 84414,84388,84581
 5.3000e+000 84630 -1.6451e+001 -1.3822e+002 -1.6892e+001 49768 84653,84414,84581
 5.3000e+000 84679 -2.3227e+001 -1.3909e+002 -3.2744e+001 49768 84310,84440,84653
 5.3000e+000 84702 -5.1140e+001 -1.3925e+002 -3.3298e+001 49768 84310,84653,84581
 5.3000e+000 85159 -7.3521e+001 -1.8710e+002 -5.3105e+001 49192 84885,84937,84911
 5.3000e+000 85136 -7.2192e+001 -1.4395e+002 -3.8011e+001 49192 84885,85041,84937
 5.3000e+000 85113 -4.9651e+001 -1.2265e+002 -1.8094e+001 49192 84963,85041,84989
 5.3000e+000 85090 -4.3416e+001 -1.1127e+002 -2.4919e+001 49192 84937,85041,84963
 5.3000e+000 85067 -4.2158e+001 -1.1597e+002 -2.2116e+001 49192 84989,85041,85015
 5.3000e+000 85714 -7.6150e+001 -1.2431e+002  1.4627e-001 48638 85368,85498,85394
 5.3000e+000 85691 -9.5083e+001 -1.4543e+002  8.4741e+000 48638 85368,85524,85498
 5.3000e+000 85668 -8.8546e+001 -1.2105e+002  3.4621e+001 48638 85737,85420,85394
 5.3000e+000 85645 -7.3379e+001 -1.3664e+002  1.7838e+001 48638 85737,85394,85498
 5.3000e+000 85622 -5.7548e+001 -1.3799e+002  2.8548e+001 48638 85446,85498,85472
 5.3000e+000 85599 -2.4293e+001 -1.1812e+002  1.3883e+001 48638 85342,85524,85368
 5.3000e+000 85576 -9.4040e+001 -1.3429e+002  1.3608e+001 48638 85342,85550,85524
 5.3000e+000 85763 -6.2157e+001 -1.0732e+002  4.4471e+001 48638 85446,85420,85737
 5.3000e+000 85786 -6.2675e+001 -1.2411e+002  2.5494e+001 48638 85446,85737,85498
 5.3000e+000 86371 -6.3944e+001 -9.1698e+001 -5.0452e+000 48084 86100,86230,86178
 5.3000e+000 86348 -8.0752e+001 -1.2051e+002 -1.3591e+001 48084 86048,86230,86100
 5.3000e+000 86325 -6.1154e+001 -8.3872e+001  2.4036e+001 48084 86100,86178,86126
 5.3000e+000 86302 -4.2712e+001 -3.0909e+001 -2.5152e+001 48084 86048,86100,86074
 5.3000e+000 86279 -8.0836e+001 -1.5081e+002 -2.5460e+000 48084 86178,86230,86204
 5.3000e+000 86256 -5.5279e+001 -9.0648e+001  2.4124e+001 48084 86126,86178,86152
 5.3000e+000 86619 -4.4860e+001 -1.0167e+002  9.5771e+000 47630 86642,86446,86420
 5.3000e+000 86596 -5.4215e+001 -1.1380e+002 -1.4066e+001 47630 86642,86420,86394
 5.3000e+000 86573 -7.1865e+001 -1.3121e+002 -2.0115e+001 47630 86394,86524,86498
 5.3000e+000 86550 -3.1035e+001 -1.1568e+002  8.9165e+000 47630 86446,86498,86472
 5.3000e+000 86668 -5.6958e+001 -1.2864e+002  1.1829e+000 47630 86498,86446,86642
 5.3000e+000 86691 -6.1561e+001 -1.3253e+002 -2.1995e+001 47630 86498,86642,86394
 5.3000e+000 87022 -6.2661e+000 -7.2308e+001 -4.2155e+001 47226 87045,86875,86849
 5.3000e+000 86999 -3.0930e+000 -8.1987e+001 -3.9863e+001 47226 87045,86849,86797
 5.3000e+000 86976  1.0145e-001 -3.7149e+001 -1.1123e+001 47226 86797,86849,86823
 5.3000e+000 86953  1.9535e+000 -5.1653e+001 -2.2563e+001 47226 86875,86927,86901
 5.3000e+000 87071 -1.1541e+001 -7.9464e+001 -3.9846e+001 47226 86927,86875,87045
 5.3000e+000 87094 -5.8032e+000 -8.6055e+001 -3.8551e+001 47226 86927,87045,86797
 5.3000e+000 87244 -9.0131e+000 -1.4701e+002  3.9990e+001 46814 87267,87169,87143
 5.3000e+000 87221 -7.1040e+001 -1.3343e+002 -7.7956e+000 46814 87267,87143,87117
 5.3000e+000 87293 -8.1367e+000 -1.0851e+002  2.5062e+001 46814 87339,87267,87195
 5.3000e+000 87316 -2.3866e+000 -1.0402e+002  2.3318e+000 46814 87469,87267,87117
 5.3000e+000 87365 -1.7259e+000 -1.0377e+002  2.9884e+001 46814 87169,87267,87339
 5.3000e+000 87495 -5.6255e-001 -7.1571e+000 -1.5687e+000 46814 87195,87267,87469
 5.3000e+000 88001 -4.2743e+001 -1.0027e+002  2.6980e+001 46310 88024,87834,87808
 5.3000e+000 87978 -5.2627e+001 -1.0236e+002  1.5962e+001 46310 88024,87808,87756
 5.3000e+000 87955 -2.8170e+001 -1.3472e+002  7.6751e+000 46310 88096,87730,87860
 5.3000e+000 87932 -3.7521e+001 -1.3154e+002  1.7019e+001 46310 87756,87808,87782
 5.3000e+000 87909 -3.7140e+001 -1.6100e+002  5.9878e+000 46310 87678,87860,87730
 5.3000e+000 87886 -5.5963e+001 -2.6368e+002 -1.4698e+001 46310 87678,87730,87704
 5.3000e+000 88050 -3.6821e+001 -8.7640e+001  1.6654e+001 46310 87860,87834,88024
 5.3000e+000 88073 -2.8585e+001 -9.6270e+001  1.9578e+001 46310 88096,87860,88024
 5.3000e+000 88122 -3.6272e+001 -1.5294e+002 -5.5259e+000 46310 87756,87730,88096
 5.3000e+000 88145 -6.0256e+001 -1.3771e+002  1.1574e+000 46310 87756,88096,88024
 5.3000e+000 88572 -3.0016e+001 -1.3503e+002  9.4793e+000 45856 88249,88405,88275
 5.3000e+000 88549 -2.4819e+001 -4.2618e+001 -2.5902e+001 45856 88249,88431,88405
 5.3000e+000 88526 -6.9890e+001 -1.9141e+002 -2.5472e+001 45856 88327,88405,88353
 5.3000e+000 88503 -3.1337e+001 -1.6481e+002 -1.0992e+001 45856 88275,88405,88327
 5.3000e+000 88480 -5.8337e+001 -1.6981e+002 -3.2428e+001 45856 88353,88405,88379
 5.3000e+000 88457 -1.2940e+002 -3.5417e+002  2.8967e+001 45856 88275,88327,88301
 5.3000e+000 88950 -2.1347e+001 -7.8670e+001 -2.3067e+000 45658 88973,88754,88728
 5.3000e+000 88927 -1.8393e+001 -7.6734e+001 -1.2789e+000 45658 88973,88728,88676
 5.3000e+000 88904 -2.3449e+001 -9.1450e+001  3.1822e+001 45658 88676,88832,88806
 5.3000e+000 88881 -3.7366e+001 -1.1457e+002  1.0020e+001 45658 88676,88728,88702
 5.3000e+000 88858 -3.4484e+001 -7.6781e+001 -1.8140e+001 45658 88754,88806,88780
 5.3000e+000 88999 -2.3186e+001 -7.5941e+001 -1.1496e+000 45658 88806,88754,88973
 5.3000e+000 89022 -2.1108e+001 -7.4931e+001 -6.5790e-001 45658 88806,88973,88676
 5.3000e+000 89351 -3.9865e+001 -1.3522e+002 -6.6295e+000 45254 89152,89230,89204
 5.3000e+000 89328 -3.8175e+001 -1.3469e+002 -7.2393e+000 45254 89152,89256,89230
 5.3000e+000 89305 -1.3572e+001 -1.4272e+002 -1.8339e+001 45254 89126,89256,89152
 5.3000e+000 89282  7.7088e-001 -1.3513e+002 -2.4022e+001 45254 89152,89204,89178
 5.3000e+000 89523 -1.5430e+001 -9.3028e+001  1.0377e+000 45006 89422,89474,89448
 5.3000e+000 89500 -1.2991e+001 -9.2012e+001  2.9796e+000 45006 89396,89474,89422
 5.3000e+000 89673 -1.1016e+002 -1.9396e+002  1.6511e+001 44495 89572,89624,89598
 5.3000e+000 89650 -1.1331e+002 -1.9550e+002  1.0869e+001 44495 89546,89624,89572
 5.3000e+000 90104 -1.0933e+001 -1.4455e+002 -8.3217e+000 44005 90199,90127,89937
 5.3000e+000 90081 -2.8733e+001 -1.4172e+002  1.8509e+000 44005 90271,90127,89859
 5.3000e+000 90058 -2.3134e+000 -1.4845e+002 -8.6825e+000 44005 90199,89937,89885
 5.3000e+000 90035 -4.0059e+001 -1.3371e+002  8.3273e+000 44005 90271,89859,89807
 5.3000e+000 90012 -2.0842e+001 -1.6300e+002 -1.9671e+001 44005 89885,89937,89911
 5.3000e+000 89989 -1.1590e+001 -1.4223e+002  2.3411e+001 44005 89807,89859,89833
 5.3000e+000 90153 -3.0520e+001 -1.5170e+002 -5.5424e+000 44005 89963,89937,90127
 5.3000e+000 90176 -3.2710e+001 -1.6273e+002  3.1845e+000 44005 89963,90127,89781
 5.3000e+000 90225 -3.1847e+001 -1.4309e+002 -3.4141e+000 44005 89859,90127,90199
 5.3000e+000 90248 -1.3427e+001 -1.4048e+002 -1.0879e-002 44005 89859,90199,89885
 5.3000e+000 90297 -4.4083e+001 -1.5140e+002 -2.3982e+000 44005 89781,90127,90271
 5.3000e+000 90320 -5.0619e+001 -1.4093e+002  5.1141e+000 44005 89781,90271,89807
 5.3000e+000 90470 -2.3739e+001 -1.5302e+002 -3.7857e+000 43601 90493,90369,90343
 5.3000e+000 90447 -4.0595e+001 -1.2383e+002  1.0477e+001 43601 90493,90343,90421
 5.3000e+000 90519 -4.9356e+001 -2.0717e+002 -2.2651e+001 43601 90395,90369,90493
 5.3000e+000 90542 -3.9147e+001 -1.4539e+002 -4.5370e+000 43601 90395,90493,90421
 5.3000e+000 90922 -5.0554e+001 -1.6281e+002  1.0096e+001 43154 90945,90700,90674
 5.3000e+000 90899 -4.5197e+001 -1.6622e+002 -1.8615e+001 43154 90945,90674,90648
 5.3000e+000 90876 -5.5672e+001 -1.3005e+002 -1.2409e+001 43154 90648,90778,90752
 5.3000e+000 90853 -2.8510e+001 -2.6092e+002  7.7223e+000 43154 90700,90752,90726
 5.3000e+000 90830 -3.4641e+001 -1.2976e+002 -6.4805e+000 43154 90648,90804,90778
 5.3000e+000 90971 -5.8924e+001 -1.8806e+002  1.4672e+001 43154 90752,90700,90945
 5.3000e+000 90994 -5.1408e+001 -1.8151e+002 -1.3253e+001 43154 90752,90945,90648
 5.3000e+000 91451 -1.5755e+001 -1.2905e+002 -2.4495e+001 42650 91203,91255,91229
 5.3000e+000 91428  1.2254e+001 -1.1687e+002 -1.1287e+001 42650 91203,91333,91255
 5.3000e+000 91405 -1.4190e+000 -1.8720e+002 -3.1802e+001 42650 91177,91333,91203
 5.3000e+000 91382 -5.8803e+001 -2.0241e+002  2.5695e+001 42650 91255,91333,91281
 5.3000e+000 91359 -1.2631e+001 -1.6975e+002  8.7676e+000 42650 91281,91333,91307
 5.3000e+000 91721 -8.5985e+001 -1.9287e+002  1.3738e+001 42288 91496,91600,91522
 5.3000e+000 91698 -4.6070e+001 -1.1146e+002 -5.3012e+000 42288 91496,91626,91600
 5.3000e+000 91675 -5.3034e+001 -1.7305e+002  1.5233e+001 42288 91522,91574,91548
 5.3000e+000 91652 -4.3886e+001 -1.7651e+002  1.4334e+001 42288 91522,91600,91574
 5.3000e+000 92199 -1.2877e+002 -2.0910e+002 -5.4058e+000 41898 92222,91983,91879
 5.3000e+000 92176 -1.3231e+002 -2.3055e+002 -1.3939e+001 41898 92294,92222,91879
 5.3000e+000 92153 -1.4036e+002 -2.2749e+002 -1.9811e+001 41898 92294,91879,91853
 5.3000e+000 92130 -1.1187e+002 -1.2615e+002  1.4440e+001 41898 91879,91957,91931
 5.3000e+000 92107 -1.1497e+002 -2.0380e+002 -5.0369e-001 41898 91879,91983,91957
 5.3000e+000 92084 -1.2551e+002 -1.2003e+002  2.9053e+001 41898 91879,91931,91905
 5.3000e+000 92061 -1.2345e+002 -2.0480e+002 -1.5817e+001 41898 91827,92035,91853
 5.3000e+000 92248 -1.2711e+002 -2.3564e+002  1.9799e-001 41898 92009,91983,92222
 5.3000e+000 92271 -1.2364e+002 -2.4026e+002 -1.8242e+001 41898 92009,92222,92035
 5.3000e+000 92320 -1.1891e+002 -2.2543e+002 -1.4646e+001 41898 92035,92222,92294
 5.3000e+000 92343 -1.2478e+002 -2.2113e+002 -2.0132e+001 41898 92035,92294,91853
 5.3000e+000 92770 -3.7450e+001 -1.7805e+002 -1.3854e+001 41437 92865,92793,92525
 5.3000e+000 92747 -5.2968e+001 -2.0457e+002 -1.8409e+001 41437 92793,92473,92629
 5.3000e+000 92724 -1.5533e+001 -1.8446e+002 -2.5722e+001 41437 92865,92525,92499
 5.3000e+000 92701 -6.0164e+001 -1.5611e+002 -2.9881e+001 41437 92525,92603,92577
 5.3000e+000 92678  1.6489e+000 -1.9770e+002 -1.6232e+001 41437 92447,92629,92473
 5.3000e+000 92655 -9.2555e+001 -1.3971e+002 -1.8520e+001 41437 92525,92577,92551
 5.3000e+000 92819 -4.2364e+001 -1.8925e+002 -2.9715e+001 41437 92603,92525,92793
 5.3000e+000 92842 -8.4440e+001 -2.0387e+002 -5.2733e+001 41437 92603,92793,92629
 5.3000e+000 92891  5.0161e+000 -1.9215e+002 -1.6876e+001 41437 92473,92793,92865
 5.3000e+000 92914  3.6183e+001 -1.8624e+002 -3.3934e+001 41437 92473,92865,92499
 5.3000e+000 93243 -3.2412e+001 -2.7579e+002  1.0043e+002 41097 93044,93096,93070
 5.3000e+000 93220 -5.5994e+001 -2.4412e+002  5.3582e+001 41097 93044,93122,93096
 5.3000e+000 93197  1.2224e+001 -1.6149e+002  2.0653e+001 41097 93044,93148,93122
 5.3000e+000 93174 -5.0827e+001 -1.2076e+002  5.1545e+001 41097 93018,93148,93044
 5.3000e+000 93393 -4.3760e+000 -2.0239e+002  1.3886e+001 40643 93416,93292,93344
 5.3000e+000 93370 -8.9071e+000 -1.8719e+002  1.5634e+001 40643 93266,93344,93292
 5.3000e+000 93442 -6.6204e+000 -1.9910e+002  2.0148e+001 40643 93318,93292,93416
 5.3000e+000 93901 -6.0221e+001 -1.8469e+002 -1.3121e+001 40132 93924,93731,93705
 5.3000e+000 93878 -6.2806e+001 -1.8854e+002 -1.4299e+001 40132 93996,93924,93705
 5.3000e+000 93855 -7.4122e+001 -2.1625e+002 -5.2236e+000 40132 93996,93705,93653
 5.3000e+000 93832 -3.2219e+001 -2.0979e+002 -1.1713e+001 40132 93653,93705,93679
 5.3000e+000 93809 -6.0779e+001 -1.8204e+002  1.0297e+000 40132 93627,93783,93757
 5.3000e+000 93950 -5.7333e+001 -1.9435e+002 -1.5681e+001 40132 93757,93731,93924
 5.3000e+000 93973 -6.5539e+001 -1.7290e+002 -4.4754e+000 40132 93757,93924,93627
 5.3000e+000 94022 -8.3718e+001 -2.0609e+002  5.4982e+000 40132 93627,93924,93996
 5.3000e+000 94045 -7.7660e+001 -2.1568e+002  1.2174e+001 40132 93627,93996,93653
 5.3000e+000 94423 -1.3850e+001 -2.1925e+002 -3.0942e+001 39514 94149,94227,94175
 5.3000e+000 94400 -2.2783e+001 -2.0508e+002  2.3077e+001 39514 94149,94305,94227
 5.3000e+000 94377  4.9164e+000 -2.5708e+002 -2.9992e+001 39514 94175,94227,94201
 5.3000e+000 94354 -6.3775e+001 -1.9217e+002  9.8114e+000 39514 94227,94305,94279
 5.3000e+000 94331 -2.7281e+001 -1.7508e+002  1.8980e+001 39514 94227,94279,94253
 5.3000e+000 94573 -1.8024e+001 -1.2249e+002 -2.4618e+001 38822 94596,94498,94472
 5.3000e+000 94550  2.2940e+001 -1.3080e+002  2.8683e+001 38822 94596,94472,94446
 5.3000e+000 94622 -6.5242e+001 -1.4256e+002 -2.6524e+001 38822 94524,94498,94596
 5.3000e+000 94645 -5.5476e+001 -1.6409e+002  3.2186e+001 38822 94524,94596,94446
 5.3000e+000 95025 -1.0953e+001 -1.5770e+002 -1.2080e+001 38418 95048,94829,94777
 5.3000e+000 95002 -1.5629e+001 -1.6603e+002 -1.9981e+001 38418 95120,95048,94777
 5.3000e+000 94979 -1.1179e+001 -1.6561e+002 -1.8691e+001 38418 95120,94777,94751
 5.3000e+000 94956 -7.9053e+000 -1.4906e+002 -2.1790e+001 38418 95192,94881,94855
 5.3000e+000 94933 -4.8809e+001 -1.3632e+002 -8.4406e+000 38418 94777,94829,94803
 5.3000e+000 95074 -2.7308e+001 -2.0731e+002 -4.7264e+000 38418 94855,94829,95048
 5.3000e+000 95097 -1.2164e+001 -1.6498e+002 -2.3256e+001 38418 95192,94855,95048
 5.3000e+000 95146 -2.9002e+001 -1.5995e+002 -1.5933e+001 38418 94907,95048,95120
 5.3000e+000 95169 -1.7837e+001 -1.5407e+002 -1.2401e+001 38418 94907,95120,94751
 5.3000e+000 95218 -1.3191e+001 -1.1861e+002 -1.9645e+001 38418 94907,94881,95192
 5.3000e+000 95241 -2.3527e+001 -1.4474e+002 -1.6800e+001 38418 94907,95192,95048
 5.3000e+000 95511 -5.1764e+001 -1.6900e+002  9.1717e+000 38049 95312,95390,95364
 5.3000e+000 95488 -3.3829e+001 -1.6085e+002  7.1673e+000 38049 95312,95416,95390
 5.3000e+000 95465 -1.6410e+001 -1.5982e+002 -9.0317e+000 38049 95312,95364,95338
 5.3000e+000 95442 -1.4431e+001 -1.4507e+002  1.4210e+001 38049 95286,95416,95312
 5.3000e+000 95808 -5.0467e+001 -2.0094e+002 -5.3015e+000 37437 95831,95586,95560
 5.3000e+000 95785  2.0927e+001 -2.1032e+002 -8.9667e+000 37437 95831,95560,95534
 5.3000e+000 95762 -1.0250e+002 -1.9133e+002  6.7815e+000 37437 95586,95664,95638
 5.3000e+000 95739 -1.3700e+001 -9.5277e+001 -5.1692e+001 37437 95534,95690,95664
 5.3000e+000 95716 -9.7572e+001 -1.3742e+002  5.0714e+000 37437 95586,95638,95612
 5.3000e+000 95857 -9.6734e+001 -1.9405e+002  2.3677e+001 37437 95664,95586,95831
 5.3000e+000 95880 -2.1325e+001 -2.0145e+002  2.1067e+001 37437 95664,95831,95534
 5.3000e+000 96390 -7.0483e+001 -1.5222e+002 -9.2491e+000 36883 96413,96145,96093
 5.3000e+000 96367 -5.9008e+001 -1.4613e+002 -4.4565e+000 36883 96413,96093,96067
 5.3000e+000 96344 -4.2013e+001 -1.8002e+002 -4.8870e-001 36883 96067,96249,96171
 5.3000e+000 96321 -6.1708e+001 -1.7457e+002 -3.8420e+000 36883 96093,96145,96119
 5.3000e+000 96298 -8.6669e+001 -2.9369e+002  2.6832e+001 36883 96171,96249,96197
 5.3000e+000 96275 -2.3317e+001 -2.3644e+002 -2.9924e+000 36883 96197,96249,96223
 5.3000e+000 96439 -6.6249e+001 -1.4565e+002  7.3776e-001 36883 96171,96145,96413
 5.3000e+000 96462 -5.7361e+001 -1.4433e+002  4.6017e+000 36883 96171,96413,96067
 5.3000e+000 96781 -5.5227e+001 -1.7401e+002 -2.5570e+001 36215 96559,96663,96637
 5.3000e+000 96758 -7.0223e+001 -1.8675e+002 -3.1039e+001 36215 96507,96663,96559
 5.3000e+000 96735 -6.8181e+001 -1.2632e+002  1.3141e+001 36215 96585,96637,96611
 5.3000e+000 96712 -1.4607e+002 -2.0176e+002 -2.2301e+001 36215 96559,96637,96585
 5.3000e+000 96689 -2.7688e+001 -2.1057e+002 -6.6790e+000 36215 96507,96559,96533
 5.3000e+000 97161  2.9877e+000 -9.4089e+001 -4.1036e+000 35818 97184,96965,96939
 5.3000e+000 97138 -9.2785e+000 -1.0922e+002 -1.0325e+001 35818 97184,96939,96887
 5.3000e+000 97115 -5.6136e+000 -1.2109e+002  2.2088e+001 35818 96965,97043,97017
 5.3000e+000 97092 -4.4128e+000 -1.0268e+002 -1.2578e+001 35818 96887,96939,96913
 5.3000e+000 97069 -6.2811e+001 -1.2274e+002  1.4133e+001 35818 96965,97017,96991
 5.3000e+000 97210  1.6293e+001 -1.0721e+002  4.6306e+000 35818 97043,96965,97184
 5.3000e+000 97233  6.3378e+000 -1.1780e+002 -4.3329e-001 35818 97043,97184,96887
 5.3000e+000 97739 -5.6770e+001 -1.7267e+002 -4.2438e+001 35214 97416,97468,97442
 5.3000e+000 97716 -6.7445e+001 -1.2409e+002 -1.4073e+001 35214 97416,97598,97468
 5.3000e+000 97693 -5.6948e+001 -1.1581e+002 -5.5956e+000 35214 97762,97520,97468
 5.3000e+000 97670 -6.0152e+001 -1.1947e+002 -1.0637e+001 35214 97762,97468,97598
 5.3000e+000 97647 -4.5437e+001 -1.1466e+002 -1.7837e+001 35214 97546,97598,97572
 5.3000e+000 97624 -3.6507e+001 -1.1923e+002 -7.3955e+000 35214 97468,97520,97494
 5.3000e+000 97788 -5.8839e+001 -1.2199e+002 -8.7960e+000 35214 97546,97520,97762
 5.3000e+000 97811 -6.0139e+001 -1.2473e+002 -1.3454e+001 35214 97546,97762,97598
 5.3000e+000 98189 -6.8842e+000 -9.0063e+001 -9.8865e+000 34760 98356,98212,97967
 5.3000e+000 98166 -1.7476e+001 -1.0686e+002 -1.9043e+001 34760 98284,98212,97941
 5.3000e+000 98143 -3.6813e+001 -9.5437e+001 -1.0014e+001 34760 98284,97941,97915
 5.3000e+000 98120 -9.2470e+000 -1.2127e+002 -4.8469e+000 34760 98484,97993,97967
 5.3000e+000 98097 -8.0495e+000 -9.8997e+001 -3.6844e+000 34760 98556,98045,98019
 5.3000e+000 98238 -1.4500e+001 -1.1384e+002 -5.0062e+000 34760 98484,97967,98212
 5.3000e+000 98261  1.9529e+000 -1.0411e+002 -8.8726e+000 34760 98556,98019,98212
 5.3000e+000 98310 -2.0384e+000 -8.5409e+001 -2.5952e+001 34760 98071,98212,98284
 5.3000e+000 98333 -1.3738e+001 -5.6870e+001 -2.0551e+001 34760 98071,98284,97915
 5.3000e+000 98382 -5.4252e+001 -1.1993e+002 -2.3640e+001 34760 97941,98212,98356
 5.3000e+000 98510 -1.4219e+000 -1.1454e+002 -7.8144e+000 34760 98019,97993,98484
 5.3000e+000 98533 -9.6853e+000 -1.0959e+002 -7.0950e+000 34760 98019,98484,98212
 5.3000e+000 98582  4.4902e+000 -9.2239e+001 -9.0383e-001 34760 98071,98045,98556
 5.3000e+000 98605  8.6283e+000 -1.0086e+002 -7.3028e+000 34760 98071,98556,98212
 5.3000e+000 99032 -6.8070e+001 -1.5613e+002  2.3697e+001 34156 98735,98891,98839
 5.3000e+000 99009 -5.8137e+001 -1.6140e+002  1.1353e+001 34156 98709,98891,98735
 5.3000e+000 98986 -2.0085e+001 -1.3952e+002  2.1942e+001 34156 98735,98813,98787
 5.3000e+000 98963 -2.4552e+001 -1.5296e+002  1.9243e+001 34156 98735,98839,98813
 5.3000e+000 98940  1.0003e+001 -2.0901e+002  2.5149e+001 34156 98735,98787,98761
 5.3000e+000 98917 -6.2112e+001 -1.4075e+002  1.6097e+001 34156 98839,98891,98865
 5.3000e+000 99231 -1.7031e+001 -7.8684e+001  7.7213e+000 33766 99055,99133,99107
 5.3000e+000 99208 -3.3758e+001 -1.0593e+002  1.5731e+001 33766 99055,99159,99133
 5.3000e+000 99185 -8.7592e+000 -9.7004e+001  1.8884e+001 33766 99055,99107,99081
 5.3000e+000 99818 -3.5616e+001 -1.1179e+002  2.2854e+000 33248 99521,99651,99573
 5.3000e+000 99795 -3.4917e+001 -1.0646e+002  1.1093e+001 33248 99521,99677,99651
 5.3000e+000 99772 -5.6125e+001 -1.3873e+002 -7.5864e+000 33248 99573,99651,99599
 5.3000e+000 99749 -3.6626e+001 -1.3465e+002  1.2208e+001 33248 99495,99677,99521
 5.3000e+000 99726 -2.4216e+001 -1.1859e+002 -2.8541e+001 33248 99599,99651,99625
 5.3000e+000 99703 -4.5477e+001 -1.3650e+002  8.0332e+000 33248 99521,99573,99547
 5.3000e+000 100196 -4.1671e+001 -1.2733e+002 -2.3656e+001 32794 100219,99948,99922
 5.3000e+000 100173 -4.8448e+001 -1.4145e+002 -1.1087e+001 32794 100219,99922,100052
 5.3000e+000 100150 -6.3473e+001 -1.2780e+002  7.8381e+000 32794 99974,100052,100026
 5.3000e+000 100127 -5.9416e+001 -1.1499e+002 -1.8328e+001 32794 99922,100078,100052
 5.3000e+000 100104 -6.4816e+001 -1.5384e+002  2.8816e+001 32794 99974,100026,100000
 5.3000e+000 100245 -5.5873e+001 -1.2519e+002 -1.0013e+001 32794 99974,99948,100219
 5.3000e+000 100268 -5.9820e+001 -1.4386e+002  2.6753e+000 32794 99974,100219,100052
 5.3000e+000 100418 -9.8457e+000 -1.2231e+002 -1.3732e+001 32504 100571,100343,100317
 5.3000e+000 100395 -5.1211e+001 -1.4107e+002  1.2223e+001 32504 100571,100317,100441
 5.3000e+000 100467  3.4921e+001 -6.7233e+001 -3.8005e+001 32504 100291,100369,100441
 5.3000e+000 100597  8.4532e+000 -1.0262e+002 -4.6441e+001 32504 100369,100343,100571
 5.3000e+000 100620 -1.0261e+001 -9.5910e+001 -2.4016e+001 32504 100369,100571,100441
 5.3000e+000 101020 -1.3787e+001 -9.5073e+001  3.6525e+000 32142 100772,100902,100876
 5.3000e+000 100997 -9.4839e+000 -8.4243e+001  5.2369e+000 32142 100746,100902,100772
 5.3000e+000 100974  2.3840e+000 -1.0529e+002  1.4375e+001 32142 101043,100824,100798
 5.3000e+000 100951 -1.6754e+001 -1.1468e+002  1.0453e+001 32142 101043,100798,100772
 5.3000e+000 100928 -5.9417e+001 -1.3521e+002 -3.4583e+001 32142 101115,100876,100850
 5.3000e+000 101069  2.3007e+001 -1.1731e+002 -1.1299e+001 32142 100850,100824,101043
 5.3000e+000 101092 -2.7993e+001 -1.3986e+002 -1.6083e+001 32142 101115,100850,101043
 5.3000e+000 101141 -2.0508e+001 -1.1200e+002 -1.3079e+001 32142 100772,100876,101115
 5.3000e+000 101164  4.1298e+000 -1.1504e+002  7.0229e+000 32142 100772,101115,101043
 5.3000e+000 101719 -6.8007e+001 -1.6255e+002  2.1744e+001 31538 101742,101477,101399
 5.3000e+000 101696 -8.3578e+001 -1.9679e+002  5.3928e+000 31538 101814,101742,101399
 5.3000e+000 101673 -9.5764e+001 -1.6902e+002 -1.3091e+001 31538 101814,101399,101373
 5.3000e+000 101650 -6.8437e+001 -1.1694e+002  1.5432e+001 31538 101425,101477,101451
 5.3000e+000 101627 -6.3739e+001 -1.3783e+002  4.2341e+000 31538 101399,101477,101425
 5.3000e+000 101604 -3.9929e+001 -1.9816e+002  4.0163e+001 31538 101477,101529,101503
 5.3000e+000 101581 -2.5185e+001 -1.1316e+002 -9.9126e+000 31538 101347,101555,101373
 5.3000e+000 101768 -7.6865e+001 -1.9867e+002  2.0836e+001 31538 101529,101477,101742
 5.3000e+000 101791 -6.7648e+001 -2.0420e+002 -7.2369e+000 31538 101529,101742,101555
 5.3000e+000 101840 -5.2958e+001 -1.6861e+002 -7.5525e+000 31538 101555,101742,101814
 5.3000e+000 101863 -7.0706e+001 -1.4594e+002 -2.4490e+001 31538 101555,101814,101373
 5.3000e+000 102111 -1.0393e+002 -2.6277e+002  3.4681e+001 31112 101886,101990,101912
 5.3000e+000 102088 -3.8812e+001 -1.5841e+002  1.7077e+000 31112 101886,102016,101990
 5.3000e+000 102065 -4.6489e+001 -2.5052e+002  4.7821e+001 31112 101912,101990,101964
 5.3000e+000 102042 -7.1648e+001 -3.0449e+002  5.6828e+001 31112 101912,101964,101938
 5.3000e+000 102408 -2.5245e+001 -1.5635e+002  1.2845e+001 30658 102431,102186,102160
 5.3000e+000 102385 -5.3097e+001 -1.5419e+002 -2.1390e-001 30658 102431,102160,102264
 5.3000e+000 102362 -5.1329e+001 -1.7037e+002  2.4625e+000 30658 102186,102238,102212
 5.3000e+000 102339 -5.7773e+001 -1.6377e+002 -1.0137e+001 30658 102134,102264,102160
 5.3000e+000 102316 -4.0925e+001 -1.3756e+002 -4.6036e+001 30658 102134,102290,102264
 5.3000e+000 102457 -4.8312e+001 -1.6560e+002  6.7338e+000 30658 102238,102186,102431
 5.3000e+000 102480 -7.8091e+001 -1.6617e+002 -7.4794e+000 30658 102238,102431,102264
 5.3000e+000 102681 -2.0265e+001 -1.8735e+002  2.7314e+001 30004 102704,102557,102505
 5.3000e+000 102658 -2.4213e+001 -1.9055e+002  2.8710e+001 30004 102704,102505,102609
 5.3000e+000 102635  3.8720e+000 -1.5827e+002  7.1872e+000 30004 102505,102557,102531
 5.3000e+000 102730 -2.4104e+001 -1.8098e+002  2.4488e+001 30004 102583,102557,102704
 5.3000e+000 102753 -3.3358e+001 -1.8682e+002  2.7153e+001 30004 102583,102704,102609
 5.3000e+000 103003 -2.0777e+001 -1.5113e+002 -1.2574e+001 29564 103026,102804,102778
 5.3000e+000 102980 -2.7081e+001 -1.8101e+002 -1.9026e+001 29564 103026,102778,102908
 5.3000e+000 102957 -2.8927e+001 -1.5420e+002 -2.0900e+000 29564 102856,102908,102882
 5.3000e+000 102934 -4.1309e+001 -1.3682e+002  1.0144e+001 29564 102804,102856,102830
 5.3000e+000 103052 -1.8772e+001 -1.3652e+002  7.6139e+000 29564 102856,102804,103026
 5.3000e+000 103075 -2.7312e+001 -1.6076e+002 -1.6264e+000 29564 102856,103026,102908
 5.3000e+000 103634 -6.7350e+001 -1.7062e+002 -2.0583e+001 29160 103657,103418,103392
 5.3000e+000 103611 -6.3504e+001 -1.6335e+002 -9.7320e+000 29160 103657,103392,103314
 5.3000e+000 103588 -4.5928e+001 -1.4007e+002 -1.7550e+001 29160 103314,103392,103366
 5.3000e+000 103565 -3.9029e+001 -1.4823e+002 -2.0630e+001 29160 103314,103366,103340
 5.3000e+000 103542 -7.9010e+001 -1.5948e+002 -1.9359e+001 29160 103262,103444,103314
 5.3000e+000 103519 -9.5493e+001 -1.9189e+002 -2.8154e+001 29160 103262,103314,103288
 5.3000e+000 103496 -6.0141e+001 -1.7333e+002 -8.9796e+000 29160 103262,103470,103444
 5.3000e+000 103683 -8.4220e+001 -1.8428e+002 -3.3887e+001 29160 103444,103418,103657
 5.3000e+000 103706 -6.9798e+001 -1.6200e+002 -2.1285e+001 29160 103444,103657,103314
 5.3000e+000 104035 -4.5661e+001 -1.6377e+002  1.5585e+001 28770 103836,103914,103862
 5.3000e+000 104012 -4.3578e+001 -1.5583e+002  2.1003e+001 28770 103810,103914,103836
 5.3000e+000 103989  9.0855e+000 -1.4141e+002  2.5501e+001 28770 103810,103940,103914
 5.3000e+000 103966 -9.4992e+000 -1.3159e+002  3.1781e+001 28770 103862,103914,103888
 5.3000e+000 104185 -1.5442e+001 -1.4640e+002  2.7943e+001 28366 104208,104110,104084
 5.3000e+000 104162 -1.4553e+001 -1.2644e+002  2.1744e+001 28366 104280,104208,104084
 5.3000e+000 104234  3.0296e+001 -1.4731e+002  1.7378e+001 28366 104610,104208,104136
 5.3000e+000 104257 -2.6719e+001 -1.3929e+002  1.7512e+001 28366 104538,104410,104208
 5.3000e+000 104306 -4.6001e+001 -1.4150e+002  1.7294e+001 28366 104538,104208,104280
 5.3000e+000 104436 -8.8251e+000 -1.4768e+002  2.3490e+000 28366 104136,104208,104410
 5.3000e+000 104564 -4.6913e+001 -1.3775e+002  7.2175e+000 28366 104058,104410,104538
 5.3000e+000 104587 -5.8656e+001 -1.3541e+002  5.6171e+000 28366 104058,104538,104280
 5.3000e+000 104636  2.1777e+001 -1.4976e+002  2.2797e+001 28366 104110,104208,104610
 5.3000e+000 105349 -3.6022e+001 -1.3520e+002 -1.3612e+001 27976 105516,105372,105107
 5.3000e+000 105326 -5.7734e+001 -1.3749e+002  3.8470e+000 27976 105588,105372,105055
 5.3000e+000 105303 -6.2102e+001 -1.3356e+002 -1.4858e+001 27976 105444,105159,105133
 5.3000e+000 105280 -2.1040e+001 -1.3969e+002 -8.5545e+000 27976 105516,105107,105081
 5.3000e+000 105257 -5.3842e+001 -1.5213e+002  1.3046e+001 27976 105588,105055,105029
 5.3000e+000 105234 -2.8750e+001 -1.1554e+002  2.6838e+000 27976 105003,105185,105159
 5.3000e+000 105211 -4.0135e+001 -9.3101e+001  1.8420e+001 27976 104977,105185,105003
 5.3000e+000 105398 -2.9268e+001 -1.3830e+002 -1.7427e+001 27976 105133,105107,105372
 5.3000e+000 105421 -4.9149e+001 -1.4417e+002 -8.7081e+000 27976 105444,105133,105372
 5.3000e+000 105470 -5.0203e+001 -1.1573e+002 -7.9436e+000 27976 105003,105159,105444
 5.3000e+000 105493 -4.0831e+001 -1.2773e+002 -4.9846e+000 27976 105003,105444,105372
 5.3000e+000 105542 -2.6051e+001 -1.3488e+002 -6.8465e-001 27976 105055,105372,105516
 5.3000e+000 105565 -3.1960e+000 -1.3613e+002  2.7237e+000 27976 105055,105516,105081
 5.3000e+000 105614 -6.6050e+001 -1.5193e+002  1.0882e+001 27976 105003,105372,105588
 5.3000e+000 105637 -6.4325e+001 -1.6625e+002  2.0948e+001 27976 105003,105588,105029
 5.3000e+000 106143 -6.0513e+001 -2.0134e+002  1.2451e+001 27664 106166,105846,105820
 5.3000e+000 106120 -4.1175e+001 -1.5050e+002  5.7119e+000 27664 106310,106166,105820
 5.3000e+000 106097 -1.8887e+001 -1.8119e+002 -3.7670e+001 27664 106382,106238,105950
 5.3000e+000 106074 -2.7307e+001 -1.4621e+002  4.9538e+000 27664 106310,105820,106002
 5.3000e+000 106051  1.4692e+001 -1.6336e+002 -3.0917e+001 27664 106382,105950,105924
 5.3000e+000 106028 -6.9625e+000 -2.9212e+002 -9.4154e+000 27664 105846,105898,105872
 5.3000e+000 106192 -5.4121e+001 -2.2494e+002 -2.9899e+001 27664 105898,105846,106166
 5.3000e+000 106215 -3.2065e+001 -1.8749e+002 -1.2333e+001 27664 106238,105898,106166
 5.3000e+000 106264 -9.9054e+001 -2.0185e+002 -4.9677e+001 27664 105976,105950,106238
 5.3000e+000 106287 -3.2387e+001 -1.8494e+002 -1.3076e+001 27664 105976,106238,106166
 5.3000e+000 106336 -2.7038e+001 -1.6129e+002  1.9294e+001 27664 105976,106166,106310
 5.3000e+000 106359 -1.0841e+001 -1.5570e+002  1.7943e+001 27664 105976,106310,106002
 5.3000e+000 106408 -3.4314e+001 -1.5361e+002  6.3203e-002 27664 105898,106238,106382
 5.3000e+000 106431 -1.3779e+001 -1.4384e+002  3.8032e+000 27664 105898,106382,105924
 5.3000e+000 106728 -1.5784e+001 -1.0757e+002  2.0048e+001 27153 106751,106506,106454
 5.3000e+000 106705 -1.5361e+001 -1.0965e+002  1.6736e+001 27153 106751,106454,106610
 5.3000e+000 106682 -2.6636e+001 -8.1993e+001  3.9145e+000 27153 106454,106506,106480
 5.3000e+000 106659 -2.5268e+001 -1.0536e+002  1.1505e+001 27153 106532,106610,106584
 5.3000e+000 106636 -4.2276e+001 -6.1076e+001  2.3376e+001 27153 106532,106584,106558
 5.3000e+000 106777 -1.1672e+001 -1.0481e+002  2.1317e+001 27153 106532,106506,106751
 5.3000e+000 106800 -1.2493e+001 -1.0787e+002  1.7489e+001 27153 106532,106751,106610
 5.3000e+000 107180 -2.0074e+001 -1.3168e+002  8.1446e+000 26642 107203,106984,106958
 5.3000e+000 107157 -6.5532e+001 -1.5253e+002  1.7824e+000 26642 107203,106958,106932
 5.3000e+000 107134 -7.7476e+001 -1.6695e+002 -2.4942e+001 26642 107275,107036,107010
 5.3000e+000 107111 -4.9781e+001 -1.6440e+002 -3.1399e+001 26642 106932,107062,107036
 5.3000e+000 107088 -1.4300e+000 -1.2901e+002  1.4774e+001 26642 106906,107062,106932
 5.3000e+000 107229  2.2132e+000 -1.2368e+002 -4.0890e+001 26642 107010,106984,107203
 5.3000e+000 107252 -6.8345e+001 -1.5517e+002 -3.0014e+001 26642 107275,107010,107203
 5.3000e+000 107301 -6.6394e+001 -1.6516e+002 -3.1544e+001 26642 106932,107036,107275
 5.3000e+000 107324 -6.3079e+001 -1.6556e+002 -3.3201e+001 26642 106932,107275,107203
 5.3000e+000 107675 -3.7198e+001 -1.0163e+002  1.1246e+001 26045 107450,107554,107476
 5.3000e+000 107652 -2.9648e+001 -8.9330e+001  4.3662e+000 26045 107450,107580,107554
 5.3000e+000 107629 -1.4475e+001 -7.9259e+001  1.7964e+000 26045 107476,107528,107502
 5.3000e+000 107606 -9.1710e+000 -9.4621e+001  7.1014e+000 26045 107476,107554,107528
 5.3000e+000 107874 -2.5691e+001 -1.4958e+002  3.7831e+001 25641 107750,107802,107776
 5.3000e+000 107851 -3.1399e+001 -1.0476e+002  2.1157e+001 25641 107724,107802,107750
 5.3000e+000 107828 -3.3665e+001 -1.0671e+002  1.9743e+001 25641 107698,107802,107724
 5.3000e+000 108431 -1.2650e+001 -1.6280e+002  2.9719e+001 25023 108526,108267,108241
 5.3000e+000 108408 -9.1662e-002 -1.5412e+002  5.3570e+000 25023 108059,108267,108085
 5.3000e+000 108385 -2.2465e+001 -1.6775e+002  2.9499e+001 25023 108454,108163,108111
 5.3000e+000 108362 -7.5488e+001 -1.6871e+002  4.9994e+001 25023 108454,108111,108085
 5.3000e+000 108339 -5.9206e+001 -2.1833e+002  5.0911e+001 25023 108111,108163,108137
 5.3000e+000 108316 -3.9191e+001 -1.2099e+002 -7.8772e+000 25023 108163,108241,108215
 5.3000e+000 108293  1.4415e+001 -9.6745e+001 -2.4436e-001 25023 108163,108215,108189
 5.3000e+000 108480 -4.3278e+000 -1.4917e+002  2.3730e+000 25023 108241,108163,108454
 5.3000e+000 108503 -2.3761e+001 -1.5897e+002  2.8919e+001 25023 108526,108241,108454
 5.3000e+000 108552 -2.6002e+001 -1.6325e+002  2.3412e+001 25023 108085,108267,108526
 5.3000e+000 108575 -3.7736e+001 -1.6013e+002  2.2341e+001 25023 108085,108526,108454
 5.3000e+000 108823  4.1022e+000 -1.1775e+002  1.7521e+001 24461 108624,108728,108650
 5.3000e+000 108800 -1.6148e+001 -2.4807e+002 -1.7739e+001 24461 108598,108728,108624
 5.3000e+000 108777  1.1834e+000 -1.5585e+002  1.2561e+001 24461 108650,108728,108676
 5.3000e+000 108754 -6.6877e+001 -4.4074e+002  3.8436e+001 24461 108676,108728,108702
 5.3000e+000 109022 -4.3250e+001 -1.2185e+002  1.7544e+001 24121 108872,108924,108898
 5.3000e+000 108999 -2.9635e+001 -1.1974e+002  1.9941e+001 24121 108846,108924,108872
 5.3000e+000 108976 -5.0296e+001 -1.2864e+002  2.0854e+001 24121 108846,108950,108924
 5.3000e+000 109483 -5.0468e+001 -1.6793e+002 -1.6253e+001 23717 109209,109339,109235
 5.3000e+000 109460 -1.8959e+001 -1.9117e+002 -3.9262e+001 23717 109209,109365,109339
 5.3000e+000 109437 -4.1363e-001 -2.1379e+002 -1.2537e+001 23717 109287,109339,109313
 5.3000e+000 109414 -9.6064e+001 -2.1416e+002  1.2672e+001 23717 109235,109339,109287
 5.3000e+000 109391  5.4270e+000 -2.5072e+002  9.2958e+001 23717 109235,109287,109261
 5.3000e+000 109910 -6.7076e+001 -1.9718e+002 -2.0799e+001 23305 109613,109743,109717
 5.3000e+000 109887 -6.6399e+001 -1.9838e+002 -1.2631e+001 23305 109613,109769,109743
 5.3000e+000 109864 -8.0276e+001 -1.8975e+002 -1.8078e+001 23305 109613,109717,109639
 5.3000e+000 109841 -5.1725e+001 -1.8274e+002 -5.5636e+000 23305 109587,109769,109613
 5.3000e+000 109818  2.2066e+000 -1.5472e+002  1.3938e+001 23305 109639,109717,109691
 5.3000e+000 109795 -1.5834e+001 -1.2325e+002 -2.9921e+001 23305 109639,109691,109665
 5.3000e+000 110180 -3.6157e+000 -5.6258e+001 -1.2631e+001 22851 110007,110059,110033
 5.3000e+000 110157 -3.9708e+001 -1.5477e+002  7.3045e+000 22851 109981,110059,110007
 5.3000e+000 110134 -5.6430e+001 -1.6781e+002  1.0359e+000 22851 109955,110059,109981
 5.3000e+000 110111 -2.2627e+001 -1.8561e+002 -1.4278e+001 22851 109955,110085,110059
 5.3000e+000 110737 -1.9809e+001 -1.7226e+002 -4.7698e+001 22333 110760,110469,110391
 5.3000e+000 110714 -4.0109e+000 -1.9968e+002 -3.6790e+001 22333 110760,110391,110365
 5.3000e+000 110691 -1.4269e+001 -1.5507e+002 -3.8258e+001 22333 110832,110521,110469
 5.3000e+000 110668 -3.7488e+001 -3.0874e+002  2.3628e+001 22333 110417,110469,110443
 5.3000e+000 110645 -7.9488e+001 -2.7364e+002  1.3749e+001 22333 110391,110469,110417
 5.3000e+000 110622 -2.3288e+000 -1.5696e+002 -1.9184e+001 22333 110469,110521,110495
 5.3000e+000 110599 -1.2896e+001 -1.0941e+002  1.3880e+001 22333 110365,110573,110547
 5.3000e+000 110786 -9.2967e+000 -1.5942e+002 -4.3172e+001 22333 110832,110469,110760
 5.3000e+000 110809  1.3485e+001 -1.7294e+002 -2.9072e+001 22333 110547,110760,110365
 5.3000e+000 110858 -1.3854e+001 -1.6494e+002 -3.7371e+001 22333 110547,110521,110832
 5.3000e+000 110881 -1.3396e+001 -1.7448e+002 -4.3522e+001 22333 110547,110832,110760
 5.3000e+000 111308 -8.6552e+001 -2.0907e+002  1.4863e+001 21829 111331,111063,111011
 5.3000e+000 111285 -7.5823e+001 -1.9133e+002 -3.7763e+000 21829 111331,111011,111167
 5.3000e+000 111262 -8.9427e+001 -2.0869e+002  1.5895e+001 21829 111403,111089,111063
 5.3000e+000 111239 -1.1110e+002 -2.2465e+002  3.2901e+001 21829 111011,111063,111037
 5.3000e+000 111216 -4.9424e+001 -1.4032e+002  7.0005e+000 21829 110985,111167,111011
 5.3000e+000 111193 -1.0983e+002 -3.6020e+002  8.0794e+001 21829 111089,111141,111115
 5.3000e+000 111357 -8.6383e+001 -2.1135e+002  1.5826e+001 21829 111403,111063,111331
 5.3000e+000 111380 -8.9358e+001 -2.1884e+002  5.7814e-001 21829 111141,111331,111167
 5.3000e+000 111429 -9.6616e+001 -2.1262e+002  1.7546e+001 21829 111141,111089,111403
 5.3000e+000 111452 -9.0471e+001 -2.1443e+002  1.7223e+001 21829 111141,111403,111331
 5.3000e+000 112056  7.0451e+001 -1.5245e+002  4.9615e+000 21489 111687,111765,111739
 5.3000e+000 112033  2.1945e+001 -1.7631e+002  1.8427e+001 21489 112151,112079,111687
 5.3000e+000 112010  2.2705e+000 -2.7521e+002  1.5006e+001 21489 111791,111843,111817
 5.3000e+000 111987 -4.3463e+001 -2.2188e+002 -1.8182e+001 21489 112079,111843,111791
 5.3000e+000 111964  4.9689e+001 -1.6223e+002  3.4767e+001 21489 112151,111687,111661
 5.3000e+000 111941 -7.7490e+000 -1.1844e+002  2.7937e+001 21489 111661,111869,111843
 5.3000e+000 111918  7.1433e+001 -1.6533e+002  2.5892e+001 21489 111687,111739,111713
 5.3000e+000 111895  1.9690e+001 -5.4773e+001  8.2184e+000 21489 111635,111869,111661
 5.3000e+000 112105 -2.1209e+001 -1.9208e+002  1.0363e+001 21489 111765,111687,112079
 5.3000e+000 112128 -1.9545e+001 -1.8277e+002  1.0518e+001 21489 111765,112079,111791
 5.3000e+000 112177 -2.4521e+001 -1.7306e+002 -5.5569e+000 21489 111843,112079,112151
 5.3000e+000 112200  6.7081e-001 -1.6743e+002  7.7080e+000 21489 111843,112151,111661
 5.3000e+000 112578 -3.3636e+001 -2.2322e+002  1.0190e+001 21177 112382,112434,112408
 5.3000e+000 112555 -4.3502e+001 -2.1942e+002  2.0666e-001 21177 112330,112434,112382
 5.3000e+000 112532 -2.9591e+001 -1.8373e+002  3.6880e+001 21177 112304,112434,112330
 5.3000e+000 112509 -4.3907e+001 -2.1063e+002  0.0000e+000 21177 112330,112382,112356
 5.3000e+000 112486 -7.5543e+000 -1.0038e+002  5.6063e+000 21177 112304,112460,112434
 5.3000e+000 112679 -2.2758e+000 -1.2082e+002 -2.8770e+001 20666 112601,112653,112627
 5.3000e+000 112927 -6.6493e+001 -2.2351e+002  7.8447e+000 19762 112702,112754,112728
 5.3000e+000 112904 -2.4888e+001 -2.1387e+002 -2.0367e+000 19762 112702,112832,112754
 5.3000e+000 112881 -5.6169e+001 -2.2996e+002  3.6594e+001 19762 112754,112832,112806
 5.3000e+000 112858 -8.0137e+001 -2.9465e+002  3.7957e+001 19762 112754,112806,112780
 5.3000e+000 113297 -6.0932e+001 -2.7294e+002  1.7716e+001 19308 112974,113052,113026
 5.3000e+000 113274 -4.1217e+001 -2.2777e+002  6.1084e+000 19308 112974,113156,113052
 5.3000e+000 113251 -2.2395e+001 -3.0224e+002 -3.6505e+001 19308 113052,113130,113104
 5.3000e+000 113228 -4.5079e+001 -2.2739e+002 -1.4209e-001 19308 113052,113156,113130
 5.3000e+000 113205 -4.3200e+001 -2.6312e+002  0.0000e+000 19308 113052,113104,113078
 5.3000e+000 113182 -8.7812e+001 -2.8400e+002 -1.3186e+000 19308 112974,113026,113000
 5.3000e+000 113547 -2.9833e-001 -2.4445e+002 -1.7513e+001 18711 113570,113374,113348
 5.3000e+000 113524 -7.7172e+000 -2.2368e+002 -1.0645e+001 18711 113570,113348,113452
 5.3000e+000 113501  7.8963e-001 -1.6588e+002 -4.7077e+001 18711 113322,113452,113348
 5.3000e+000 113478 -2.2500e+001 -2.2090e+002 -8.2118e+001 18711 113374,113426,113400
 5.3000e+000 113596  2.1506e-001 -2.2152e+002 -2.2639e+001 18711 113426,113374,113570
 5.3000e+000 113619 -8.4684e+000 -2.0383e+002 -1.1417e+001 18711 113426,113570,113452
 5.3000e+000 113771 -1.2457e+002 -3.0817e+002 -1.6938e+001 18307 113670,113722,113696
 5.3000e+000 113748 -9.6671e+001 -2.9011e+002 -8.0309e+000 18307 113644,113722,113670
 5.3000e+000 113972 -5.4329e+001 -2.6114e+002  5.6720e+000 17945 113822,113874,113848
 5.3000e+000 113949 -5.4892e+001 -2.5987e+002  6.6166e+000 17945 113822,113900,113874
 5.3000e+000 113926 -7.6238e+001 -2.0558e+002  1.0912e+002 17945 113796,113900,113822
 5.3000e+000 114075 -3.5297e+001 -3.8091e+002  4.1981e+001 17482 113997,114049,114023
 5.3000e+000 114479 -1.4308e+001 -2.1207e+002 -3.2800e+001 17042 114257,114361,114335
 5.3000e+000 114456 -5.0089e+001 -2.0399e+002 -5.0900e+000 17042 114205,114361,114257
 5.3000e+000 114433 -5.5836e+001 -2.3631e+002  9.2944e+000 17042 114205,114257,114231
 5.3000e+000 114410  4.5680e+001 -3.1537e+002 -1.9404e+001 17042 114283,114335,114309
 5.3000e+000 114387 -2.1323e+000 -2.7246e+002 -1.3886e+001 17042 114257,114335,114283
 5.3000e+000 114879 -1.1741e+002 -2.1549e+002 -6.0305e-001 16638 114631,114683,114657
 5.3000e+000 114856 -2.2572e+001 -1.7560e+002  2.9374e+000 16638 114605,114683,114631
 5.3000e+000 114833  2.9996e+001 -9.6344e+001 -2.3554e+001 16638 114605,114761,114683
 5.3000e+000 114810 -8.1790e+000 -2.4205e+002 -1.1722e+001 16638 114683,114735,114709
 5.3000e+000 114787 -1.8261e+001 -2.5190e+002 -1.6869e+001 16638 114683,114761,114735
 5.3000e+000 115078 -1.0284e+002 -2.3363e+002  5.9319e+000 16232 114954,115006,114980
 5.3000e+000 115055 -1.0310e+002 -2.5896e+002  1.1520e+001 16232 114928,115006,114954
 5.3000e+000 115032 -4.9640e+001 -3.2048e+002  2.2135e+001 16232 114902,115006,114928
 5.3000e+000 115228 -5.7912e+001 -2.3239e+002  7.4244e+000 15482 115101,115153,115127
 5.3000e+000 115205 -5.5012e+001 -2.2052e+002 -3.1341e+000 15482 115101,115179,115153
 5.3000e+000 115331 -4.3820e+001 -2.1227e+002 -2.7299e+001 15163 115253,115305,115279
 5.3000e+000 115434 -7.3050e+001 -2.3251e+002  4.2253e+001 421 115356,115408,115382
 5.4000e+000 68213 -1.2509e+001 -1.1635e+002 -1.2263e+001 67888 68112,68164,68138
 5.4000e+000 68190 -1.4492e+002 -1.5603e+002 -2.0559e+001 67888 68086,68164,68112
 5.4000e+000 68314 -1.6584e+001 -1.6829e+002  1.6294e+001 67576 68236,68288,68262
 5.4000e+000 68584 -6.6912e+001 -3.1515e+002  1.5773e+001 67378 68385,68489,68463
 5.4000e+000 68561 -2.2860e+001 -2.9407e+002  8.8662e+000 67378 68359,68489,68385
 5.4000e+000 68538 -5.0288e+001 -2.6792e+002  2.2864e+001 67378 68385,68463,68411
 5.4000e+000 68515 -2.6489e+001 -1.7821e+002  1.4145e+001 67378 68411,68463,68437
 5.4000e+000 68964 -7.2503e+001 -2.8432e+002  4.2844e+001 67130 68690,68820,68716
 5.4000e+000 68941  5.3800e+001 -2.9574e+002  7.9449e+001 67130 68690,68846,68820
 5.4000e+000 68918 -6.6429e+001 -1.8837e+002  5.7242e+000 67130 68742,68820,68794
 5.4000e+000 68895 -1.6723e+001 -1.8683e+002  1.7685e+001 67130 68716,68820,68742
 5.4000e+000 68872 -4.4402e+001 -1.5785e+002 -1.9292e+001 67130 68742,68794,68768
 5.4000e+000 69065 -5.7609e+001 -1.6291e+002  3.0143e+000 66926 68987,69039,69013
 5.4000e+000 69445 -3.2886e+001 -1.4890e+002 -8.6350e+000 66614 69223,69301,69275
 5.4000e+000 69422 -5.1831e+001 -1.5954e+002 -3.5400e+000 66614 69171,69301,69223
 5.4000e+000 69399 -5.9778e+001 -1.6338e+002  2.1247e-001 66614 69171,69327,69301
 5.4000e+000 69376 -1.5809e+001 -7.4623e+001  1.1641e+000 66614 69223,69275,69249
 5.4000e+000 69353 -4.5287e+001 -1.6734e+002 -3.0920e+000 66614 69171,69223,69197
 5.4000e+000 69546 -5.5472e+001 -2.5672e+002  1.5159e+001 66416 69468,69520,69494
 5.4000e+000 69997 -5.2967e+001 -2.5886e+002 -1.9492e+001 66104 69700,69830,69726
 5.4000e+000 69974 -7.5334e+001 -3.1561e+002 -4.0975e+001 66104 69700,69856,69830
 5.4000e+000 69951 -5.6064e+001 -2.0037e+002 -1.4521e+001 66104 69726,69804,69778
 5.4000e+000 69928 -4.6154e+001 -2.4195e+002 -2.0198e+001 66104 69726,69830,69804
 5.4000e+000 69905 -5.8817e+001 -1.9064e+002 -6.8353e+000 66104 69726,69778,69752
 5.4000e+000 69882 -2.4066e+001 -4.3351e+002 -8.0593e+001 66104 69674,69856,69700
 5.4000e+000 70326 -4.7322e+001 -1.1881e+002  1.8434e+000 65814 70349,70153,70127
 5.4000e+000 70303 -2.8832e+001 -1.1633e+002  4.5962e+000 65814 70349,70127,70101
 5.4000e+000 70280 -2.6877e+001 -1.1091e+002  4.5380e+001 65814 70101,70231,70205
 5.4000e+000 70257  1.6119e+000 -1.3090e+002  1.5452e+001 65814 70153,70205,70179
 5.4000e+000 70375 -3.8825e+001 -1.2595e+002  1.6733e+001 65814 70205,70153,70349
 5.4000e+000 70398 -1.0359e+001 -1.1880e+002  1.7350e+001 65814 70205,70349,70101
 5.4000e+000 70904 -1.9780e+001 -6.2982e+001 -2.1178e+001 65502 70607,70737,70685
 5.4000e+000 70881 -2.8489e+001 -5.0604e+001 -2.7472e+001 65502 70581,70737,70607
 5.4000e+000 70858 -2.7400e+001 -1.1320e+001 -6.3074e+000 65502 70581,70763,70737
 5.4000e+000 70835 -2.9115e+001 -6.8816e+001 -2.8349e+001 65502 70685,70737,70711
 5.4000e+000 70812 -1.0835e+002 -8.3273e+001 -9.5597e-001 65502 70607,70659,70633
 5.4000e+000 70789 -3.3356e+001 -8.7614e+001  1.3708e+000 65502 70607,70685,70659
 5.4000e+000 71103 -2.9387e+001 -2.2331e+002 -6.8706e+000 65304 71126,70979,70953
 5.4000e+000 71080 -5.5985e+001 -2.2074e+002 -3.1291e+000 65304 71126,70953,70927
 5.4000e+000 71057 -7.9815e+001 -2.2777e+002  1.2294e+001 65304 70927,71031,71005
 5.4000e+000 71152 -5.5312e+001 -2.1355e+002 -1.4614e+001 65304 71005,70979,71126
 5.4000e+000 71175 -8.4318e+001 -2.1378e+002 -5.0480e+000 65304 71005,71126,70927
 5.4000e+000 71374 -3.7873e+001 -2.1351e+002  1.0641e+001 65106 71198,71276,71224
 5.4000e+000 71351 -6.3065e+001 -2.2705e+002  4.9932e+000 65106 71198,71302,71276
 5.4000e+000 71328 -2.6260e+001 -1.8201e+002  2.5844e+001 65106 71224,71276,71250
 5.4000e+000 71756 -2.8354e+001 -1.5028e+002 -1.0155e+001 64652 71508,71638,71534
 5.4000e+000 71733  1.9273e-001 -1.3818e+002  5.5402e-001 64652 71482,71638,71508
 5.4000e+000 71710 -5.8416e+001 -1.5344e+002 -1.3290e+001 64652 71534,71586,71560
 5.4000e+000 71687 -5.0415e+001 -1.6418e+002 -2.5417e+001 64652 71534,71612,71586
 5.4000e+000 71664 -7.2971e+001 -1.7073e+002 -2.6661e+001 64652 71534,71638,71612
 5.4000e+000 72085 -6.9883e+001 -1.6989e+002 -2.1748e+001 64248 71886,71964,71912
 5.4000e+000 72062 -5.6602e+001 -1.6584e+002 -2.1524e+001 64248 71860,71964,71886
 5.4000e+000 72039 -2.9649e+001 -1.8252e+002 -1.4869e+001 64248 71912,71964,71938
 5.4000e+000 72016 -5.8840e+001 -1.5748e+002 -2.1486e+001 64248 71860,71990,71964
 5.4000e+000 72235 -5.1190e+000 -1.0898e+002 -1.4094e+001 63858 72588,72258,72134
 5.4000e+000 72212 -2.7598e+001 -9.6477e+001  3.4760e+000 63858 72330,72258,72108
 5.4000e+000 72284 -1.9197e+001 -7.6646e+001 -9.7615e+000 63858 72160,72134,72258
 5.4000e+000 72307 -6.2410e+001 -1.0577e+002 -1.7533e+001 63858 72460,72258,72186
 5.4000e+000 72356 -5.1543e+001 -1.0158e+002 -1.7059e+001 63858 72186,72258,72330
 5.4000e+000 72486 -2.6284e+001 -1.0010e+002 -1.5638e+001 63858 72160,72258,72460
 5.4000e+000 72614 -1.2138e+001 -1.1699e+002 -2.4070e-001 63858 72108,72258,72588
 5.4000e+000 73248 -3.8499e+001 -1.8536e+002  4.1924e+001 63404 72902,72954,72928
 5.4000e+000 73225 -9.0736e+001 -1.8691e+002  1.8436e+001 63404 73271,72954,72902
 5.4000e+000 73202 -8.1284e+001 -1.5284e+002  1.5958e+001 63404 73271,72902,73032
 5.4000e+000 73179 -5.4752e+001 -1.3296e+002  4.6044e+000 63404 72902,73058,73032
 5.4000e+000 73156 -7.2552e+001 -1.7506e+002  5.7879e+000 63404 72980,73032,73006
 5.4000e+000 73133 -5.0670e+001 -1.3411e+002  4.1853e+000 63404 72876,73058,72902
 5.4000e+000 73110 -1.7483e+001 -6.4822e+001 -3.4332e+001 63404 72876,73084,73058
 5.4000e+000 73297 -7.8578e+001 -1.9172e+002 -2.3099e+000 63404 72980,72954,73271
 5.4000e+000 73320 -7.7650e+001 -1.7327e+002 -1.7529e+000 63404 72980,73271,73032
 5.4000e+000 73470 -6.4967e+001 -4.2606e+002  4.5233e+001 63014 73343,73395,73369
 5.4000e+000 73447 -2.0107e+002 -5.2163e+002 -9.6224e+000 63014 73343,73421,73395
 5.4000e+000 73929 -4.9684e+000 -1.9051e+002  1.3375e+001 62702 73759,73811,73785
 5.4000e+000 73906  6.5410e+000 -1.8522e+002  1.4099e+001 62702 73655,73811,73759
 5.4000e+000 73883 -2.5532e+001 -2.1273e+002 -5.8862e-001 62702 73655,73759,73681
 5.4000e+000 73860  1.3424e+000 -1.5814e+002 -3.2571e+001 62702 73681,73759,73707
 5.4000e+000 73837 -8.7751e+001 -1.8224e+002  3.2498e+000 62702 73707,73759,73733
 5.4000e+000 74209 -1.1662e+002 -1.8411e+002  1.4351e+000 62404 74059,74137,74085
 5.4000e+000 74186 -1.3601e+002 -2.3745e+002  2.6864e+001 62404 74033,74137,74059
 5.4000e+000 74163 -1.2164e+002 -1.6955e+002  1.2776e+000 62404 74085,74137,74111
 5.4000e+000 74408 -7.6763e+000 -1.6001e+002  8.9085e+000 62000 74258,74336,74284
 5.4000e+000 74385 -5.4363e+000 -1.5617e+002  1.7179e+001 62000 74232,74336,74258
 5.4000e+000 74362 -3.9784e+001 -1.6073e+002 -2.2238e+000 62000 74284,74336,74310
 5.4000e+000 74509 -1.4071e+001 -1.7827e+002  1.5987e+001 61802 74431,74483,74457
 5.4000e+000 74759 -6.2062e+001 -1.6141e+002  2.2157e+000 61554 74782,74586,74560
 5.4000e+000 74736 -4.1374e+001 -1.5073e+002  6.0720e+000 61554 74782,74560,74664
 5.4000e+000 74713 -5.5275e+001 -1.2269e+002  4.1716e+001 61554 74854,74612,74586
 5.4000e+000 74690 -5.0290e+001 -1.6278e+002  1.1264e+000 61554 74534,74664,74560
 5.4000e+000 74808 -7.3766e+001 -1.4995e+002  1.1891e+001 61554 74854,74586,74782
 5.4000e+000 74831 -4.7268e+001 -1.8743e+002  1.0012e+001 61554 74638,74782,74664
 5.4000e+000 74880 -1.6646e+001 -1.5098e+002  4.5232e+001 61554 74638,74612,74854
 5.4000e+000 74903 -1.7505e+001 -1.4875e+002  2.2958e+001 61554 74638,74854,74782
 5.4000e+000 75285 -2.6739e+001 -1.6266e+002  1.7615e+000 61356 75063,75167,75115
 5.4000e+000 75262 -3.4606e+001 -1.7203e+002 -9.3503e+000 61356 75037,75167,75063
 5.4000e+000 75239  8.0221e+000 -1.6873e+002 -8.8231e-001 61356 75115,75167,75141
 5.4000e+000 75216 -1.1035e+001 -1.5350e+002  5.5138e+000 61356 75063,75115,75089
 5.4000e+000 75193 -7.2187e+001 -1.3691e+002  1.0476e+001 61356 75011,75167,75037
 5.4000e+000 75631 -1.2480e+001 -1.3135e+002  4.9346e+000 60952 75654,75412,75360
 5.4000e+000 75608 -2.5732e+001 -1.5050e+002 -2.7218e+000 60952 75654,75360,75334
 5.4000e+000 75585 -2.5482e+001 -1.9304e+002  9.3993e+000 60952 75726,75438,75412
 5.4000e+000 75562 -1.9003e+001 -1.5179e+002 -2.4043e+001 60952 75308,75490,75334
 5.4000e+000 75539 -1.8951e+001 -1.3243e+002  8.8574e-001 60952 75360,75412,75386
 5.4000e+000 75516 -3.9263e+001 -2.3283e+002 -7.4702e+000 60952 75438,75490,75464
 5.4000e+000 75680 -1.1022e+001 -1.6084e+002  4.6729e+000 60952 75726,75412,75654
 5.4000e+000 75703 -1.2243e+001 -1.5184e+002 -5.0554e+000 60952 75490,75654,75334
 5.4000e+000 75752 -1.3742e+001 -1.5600e+002 -9.3420e-001 60952 75490,75438,75726
 5.4000e+000 75775 -1.4262e+001 -1.5346e+002 -5.8362e+000 60952 75490,75726,75654
 5.4000e+000 76155 -2.8845e+001 -1.5599e+002 -1.3367e-001 60754 75933,75985,75959
 5.4000e+000 76132 -4.3428e+001 -1.6514e+002  1.6358e+001 60754 75933,76037,75985
 5.4000e+000 76109  3.2373e-001 -1.6140e+002  5.2507e+000 60754 75985,76037,76011
 5.4000e+000 76086 -6.6058e+001 -1.4147e+002  3.7849e+000 60754 75881,76037,75933
 5.4000e+000 76063 -9.1622e+001 -1.2888e+002  3.4168e+001 60754 75881,75933,75907
 5.4000e+000 76612 -3.0019e+001 -1.4963e+002  7.3735e+000 60350 76635,76442,76390
 5.4000e+000 76589 -3.4698e+000 -1.7040e+002  1.3014e+001 60350 76635,76390,76364
 5.4000e+000 76566 -1.0540e+001 -2.1989e+002 -1.4681e+001 60350 76364,76494,76468
 5.4000e+000 76543 -2.3815e+000 -1.3631e+002  1.3222e+001 60350 76390,76442,76416
 5.4000e+000 76520 -7.9931e+001 -1.3956e+002 -3.4552e+001 60350 76338,76494,76364
 5.4000e+000 76661 -4.4219e+001 -1.6404e+002  1.3759e+001 60350 76468,76442,76635
 5.4000e+000 76684 -2.4611e+001 -1.8707e+002  2.1523e+001 60350 76468,76635,76364
 5.4000e+000 76932 -6.1036e+001 -1.7433e+002  8.2539e-001 59946 76955,76733,76707
 5.4000e+000 76909 -6.1763e+001 -1.7522e+002  4.3048e+000 59946 77027,76955,76707
 5.4000e+000 76886 -5.8863e+001 -1.7633e+002  3.3456e+000 59946 77027,76707,76837
 5.4000e+000 76863 -2.7963e+001 -1.8916e+002 -1.9110e+001 59946 76733,76785,76759
 5.4000e+000 76981 -6.9521e+001 -1.7554e+002 -2.3177e+000 59946 76785,76733,76955
 5.4000e+000 77004 -6.3197e+001 -1.6951e+002  2.6291e+000 59946 76785,76955,76811
 5.4000e+000 77053 -5.8092e+001 -1.7333e+002  4.9954e+000 59946 76811,76955,77027
 5.4000e+000 77076 -5.6404e+001 -1.7521e+002  3.6144e+000 59946 76811,77027,76837
 5.4000e+000 77226 -7.0637e+001 -1.8292e+002  4.8274e+000 59542 77099,77151,77125
 5.4000e+000 77203 -9.0962e+001 -2.2415e+002  1.1453e+001 59542 77099,77177,77151
 5.4000e+000 77427 -9.3774e+001 -1.9171e+002 -1.1770e+001 59030 77450,77277,77251
 5.4000e+000 77404 -5.9103e+001 -1.5688e+002 -5.1825e+001 59030 77450,77251,77355
 5.4000e+000 77381 -2.3061e+001 -2.2509e+002 -4.4423e+000 59030 77277,77329,77303
 5.4000e+000 77476 -5.1046e+001 -1.9881e+002 -3.4234e+001 59030 77329,77277,77450
 5.4000e+000 77499 -1.2550e+001 -1.8234e+002 -6.5926e+001 59030 77329,77450,77355
 5.4000e+000 77749 -7.6300e+001 -2.3993e+002  1.8789e+001 58426 77772,77628,77602
 5.4000e+000 77726 -4.9008e+001 -2.7614e+002  5.4435e+001 58426 77524,77654,77628
 5.4000e+000 77703 -6.3762e+001 -2.3667e+002  1.4051e+001 58426 77772,77602,77550
 5.4000e+000 77680 -3.8710e+001 -2.2241e+002 -9.9346e+000 58426 77550,77602,77576
 5.4000e+000 77798 -6.1616e+001 -2.4238e+002  1.8013e+001 58426 77524,77628,77772
 5.4000e+000 77821 -5.4754e+001 -2.4196e+002  1.1986e+001 58426 77524,77772,77550
 5.4000e+000 78071 -9.9416e+001 -2.1534e+002  2.3398e+001 57922 78094,77924,77898
 5.4000e+000 78048 -1.1446e+002 -2.1575e+002  3.3618e+000 57922 78094,77898,77872
 5.4000e+000 78025 -9.3008e+001 -1.9653e+002  2.1724e+001 57922 78166,77846,77950
 5.4000e+000 78002 -5.0193e+001 -1.9152e+002  2.4475e+001 57922 77846,77976,77950
 5.4000e+000 78120 -8.3171e+001 -2.1348e+002  1.6514e+001 57922 77950,77924,78094
 5.4000e+000 78143 -9.5343e+001 -1.9989e+002  1.6950e+001 57922 78166,77950,78094
 5.4000e+000 78192 -8.7834e+001 -2.0518e+002  1.5693e+001 57922 77872,77846,78166
 5.4000e+000 78215 -9.4940e+001 -2.1410e+002  1.0351e+001 57922 77872,78166,78094
 5.4000e+000 78416  1.7037e+001 -1.8301e+002 -8.7534e+000 57468 78439,78292,78240
 5.4000e+000 78393 -1.0849e+001 -1.7297e+002  3.6684e-001 57468 78439,78240,78344
 5.4000e+000 78370  5.3269e+000 -2.4715e+002 -5.7126e+000 57468 78240,78292,78266
 5.4000e+000 78465 -1.0081e+001 -1.9681e+002 -1.4775e+001 57468 78318,78292,78439
 5.4000e+000 78488 -2.1466e+001 -1.8015e+002 -2.9800e+000 57468 78318,78439,78344
 5.4000e+000 78689  1.6057e+001 -2.1837e+002 -2.4198e+001 57014 78712,78539,78513
 5.4000e+000 78666 -1.5732e+001 -2.1607e+002 -3.4880e+000 57014 78712,78513,78617
 5.4000e+000 78643 -5.0351e+001 -2.1906e+002  2.0975e+001 57014 78565,78617,78591
 5.4000e+000 78738 -2.4664e+001 -1.8577e+002 -2.4625e+001 57014 78565,78539,78712
 5.4000e+000 78761 -7.0793e+001 -2.1083e+002  8.7600e+000 57014 78565,78712,78617
 5.4000e+000 79241 -7.1079e+001 -1.9530e+002  1.5587e+001 56652 79264,78895,78869
 5.4000e+000 79218 -3.3448e+001 -2.5372e+002 -1.4995e+001 56652 79264,78869,79051
 5.4000e+000 79195 -5.0757e+001 -2.2173e+002 -5.1385e+001 56652 78869,79077,79051
 5.4000e+000 79172 -5.5710e+001 -1.3021e+002 -2.9205e+001 56652 78895,78973,78947
 5.4000e+000 79149 -9.2532e+001 -3.8034e+002 -3.1591e+001 56652 78973,79051,78999
 5.4000e+000 79126 -4.9556e+001 -1.2183e+002 -3.1955e+001 56652 78895,78947,78921
 5.4000e+000 79103 -7.1202e+001 -2.5184e+002  5.7431e+001 56652 78999,79051,79025
 5.4000e+000 79290 -4.2303e+001 -1.5872e+002  3.5715e+001 56652 78973,78895,79264
 5.4000e+000 79313 -2.0330e+000 -2.2132e+002  7.0257e+000 56652 78973,79264,79051
 5.4000e+000 79512 -2.2200e+001 -2.8546e+002  2.2057e+001 56062 79388,79440,79414
 5.4000e+000 79489 -1.0546e+002 -1.4727e+002  3.7650e+001 56062 79336,79440,79388
 5.4000e+000 79466 -3.6708e+001 -1.9232e+002  4.6467e+001 56062 79336,79388,79362
 5.4000e+000 79941 -3.0772e+001 -1.5264e+002  2.5155e+001 55658 79964,79670,79644
 5.4000e+000 79918 -4.6215e+001 -1.5525e+002  2.8180e+001 55658 79964,79644,79800
 5.4000e+000 79895 -4.3416e+001 -1.6345e+002  1.4872e+001 55658 80036,79696,79670
 5.4000e+000 79872 -5.0552e+001 -1.3735e+002 -1.1658e+000 55658 80108,79722,79696
 5.4000e+000 79849 -7.3952e+001 -1.3529e+002  9.0911e+000 55658 79722,79774,79748
 5.4000e+000 79826  5.3098e-001 -1.3899e+002  6.8714e+000 55658 79618,79800,79644
 5.4000e+000 79990 -4.7636e+001 -1.6437e+002  1.9472e+001 55658 80036,79670,79964
 5.4000e+000 80013 -4.1515e+001 -1.4445e+002  2.9963e+001 55658 79774,79964,79800
 5.4000e+000 80062 -3.6437e+001 -1.4827e+002  1.2387e+001 55658 80108,79696,80036
 5.4000e+000 80085 -4.7381e+001 -1.4642e+002  2.6416e+001 55658 79774,80036,79964
 5.4000e+000 80134 -7.8147e+001 -1.4907e+002  5.1150e+000 55658 79774,79722,80108
 5.4000e+000 80157 -7.0165e+001 -1.6347e+002  1.8634e+001 55658 79774,80108,80036
 5.4000e+000 80307 -9.0166e+001 -1.4852e+002  1.6119e+001 55254 80402,80330,80206
 5.4000e+000 80284 -8.7961e+001 -2.0704e+002  1.7371e+001 55254 80330,80180,80258
 5.4000e+000 80356 -1.0573e+002 -1.8384e+002  3.6283e+001 55254 80232,80206,80330
 5.4000e+000 80379 -3.3219e+001 -1.5110e+002  5.3456e+001 55254 80232,80330,80258
 5.4000e+000 80428 -1.1989e+002 -1.8456e+002  1.5703e+000 55254 80180,80330,80402
 5.4000e+000 80659 -4.2406e+001 -2.2012e+002 -1.7396e+001 54850 80558,80610,80584
 5.4000e+000 80636 -4.6753e+000 -2.1061e+002 -2.0860e+001 54850 80532,80610,80558
 5.4000e+000 80760 -1.2643e+001 -1.4709e+002 -1.0763e+001 54652 80682,80734,80708
 5.4000e+000 81164 -1.1097e+001 -1.5900e+002 -2.7676e+000 54248 81187,80942,80890
 5.4000e+000 81141 -1.5105e+001 -1.6099e+002 -1.2339e+000 54248 81187,80890,81046
 5.4000e+000 81118 -1.6866e+001 -1.6677e+002  3.4692e+001 54248 80942,81020,80994
 5.4000e+000 81095 -8.2501e+000 -1.5684e+002  9.4843e-001 54248 80890,80942,80916
 5.4000e+000 81072 -2.3059e+001 -9.2230e+001  5.1182e+000 54248 80942,80994,80968
 5.4000e+000 81213 -1.5384e+001 -1.5701e+002 -2.5620e+000 54248 81020,80942,81187
 5.4000e+000 81236 -1.8610e+001 -1.5799e+002 -1.5558e+000 54248 81020,81187,81046
 5.4000e+000 81663 -9.4016e+001 -1.7445e+002  1.5754e+001 53594 81340,81444,81366
 5.4000e+000 81640 -8.9160e+001 -2.5483e+002  6.9870e+000 53594 81340,81470,81444
 5.4000e+000 81617 -4.2219e+001 -2.2347e+002 -2.1017e+001 53594 81340,81522,81470
 5.4000e+000 81594 -5.2504e+001 -1.2607e+002 -1.3928e+001 53594 81392,81444,81418
 5.4000e+000 81571 -6.8965e+001 -1.5053e+002 -2.1857e+001 53594 81366,81444,81392
 5.4000e+000 81548  5.2324e-001 -3.0846e+002  3.7710e+001 53594 81470,81522,81496
 5.4000e+000 81943 -2.3552e+001 -1.1764e+002 -1.4306e+001 53104 81966,81845,81819
 5.4000e+000 81920 -3.5315e+001 -9.6545e+001 -1.7880e+001 53104 81966,81819,81767
 5.4000e+000 81897 -3.7074e+001 -9.9998e+001 -1.8843e+001 53104 81767,81819,81793
 5.4000e+000 81992 -1.5628e+001 -1.0451e+002 -1.7621e+001 53104 81871,81845,81966
 5.4000e+000 82015 -2.1569e+001 -7.4910e+001 -2.4011e+001 53104 81871,81966,81767
 5.4000e+000 82491 -2.5362e+001 -1.2165e+002 -1.2282e+001 52650 82145,82249,82171
 5.4000e+000 82468 -9.8903e+001 -1.4272e+002 -1.7236e+001 52650 82145,82301,82249
 5.4000e+000 82445 -1.0425e+002 -2.1662e+002 -3.6739e+001 52650 82249,82301,82275
 5.4000e+000 82422 -5.4836e+001 -2.7332e+002 -4.9533e+001 52650 82119,82301,82145
 5.4000e+000 82399 -3.4162e+001 -9.5961e+001  1.1138e+001 52650 82171,82249,82223
 5.4000e+000 82376  4.7894e+000 -2.5055e+002 -2.9703e+001 52650 82119,82327,82301
 5.4000e+000 82353 -9.4570e+000 -4.9168e+001 -2.0212e+001 52650 82171,82223,82197
 5.4000e+000 82739 -3.1478e+001 -1.0908e+002  1.8326e+000 52246 82762,82540,82514
 5.4000e+000 82716 -2.1087e+001 -4.5136e+001 -8.6303e+000 52246 82762,82514,82644
 5.4000e+000 82693 -5.3309e+001 -1.2390e+002  2.6587e+001 52246 82540,82618,82592
 5.4000e+000 82670 -6.2009e+001 -1.1360e+002  1.8484e+001 52246 82540,82592,82566
 5.4000e+000 82788 -2.0843e+001 -1.3945e+002  8.2566e+000 52246 82618,82540,82762
 5.4000e+000 82811 -3.7665e+001 -1.1939e+002 -1.0069e+001 52246 82618,82762,82644
 5.4000e+000 83059 -1.7359e+001 -1.5788e+002  1.4663e+001 51578 82860,82964,82938
 5.4000e+000 83036 -5.5453e-001 -1.0683e+002 -3.4985e+001 51578 82834,82964,82860
 5.4000e+000 83013 -7.8094e+000 -1.2233e+002  3.1719e+001 51578 82860,82938,82886
 5.4000e+000 82990 -6.1885e+000 -8.1033e+001  6.3515e+000 51578 82886,82938,82912
 5.4000e+000 83309 -2.9960e+001 -8.7902e+001  2.6164e+001 51138 83332,83162,83136
 5.4000e+000 83286 -1.0648e+001 -1.1665e+002  8.1133e+000 51138 83332,83136,83110
 5.4000e+000 83263 -4.4080e+001 -1.2036e+002 -6.0946e+000 51138 83404,83214,83188
 5.4000e+000 83240 -5.9670e-001 -7.1857e+001  6.6389e+000 51138 83084,83214,83110
 5.4000e+000 83358 -5.0236e+001 -1.2409e+002  3.5973e+001 51138 83188,83162,83332
 5.4000e+000 83381 -3.0909e+001 -1.3419e+002  6.7915e+000 51138 83404,83188,83332
 5.4000e+000 83430 -2.7439e+001 -8.5249e+001 -9.8222e-001 51138 83110,83214,83404
 5.4000e+000 83453 -1.7080e+001 -1.0684e+002  1.1523e+001 51138 83110,83404,83332
 5.4000e+000 83835 -2.8652e+001 -1.5122e+002 -1.2429e+000 50734 83613,83717,83691
 5.4000e+000 83812 -3.2872e+001 -1.6543e+002 -3.1496e+001 50734 83561,83717,83613
 5.4000e+000 83789 -1.7648e+001 -8.3927e+001 -4.6473e+001 50734 83561,83613,83587
 5.4000e+000 83766 -5.8526e+001 -1.0354e+002 -3.8809e-001 50734 83613,83691,83639
 5.4000e+000 83743 -6.2237e+001 -1.0449e+002  2.2310e+001 50734 83639,83691,83665
 5.4000e+000 84034 -3.8668e+001 -9.3766e+001  5.5813e+000 50230 84057,83884,83858
 5.4000e+000 84011 -3.8311e+001 -1.0157e+002 -8.8027e+000 50230 84129,84057,83858
 5.4000e+000 83988 -1.1886e+001 -1.0917e+002 -1.5407e+001 50230 84129,83858,83962
 5.4000e+000 84083 -1.9723e+001 -8.5664e+001  4.9209e+000 50230 83910,83884,84057
 5.4000e+000 84106 -2.4473e+001 -9.2103e+001  1.6576e+000 50230 83910,84057,83936
 5.4000e+000 84155 -3.9814e+000 -8.5468e+001 -9.7207e-001 50230 83936,84057,84129
 5.4000e+000 84178  6.0438e+000 -1.0476e+002 -1.1455e+001 50230 83936,84129,83962
 5.4000e+000 84558 -4.3299e+001 -1.2621e+002 -2.0376e+001 49768 84581,84388,84362
 5.4000e+000 84535 -8.9313e+001 -1.2867e+002 -8.1442e+000 49768 84581,84362,84310
 5.4000e+000 84512  2.9578e+000 -1.3923e+002 -2.2454e+001 49768 84653,84440,84414
 5.4000e+000 84489 -7.0146e+001 -1.4078e+002  1.0659e+001 49768 84310,84362,84336
 5.4000e+000 84466 -2.5787e+000 -1.0084e+002  1.5462e+001 49768 84284,84440,84310
 5.4000e+000 84607 -1.2633e+001 -1.0820e+002 -3.4608e+001 49768 84414,84388,84581
 5.4000e+000 84630 -1.5520e+001 -1.3034e+002 -1.5793e+001 49768 84653,84414,84581
 5.4000e+000 84679 -2.1984e+001 -1.3128e+002 -3.0817e+001 49768 84310,84440,84653
 5.4000e+000 84702 -4.8445e+001 -1.3138e+002 -3.1357e+001 49768 84310,84653,84581
 5.4000e+000 85159 -7.0661e+001 -1.7796e+002 -5.0711e+001 49192 84885,84937,84911
 5.4000e+000 85136 -6.9532e+001 -1.3616e+002 -3.5920e+001 49192 84885,85041,84937
 5.4000e+000 85113 -4.7442e+001 -1.1577e+002 -1.6683e+001 49192 84963,85041,84989
 5.4000e+000 85090 -4.0688e+001 -1.0284e+002 -2.2831e+001 49192 84937,85041,84963
 5.4000e+000 85067 -4.0311e+001 -1.0918e+002 -2.0726e+001 49192 84989,85041,85015
 5.4000e+000 85714 -7.1901e+001 -1.1678e+002 -2.0298e-001 48638 85368,85498,85394
 5.4000e+000 85691 -8.9900e+001 -1.3715e+002  7.7092e+000 48638 85368,85524,85498
 5.4000e+000 85668 -8.3683e+001 -1.1361e+002  3.2474e+001 48638 85737,85420,85394
 5.4000e+000 85645 -6.9335e+001 -1.2849e+002  1.6574e+001 48638 85737,85394,85498
 5.4000e+000 85622 -5.4017e+001 -1.2945e+002  2.6884e+001 48638 85446,85498,85472
 5.4000e+000 85599 -2.3277e+001 -1.1140e+002  1.2672e+001 48638 85342,85524,85368
 5.4000e+000 85576 -8.8404e+001 -1.2691e+002  1.2693e+001 48638 85342,85550,85524
 5.4000e+000 85763 -5.8641e+001 -1.0057e+002  4.1852e+001 48638 85446,85420,85737
 5.4000e+000 85786 -5.9156e+001 -1.1655e+002  2.3862e+001 48638 85446,85737,85498
 5.4000e+000 86371 -6.1563e+001 -8.6506e+001 -4.8227e+000 48084 86100,86230,86178
 5.4000e+000 86348 -7.7376e+001 -1.1422e+002 -1.2950e+001 48084 86048,86230,86100
 5.4000e+000 86325 -5.7105e+001 -7.8298e+001  2.2784e+001 48084 86100,86178,86126
 5.4000e+000 86302 -4.1475e+001 -2.9677e+001 -2.3734e+001 48084 86048,86100,86074
 5.4000e+000 86279 -7.7127e+001 -1.4270e+002 -2.7648e+000 48084 86178,86230,86204
 5.4000e+000 86256 -5.1481e+001 -8.3703e+001  2.3065e+001 48084 86126,86178,86152
 5.4000e+000 86619 -4.2226e+001 -9.5933e+001  9.3889e+000 47630 86642,86446,86420
 5.4000e+000 86596 -5.1446e+001 -1.0739e+002 -1.2454e+001 47630 86642,86420,86394
 5.4000e+000 86573 -6.8286e+001 -1.2299e+002 -1.8468e+001 47630 86394,86524,86498
 5.4000e+000 86550 -2.9080e+001 -1.0882e+002  8.4232e+000 47630 86446,86498,86472
 5.4000e+000 86668 -5.3458e+001 -1.2091e+002  1.1706e+000 47630 86498,86446,86642
 5.4000e+000 86691 -5.8200e+001 -1.2471e+002 -2.0224e+001 47630 86498,86642,86394
 5.4000e+000 87022 -6.0703e+000 -6.8187e+001 -3.9658e+001 47226 87045,86875,86849
 5.4000e+000 86999 -2.9689e+000 -7.6793e+001 -3.7481e+001 47226 87045,86849,86797
 5.4000e+000 86976  2.3492e-002 -3.5060e+001 -1.0682e+001 47226 86797,86849,86823
 5.4000e+000 86953  1.5373e+000 -4.8383e+001 -2.1384e+001 47226 86875,86927,86901
 5.4000e+000 87071 -1.1117e+001 -7.4423e+001 -3.7478e+001 47226 86927,86875,87045
 5.4000e+000 87094 -5.7408e+000 -8.0302e+001 -3.6247e+001 47226 86927,87045,86797
 5.4000e+000 87244 -9.0731e+000 -1.3911e+002  3.7780e+001 46814 87267,87169,87143
 5.4000e+000 87221 -6.7136e+001 -1.2567e+002 -7.1627e+000 46814 87267,87143,87117
 5.4000e+000 87293 -6.9686e+000 -1.0203e+002  2.3742e+001 46814 87339,87267,87195
 5.4000e+000 87316 -2.2968e+000 -9.7882e+001  1.7981e+000 46814 87469,87267,87117
 5.4000e+000 87365 -3.4273e+000 -9.8489e+001  2.8502e+001 46814 87169,87267,87339
 5.4000e+000 87495 -4.0655e-001 -6.6881e+000 -1.9683e+000 46814 87195,87267,87469
 5.4000e+000 88001 -4.0594e+001 -9.3202e+001  2.5169e+001 46310 88024,87834,87808
 5.4000e+000 87978 -4.9805e+001 -9.5206e+001  1.5104e+001 46310 88024,87808,87756
 5.4000e+000 87955 -2.5504e+001 -1.2567e+002  6.8986e+000 46310 88096,87730,87860
 5.4000e+000 87932 -3.6919e+001 -1.2217e+002  1.5791e+001 46310 87756,87808,87782
 5.4000e+000 87909 -3.3096e+001 -1.4884e+002  5.6425e+000 46310 87678,87860,87730
 5.4000e+000 87886 -5.1770e+001 -2.4614e+002 -1.2999e+001 46310 87678,87730,87704
 5.4000e+000 88050 -3.5031e+001 -8.1317e+001  1.5788e+001 46310 87860,87834,88024
 5.4000e+000 88073 -2.6252e+001 -8.9346e+001  1.8465e+001 46310 88096,87860,88024
 5.4000e+000 88122 -3.3700e+001 -1.4285e+002 -5.4053e+000 46310 87756,87730,88096
 5.4000e+000 88145 -5.6930e+001 -1.2847e+002  1.0878e+000 46310 87756,88096,88024
 5.4000e+000 88572 -2.8223e+001 -1.2643e+002  8.4725e+000 45856 88249,88405,88275
 5.4000e+000 88549 -2.4449e+001 -4.0376e+001 -2.4423e+001 45856 88249,88431,88405
 5.4000e+000 88526 -6.6023e+001 -1.7977e+002 -2.4235e+001 45856 88327,88405,88353
 5.4000e+000 88503 -2.9303e+001 -1.5381e+002 -1.0379e+001 45856 88275,88405,88327
 5.4000e+000 88480 -5.5753e+001 -1.6140e+002 -3.1340e+001 45856 88353,88405,88379
 5.4000e+000 88457 -1.2180e+002 -3.3173e+002  2.7338e+001 45856 88275,88327,88301
 5.4000e+000 88950 -2.0328e+001 -7.5695e+001 -2.3638e+000 45658 88973,88754,88728
 5.4000e+000 88927 -1.7053e+001 -7.2908e+001 -1.1243e+000 45658 88973,88728,88676
 5.4000e+000 88904 -2.2656e+001 -8.6315e+001  3.0213e+001 45658 88676,88832,88806
 5.4000e+000 88881 -3.4648e+001 -1.0767e+002  9.8148e+000 45658 88676,88728,88702
 5.4000e+000 88858 -3.3104e+001 -7.2615e+001 -1.7624e+001 45658 88754,88806,88780
 5.4000e+000 88999 -2.2262e+001 -7.2126e+001 -1.1039e+000 45658 88806,88754,88973
 5.4000e+000 89022 -2.0153e+001 -7.0629e+001 -4.4146e-001 45658 88806,88973,88676
 5.4000e+000 89351 -3.7436e+001 -1.2698e+002 -6.0193e+000 45254 89152,89230,89204
 5.4000e+000 89328 -3.6138e+001 -1.2662e+002 -6.6536e+000 45254 89152,89256,89230
 5.4000e+000 89305 -1.2959e+001 -1.3430e+002 -1.7202e+001 45254 89126,89256,89152
 5.4000e+000 89282  8.6118e-001 -1.2662e+002 -2.2421e+001 45254 89152,89204,89178
 5.4000e+000 89523 -1.4452e+001 -8.9328e+001 -4.8866e-002 45006 89422,89474,89448
 5.4000e+000 89500 -9.8508e+000 -8.7386e+001  3.6249e+000 45006 89396,89474,89422
 5.4000e+000 89673 -1.0281e+002 -1.8148e+002  1.5670e+001 44495 89572,89624,89598
 5.4000e+000 89650 -1.0603e+002 -1.8352e+002  1.0338e+001 44495 89546,89624,89572
 5.4000e+000 90104 -1.1129e+001 -1.3650e+002 -7.7791e+000 44005 90199,90127,89937
 5.4000e+000 90081 -2.7722e+001 -1.3352e+002  1.6683e+000 44005 90271,90127,89859
 5.4000e+000 90058 -3.1701e+000 -1.4012e+002 -8.1183e+000 44005 90199,89937,89885
 5.4000e+000 90035 -3.8179e+001 -1.2563e+002  7.6790e+000 44005 90271,89859,89807
 5.4000e+000 90012 -1.9861e+001 -1.5493e+002 -1.7672e+001 44005 89885,89937,89911
 5.4000e+000 89989 -9.8293e+000 -1.3333e+002  2.2017e+001 44005 89807,89859,89833
 5.4000e+000 90153 -2.9041e+001 -1.4300e+002 -5.1288e+000 44005 89963,89937,90127
 5.4000e+000 90176 -3.1436e+001 -1.5412e+002  2.9779e+000 44005 89963,90127,89781
 5.4000e+000 90225 -3.0718e+001 -1.3509e+002 -3.1859e+000 44005 89859,90127,90199
 5.4000e+000 90248 -1.3560e+001 -1.3259e+002  2.6968e-003 44005 89859,90199,89885
 5.4000e+000 90297 -4.1805e+001 -1.4283e+002 -2.5602e+000 44005 89781,90127,90271
 5.4000e+000 90320 -4.7795e+001 -1.3266e+002  4.4518e+000 44005 89781,90271,89807
 5.4000e+000 90470 -2.1290e+001 -1.4274e+002 -4.0108e+000 43601 90493,90369,90343
 5.4000e+000 90447 -3.7642e+001 -1.1462e+002  9.7911e+000 43601 90493,90343,90421
 5.4000e+000 90519 -4.6275e+001 -1.9398e+002 -2.1938e+001 43601 90395,90369,90493
 5.4000e+000 90542 -3.6803e+001 -1.3500e+002 -4.3002e+000 43601 90395,90493,90421
 5.4000e+000 90922 -4.6976e+001 -1.5254e+002  8.7755e+000 43154 90945,90700,90674
 5.4000e+000 90899 -4.0912e+001 -1.5534e+002 -1.8285e+001 43154 90945,90674,90648
 5.4000e+000 90876 -5.0614e+001 -1.1917e+002 -1.2006e+001 43154 90648,90778,90752
 5.4000e+000 90853 -2.6557e+001 -2.4388e+002  7.1698e+000 43154 90700,90752,90726
 5.4000e+000 90830 -3.2449e+001 -1.1964e+002 -6.2029e+000 43154 90648,90804,90778
 5.4000e+000 90971 -5.4567e+001 -1.7620e+002  1.3651e+001 43154 90752,90700,90945
 5.4000e+000 90994 -4.6721e+001 -1.6971e+002 -1.2697e+001 43154 90752,90945,90648
 5.4000e+000 91451 -1.5224e+001 -1.2175e+002 -2.3119e+001 42650 91203,91255,91229
 5.4000e+000 91428  1.0999e+001 -1.1035e+002 -1.0582e+001 42650 91203,91333,91255
 5.4000e+000 91405 -1.9252e+000 -1.7715e+002 -3.0076e+001 42650 91177,91333,91203
 5.4000e+000 91382 -5.5853e+001 -1.9065e+002  2.4265e+001 42650 91255,91333,91281
 5.4000e+000 91359 -1.2038e+001 -1.5970e+002  8.2453e+000 42650 91281,91333,91307
 5.4000e+000 91721 -8.1557e+001 -1.8167e+002  1.3180e+001 42288 91496,91600,91522
 5.4000e+000 91698 -4.3967e+001 -1.0498e+002 -4.7405e+000 42288 91496,91626,91600
 5.4000e+000 91675 -4.9090e+001 -1.6203e+002  1.4282e+001 42288 91522,91574,91548
 5.4000e+000 91652 -4.1427e+001 -1.6606e+002  1.3776e+001 42288 91522,91600,91574
 5.4000e+000 92199 -1.2162e+002 -1.9690e+002 -5.4858e+000 41898 92222,91983,91879
 5.4000e+000 92176 -1.2508e+002 -2.1742e+002 -1.3652e+001 41898 92294,92222,91879
 5.4000e+000 92153 -1.3273e+002 -2.1456e+002 -1.9227e+001 41898 92294,91879,91853
 5.4000e+000 92130 -1.0582e+002 -1.1939e+002  1.3407e+001 41898 91879,91957,91931
 5.4000e+000 92107 -1.0811e+002 -1.9168e+002 -9.7516e-001 41898 91879,91983,91957
 5.4000e+000 92084 -1.1882e+002 -1.1296e+002  2.7512e+001 41898 91879,91931,91905
 5.4000e+000 92061 -1.1696e+002 -1.9412e+002 -1.5740e+001 41898 91827,92035,91853
 5.4000e+000 92248 -1.1970e+002 -2.2225e+002 -1.9726e-001 41898 92009,91983,92222
 5.4000e+000 92271 -1.1687e+002 -2.2688e+002 -1.7858e+001 41898 92009,92222,92035
 5.4000e+000 92320 -1.1233e+002 -2.1257e+002 -1.4310e+001 41898 92035,92222,92294
 5.4000e+000 92343 -1.1791e+002 -2.0852e+002 -1.9516e+001 41898 92035,92294,91853
 5.4000e+000 92770 -3.5103e+001 -1.6729e+002 -1.2702e+001 41437 92865,92793,92525
 5.4000e+000 92747 -4.9700e+001 -1.9211e+002 -1.7417e+001 41437 92793,92473,92629
 5.4000e+000 92724 -1.4252e+001 -1.7332e+002 -2.3984e+001 41437 92865,92525,92499
 5.4000e+000 92701 -5.7321e+001 -1.4715e+002 -2.7875e+001 41437 92525,92603,92577
 5.4000e+000 92678  2.7921e+000 -1.8621e+002 -1.5634e+001 41437 92447,92629,92473
 5.4000e+000 92655 -8.7702e+001 -1.3002e+002 -1.6252e+001 41437 92525,92577,92551
 5.4000e+000 92819 -3.9890e+001 -1.7821e+002 -2.7525e+001 41437 92603,92525,92793
 5.4000e+000 92842 -7.9610e+001 -1.9193e+002 -4.9881e+001 41437 92603,92793,92629
 5.4000e+000 92891  5.2941e+000 -1.8081e+002 -1.5606e+001 41437 92473,92793,92865
 5.4000e+000 92914  3.4984e+001 -1.7507e+002 -3.1836e+001 41437 92473,92865,92499
 5.4000e+000 93243 -3.0850e+001 -2.5909e+002  9.4442e+001 41097 93044,93096,93070
 5.4000e+000 93220 -5.3115e+001 -2.3003e+002  5.0616e+001 41097 93044,93122,93096
 5.4000e+000 93197  1.1278e+001 -1.5204e+002  1.9541e+001 41097 93044,93148,93122
 5.4000e+000 93174 -4.7148e+001 -1.1392e+002  4.8436e+001 41097 93018,93148,93044
 5.4000e+000 93393 -4.3353e+000 -1.9071e+002  1.3382e+001 40643 93416,93292,93344
 5.4000e+000 93370 -8.8270e+000 -1.7669e+002  1.4926e+001 40643 93266,93344,93292
 5.4000e+000 93442 -5.7967e+000 -1.8729e+002  1.9379e+001 40643 93318,93292,93416
 5.4000e+000 93901 -5.7292e+001 -1.7349e+002 -1.1923e+001 40132 93924,93731,93705
 5.4000e+000 93878 -5.9936e+001 -1.7762e+002 -1.3147e+001 40132 93996,93924,93705
 5.4000e+000 93855 -7.0521e+001 -2.0352e+002 -4.7131e+000 40132 93996,93705,93653
 5.4000e+000 93832 -3.0879e+001 -1.9703e+002 -1.0958e+001 40132 93653,93705,93679
 5.4000e+000 93809 -5.6460e+001 -1.7006e+002  3.8213e-001 40132 93627,93783,93757
 5.4000e+000 93950 -5.4528e+001 -1.8288e+002 -1.4384e+001 40132 93757,93731,93924
 5.4000e+000 93973 -6.2282e+001 -1.6305e+002 -4.0199e+000 40132 93757,93924,93627
 5.4000e+000 94022 -7.9287e+001 -1.9396e+002  5.4245e+000 40132 93627,93924,93996
 5.4000e+000 94045 -7.3661e+001 -2.0290e+002  1.1631e+001 40132 93627,93996,93653
 5.4000e+000 94423 -1.2898e+001 -2.0654e+002 -2.9283e+001 39514 94149,94227,94175
 5.4000e+000 94400 -2.1515e+001 -1.9348e+002  2.1834e+001 39514 94149,94305,94227
 5.4000e+000 94377  4.7116e+000 -2.4219e+002 -2.8377e+001 39514 94175,94227,94201
 5.4000e+000 94354 -5.9650e+001 -1.8106e+002  9.5117e+000 39514 94227,94305,94279
 5.4000e+000 94331 -2.4391e+001 -1.6465e+002  1.7761e+001 39514 94227,94279,94253
 5.4000e+000 94573 -1.6593e+001 -1.1614e+002 -2.3338e+001 38822 94596,94498,94472
 5.4000e+000 94550  2.2058e+001 -1.2361e+002  2.6822e+001 38822 94596,94472,94446
 5.4000e+000 94622 -6.1035e+001 -1.3501e+002 -2.5532e+001 38822 94524,94498,94596
 5.4000e+000 94645 -5.1627e+001 -1.5467e+002  2.9691e+001 38822 94524,94596,94446
 5.4000e+000 95025 -1.0588e+001 -1.4806e+002 -1.0964e+001 38418 95048,94829,94777
 5.4000e+000 95002 -1.4638e+001 -1.5583e+002 -1.8469e+001 38418 95120,95048,94777
 5.4000e+000 94979 -1.0501e+001 -1.5533e+002 -1.7255e+001 38418 95120,94777,94751
 5.4000e+000 94956 -8.4695e+000 -1.3991e+002 -1.9901e+001 38418 95192,94881,94855
 5.4000e+000 94933 -4.4679e+001 -1.2693e+002 -8.0623e+000 38418 94777,94829,94803
 5.4000e+000 95074 -2.5865e+001 -1.9425e+002 -4.2008e+000 38418 94855,94829,95048
 5.4000e+000 95097 -1.2270e+001 -1.5482e+002 -2.1474e+001 38418 95192,94855,95048
 5.4000e+000 95146 -2.7381e+001 -1.5005e+002 -1.4615e+001 38418 94907,95048,95120
 5.4000e+000 95169 -1.6863e+001 -1.4435e+002 -1.1259e+001 38418 94907,95120,94751
 5.4000e+000 95218 -1.3099e+001 -1.1179e+002 -1.7856e+001 38418 94907,94881,95192
 5.4000e+000 95241 -2.2341e+001 -1.3600e+002 -1.5448e+001 38418 94907,95192,95048
 5.4000e+000 95511 -4.8532e+001 -1.5817e+002  9.1709e+000 38049 95312,95390,95364
 5.4000e+000 95488 -3.0604e+001 -1.4988e+002  6.7269e+000 38049 95312,95416,95390
 5.4000e+000 95465 -1.4639e+001 -1.4869e+002 -8.2364e+000 38049 95312,95364,95338
 5.4000e+000 95442 -1.3519e+001 -1.3435e+002  1.3255e+001 38049 95286,95416,95312
 5.4000e+000 95808 -4.7757e+001 -1.8942e+002 -5.0197e+000 37437 95831,95586,95560
 5.4000e+000 95785  1.8914e+001 -1.9782e+002 -8.2563e+000 37437 95831,95560,95534
 5.4000e+000 95762 -9.5924e+001 -1.7947e+002  6.8090e+000 37437 95586,95664,95638
 5.4000e+000 95739 -1.3086e+001 -9.1654e+001 -4.7145e+001 37437 95534,95690,95664
 5.4000e+000 95716 -9.1876e+001 -1.2812e+002  4.8074e+000 37437 95586,95638,95612
 5.4000e+000 95857 -9.1020e+001 -1.8262e+002  2.2085e+001 37437 95664,95586,95831
 5.4000e+000 95880 -2.0639e+001 -1.8919e+002  1.9846e+001 37437 95664,95831,95534
 5.4000e+000 96390 -6.6474e+001 -1.4310e+002 -9.2684e+000 36883 96413,96145,96093
 5.4000e+000 96367 -5.5272e+001 -1.3722e+002 -4.8210e+000 36883 96413,96093,96067
 5.4000e+000 96344 -3.9080e+001 -1.6989e+002 -8.1175e-001 36883 96067,96249,96171
 5.4000e+000 96321 -5.8026e+001 -1.6371e+002 -4.3291e+000 36883 96093,96145,96119
 5.4000e+000 96298 -8.1149e+001 -2.7716e+002  2.5399e+001 36883 96171,96249,96197
 5.4000e+000 96275 -2.1394e+001 -2.2348e+002 -2.5027e+000 36883 96197,96249,96223
 5.4000e+000 96439 -6.2487e+001 -1.3704e+002  5.0062e-001 36883 96171,96145,96413
 5.4000e+000 96462 -5.3712e+001 -1.3559e+002  4.0429e+000 36883 96171,96413,96067
 5.4000e+000 96781 -5.2149e+001 -1.6399e+002 -2.4080e+001 36215 96559,96663,96637
 5.4000e+000 96758 -6.6499e+001 -1.7586e+002 -2.9193e+001 36215 96507,96663,96559
 5.4000e+000 96735 -6.4272e+001 -1.1832e+002  1.2600e+001 36215 96585,96637,96611
 5.4000e+000 96712 -1.3822e+002 -1.9019e+002 -2.1038e+001 36215 96559,96637,96585
 5.4000e+000 96689 -2.5586e+001 -1.9711e+002 -5.8718e+000 36215 96507,96559,96533
 5.4000e+000 97161  3.2855e+000 -8.8847e+001 -3.3631e+000 35818 97184,96965,96939
 5.4000e+000 97138 -8.2538e+000 -1.0224e+002 -9.3873e+000 35818 97184,96939,96887
 5.4000e+000 97115 -4.6311e+000 -1.1345e+002  2.0825e+001 35818 96965,97043,97017
 5.4000e+000 97092 -3.7612e+000 -9.6928e+001 -1.1570e+001 35818 96887,96939,96913
 5.4000e+000 97069 -6.0028e+001 -1.1552e+002  1.2989e+001 35818 96965,97017,96991
 5.4000e+000 97210  1.5858e+001 -1.0052e+002  4.4760e+000 35818 97043,96965,97184
 5.4000e+000 97233  6.3696e+000 -1.0982e+002 -4.7093e-001 35818 97043,97184,96887
 5.4000e+000 97739 -5.4943e+001 -1.6395e+002 -3.9452e+001 35214 97416,97468,97442
 5.4000e+000 97716 -6.4135e+001 -1.1696e+002 -1.3209e+001 35214 97416,97598,97468
 5.4000e+000 97693 -5.3808e+001 -1.0944e+002 -5.3058e+000 35214 97762,97520,97468
 5.4000e+000 97670 -5.6932e+001 -1.1281e+002 -9.7953e+000 35214 97762,97468,97598
 5.4000e+000 97647 -4.2220e+001 -1.0881e+002 -1.6248e+001 35214 97546,97598,97572
 5.4000e+000 97624 -3.4363e+001 -1.1190e+002 -7.2307e+000 35214 97468,97520,97494
 5.4000e+000 97788 -5.5486e+001 -1.1504e+002 -8.3569e+000 35214 97546,97520,97762
 5.4000e+000 97811 -5.6799e+001 -1.1754e+002 -1.2494e+001 35214 97546,97762,97598
 5.4000e+000 98189 -6.1684e+000 -8.3688e+001 -9.3925e+000 34760 98356,98212,97967
 5.4000e+000 98166 -1.6059e+001 -9.9509e+001 -1.7930e+001 34760 98284,98212,97941
 5.4000e+000 98143 -3.4595e+001 -8.8431e+001 -9.1962e+000 34760 98284,97941,97915
 5.4000e+000 98120 -8.4211e+000 -1.1226e+002 -4.6241e+000 34760 98484,97993,97967
 5.4000e+000 98097 -7.6412e+000 -9.1911e+001 -3.3004e+000 34760 98556,98045,98019
 5.4000e+000 98238 -1.3155e+001 -1.0565e+002 -4.7802e+000 34760 98484,97967,98212
 5.4000e+000 98261  2.0676e+000 -9.6753e+001 -8.3293e+000 34760 98556,98019,98212
 5.4000e+000 98310 -1.3136e+000 -7.8753e+001 -2.4501e+001 34760 98071,98212,98284
 5.4000e+000 98333 -1.2417e+001 -5.1115e+001 -1.9231e+001 34760 98071,98284,97915
 5.4000e+000 98382 -5.0707e+001 -1.1179e+002 -2.2330e+001 34760 97941,98212,98356
 5.4000e+000 98510 -1.3530e+000 -1.0626e+002 -7.2929e+000 34760 98019,97993,98484
 5.4000e+000 98533 -8.8031e+000 -1.0187e+002 -6.6678e+000 34760 98019,98484,98212
 5.4000e+000 98582  4.5568e+000 -8.5577e+001 -7.2114e-001 34760 98071,98045,98556
 5.4000e+000 98605  8.5654e+000 -9.3868e+001 -6.8997e+000 34760 98071,98556,98212
 5.4000e+000 99032 -6.4300e+001 -1.4645e+002  2.2351e+001 34156 98735,98891,98839
 5.4000e+000 99009 -5.4603e+001 -1.5184e+002  9.9728e+000 34156 98709,98891,98735
 5.4000e+000 98986 -1.8990e+001 -1.3069e+002  2.0743e+001 34156 98735,98813,98787
 5.4000e+000 98963 -2.3136e+001 -1.4330e+002  1.8084e+001 34156 98735,98839,98813
 5.4000e+000 98940  9.6470e+000 -1.9588e+002  2.3883e+001 34156 98735,98787,98761
 5.4000e+000 98917 -5.8912e+001 -1.3249e+002  1.5200e+001 34156 98839,98891,98865
 5.4000e+000 99231 -1.6120e+001 -7.3931e+001  6.8841e+000 33766 99055,99133,99107
 5.4000e+000 99208 -3.1652e+001 -9.9510e+001  1.4356e+001 33766 99055,99159,99133
 5.4000e+000 99185 -8.2267e+000 -9.2097e+001  1.7716e+001 33766 99055,99107,99081
 5.4000e+000 99818 -3.3378e+001 -1.0408e+002  2.2485e+000 33248 99521,99651,99573
 5.4000e+000 99795 -3.2751e+001 -9.9027e+001  1.0621e+001 33248 99521,99677,99651
 5.4000e+000 99772 -5.3705e+001 -1.3109e+002 -7.4806e+000 33248 99573,99651,99599
 5.4000e+000 99749 -3.4553e+001 -1.2558e+002  1.1573e+001 33248 99495,99677,99521
 5.4000e+000 99726 -2.4323e+001 -1.1264e+002 -2.6792e+001 33248 99599,99651,99625
 5.4000e+000 99703 -4.2929e+001 -1.2817e+002  7.8349e+000 33248 99521,99573,99547
 5.4000e+000 100196 -3.8508e+001 -1.1979e+002 -2.2457e+001 32794 100219,99948,99922
 5.4000e+000 100173 -4.4837e+001 -1.3290e+002 -1.0265e+001 32794 100219,99922,100052
 5.4000e+000 100150 -5.9359e+001 -1.1984e+002  7.4524e+000 32794 99974,100052,100026
 5.4000e+000 100127 -5.5232e+001 -1.0832e+002 -1.6983e+001 32794 99922,100078,100052
 5.4000e+000 100104 -6.0938e+001 -1.4374e+002  2.6620e+001 32794 99974,100026,100000
 5.4000e+000 100245 -5.2288e+001 -1.1806e+002 -9.8289e+000 32794 99974,99948,100219
 5.4000e+000 100268 -5.5741e+001 -1.3527e+002  2.5001e+000 32794 99974,100219,100052
 5.4000e+000 100418 -8.8271e+000 -1.1476e+002 -1.3090e+001 32504 100571,100343,100317
 5.4000e+000 100395 -4.8132e+001 -1.3259e+002  1.1558e+001 32504 100571,100317,100441
 5.4000e+000 100467  3.3096e+001 -6.2742e+001 -3.6079e+001 32504 100291,100369,100441
 5.4000e+000 100597  8.5656e+000 -9.6049e+001 -4.4182e+001 32504 100369,100343,100571
 5.4000e+000 100620 -9.2397e+000 -8.9701e+001 -2.2882e+001 32504 100369,100571,100441
 5.4000e+000 101020 -1.2013e+001 -8.8028e+001  3.3445e+000 32142 100772,100902,100876
 5.4000e+000 100997 -8.0917e+000 -7.6923e+001  4.7084e+000 32142 100746,100902,100772
 5.4000e+000 100974  3.1946e+000 -9.7216e+001  1.3960e+001 32142 101043,100824,100798
 5.4000e+000 100951 -1.5305e+001 -1.0651e+002  1.0064e+001 32142 101043,100798,100772
 5.4000e+000 100928 -5.4953e+001 -1.2591e+002 -3.2448e+001 32142 101115,100876,100850
 5.4000e+000 101069  2.2477e+001 -1.0907e+002 -1.0265e+001 32142 100850,100824,101043
 5.4000e+000 101092 -2.5448e+001 -1.3040e+002 -1.4937e+001 32142 101115,100850,101043
 5.4000e+000 101141 -1.8391e+001 -1.0386e+002 -1.2268e+001 32142 100772,100876,101115
 5.4000e+000 101164  4.8066e+000 -1.0677e+002  6.7424e+000 32142 100772,101115,101043
 5.4000e+000 101719 -6.3837e+001 -1.5240e+002  2.0272e+001 31538 101742,101477,101399
 5.4000e+000 101696 -7.8494e+001 -1.8482e+002  4.7819e+000 31538 101814,101742,101399
 5.4000e+000 101673 -8.9881e+001 -1.5881e+002 -1.2495e+001 31538 101814,101399,101373
 5.4000e+000 101650 -6.4271e+001 -1.0956e+002  1.4579e+001 31538 101425,101477,101451
 5.4000e+000 101627 -6.0011e+001 -1.2940e+002  3.9519e+000 31538 101399,101477,101425
 5.4000e+000 101604 -3.7072e+001 -1.8682e+002  3.7648e+001 31538 101477,101529,101503
 5.4000e+000 101581 -2.4032e+001 -1.0592e+002 -9.1166e+000 31538 101347,101555,101373
 5.4000e+000 101768 -7.2095e+001 -1.8667e+002  1.9291e+001 31538 101529,101477,101742
 5.4000e+000 101791 -6.3602e+001 -1.9198e+002 -7.2277e+000 31538 101529,101742,101555
 5.4000e+000 101840 -4.9876e+001 -1.5849e+002 -7.3132e+000 31538 101555,101742,101814
 5.4000e+000 101863 -6.6460e+001 -1.3724e+002 -2.3145e+001 31538 101555,101814,101373
 5.4000e+000 102111 -9.8054e+001 -2.4769e+002  3.2917e+001 31112 101886,101990,101912
 5.4000e+000 102088 -3.6455e+001 -1.4899e+002  1.7244e+000 31112 101886,102016,101990
 5.4000e+000 102065 -4.3705e+001 -2.3553e+002  4.4553e+001 31112 101912,101990,101964
 5.4000e+000 102042 -6.6862e+001 -2.8458e+002  5.2910e+001 31112 101912,101964,101938
 5.4000e+000 102408 -2.4423e+001 -1.4689e+002  1.2077e+001 30658 102431,102186,102160
 5.4000e+000 102385 -5.0376e+001 -1.4468e+002 -3.0674e-001 30658 102431,102160,102264
 5.4000e+000 102362 -4.8771e+001 -1.6020e+002  2.4853e+000 30658 102186,102238,102212
 5.4000e+000 102339 -5.4610e+001 -1.5363e+002 -9.6172e+000 30658 102134,102264,102160
 5.4000e+000 102316 -3.8497e+001 -1.2894e+002 -4.3339e+001 30658 102134,102290,102264
 5.4000e+000 102457 -4.5733e+001 -1.5577e+002  6.3513e+000 30658 102238,102186,102431
 5.4000e+000 102480 -7.3502e+001 -1.5616e+002 -7.1130e+000 30658 102238,102431,102264
 5.4000e+000 102681 -1.9470e+001 -1.7622e+002  2.5423e+001 30004 102704,102557,102505
 5.4000e+000 102658 -2.2669e+001 -1.7978e+002  2.6984e+001 30004 102704,102505,102609
 5.4000e+000 102635  3.6881e+000 -1.4790e+002  6.3711e+000 30004 102505,102557,102531
 5.4000e+000 102730 -2.2818e+001 -1.6998e+002  2.2893e+001 30004 102583,102557,102704
 5.4000e+000 102753 -3.0588e+001 -1.7561e+002  2.5788e+001 30004 102583,102704,102609
 5.4000e+000 103003 -1.9190e+001 -1.4149e+002 -1.1665e+001 29564 103026,102804,102778
 5.4000e+000 102980 -2.5206e+001 -1.6957e+002 -1.7602e+001 29564 103026,102778,102908
 5.4000e+000 102957 -2.7571e+001 -1.4542e+002 -1.9260e+000 29564 102856,102908,102882
 5.4000e+000 102934 -3.9117e+001 -1.2891e+002  9.9559e+000 29564 102804,102856,102830
 5.4000e+000 103052 -1.7501e+001 -1.2784e+002  7.2965e+000 29564 102856,102804,103026
 5.4000e+000 103075 -2.5536e+001 -1.5059e+002 -1.2581e+000 29564 102856,103026,102908
 5.4000e+000 103634 -6.3284e+001 -1.6072e+002 -1.9639e+001 29160 103657,103418,103392
 5.4000e+000 103611 -5.9469e+001 -1.5347e+002 -9.1625e+000 29160 103657,103392,103314
 5.4000e+000 103588 -4.3144e+001 -1.3118e+002 -1.6505e+001 29160 103314,103392,103366
 5.4000e+000 103565 -3.5417e+001 -1.3773e+002 -1.9946e+001 29160 103314,103366,103340
 5.4000e+000 103542 -7.4085e+001 -1.4937e+002 -1.8537e+001 29160 103262,103444,103314
 5.4000e+000 103519 -8.9604e+001 -1.7931e+002 -2.7536e+001 29160 103262,103314,103288
 5.4000e+000 103496 -5.6350e+001 -1.6208e+002 -8.9751e+000 29160 103262,103470,103444
 5.4000e+000 103683 -7.9636e+001 -1.7406e+002 -3.2708e+001 29160 103444,103418,103657
 5.4000e+000 103706 -6.5516e+001 -1.5208e+002 -2.0523e+001 29160 103444,103657,103314
 5.4000e+000 104035 -4.2597e+001 -1.5400e+002  1.4795e+001 28770 103836,103914,103862
 5.4000e+000 104012 -4.0988e+001 -1.4676e+002  1.9790e+001 28770 103810,103914,103836
 5.4000e+000 103989  8.8087e+000 -1.3278e+002  2.3660e+001 28770 103810,103940,103914
 5.4000e+000 103966 -8.7868e+000 -1.2394e+002  2.9939e+001 28770 103862,103914,103888
 5.4000e+000 104185 -1.4367e+001 -1.3724e+002  2.6112e+001 28366 104208,104110,104084
 5.4000e+000 104162 -1.3973e+001 -1.1844e+002  1.9801e+001 28366 104280,104208,104084
 5.4000e+000 104234  2.9026e+001 -1.3785e+002  1.6083e+001 28366 104610,104208,104136
 5.4000e+000 104257 -2.5386e+001 -1.3060e+002  1.6375e+001 28366 104538,104410,104208
 5.4000e+000 104306 -4.3265e+001 -1.3228e+002  1.5960e+001 28366 104538,104208,104280
 5.4000e+000 104436 -7.8863e+000 -1.3685e+002  1.9477e+000 28366 104136,104208,104410
 5.4000e+000 104564 -4.4078e+001 -1.2968e+002  6.8649e+000 28366 104058,104410,104538
 5.4000e+000 104587 -5.5046e+001 -1.2719e+002  5.2156e+000 28366 104058,104538,104280
 5.4000e+000 104636  2.1069e+001 -1.4014e+002  2.1148e+001 28366 104110,104208,104610
 5.4000e+000 105349 -3.3782e+001 -1.2685e+002 -1.2703e+001 27976 105516,105372,105107
 5.4000e+000 105326 -5.4429e+001 -1.2923e+002  3.6535e+000 27976 105588,105372,105055
 5.4000e+000 105303 -5.8587e+001 -1.2553e+002 -1.4239e+001 27976 105444,105159,105133
 5.4000e+000 105280 -1.9737e+001 -1.3102e+002 -7.9947e+000 27976 105516,105107,105081
 5.4000e+000 105257 -5.0763e+001 -1.4308e+002  1.2345e+001 27976 105588,105055,105029
 5.4000e+000 105234 -2.7231e+001 -1.0850e+002  2.7639e+000 27976 105003,105185,105159
 5.4000e+000 105211 -3.7649e+001 -8.7419e+001  1.7524e+001 27976 104977,105185,105003
 5.4000e+000 105398 -2.7428e+001 -1.3016e+002 -1.6319e+001 27976 105133,105107,105372
 5.4000e+000 105421 -4.6240e+001 -1.3579e+002 -8.3076e+000 27976 105444,105133,105372
 5.4000e+000 105470 -4.7311e+001 -1.0837e+002 -7.5973e+000 27976 105003,105159,105444
 5.4000e+000 105493 -3.8318e+001 -1.1989e+002 -4.7566e+000 27976 105003,105444,105372
 5.4000e+000 105542 -2.4441e+001 -1.2665e+002 -5.4748e-001 27976 105055,105372,105516
 5.4000e+000 105565 -2.9785e+000 -1.2774e+002  2.6067e+000 27976 105055,105516,105081
 5.4000e+000 105614 -6.2273e+001 -1.4290e+002  1.0314e+001 27976 105003,105372,105588
 5.4000e+000 105637 -6.0648e+001 -1.5644e+002  1.9824e+001 27976 105003,105588,105029
 5.4000e+000 106143 -5.6081e+001 -1.8869e+002  1.1736e+001 27664 106166,105846,105820
 5.4000e+000 106120 -3.7789e+001 -1.3977e+002  5.4253e+000 27664 106310,106166,105820
 5.4000e+000 106097 -1.7290e+001 -1.7004e+002 -3.5580e+001 27664 106382,106238,105950
 5.4000e+000 106074 -2.5021e+001 -1.3525e+002  4.3394e+000 27664 106310,105820,106002
 5.4000e+000 106051  1.4188e+001 -1.5324e+002 -2.9162e+001 27664 106382,105950,105924
 5.4000e+000 106028 -5.1741e+000 -2.7593e+002 -8.6571e+000 27664 105846,105898,105872
 5.4000e+000 106192 -5.0063e+001 -2.1113e+002 -2.8465e+001 27664 105898,105846,106166
 5.4000e+000 106215 -2.9233e+001 -1.7580e+002 -1.1797e+001 27664 106238,105898,106166
 5.4000e+000 106264 -9.2912e+001 -1.8938e+002 -4.7101e+001 27664 105976,105950,106238
 5.4000e+000 106287 -2.9929e+001 -1.7317e+002 -1.2529e+001 27664 105976,106238,106166
 5.4000e+000 106336 -2.4743e+001 -1.5068e+002  1.8172e+001 27664 105976,106166,106310
 5.4000e+000 106359 -9.7542e+000 -1.4489e+002  1.6521e+001 27664 105976,106310,106002
 5.4000e+000 106408 -3.1696e+001 -1.4399e+002 -1.8516e-001 27664 105898,106238,106382
 5.4000e+000 106431 -1.2491e+001 -1.3482e+002  3.4141e+000 27664 105898,106382,105924
 5.4000e+000 106728 -1.4992e+001 -1.0081e+002  1.8753e+001 27153 106751,106506,106454
 5.4000e+000 106705 -1.4696e+001 -1.0321e+002  1.5434e+001 27153 106751,106454,106610
 5.4000e+000 106682 -2.5140e+001 -7.7457e+001  3.8137e+000 27153 106454,106506,106480
 5.4000e+000 106659 -2.3595e+001 -9.7862e+001  1.0802e+001 27153 106532,106610,106584
 5.4000e+000 106636 -3.9360e+001 -5.6576e+001  2.1881e+001 27153 106532,106584,106558
 5.4000e+000 106777 -1.0942e+001 -9.7763e+001  2.0102e+001 27153 106532,106506,106751
 5.4000e+000 106800 -1.1961e+001 -1.0129e+002  1.6277e+001 27153 106532,106751,106610
 5.4000e+000 107180 -1.8946e+001 -1.2390e+002  7.3698e+000 26642 107203,106984,106958
 5.4000e+000 107157 -6.1612e+001 -1.4350e+002  1.2743e+000 26642 107203,106958,106932
 5.4000e+000 107134 -7.3055e+001 -1.5705e+002 -2.3739e+001 26642 107275,107036,107010
 5.4000e+000 107111 -4.6756e+001 -1.5424e+002 -2.9979e+001 26642 106932,107062,107036
 5.4000e+000 107088 -1.6766e+000 -1.2088e+002  1.4324e+001 26642 106906,107062,106932
 5.4000e+000 107229  1.8485e+000 -1.1666e+002 -3.8688e+001 26642 107010,106984,107203
 5.4000e+000 107252 -6.4415e+001 -1.4604e+002 -2.8583e+001 26642 107275,107010,107203
 5.4000e+000 107301 -6.2536e+001 -1.5532e+002 -2.9939e+001 26642 106932,107036,107275
 5.4000e+000 107324 -5.9326e+001 -1.5573e+002 -3.1546e+001 26642 106932,107275,107203
 5.4000e+000 107675 -3.5299e+001 -9.5446e+001  1.0735e+001 26045 107450,107554,107476
 5.4000e+000 107652 -2.8480e+001 -8.4055e+001  4.3409e+000 26045 107450,107580,107554
 5.4000e+000 107629 -1.4087e+001 -7.2397e+001  1.2262e+000 26045 107476,107528,107502
 5.4000e+000 107606 -8.7712e+000 -8.8748e+001  6.8904e+000 26045 107476,107554,107528
 5.4000e+000 107874 -2.3957e+001 -1.4036e+002  3.5189e+001 25641 107750,107802,107776
 5.4000e+000 107851 -2.9080e+001 -9.8202e+001  1.9712e+001 25641 107724,107802,107750
 5.4000e+000 107828 -3.1751e+001 -9.9631e+001  1.9152e+001 25641 107698,107802,107724
 5.4000e+000 108431 -1.1604e+001 -1.5236e+002  2.7817e+001 25023 108526,108267,108241
 5.4000e+000 108408 -6.7079e-002 -1.4402e+002  5.1657e+000 25023 108059,108267,108085
 5.4000e+000 108385 -2.0801e+001 -1.5698e+002  2.7854e+001 25023 108454,108163,108111
 5.4000e+000 108362 -7.1105e+001 -1.5799e+002  4.7153e+001 25023 108454,108111,108085
 5.4000e+000 108339 -5.5646e+001 -2.0468e+002  4.8062e+001 25023 108111,108163,108137
 5.4000e+000 108316 -3.6906e+001 -1.1352e+002 -7.6553e+000 25023 108163,108241,108215
 5.4000e+000 108293  1.3834e+001 -9.0514e+001 -1.3456e-001 25023 108163,108215,108189
 5.4000e+000 108480 -3.7204e+000 -1.3968e+002  2.1569e+000 25023 108241,108163,108454
 5.4000e+000 108503 -2.2069e+001 -1.4892e+002  2.7123e+001 25023 108526,108241,108454
 5.4000e+000 108552 -2.4197e+001 -1.5252e+002  2.1861e+001 25023 108085,108267,108526
 5.4000e+000 108575 -3.5240e+001 -1.4975e+002  2.0914e+001 25023 108085,108526,108454
 5.4000e+000 108823  4.6456e+000 -1.0953e+002  1.6457e+001 24461 108624,108728,108650
 5.4000e+000 108800 -1.3912e+001 -2.3231e+002 -1.6712e+001 24461 108598,108728,108624
 5.4000e+000 108777  1.2686e+000 -1.4453e+002  1.1683e+001 24461 108650,108728,108676
 5.4000e+000 108754 -6.2676e+001 -4.1265e+002  3.6150e+001 24461 108676,108728,108702
 5.4000e+000 109022 -4.0201e+001 -1.1353e+002  1.6565e+001 24121 108872,108924,108898
 5.4000e+000 108999 -2.7555e+001 -1.1233e+002  1.8589e+001 24121 108846,108924,108872
 5.4000e+000 108976 -4.7424e+001 -1.2095e+002  1.9629e+001 24121 108846,108950,108924
 5.4000e+000 109483 -4.7880e+001 -1.5852e+002 -1.5805e+001 23717 109209,109339,109235
 5.4000e+000 109460 -1.8209e+001 -1.7960e+002 -3.7397e+001 23717 109209,109365,109339
 5.4000e+000 109437 -9.2911e-001 -2.0140e+002 -1.1851e+001 23717 109287,109339,109313
 5.4000e+000 109414 -9.0334e+001 -2.0200e+002  1.1504e+001 23717 109235,109339,109287
 5.4000e+000 109391  5.6000e+000 -2.3680e+002  8.7430e+001 23717 109235,109287,109261
 5.4000e+000 109910 -6.3099e+001 -1.8566e+002 -1.9338e+001 23305 109613,109743,109717
 5.4000e+000 109887 -6.2843e+001 -1.8680e+002 -1.2540e+001 23305 109613,109769,109743
 5.4000e+000 109864 -7.4903e+001 -1.7767e+002 -1.7074e+001 23305 109613,109717,109639
 5.4000e+000 109841 -4.8138e+001 -1.7310e+002 -5.2529e+000 23305 109587,109769,109613
 5.4000e+000 109818  1.8549e+000 -1.4509e+002  1.2746e+001 23305 109639,109717,109691
 5.4000e+000 109795 -1.4712e+001 -1.1566e+002 -2.8126e+001 23305 109639,109691,109665
 5.4000e+000 110180 -3.4704e+000 -5.2870e+001 -1.1838e+001 22851 110007,110059,110033
 5.4000e+000 110157 -3.7417e+001 -1.4553e+002  6.9162e+000 22851 109981,110059,110007
 5.4000e+000 110134 -5.3240e+001 -1.5800e+002  8.9179e-001 22851 109955,110059,109981
 5.4000e+000 110111 -2.1410e+001 -1.7529e+002 -1.3533e+001 22851 109955,110085,110059
 5.4000e+000 110737 -1.7896e+001 -1.6143e+002 -4.4999e+001 22333 110760,110469,110391
 5.4000e+000 110714 -3.1525e+000 -1.8724e+002 -3.4751e+001 22333 110760,110391,110365
 5.4000e+000 110691 -1.2974e+001 -1.4490e+002 -3.5915e+001 22333 110832,110521,110469
 5.4000e+000 110668 -3.4960e+001 -2.9019e+002  2.2260e+001 22333 110417,110469,110443
 5.4000e+000 110645 -7.4324e+001 -2.5738e+002  1.3049e+001 22333 110391,110469,110417
 5.4000e+000 110622 -2.0916e+000 -1.4682e+002 -1.8057e+001 22333 110469,110521,110495
 5.4000e+000 110599 -1.1688e+001 -1.0254e+002  1.3016e+001 22333 110365,110573,110547
 5.4000e+000 110786 -8.0346e+000 -1.4914e+002 -4.0730e+001 22333 110832,110469,110760
 5.4000e+000 110809  1.3251e+001 -1.6218e+002 -2.7516e+001 22333 110547,110760,110365
 5.4000e+000 110858 -1.2838e+001 -1.5453e+002 -3.4972e+001 22333 110547,110521,110832
 5.4000e+000 110881 -1.2150e+001 -1.6374e+002 -4.0954e+001 22333 110547,110832,110760
 5.4000e+000 111308 -8.1150e+001 -1.9645e+002  1.4198e+001 21829 111331,111063,111011
 5.4000e+000 111285 -7.0932e+001 -1.7940e+002 -3.7651e+000 21829 111331,111011,111167
 5.4000e+000 111262 -8.3998e+001 -1.9623e+002  1.5187e+001 21829 111403,111089,111063
 5.4000e+000 111239 -1.0385e+002 -2.1029e+002  3.1042e+001 21829 111011,111063,111037
 5.4000e+000 111216 -4.5920e+001 -1.3177e+002  6.4876e+000 21829 110985,111167,111011
 5.4000e+000 111193 -1.0603e+002 -3.4425e+002  7.5887e+001 21829 111089,111141,111115
 5.4000e+000 111357 -8.1068e+001 -1.9884e+002  1.5107e+001 21829 111403,111063,111331
 5.4000e+000 111380 -8.3936e+001 -2.0569e+002  4.9003e-001 21829 111141,111331,111167
 5.4000e+000 111429 -9.1378e+001 -2.0006e+002  1.6613e+001 21829 111141,111089,111403
 5.4000e+000 111452 -8.5150e+001 -2.0154e+002  1.6411e+001 21829 111141,111403,111331
 5.4000e+000 112056  6.7825e+001 -1.4243e+002  2.3698e+000 21489 111687,111765,111739
 5.4000e+000 112033  2.1276e+001 -1.6571e+002  1.7427e+001 21489 112151,112079,111687
 5.4000e+000 112010  2.6873e+000 -2.5806e+002  1.3889e+001 21489 111791,111843,111817
 5.4000e+000 111987 -4.0287e+001 -2.0842e+002 -1.7032e+001 21489 112079,111843,111791
 5.4000e+000 111964  4.7452e+001 -1.5228e+002  3.2826e+001 21489 112151,111687,111661
 5.4000e+000 111941 -6.5528e+000 -1.1127e+002  2.6162e+001 21489 111661,111869,111843
 5.4000e+000 111918  6.7863e+001 -1.5600e+002  2.3770e+001 21489 111687,111739,111713
 5.4000e+000 111895  2.0207e+001 -4.9189e+001  7.0298e+000 21489 111635,111869,111661
 5.4000e+000 112105 -1.9354e+001 -1.8100e+002  9.6712e+000 21489 111765,111687,112079
 5.4000e+000 112128 -1.7709e+001 -1.7174e+002  9.8318e+000 21489 111765,112079,111791
 5.4000e+000 112177 -2.2495e+001 -1.6257e+002 -5.2705e+000 21489 111843,112079,112151
 5.4000e+000 112200  1.2365e+000 -1.5716e+002  7.2286e+000 21489 111843,112151,111661
 5.4000e+000 112578 -3.0750e+001 -2.0897e+002  9.7033e+000 21177 112382,112434,112408
 5.4000e+000 112555 -4.0367e+001 -2.0578e+002  1.1739e-001 21177 112330,112434,112382
 5.4000e+000 112532 -2.7225e+001 -1.7229e+002  3.4511e+001 21177 112304,112434,112330
 5.4000e+000 112509 -4.0971e+001 -1.9732e+002  0.0000e+000 21177 112330,112382,112356
 5.4000e+000 112486 -7.0039e+000 -9.4069e+001  5.1975e+000 21177 112304,112460,112434
 5.4000e+000 112679 -1.1853e-001 -1.0795e+002 -2.7326e+001 20666 112601,112653,112627
 5.4000e+000 112927 -6.2491e+001 -2.1055e+002  7.4281e+000 19762 112702,112754,112728
 5.4000e+000 112904 -2.3414e+001 -2.0098e+002 -1.9636e+000 19762 112702,112832,112754
 5.4000e+000 112881 -5.2598e+001 -2.1573e+002  3.4227e+001 19762 112754,112832,112806
 5.4000e+000 112858 -7.5211e+001 -2.7699e+002  3.5645e+001 19762 112754,112806,112780
 5.4000e+000 113297 -5.7493e+001 -2.5667e+002  1.6631e+001 19308 112974,113052,113026
 5.4000e+000 113274 -3.8790e+001 -2.1418e+002  5.6712e+000 19308 112974,113156,113052
 5.4000e+000 113251 -2.1137e+001 -2.8430e+002 -3.4353e+001 19308 113052,113130,113104
 5.4000e+000 113228 -4.2383e+001 -2.1384e+002 -1.3520e-001 19308 113052,113156,113130
 5.4000e+000 113205 -4.0678e+001 -2.4746e+002  0.0000e+000 19308 113052,113104,113078
 5.4000e+000 113182 -8.2649e+001 -2.6660e+002 -1.2730e+000 19308 112974,113026,113000
 5.4000e+000 113547 -5.9654e-001 -2.3110e+002 -1.6232e+001 18711 113570,113374,113348
 5.4000e+000 113524 -7.6550e+000 -2.1160e+002 -9.7941e+000 18711 113570,113348,113452
 5.4000e+000 113501  6.9249e-001 -1.5654e+002 -4.3898e+001 18711 113322,113452,113348
 5.4000e+000 113478 -2.1279e+001 -2.0902e+002 -7.7319e+001 18711 113374,113426,113400
 5.4000e+000 113596  1.6749e-001 -2.0967e+002 -2.1078e+001 18711 113426,113374,113570
 5.4000e+000 113619 -8.1891e+000 -1.9314e+002 -1.0574e+001 18711 113426,113570,113452
 5.4000e+000 113771 -1.1687e+002 -2.9107e+002 -1.5841e+001 18307 113670,113722,113696
 5.4000e+000 113748 -9.1464e+001 -2.7302e+002 -7.3564e+000 18307 113644,113722,113670
 5.4000e+000 113972 -5.0895e+001 -2.4523e+002  5.1594e+000 17945 113822,113874,113848
 5.4000e+000 113949 -5.1265e+001 -2.4403e+002  6.0238e+000 17945 113822,113900,113874
 5.4000e+000 113926 -7.1651e+001 -1.9311e+002  1.0285e+002 17945 113796,113900,113822
 5.4000e+000 114075 -3.2877e+001 -3.5798e+002  3.9585e+001 17482 113997,114049,114023
 5.4000e+000 114479 -1.3439e+001 -1.9946e+002 -3.1207e+001 17042 114257,114361,114335
 5.4000e+000 114456 -4.7200e+001 -1.9154e+002 -5.0015e+000 17042 114205,114361,114257
 5.4000e+000 114433 -5.2865e+001 -2.2213e+002  8.6073e+000 17042 114205,114257,114231
 5.4000e+000 114410  4.3306e+001 -2.9658e+002 -1.8297e+001 17042 114283,114335,114309
 5.4000e+000 114387 -1.5554e+000 -2.5600e+002 -1.3162e+001 17042 114257,114335,114283
 5.4000e+000 114879 -1.0984e+002 -2.0166e+002 -3.4060e+000 16638 114631,114683,114657
 5.4000e+000 114856 -2.0742e+001 -1.6476e+002  2.6843e+000 16638 114605,114683,114631
 5.4000e+000 114833  2.8864e+001 -8.9550e+001 -2.2173e+001 16638 114605,114761,114683
 5.4000e+000 114810 -7.5264e+000 -2.2671e+002 -1.0958e+001 16638 114683,114735,114709
 5.4000e+000 114787 -1.6683e+001 -2.3614e+002 -1.5960e+001 16638 114683,114761,114735
 5.4000e+000 115078 -9.6901e+001 -2.1992e+002  5.7488e+000 16232 114954,115006,114980
 5.4000e+000 115055 -9.6918e+001 -2.4309e+002  1.0822e+001 16232 114928,115006,114954
 5.4000e+000 115032 -4.6762e+001 -3.0073e+002  2.0802e+001 16232 114902,115006,114928
 5.4000e+000 115228 -5.3913e+001 -2.1815e+002  7.1846e+000 15482 115101,115153,115127
 5.4000e+000 115205 -5.1705e+001 -2.0726e+002 -2.6448e+000 15482 115101,115179,115153
 5.4000e+000 115331 -4.0814e+001 -1.9995e+002 -2.6622e+001 15163 115253,115305,115279
 5.4000e+000 115434 -6.8159e+001 -2.1878e+002  3.7281e+001 421 115356,115408,115382
 5.5000e+000 68213 -1.1764e+001 -1.0974e+002 -1.1604e+001 67888 68112,68164,68138
 5.5000e+000 68190 -1.3696e+002 -1.4718e+002 -1.9635e+001 67888 68086,68164,68112
 5.5000e+000 68314 -1.5166e+001 -1.6044e+002  1.5936e+001 67576 68236,68288,68262
 5.5000e+000 68584 -6.3346e+001 -2.9628e+002  1.5145e+001 67378 68385,68489,68463
 5.5000e+000 68561 -2.1592e+001 -2.7628e+002  8.5483e+000 67378 68359,68489,68385
 5.5000e+000 68538 -4.7569e+001 -2.5147e+002  2.1877e+001 67378 68385,68463,68411
 5.5000e+000 68515 -2.4839e+001 -1.6745e+002  1.3500e+001 67378 68411,68463,68437
 5.5000e+000 68964 -6.9069e+001 -2.6823e+002  4.0499e+001 67130 68690,68820,68716
 5.5000e+000 68941  5.1033e+001 -2.7915e+002  7.5293e+001 67130 68690,68846,68820
 5.5000e+000 68918 -6.3520e+001 -1.7715e+002  5.7525e+000 67130 68742,68820,68794
 5.5000e+000 68895 -1.6714e+001 -1.7552e+002  1.6846e+001 67130 68716,68820,68742
 5.5000e+000 68872 -4.2853e+001 -1.4824e+002 -1.7446e+001 67130 68742,68794,68768
 5.5000e+000 69065 -5.5763e+001 -1.5160e+002  3.7958e+000 66926 68987,69039,69013
 5.5000e+000 69445 -3.1963e+001 -1.3825e+002 -7.5266e+000 66614 69223,69301,69275
 5.5000e+000 69422 -4.9738e+001 -1.4767e+002 -3.6138e+000 66614 69171,69301,69223
 5.5000e+000 69399 -5.6051e+001 -1.4974e+002 -5.9583e-001 66614 69171,69327,69301
 5.5000e+000 69376 -1.6984e+001 -7.0534e+001  2.0403e+000 66614 69223,69275,69249
 5.5000e+000 69353 -4.3458e+001 -1.5458e+002 -3.0958e+000 66614 69171,69223,69197
 5.5000e+000 69546 -5.3586e+001 -2.4083e+002  1.4354e+001 66416 69468,69520,69494
 5.5000e+000 69997 -5.0437e+001 -2.4334e+002 -1.8306e+001 66104 69700,69830,69726
 5.5000e+000 69974 -7.1048e+001 -2.9693e+002 -3.8550e+001 66104 69700,69856,69830
 5.5000e+000 69951 -5.3766e+001 -1.8810e+002 -1.3572e+001 66104 69726,69804,69778
 5.5000e+000 69928 -4.4081e+001 -2.2732e+002 -1.8851e+001 66104 69726,69830,69804
 5.5000e+000 69905 -5.6298e+001 -1.7912e+002 -6.4747e+000 66104 69726,69778,69752
 5.5000e+000 69882 -2.2416e+001 -4.0822e+002 -7.6091e+001 66104 69674,69856,69700
 5.5000e+000 70326 -4.4743e+001 -1.1149e+002  1.5604e+000 65814 70349,70153,70127
 5.5000e+000 70303 -2.6975e+001 -1.0972e+002  4.7426e+000 65814 70349,70127,70101
 5.5000e+000 70280 -2.4530e+001 -1.0381e+002  4.2537e+001 65814 70101,70231,70205
 5.5000e+000 70257  7.9318e-001 -1.2189e+002  1.4429e+001 65814 70153,70205,70179
 5.5000e+000 70375 -3.6473e+001 -1.1742e+002  1.5556e+001 65814 70205,70153,70349
 5.5000e+000 70398 -9.4319e+000 -1.1141e+002  1.6763e+001 65814 70205,70349,70101
 5.5000e+000 70904 -1.8365e+001 -5.7924e+001 -1.9948e+001 65502 70607,70737,70685
 5.5000e+000 70881 -2.6327e+001 -4.6682e+001 -2.5659e+001 65502 70581,70737,70607
 5.5000e+000 70858 -2.4861e+001 -9.0321e+000 -6.0008e+000 65502 70581,70763,70737
 5.5000e+000 70835 -2.7266e+001 -6.3347e+001 -2.6278e+001 65502 70685,70737,70711
 5.5000e+000 70812 -1.0302e+002 -7.7275e+001 -9.9357e-001 65502 70607,70659,70633
 5.5000e+000 70789 -3.1158e+001 -8.1168e+001  1.3108e+000 65502 70607,70685,70659
 5.5000e+000 71103 -2.6868e+001 -2.1073e+002 -6.6372e+000 65304 71126,70979,70953
 5.5000e+000 71080 -5.2408e+001 -2.0865e+002 -2.9517e+000 65304 71126,70953,70927
 5.5000e+000 71057 -7.5083e+001 -2.1332e+002  1.1339e+001 65304 70927,71031,71005
 5.5000e+000 71152 -5.1753e+001 -2.0082e+002 -1.4023e+001 65304 71005,70979,71126
 5.5000e+000 71175 -7.9764e+001 -2.0165e+002 -4.7322e+000 65304 71005,71126,70927
 5.5000e+000 71374 -3.6284e+001 -1.9994e+002  1.0306e+001 65106 71198,71276,71224
 5.5000e+000 71351 -5.9473e+001 -2.1233e+002  5.1464e+000 65106 71198,71302,71276
 5.5000e+000 71328 -2.5450e+001 -1.7067e+002  2.3469e+001 65106 71224,71276,71250
 5.5000e+000 71756 -2.5829e+001 -1.4185e+002 -9.4518e+000 64652 71508,71638,71534
 5.5000e+000 71733  2.3349e+000 -1.2994e+002  2.7710e-001 64652 71482,71638,71508
 5.5000e+000 71710 -5.5610e+001 -1.4406e+002 -1.2758e+001 64652 71534,71586,71560
 5.5000e+000 71687 -4.8421e+001 -1.5485e+002 -2.4059e+001 64652 71534,71612,71586
 5.5000e+000 71664 -6.9005e+001 -1.6068e+002 -2.5348e+001 64652 71534,71638,71612
 5.5000e+000 72085 -6.6259e+001 -1.6009e+002 -2.1094e+001 64248 71886,71964,71912
 5.5000e+000 72062 -5.2688e+001 -1.5624e+002 -2.0598e+001 64248 71860,71964,71886
 5.5000e+000 72039 -2.8431e+001 -1.7095e+002 -1.4446e+001 64248 71912,71964,71938
 5.5000e+000 72016 -5.6111e+001 -1.4851e+002 -2.0118e+001 64248 71860,71990,71964
 5.5000e+000 72235 -5.5822e+000 -1.0277e+002 -1.3443e+001 63858 72588,72258,72134
 5.5000e+000 72212 -2.6432e+001 -9.0339e+001  3.5012e+000 63858 72330,72258,72108
 5.5000e+000 72284 -1.8407e+001 -7.1389e+001 -9.0902e+000 63858 72160,72134,72258
 5.5000e+000 72307 -5.9587e+001 -9.9671e+001 -1.6325e+001 63858 72460,72258,72186
 5.5000e+000 72356 -4.9269e+001 -9.5752e+001 -1.5938e+001 63858 72186,72258,72330
 5.5000e+000 72486 -2.5449e+001 -9.4297e+001 -1.4544e+001 63858 72160,72258,72460
 5.5000e+000 72614 -1.1854e+001 -1.1033e+002  5.3572e-002 63858 72108,72258,72588
 5.5000e+000 73248 -3.6250e+001 -1.7616e+002  3.9328e+001 63404 72902,72954,72928
 5.5000e+000 73225 -8.5175e+001 -1.7574e+002  1.7290e+001 63404 73271,72954,72902
 5.5000e+000 73202 -7.6184e+001 -1.4329e+002  1.4932e+001 63404 73271,72902,73032
 5.5000e+000 73179 -5.1895e+001 -1.2495e+002  4.3927e+000 63404 72902,73058,73032
 5.5000e+000 73156 -6.8968e+001 -1.6567e+002  4.4529e+000 63404 72980,73032,73006
 5.5000e+000 73133 -4.8611e+001 -1.2505e+002  4.4028e+000 63404 72876,73058,72902
 5.5000e+000 73110 -1.5483e+001 -6.1020e+001 -3.0956e+001 63404 72876,73084,73058
 5.5000e+000 73297 -7.3625e+001 -1.8033e+002 -2.4519e+000 63404 72980,72954,73271
 5.5000e+000 73320 -7.2747e+001 -1.6275e+002 -1.9223e+000 63404 72980,73271,73032
 5.5000e+000 73470 -6.0900e+001 -4.0313e+002  4.2918e+001 63014 73343,73395,73369
 5.5000e+000 73447 -1.8992e+002 -4.9364e+002 -9.0933e+000 63014 73343,73421,73395
 5.5000e+000 73929 -6.8531e+000 -1.8057e+002  1.1172e+001 62702 73759,73811,73785
 5.5000e+000 73906  5.0242e+000 -1.7452e+002  1.3451e+001 62702 73655,73811,73759
 5.5000e+000 73883 -2.4759e+001 -1.9798e+002 -2.6853e-001 62702 73655,73759,73681
 5.5000e+000 73860 -4.4496e-002 -1.4793e+002 -3.0314e+001 62702 73681,73759,73707
 5.5000e+000 73837 -8.3715e+001 -1.7098e+002  3.3420e+000 62702 73707,73759,73733
 5.5000e+000 74209 -1.0936e+002 -1.7192e+002  1.2383e+000 62404 74059,74137,74085
 5.5000e+000 74186 -1.2858e+002 -2.2259e+002  2.5361e+001 62404 74033,74137,74059
 5.5000e+000 74163 -1.1226e+002 -1.5699e+002  1.8026e+000 62404 74085,74137,74111
 5.5000e+000 74408 -8.1694e+000 -1.4986e+002  8.3790e+000 62000 74258,74336,74284
 5.5000e+000 74385 -3.6523e+000 -1.4509e+002  1.6622e+001 62000 74232,74336,74258
 5.5000e+000 74362 -3.7848e+001 -1.5010e+002 -1.8788e+000 62000 74284,74336,74310
 5.5000e+000 74509 -1.1476e+001 -1.6309e+002  1.3994e+001 61802 74431,74483,74457
 5.5000e+000 74759 -5.7430e+001 -1.4991e+002  2.1870e+000 61554 74782,74586,74560
 5.5000e+000 74736 -3.7923e+001 -1.4017e+002  5.5608e+000 61554 74782,74560,74664
 5.5000e+000 74713 -5.0805e+001 -1.1349e+002  3.9205e+001 61554 74854,74612,74586
 5.5000e+000 74690 -4.6703e+001 -1.5325e+002  1.1179e+000 61554 74534,74664,74560
 5.5000e+000 74808 -6.8255e+001 -1.3929e+002  1.1136e+001 61554 74854,74586,74782
 5.5000e+000 74831 -4.3582e+001 -1.7579e+002  9.3608e+000 61554 74638,74782,74664
 5.5000e+000 74880 -1.4480e+001 -1.4051e+002  4.2646e+001 61554 74638,74612,74854
 5.5000e+000 74903 -1.5253e+001 -1.3834e+002  2.1700e+001 61554 74638,74854,74782
 5.5000e+000 75285 -2.5708e+001 -1.5272e+002  1.5310e+000 61356 75063,75167,75115
 5.5000e+000 75262 -3.2989e+001 -1.6191e+002 -8.1551e+000 61356 75037,75167,75063
 5.5000e+000 75239  4.6621e+000 -1.5698e+002 -1.0629e+000 61356 75115,75167,75141
 5.5000e+000 75216 -1.0657e+001 -1.4390e+002  5.1556e+000 61356 75063,75115,75089
 5.5000e+000 75193 -6.9958e+001 -1.3095e+002  9.5405e+000 61356 75011,75167,75037
 5.5000e+000 75631 -1.1278e+001 -1.2134e+002  4.5850e+000 60952 75654,75412,75360
 5.5000e+000 75608 -2.2855e+001 -1.3977e+002 -2.7158e+000 60952 75654,75360,75334
 5.5000e+000 75585 -2.5647e+001 -1.8232e+002  1.0291e+001 60952 75726,75438,75412
 5.5000e+000 75562 -1.6448e+001 -1.4028e+002 -2.1655e+001 60952 75308,75490,75334
 5.5000e+000 75539 -1.6150e+001 -1.2188e+002  8.4233e-001 60952 75360,75412,75386
 5.5000e+000 75516 -3.6168e+001 -2.1756e+002 -7.9076e+000 60952 75438,75490,75464
 5.5000e+000 75680 -1.0917e+001 -1.4977e+002  4.7705e+000 60952 75726,75412,75654
 5.5000e+000 75703 -1.0994e+001 -1.4055e+002 -4.8494e+000 60952 75490,75654,75334
 5.5000e+000 75752 -1.2904e+001 -1.4480e+002 -3.2064e-001 60952 75490,75438,75726
 5.5000e+000 75775 -1.3548e+001 -1.4212e+002 -5.7870e+000 60952 75490,75726,75654
 5.5000e+000 76155 -2.7336e+001 -1.4722e+002 -1.0117e+000 60754 75933,75985,75959
 5.5000e+000 76132 -4.2318e+001 -1.5657e+002  1.5715e+001 60754 75933,76037,75985
 5.5000e+000 76109  1.7454e-001 -1.5087e+002  4.5973e+000 60754 75985,76037,76011
 5.5000e+000 76086 -6.3818e+001 -1.3239e+002  3.6800e+000 60754 75881,76037,75933
 5.5000e+000 76063 -8.6515e+001 -1.2215e+002  3.0286e+001 60754 75881,75933,75907
 5.5000e+000 76612 -2.8047e+001 -1.3993e+002  7.4281e+000 60350 76635,76442,76390
 5.5000e+000 76589 -3.5707e+000 -1.5986e+002  1.2548e+001 60350 76635,76390,76364
 5.5000e+000 76566 -8.7285e+000 -2.0642e+002 -1.3421e+001 60350 76364,76494,76468
 5.5000e+000 76543 -2.7482e+000 -1.2773e+002  1.2795e+001 60350 76390,76442,76416
 5.5000e+000 76520 -7.4283e+001 -1.2972e+002 -3.2179e+001 60350 76338,76494,76364
 5.5000e+000 76661 -4.1004e+001 -1.5381e+002  1.3592e+001 60350 76468,76442,76635
 5.5000e+000 76684 -2.2857e+001 -1.7565e+002  2.0775e+001 60350 76468,76635,76364
 5.5000e+000 76932 -5.7392e+001 -1.6379e+002  1.3170e+000 59946 76955,76733,76707
 5.5000e+000 76909 -5.7957e+001 -1.6451e+002  3.9089e+000 59946 77027,76955,76707
 5.5000e+000 76886 -5.5420e+001 -1.6578e+002  3.0889e+000 59946 77027,76707,76837
 5.5000e+000 76863 -2.5765e+001 -1.7896e+002 -1.8136e+001 59946 76733,76785,76759
 5.5000e+000 76981 -6.5394e+001 -1.6460e+002 -2.1357e+000 59946 76785,76733,76955
 5.5000e+000 77004 -5.9207e+001 -1.5696e+002  1.9521e+000 59946 76785,76955,76811
 5.5000e+000 77053 -5.4926e+001 -1.6221e+002  5.0285e+000 59946 76811,76955,77027
 5.5000e+000 77076 -5.3675e+001 -1.6452e+002  3.8729e+000 59946 76811,77027,76837
 5.5000e+000 77226 -6.6124e+001 -1.7200e+002  4.3748e+000 59542 77099,77151,77125
 5.5000e+000 77203 -8.5775e+001 -2.1084e+002  1.1337e+001 59542 77099,77177,77151
 5.5000e+000 77427 -8.8332e+001 -1.8045e+002 -1.1225e+001 59030 77450,77277,77251
 5.5000e+000 77404 -5.6096e+001 -1.4876e+002 -4.9065e+001 59030 77450,77251,77355
 5.5000e+000 77381 -2.2885e+001 -2.1072e+002 -4.9355e+000 59030 77277,77329,77303
 5.5000e+000 77476 -4.8453e+001 -1.8689e+002 -3.1998e+001 59030 77329,77277,77450
 5.5000e+000 77499 -1.2244e+001 -1.7195e+002 -6.1981e+001 59030 77329,77450,77355
 5.5000e+000 77749 -7.1247e+001 -2.2554e+002  1.8017e+001 58426 77772,77628,77602
 5.5000e+000 77726 -4.5105e+001 -2.5721e+002  4.9836e+001 58426 77524,77654,77628
 5.5000e+000 77703 -5.9689e+001 -2.2269e+002  1.3660e+001 58426 77772,77602,77550
 5.5000e+000 77680 -3.7474e+001 -2.0978e+002 -9.4993e+000 58426 77550,77602,77576
 5.5000e+000 77798 -5.7710e+001 -2.2759e+002  1.7392e+001 58426 77524,77628,77772
 5.5000e+000 77821 -5.1428e+001 -2.2740e+002  1.1824e+001 58426 77524,77772,77550
 5.5000e+000 78071 -9.3013e+001 -2.0271e+002  2.1040e+001 57922 78094,77924,77898
 5.5000e+000 78048 -1.0620e+002 -2.0176e+002  2.8000e+000 57922 78094,77898,77872
 5.5000e+000 78025 -8.7389e+001 -1.8221e+002  2.0942e+001 57922 78166,77846,77950
 5.5000e+000 78002 -4.6890e+001 -1.7675e+002  2.3081e+001 57922 77846,77976,77950
 5.5000e+000 78120 -7.8101e+001 -1.9936e+002  1.4708e+001 57922 77950,77924,78094
 5.5000e+000 78143 -8.8836e+001 -1.8557e+002  1.5460e+001 57922 78166,77950,78094
 5.5000e+000 78192 -8.2803e+001 -1.9123e+002  1.5299e+001 57922 77872,77846,78166
 5.5000e+000 78215 -8.9203e+001 -2.0072e+002  9.3790e+000 57922 77872,78166,78094
 5.5000e+000 78416  1.6982e+001 -1.7201e+002 -8.2282e+000 57468 78439,78292,78240
 5.5000e+000 78393 -1.0059e+001 -1.6283e+002  6.6137e-001 57468 78439,78240,78344
 5.5000e+000 78370  4.8713e+000 -2.3234e+002 -6.1484e+000 57468 78240,78292,78266
 5.5000e+000 78465 -9.3278e+000 -1.8521e+002 -1.3675e+001 57468 78318,78292,78439
 5.5000e+000 78488 -2.0374e+001 -1.6946e+002 -2.3035e+000 57468 78318,78439,78344
 5.5000e+000 78689  1.3995e+001 -2.0617e+002 -2.2474e+001 57014 78712,78539,78513
 5.5000e+000 78666 -1.5561e+001 -2.0451e+002 -3.2809e+000 57014 78712,78513,78617
 5.5000e+000 78643 -4.5141e+001 -2.0501e+002  2.1104e+001 57014 78565,78617,78591
 5.5000e+000 78738 -2.3819e+001 -1.7512e+002 -2.2683e+001 57014 78565,78539,78712
 5.5000e+000 78761 -6.6946e+001 -1.9933e+002  8.3444e+000 57014 78565,78712,78617
 5.5000e+000 79241 -6.7017e+001 -1.8312e+002  1.4424e+001 56652 79264,78895,78869
 5.5000e+000 79218 -3.1531e+001 -2.3800e+002 -1.4420e+001 56652 79264,78869,79051
 5.5000e+000 79195 -4.6688e+001 -2.0777e+002 -4.8402e+001 56652 78869,79077,79051
 5.5000e+000 79172 -5.1441e+001 -1.2211e+002 -2.6705e+001 56652 78895,78973,78947
 5.5000e+000 79149 -8.6137e+001 -3.5820e+002 -2.9715e+001 56652 78973,79051,78999
 5.5000e+000 79126 -4.5021e+001 -1.1373e+002 -2.9536e+001 56652 78895,78947,78921
 5.5000e+000 79103 -6.4497e+001 -2.3286e+002  5.5032e+001 56652 78999,79051,79025
 5.5000e+000 79290 -3.9756e+001 -1.4873e+002  3.3319e+001 56652 78973,78895,79264
 5.5000e+000 79313 -1.7726e+000 -2.0755e+002  6.2339e+000 56652 78973,79264,79051
 5.5000e+000 79512 -2.0770e+001 -2.6834e+002  2.0642e+001 56062 79388,79440,79414
 5.5000e+000 79489 -9.7687e+001 -1.3740e+002  3.5817e+001 56062 79336,79440,79388
 5.5000e+000 79466 -3.3292e+001 -1.8486e+002  4.3152e+001 56062 79336,79388,79362
 5.5000e+000 79941 -2.7112e+001 -1.4047e+002  2.4229e+001 55658 79964,79670,79644
 5.5000e+000 79918 -4.2492e+001 -1.4365e+002  2.7382e+001 55658 79964,79644,79800
 5.5000e+000 79895 -3.9680e+001 -1.5094e+002  1.3288e+001 55658 80036,79696,79670
 5.5000e+000 79872 -4.5833e+001 -1.2553e+002 -1.3925e+000 55658 80108,79722,79696
 5.5000e+000 79849 -6.7346e+001 -1.2485e+002  8.0080e+000 55658 79722,79774,79748
 5.5000e+000 79826  4.5529e-001 -1.2868e+002  8.0310e+000 55658 79618,79800,79644
 5.5000e+000 79990 -4.4069e+001 -1.5180e+002  1.8612e+001 55658 80036,79670,79964
 5.5000e+000 80013 -3.8910e+001 -1.3232e+002  2.8535e+001 55658 79774,79964,79800
 5.5000e+000 80062 -3.2864e+001 -1.3597e+002  1.1143e+001 55658 80108,79696,80036
 5.5000e+000 80085 -4.2923e+001 -1.3347e+002  2.4695e+001 55658 79774,80036,79964
 5.5000e+000 80134 -7.1154e+001 -1.3714e+002  4.6482e+000 55658 79774,79722,80108
 5.5000e+000 80157 -6.3762e+001 -1.5061e+002  1.7211e+001 55658 79774,80108,80036
 5.5000e+000 80307 -8.7267e+001 -1.4317e+002  1.4917e+001 55254 80402,80330,80206
 5.5000e+000 80284 -8.4546e+001 -1.9476e+002  1.6564e+001 55254 80330,80180,80258
 5.5000e+000 80356 -1.0108e+002 -1.7442e+002  3.4124e+001 55254 80232,80206,80330
 5.5000e+000 80379 -3.3307e+001 -1.4375e+002  5.0792e+001 55254 80232,80330,80258
 5.5000e+000 80428 -1.1493e+002 -1.7449e+002  2.1526e+000 55254 80180,80330,80402
 5.5000e+000 80659 -3.9939e+001 -2.0704e+002 -1.6215e+001 54850 80558,80610,80584
 5.5000e+000 80636 -5.2930e+000 -1.9813e+002 -1.9222e+001 54850 80532,80610,80558
 5.5000e+000 80760 -1.3268e+001 -1.3732e+002 -1.0374e+001 54652 80682,80734,80708
 5.5000e+000 81164 -1.1255e+001 -1.4597e+002 -2.3847e+000 54248 81187,80942,80890
 5.5000e+000 81141 -1.3606e+001 -1.4701e+002 -1.4937e+000 54248 81187,80890,81046
 5.5000e+000 81118 -1.6177e+001 -1.5415e+002  3.2013e+001 54248 80942,81020,80994
 5.5000e+000 81095 -1.0339e+001 -1.4764e+002  6.0228e-001 54248 80890,80942,80916
 5.5000e+000 81072 -2.3704e+001 -8.6976e+001  5.4377e+000 54248 80942,80994,80968
 5.5000e+000 81213 -1.3906e+001 -1.4476e+002 -2.2631e+000 54248 81020,80942,81187
 5.5000e+000 81236 -1.5776e+001 -1.4519e+002 -1.6987e+000 54248 81020,81187,81046
 5.5000e+000 81663 -8.8676e+001 -1.6375e+002  1.4815e+001 53594 81340,81444,81366
 5.5000e+000 81640 -8.4017e+001 -2.3973e+002  6.4663e+000 53594 81340,81470,81444
 5.5000e+000 81617 -4.1046e+001 -2.1031e+002 -2.0775e+001 53594 81340,81522,81470
 5.5000e+000 81594 -5.0055e+001 -1.1849e+002 -1.3334e+001 53594 81392,81444,81418
 5.5000e+000 81571 -6.5030e+001 -1.4120e+002 -2.0621e+001 53594 81366,81444,81392
 5.5000e+000 81548 -9.7696e-002 -2.8708e+002  3.2431e+001 53594 81470,81522,81496
 5.5000e+000 81943 -2.2671e+001 -1.1218e+002 -1.4164e+001 53104 81966,81845,81819
 5.5000e+000 81920 -3.4465e+001 -9.1773e+001 -1.7787e+001 53104 81966,81819,81767
 5.5000e+000 81897 -3.5129e+001 -9.3558e+001 -1.7540e+001 53104 81767,81819,81793
 5.5000e+000 81992 -1.4831e+001 -9.9322e+001 -1.7466e+001 53104 81871,81845,81966
 5.5000e+000 82015 -2.0923e+001 -7.0624e+001 -2.3865e+001 53104 81871,81966,81767
 5.5000e+000 82491 -2.3652e+001 -1.1365e+002 -1.1590e+001 52650 82145,82249,82171
 5.5000e+000 82468 -9.2571e+001 -1.3343e+002 -1.6250e+001 52650 82145,82301,82249
 5.5000e+000 82445 -9.8226e+001 -2.0342e+002 -3.4061e+001 52650 82249,82301,82275
 5.5000e+000 82422 -5.4215e+001 -2.5728e+002 -4.7089e+001 52650 82119,82301,82145
 5.5000e+000 82399 -3.1990e+001 -8.9630e+001  1.0296e+001 52650 82171,82249,82223
 5.5000e+000 82376  2.7818e+000 -2.3554e+002 -2.7215e+001 52650 82119,82327,82301
 5.5000e+000 82353 -8.2735e+000 -4.5975e+001 -1.8855e+001 52650 82171,82223,82197
 5.5000e+000 82739 -2.9930e+001 -1.0159e+002  7.6947e-001 52246 82762,82540,82514
 5.5000e+000 82716 -2.0020e+001 -4.3905e+001 -8.8473e+000 52246 82762,82514,82644
 5.5000e+000 82693 -4.9860e+001 -1.1440e+002  2.4064e+001 52246 82540,82618,82592
 5.5000e+000 82670 -5.3146e+001 -1.0238e+002  1.5582e+001 52246 82540,82592,82566
 5.5000e+000 82788 -1.9949e+001 -1.2929e+002  6.7866e+000 52246 82618,82540,82762
 5.5000e+000 82811 -3.4431e+001 -1.1106e+002 -9.7540e+000 52246 82618,82762,82644
 5.5000e+000 83059 -1.6835e+001 -1.4857e+002  1.3887e+001 51578 82860,82964,82938
 5.5000e+000 83036 -1.7543e+000 -1.0256e+002 -3.2671e+001 51578 82834,82964,82860
 5.5000e+000 83013 -8.0724e+000 -1.1531e+002  2.9814e+001 51578 82860,82938,82886
 5.5000e+000 82990 -6.1451e+000 -7.6687e+001  6.6955e+000 51578 82886,82938,82912
 5.5000e+000 83309 -2.7780e+001 -8.2299e+001  2.4633e+001 51138 83332,83162,83136
 5.5000e+000 83286 -1.0210e+001 -1.0923e+002  7.7753e+000 51138 83332,83136,83110
 5.5000e+000 83263 -4.0652e+001 -1.1242e+002 -5.5471e+000 51138 83404,83214,83188
 5.5000e+000 83240  7.6426e-002 -6.5858e+001  6.3537e+000 51138 83084,83214,83110
 5.5000e+000 83358 -4.7065e+001 -1.1649e+002  3.4107e+001 51138 83188,83162,83332
 5.5000e+000 83381 -2.8368e+001 -1.2571e+002  6.7797e+000 51138 83404,83188,83332
 5.5000e+000 83430 -2.4918e+001 -7.8504e+001 -1.3607e+000 51138 83110,83214,83404
 5.5000e+000 83453 -1.5586e+001 -9.9345e+001  1.0676e+001 51138 83110,83404,83332
 5.5000e+000 83835 -2.7536e+001 -1.4186e+002 -1.2169e+000 50734 83613,83717,83691
 5.5000e+000 83812 -3.1498e+001 -1.5522e+002 -2.9197e+001 50734 83561,83717,83613
 5.5000e+000 83789 -1.8721e+001 -7.8589e+001 -4.2882e+001 50734 83561,83613,83587
 5.5000e+000 83766 -5.5786e+001 -9.7407e+001 -5.4083e-001 50734 83613,83691,83639
 5.5000e+000 83743 -5.9493e+001 -9.8385e+001  2.1902e+001 50734 83639,83691,83665
 5.5000e+000 84034 -3.5786e+001 -8.7588e+001  4.9626e+000 50230 84057,83884,83858
 5.5000e+000 84011 -3.5597e+001 -9.5080e+001 -8.2197e+000 50230 84129,84057,83858
 5.5000e+000 83988 -1.0543e+001 -1.0234e+002 -1.4474e+001 50230 84129,83858,83962
 5.5000e+000 84083 -1.8838e+001 -8.0225e+001  4.0648e+000 50230 83910,83884,84057
 5.5000e+000 84106 -2.2717e+001 -8.5685e+001  1.5063e+000 50230 83910,84057,83936
 5.5000e+000 84155 -3.0442e+000 -7.9800e+001 -7.8923e-001 50230 83936,84057,84129
 5.5000e+000 84178  6.4478e+000 -9.8161e+001 -1.0730e+001 50230 83936,84129,83962
 5.5000e+000 84558 -4.0799e+001 -1.1817e+002 -1.8974e+001 49768 84581,84388,84362
 5.5000e+000 84535 -8.4122e+001 -1.2064e+002 -7.6058e+000 49768 84581,84362,84310
 5.5000e+000 84512  2.9045e+000 -1.3068e+002 -2.1055e+001 49768 84653,84440,84414
 5.5000e+000 84489 -6.6305e+001 -1.3269e+002  1.0072e+001 49768 84310,84362,84336
 5.5000e+000 84466 -2.4110e+000 -9.4650e+001  1.4622e+001 49768 84284,84440,84310
 5.5000e+000 84607 -1.2225e+001 -1.0174e+002 -3.2243e+001 49768 84414,84388,84581
 5.5000e+000 84630 -1.4546e+001 -1.2220e+002 -1.4764e+001 49768 84653,84414,84581
 5.5000e+000 84679 -2.0639e+001 -1.2324e+002 -2.8945e+001 49768 84310,84440,84653
 5.5000e+000 84702 -4.5666e+001 -1.2330e+002 -2.9466e+001 49768 84310,84653,84581
 5.5000e+000 85159 -6.5978e+001 -1.6563e+002 -4.7501e+001 49192 84885,84937,84911
 5.5000e+000 85136 -6.4959e+001 -1.2673e+002 -3.3704e+001 49192 84885,85041,84937
 5.5000e+000 85113 -4.4031e+001 -1.0694e+002 -1.6087e+001 49192 84963,85041,84989
 5.5000e+000 85090 -3.8294e+001 -9.6101e+001 -2.1590e+001 49192 84937,85041,84963
 5.5000e+000 85067 -3.7585e+001 -1.0069e+002 -2.0016e+001 49192 84989,85041,85015
 5.5000e+000 85714 -6.7843e+001 -1.0956e+002  4.0258e-001 48638 85368,85498,85394
 5.5000e+000 85691 -8.4586e+001 -1.2804e+002  7.7682e+000 48638 85368,85524,85498
 5.5000e+000 85668 -7.9665e+001 -1.0676e+002  3.1486e+001 48638 85737,85420,85394
 5.5000e+000 85645 -6.5396e+001 -1.2040e+002  1.5967e+001 48638 85737,85394,85498
 5.5000e+000 85622 -5.0360e+001 -1.1998e+002  2.5571e+001 48638 85446,85498,85472
 5.5000e+000 85599 -2.1440e+001 -1.0371e+002  1.2702e+001 48638 85342,85524,85368
 5.5000e+000 85576 -8.1764e+001 -1.1841e+002  1.2938e+001 48638 85342,85550,85524
 5.5000e+000 85763 -5.5072e+001 -9.4108e+001  4.0112e+001 48638 85446,85420,85737
 5.5000e+000 85786 -5.5428e+001 -1.0925e+002  2.2667e+001 48638 85446,85737,85498
 5.5000e+000 86371 -5.8282e+001 -8.0304e+001 -4.4903e+000 48084 86100,86230,86178
 5.5000e+000 86348 -7.2578e+001 -1.0682e+002 -1.2053e+001 48084 86048,86230,86100
 5.5000e+000 86325 -5.3398e+001 -7.2307e+001  2.1354e+001 48084 86100,86178,86126
 5.5000e+000 86302 -3.9212e+001 -2.8235e+001 -2.2469e+001 48084 86048,86100,86074
 5.5000e+000 86279 -7.2366e+001 -1.3362e+002 -2.9783e+000 48084 86178,86230,86204
 5.5000e+000 86256 -4.8693e+001 -7.6485e+001  2.1657e+001 48084 86126,86178,86152
 5.5000e+000 86619 -3.9288e+001 -8.8797e+001  8.0536e+000 47630 86642,86446,86420
 5.5000e+000 86596 -4.7473e+001 -9.9433e+001 -1.2654e+001 47630 86642,86420,86394
 5.5000e+000 86573 -6.3901e+001 -1.1451e+002 -1.7732e+001 47630 86394,86524,86498
 5.5000e+000 86550 -2.7109e+001 -1.0228e+002  7.3131e+000 47630 86446,86498,86472
 5.5000e+000 86668 -4.9897e+001 -1.1246e+002  7.6225e-001 47630 86498,86446,86642
 5.5000e+000 86691 -5.3918e+001 -1.1586e+002 -1.9534e+001 47630 86498,86642,86394
 5.5000e+000 87022 -5.6913e+000 -6.2459e+001 -3.7102e+001 47226 87045,86875,86849
 5.5000e+000 86999 -2.6254e+000 -7.0880e+001 -3.4964e+001 47226 87045,86849,86797
 5.5000e+000 86976  7.2060e-001 -3.1774e+001 -1.0829e+001 47226 86797,86849,86823
 5.5000e+000 86953  1.0164e+000 -4.4352e+001 -2.0762e+001 47226 86875,86927,86901
 5.5000e+000 87071 -1.0689e+001 -6.8548e+001 -3.4947e+001 47226 86927,86875,87045
 5.5000e+000 87094 -5.4034e+000 -7.4306e+001 -3.3742e+001 47226 86927,87045,86797
 5.5000e+000 87244 -9.0154e+000 -1.2987e+002  3.5670e+001 46814 87267,87169,87143
 5.5000e+000 87221 -6.3228e+001 -1.1799e+002 -6.2342e+000 46814 87267,87143,87117
 5.5000e+000 87293 -6.7624e+000 -9.5211e+001  2.2571e+001 46814 87339,87267,87195
 5.5000e+000 87316 -1.9078e+000 -9.1713e+001  1.9438e+000 46814 87469,87267,87117
 5.5000e+000 87365 -5.3321e+000 -9.2488e+001  2.7409e+001 46814 87169,87267,87339
 5.5000e+000 87495 -4.8848e-001 -5.8537e+000 -1.4851e+000 46814 87195,87267,87469
 5.5000e+000 88001 -3.7475e+001 -8.6764e+001  2.4241e+001 46310 88024,87834,87808
 5.5000e+000 87978 -4.6764e+001 -8.8801e+001  1.4132e+001 46310 88024,87808,87756
 5.5000e+000 87955 -2.5720e+001 -1.1795e+002  6.6160e+000 46310 88096,87730,87860
 5.5000e+000 87932 -3.3480e+001 -1.1450e+002  1.5092e+001 46310 87756,87808,87782
 5.5000e+000 87909 -3.3074e+001 -1.3937e+002  5.2152e+000 46310 87678,87860,87730
 5.5000e+000 87886 -5.1546e+001 -2.3524e+002 -1.3067e+001 46310 87678,87730,87704
 5.5000e+000 88050 -3.2224e+001 -7.5696e+001  1.4276e+001 46310 87860,87834,88024
 5.5000e+000 88073 -2.5822e+001 -8.3557e+001  1.6995e+001 46310 88096,87860,88024
 5.5000e+000 88122 -3.2450e+001 -1.3419e+002 -5.2698e+000 46310 87756,87730,88096
 5.5000e+000 88145 -5.3462e+001 -1.2056e+002  5.4750e-001 46310 87756,88096,88024
 5.5000e+000 88572 -2.6687e+001 -1.1773e+002  8.5509e+000 45856 88249,88405,88275
 5.5000e+000 88549 -2.2125e+001 -3.6574e+001 -2.2509e+001 45856 88249,88431,88405
 5.5000e+000 88526 -6.2638e+001 -1.6796e+002 -2.2800e+001 45856 88327,88405,88353
 5.5000e+000 88503 -2.8152e+001 -1.4461e+002 -9.8978e+000 45856 88275,88405,88327
 5.5000e+000 88480 -5.3054e+001 -1.5162e+002 -3.0333e+001 45856 88353,88405,88379
 5.5000e+000 88457 -1.1391e+002 -3.0926e+002  2.5076e+001 45856 88275,88327,88301
 5.5000e+000 88950 -1.9072e+001 -6.9127e+001 -2.2909e+000 45658 88973,88754,88728
 5.5000e+000 88927 -1.6328e+001 -6.6971e+001 -1.2802e+000 45658 88973,88728,88676
 5.5000e+000 88904 -2.1286e+001 -7.9808e+001  2.8039e+001 45658 88676,88832,88806
 5.5000e+000 88881 -3.2335e+001 -9.8527e+001  8.7401e+000 45658 88676,88728,88702
 5.5000e+000 88858 -3.0917e+001 -6.7023e+001 -1.6635e+001 45658 88754,88806,88780
 5.5000e+000 88999 -2.0699e+001 -6.6234e+001 -1.2399e+000 45658 88806,88754,88973
 5.5000e+000 89022 -1.8880e+001 -6.5092e+001 -7.1994e-001 45658 88806,88973,88676
 5.5000e+000 89351 -3.5115e+001 -1.1884e+002 -5.6238e+000 45254 89152,89230,89204
 5.5000e+000 89328 -3.4365e+001 -1.1871e+002 -6.2407e+000 45254 89152,89256,89230
 5.5000e+000 89305 -1.2269e+001 -1.2589e+002 -1.6184e+001 45254 89126,89256,89152
 5.5000e+000 89282  9.1843e-001 -1.1809e+002 -2.1066e+001 45254 89152,89204,89178
 5.5000e+000 89523 -1.2224e+001 -7.8090e+001  2.1570e-001 45006 89422,89474,89448
 5.5000e+000 89500 -1.0656e+001 -7.7448e+001  1.4600e+000 45006 89396,89474,89422
 5.5000e+000 89673 -9.6125e+001 -1.6947e+002  1.4657e+001 44495 89572,89624,89598
 5.5000e+000 89650 -9.9292e+001 -1.7172e+002  9.6150e+000 44495 89546,89624,89572
 5.5000e+000 90104 -1.0651e+001 -1.2870e+002 -7.6621e+000 44005 90199,90127,89937
 5.5000e+000 90081 -2.5540e+001 -1.2546e+002  1.5194e+000 44005 90271,90127,89859
 5.5000e+000 90058 -3.6048e+000 -1.3174e+002 -7.9111e+000 44005 90199,89937,89885
 5.5000e+000 90035 -3.5517e+001 -1.1776e+002  7.2668e+000 44005 90271,89859,89807
 5.5000e+000 90012 -1.9311e+001 -1.4448e+002 -1.7135e+001 44005 89885,89937,89911
 5.5000e+000 89989 -1.0247e+001 -1.2576e+002  2.1027e+001 44005 89807,89859,89833
 5.5000e+000 90153 -2.7570e+001 -1.3497e+002 -5.5295e+000 44005 89963,89937,90127
 5.5000e+000 90176 -2.9660e+001 -1.4537e+002  2.5534e+000 44005 89963,90127,89781
 5.5000e+000 90225 -2.8605e+001 -1.2698e+002 -3.5168e+000 44005 89859,90127,90199
 5.5000e+000 90248 -1.2961e+001 -1.2418e+002 -4.7951e-001 44005 89859,90199,89885
 5.5000e+000 90297 -3.8907e+001 -1.3458e+002 -2.7172e+000 44005 89781,90127,90271
 5.5000e+000 90320 -4.4617e+001 -1.2473e+002  4.0050e+000 44005 89781,90271,89807
 5.5000e+000 90470 -1.9737e+001 -1.3377e+002 -3.2337e+000 43601 90493,90369,90343
 5.5000e+000 90447 -3.5004e+001 -1.0795e+002  9.5984e+000 43601 90493,90343,90421
 5.5000e+000 90519 -4.2846e+001 -1.8069e+002 -1.9676e+001 43601 90395,90369,90493
 5.5000e+000 90542 -3.4337e+001 -1.2658e+002 -3.2659e+000 43601 90395,90493,90421
 5.5000e+000 90922 -4.3769e+001 -1.4306e+002  8.4037e+000 43154 90945,90700,90674
 5.5000e+000 90899 -3.8382e+001 -1.4583e+002 -1.6925e+001 43154 90945,90674,90648
 5.5000e+000 90876 -4.7463e+001 -1.1252e+002 -1.1214e+001 43154 90648,90778,90752
 5.5000e+000 90853 -2.4639e+001 -2.2809e+002  6.8904e+000 43154 90700,90752,90726
 5.5000e+000 90830 -2.9914e+001 -1.1254e+002 -6.0072e+000 43154 90648,90804,90778
 5.5000e+000 90971 -5.0954e+001 -1.6524e+002  1.2812e+001 43154 90752,90700,90945
 5.5000e+000 90994 -4.3835e+001 -1.5928e+002 -1.1841e+001 43154 90752,90945,90648
 5.5000e+000 91451 -1.5033e+001 -1.1540e+002 -2.1752e+001 42650 91203,91255,91229
 5.5000e+000 91428  1.0285e+001 -1.0442e+002 -1.0419e+001 42650 91203,91333,91255
 5.5000e+000 91405 -3.1207e+000 -1.6601e+002 -2.8612e+001 42650 91177,91333,91203
 5.5000e+000 91382 -5.3860e+001 -1.8009e+002  2.3337e+001 42650 91255,91333,91281
 5.5000e+000 91359 -1.1237e+001 -1.5001e+002  7.7871e+000 42650 91281,91333,91307
 5.5000e+000 91721 -7.6759e+001 -1.7028e+002  1.2359e+001 42288 91496,91600,91522
 5.5000e+000 91698 -4.1727e+001 -9.9062e+001 -4.6831e+000 42288 91496,91626,91600
 5.5000e+000 91675 -4.6177e+001 -1.5185e+002  1.3565e+001 42288 91522,91574,91548
 5.5000e+000 91652 -3.8619e+001 -1.5541e+002  1.2977e+001 42288 91522,91600,91574
 5.5000e+000 92199 -1.1439e+002 -1.8421e+002 -5.0146e+000 41898 92222,91983,91879
 5.5000e+000 92176 -1.1759e+002 -2.0411e+002 -1.2937e+001 41898 92294,92222,91879
 5.5000e+000 92153 -1.2483e+002 -2.0160e+002 -1.8181e+001 41898 92294,91879,91853
 5.5000e+000 92130 -9.8506e+001 -1.0975e+002  1.2777e+001 41898 91879,91957,91931
 5.5000e+000 92107 -1.0189e+002 -1.7947e+002 -1.5390e-001 41898 91879,91983,91957
 5.5000e+000 92084 -1.1188e+002 -1.0597e+002  2.6441e+001 41898 91879,91931,91905
 5.5000e+000 92061 -1.0985e+002 -1.8203e+002 -1.4536e+001 41898 91827,92035,91853
 5.5000e+000 92248 -1.1236e+002 -2.0883e+002  8.6520e-002 41898 92009,91983,92222
 5.5000e+000 92271 -1.0980e+002 -2.1335e+002 -1.6928e+001 41898 92009,92222,92035
 5.5000e+000 92320 -1.0557e+002 -1.9977e+002 -1.3343e+001 41898 92035,92222,92294
 5.5000e+000 92343 -1.1081e+002 -1.9603e+002 -1.8218e+001 41898 92035,92294,91853
 5.5000e+000 92770 -3.3235e+001 -1.5680e+002 -1.2612e+001 41437 92865,92793,92525
 5.5000e+000 92747 -4.6618e+001 -1.7915e+002 -1.6316e+001 41437 92793,92473,92629
 5.5000e+000 92724 -1.3396e+001 -1.6313e+002 -2.3379e+001 41437 92865,92525,92499
 5.5000e+000 92701 -5.2429e+001 -1.3618e+002 -2.6569e+001 41437 92525,92603,92577
 5.5000e+000 92678  2.4927e+000 -1.7356e+002 -1.4590e+001 41437 92447,92629,92473
 5.5000e+000 92655 -7.9567e+001 -1.2004e+002 -1.5709e+001 41437 92525,92577,92551
 5.5000e+000 92819 -3.7172e+001 -1.6576e+002 -2.6596e+001 41437 92603,92525,92793
 5.5000e+000 92842 -7.4512e+001 -1.7880e+002 -4.6711e+001 41437 92603,92793,92629
 5.5000e+000 92891  4.8498e+000 -1.6823e+002 -1.4851e+001 41437 92473,92793,92865
 5.5000e+000 92914  3.2759e+001 -1.6393e+002 -3.0189e+001 41437 92473,92865,92499
 5.5000e+000 93243 -2.8471e+001 -2.4211e+002  8.7422e+001 41097 93044,93096,93070
 5.5000e+000 93220 -4.9451e+001 -2.1728e+002  4.7392e+001 41097 93044,93122,93096
 5.5000e+000 93197  1.1685e+001 -1.4222e+002  1.7555e+001 41097 93044,93148,93122
 5.5000e+000 93174 -4.1441e+001 -1.0761e+002  4.3861e+001 41097 93018,93148,93044
 5.5000e+000 93393 -4.7721e+000 -1.7891e+002  1.1945e+001 40643 93416,93292,93344
 5.5000e+000 93370 -7.4908e+000 -1.6683e+002  1.3532e+001 40643 93266,93344,93292
 5.5000e+000 93442 -6.0315e+000 -1.7500e+002  1.8581e+001 40643 93318,93292,93416
 5.5000e+000 93901 -5.3000e+001 -1.6155e+002 -1.1634e+001 40132 93924,93731,93705
 5.5000e+000 93878 -5.5188e+001 -1.6571e+002 -1.2715e+001 40132 93996,93924,93705
 5.5000e+000 93855 -6.5319e+001 -1.9049e+002 -4.6575e+000 40132 93996,93705,93653
 5.5000e+000 93832 -2.7409e+001 -1.8438e+002 -1.0602e+001 40132 93653,93705,93679
 5.5000e+000 93809 -5.3014e+001 -1.5759e+002  9.7467e-003 40132 93627,93783,93757
 5.5000e+000 93950 -5.1002e+001 -1.7075e+002 -1.3637e+001 40132 93757,93731,93924
 5.5000e+000 93973 -5.7490e+001 -1.5163e+002 -3.6853e+000 40132 93757,93924,93627
 5.5000e+000 94022 -7.3630e+001 -1.8129e+002  5.0000e+000 40132 93627,93924,93996
 5.5000e+000 94045 -6.8276e+001 -1.8988e+002  1.0924e+001 40132 93627,93996,93653
 5.5000e+000 94423 -1.2280e+001 -1.9392e+002 -2.7462e+001 39514 94149,94227,94175
 5.5000e+000 94400 -2.0147e+001 -1.8119e+002  2.0367e+001 39514 94149,94305,94227
 5.5000e+000 94377  4.0619e+000 -2.2668e+002 -2.6678e+001 39514 94175,94227,94201
 5.5000e+000 94354 -5.6468e+001 -1.7006e+002  8.5728e+000 39514 94227,94305,94279
 5.5000e+000 94331 -2.4282e+001 -1.5499e+002  1.6605e+001 39514 94227,94279,94253
 5.5000e+000 94573 -1.6292e+001 -1.0844e+002 -2.1164e+001 38822 94596,94498,94472
 5.5000e+000 94550  2.0092e+001 -1.1488e+002  2.5848e+001 38822 94596,94472,94446
 5.5000e+000 94622 -5.8087e+001 -1.2614e+002 -2.3839e+001 38822 94524,94498,94596
 5.5000e+000 94645 -4.8926e+001 -1.4365e+002  2.7891e+001 38822 94524,94596,94446
 5.5000e+000 95025 -1.0396e+001 -1.3810e+002 -9.7519e+000 38418 95048,94829,94777
 5.5000e+000 95002 -1.3810e+001 -1.4551e+002 -1.7093e+001 38418 95120,95048,94777
 5.5000e+000 94979 -9.5492e+000 -1.4563e+002 -1.5924e+001 38418 95120,94777,94751
 5.5000e+000 94956 -7.5767e+000 -1.3178e+002 -1.8584e+001 38418 95192,94881,94855
 5.5000e+000 94933 -4.0589e+001 -1.1769e+002 -7.5177e+000 38418 94777,94829,94803
 5.5000e+000 95074 -2.4710e+001 -1.8163e+002 -3.2168e+000 38418 94855,94829,95048
 5.5000e+000 95097 -1.1286e+001 -1.4460e+002 -1.9442e+001 38418 95192,94855,95048
 5.5000e+000 95146 -2.6067e+001 -1.4081e+002 -1.3321e+001 38418 94907,95048,95120
 5.5000e+000 95169 -1.5833e+001 -1.3614e+002 -1.0210e+001 38418 94907,95120,94751
 5.5000e+000 95218 -1.2437e+001 -1.0640e+002 -1.6939e+001 38418 94907,94881,95192
 5.5000e+000 95241 -2.1527e+001 -1.2795e+002 -1.4200e+001 38418 94907,95192,95048
 5.5000e+000 95511 -4.4299e+001 -1.4789e+002  8.5666e+000 38049 95312,95390,95364
 5.5000e+000 95488 -2.8496e+001 -1.4053e+002  6.2728e+000 38049 95312,95416,95390
 5.5000e+000 95465 -1.3362e+001 -1.3955e+002 -7.3454e+000 38049 95312,95364,95338
 5.5000e+000 95442 -1.2124e+001 -1.2559e+002  1.2539e+001 38049 95286,95416,95312
 5.5000e+000 95808 -4.4944e+001 -1.7771e+002 -4.9993e+000 37437 95831,95586,95560
 5.5000e+000 95785  1.7360e+001 -1.8512e+002 -7.8068e+000 37437 95831,95560,95534
 5.5000e+000 95762 -9.0203e+001 -1.6907e+002  6.6613e+000 37437 95586,95664,95638
 5.5000e+000 95739 -1.2772e+001 -8.4913e+001 -4.4732e+001 37437 95534,95690,95664
 5.5000e+000 95716 -8.7265e+001 -1.2039e+002  4.2499e+000 37437 95586,95638,95612
 5.5000e+000 95857 -8.5427e+001 -1.7096e+002  2.0380e+001 37437 95664,95586,95831
 5.5000e+000 95880 -1.9686e+001 -1.7667e+002  1.8516e+001 37437 95664,95831,95534
 5.5000e+000 96390 -6.2384e+001 -1.3411e+002 -8.2582e+000 36883 96413,96145,96093
 5.5000e+000 96367 -5.2463e+001 -1.2878e+002 -3.8515e+000 36883 96413,96093,96067
 5.5000e+000 96344 -3.7407e+001 -1.5966e+002 -6.1359e-001 36883 96067,96249,96171
 5.5000e+000 96321 -5.3835e+001 -1.5354e+002 -3.6771e+000 36883 96093,96145,96119
 5.5000e+000 96298 -7.6772e+001 -2.5993e+002  2.3534e+001 36883 96171,96249,96197
 5.5000e+000 96275 -2.0046e+001 -2.0970e+002 -2.4235e+000 36883 96197,96249,96223
 5.5000e+000 96439 -5.8554e+001 -1.2801e+002  2.7159e-001 36883 96171,96145,96413
 5.5000e+000 96462 -5.0973e+001 -1.2706e+002  3.8738e+000 36883 96171,96413,96067
 5.5000e+000 96781 -4.9400e+001 -1.5414e+002 -2.2617e+001 36215 96559,96663,96637
 5.5000e+000 96758 -6.2150e+001 -1.6451e+002 -2.7093e+001 36215 96507,96663,96559
 5.5000e+000 96735 -6.0685e+001 -1.1107e+002  1.1772e+001 36215 96585,96637,96611
 5.5000e+000 96712 -1.3009e+002 -1.7866e+002 -1.9793e+001 36215 96559,96637,96585
 5.5000e+000 96689 -2.3924e+001 -1.8339e+002 -5.3625e+000 36215 96507,96559,96533
 5.5000e+000 97161  2.9667e+000 -8.2836e+001 -3.3455e+000 35818 97184,96965,96939
 5.5000e+000 97138 -7.2872e+000 -9.4887e+001 -8.6706e+000 35818 97184,96939,96887
 5.5000e+000 97115 -5.8309e+000 -1.0681e+002  1.9371e+001 35818 96965,97043,97017
 5.5000e+000 97092 -3.4780e+000 -9.0133e+001 -1.0488e+001 35818 96887,96939,96913
 5.5000e+000 97069 -5.7312e+001 -1.0836e+002  1.2193e+001 35818 96965,97017,96991
 5.5000e+000 97210  1.4175e+001 -9.3342e+001  3.7008e+000 35818 97043,96965,97184
 5.5000e+000 97233  5.7664e+000 -1.0171e+002 -6.6320e-001 35818 97043,97184,96887
 5.5000e+000 97739 -5.0816e+001 -1.5265e+002 -3.7346e+001 35214 97416,97468,97442
 5.5000e+000 97716 -6.0061e+001 -1.0933e+002 -1.2350e+001 35214 97416,97598,97468
 5.5000e+000 97693 -4.9991e+001 -1.0126e+002 -4.8955e+000 35214 97762,97520,97468
 5.5000e+000 97670 -5.3217e+001 -1.0455e+002 -9.1415e+000 35214 97762,97468,97598
 5.5000e+000 97647 -4.0479e+001 -1.0105e+002 -1.5302e+001 35214 97546,97598,97572
 5.5000e+000 97624 -3.1260e+001 -1.0296e+002 -6.9286e+000 35214 97468,97520,97494
 5.5000e+000 97788 -5.1547e+001 -1.0657e+002 -7.9523e+000 35214 97546,97520,97762
 5.5000e+000 97811 -5.2963e+001 -1.0900e+002 -1.1859e+001 35214 97546,97762,97598
 5.5000e+000 98189 -5.6201e+000 -7.8372e+001 -9.0161e+000 34760 98356,98212,97967
 5.5000e+000 98166 -1.4625e+001 -9.2714e+001 -1.6876e+001 34760 98284,98212,97941
 5.5000e+000 98143 -3.1743e+001 -8.2502e+001 -8.8200e+000 34760 98284,97941,97915
 5.5000e+000 98120 -7.5627e+000 -1.0497e+002 -4.5311e+000 34760 98484,97993,97967
 5.5000e+000 98097 -7.1851e+000 -8.5648e+001 -2.9308e+000 34760 98556,98045,98019
 5.5000e+000 98238 -1.2000e+001 -9.8580e+001 -4.6500e+000 34760 98484,97967,98212
 5.5000e+000 98261  2.1205e+000 -9.0210e+001 -7.7441e+000 34760 98556,98019,98212
 5.5000e+000 98310 -1.0023e+000 -7.3457e+001 -2.2938e+001 34760 98071,98212,98284
 5.5000e+000 98333 -1.1246e+001 -4.7941e+001 -1.8069e+001 34760 98071,98284,97915
 5.5000e+000 98382 -4.7246e+001 -1.0429e+002 -2.0994e+001 34760 97941,98212,98356
 5.5000e+000 98510 -9.3160e-001 -9.9152e+001 -7.0644e+000 34760 98019,97993,98484
 5.5000e+000 98533 -7.9131e+000 -9.4859e+001 -6.4230e+000 34760 98019,98484,98212
 5.5000e+000 98582  4.5147e+000 -7.9591e+001 -4.6622e-001 34760 98071,98045,98556
 5.5000e+000 98605  8.3744e+000 -8.7446e+001 -6.3722e+000 34760 98071,98556,98212
 5.5000e+000 99032 -6.0626e+001 -1.3626e+002  2.0888e+001 34156 98735,98891,98839
 5.5000e+000 99009 -5.2420e+001 -1.4161e+002  9.3528e+000 34156 98709,98891,98735
 5.5000e+000 98986 -1.8426e+001 -1.2263e+002  1.9479e+001 34156 98735,98813,98787
 5.5000e+000 98963 -2.2359e+001 -1.3432e+002  1.7245e+001 34156 98735,98839,98813
 5.5000e+000 98940  8.2983e+000 -1.8340e+002  2.2422e+001 34156 98735,98787,98761
 5.5000e+000 98917 -5.6014e+001 -1.2433e+002  1.4925e+001 34156 98839,98891,98865
 5.5000e+000 99231 -1.4726e+001 -6.9164e+001  6.5332e+000 33766 99055,99133,99107
 5.5000e+000 99208 -2.9518e+001 -9.2340e+001  1.3514e+001 33766 99055,99159,99133
 5.5000e+000 99185 -7.6962e+000 -8.6967e+001  1.6589e+001 33766 99055,99107,99081
 5.5000e+000 99818 -3.1023e+001 -9.7837e+001  2.2573e+000 33248 99521,99651,99573
 5.5000e+000 99795 -3.0122e+001 -9.2959e+001  1.0130e+001 33248 99521,99677,99651
 5.5000e+000 99772 -4.9993e+001 -1.2293e+002 -6.8462e+000 33248 99573,99651,99599
 5.5000e+000 99749 -3.1550e+001 -1.1644e+002  1.1068e+001 33248 99495,99677,99521
 5.5000e+000 99726 -2.2120e+001 -1.0481e+002 -2.5021e+001 33248 99599,99651,99625
 5.5000e+000 99703 -3.9978e+001 -1.2024e+002  7.4757e+000 33248 99521,99573,99547
 5.5000e+000 100196 -3.6057e+001 -1.1132e+002 -2.1223e+001 32794 100219,99948,99922
 5.5000e+000 100173 -4.2074e+001 -1.2381e+002 -9.9487e+000 32794 100219,99922,100052
 5.5000e+000 100150 -5.5120e+001 -1.1103e+002  6.9681e+000 32794 99974,100052,100026
 5.5000e+000 100127 -5.1405e+001 -1.0109e+002 -1.6200e+001 32794 99922,100078,100052
 5.5000e+000 100104 -5.6143e+001 -1.3389e+002  2.5434e+001 32794 99974,100026,100000
 5.5000e+000 100245 -4.8794e+001 -1.0954e+002 -9.2548e+000 32794 99974,99948,100219
 5.5000e+000 100268 -5.2210e+001 -1.2597e+002  2.1318e+000 32794 99974,100219,100052
 5.5000e+000 100418 -8.4508e+000 -1.0759e+002 -1.2167e+001 32504 100571,100343,100317
 5.5000e+000 100395 -4.5450e+001 -1.2436e+002  1.0944e+001 32504 100571,100317,100441
 5.5000e+000 100467  3.1106e+001 -5.8897e+001 -3.3824e+001 32504 100291,100369,100441
 5.5000e+000 100597  7.9038e+000 -9.0085e+001 -4.1531e+001 32504 100369,100343,100571
 5.5000e+000 100620 -8.8723e+000 -8.4176e+001 -2.1556e+001 32504 100369,100571,100441
 5.5000e+000 101020 -1.1894e+001 -8.2369e+001  2.9541e+000 32142 100772,100902,100876
 5.5000e+000 100997 -7.3865e+000 -7.1806e+001  4.6640e+000 32142 100746,100902,100772
 5.5000e+000 100974  3.3385e+000 -9.0917e+001  1.2932e+001 32142 101043,100824,100798
 5.5000e+000 100951 -1.4313e+001 -9.9459e+001  9.3686e+000 32142 101043,100798,100772
 5.5000e+000 100928 -5.1313e+001 -1.1759e+002 -3.0635e+001 32142 101115,100876,100850
 5.5000e+000 101069  2.1670e+001 -1.0181e+002 -9.9697e+000 32142 100850,100824,101043
 5.5000e+000 101092 -2.3601e+001 -1.2182e+002 -1.4188e+001 32142 101115,100850,101043
 5.5000e+000 101141 -1.6969e+001 -9.6887e+001 -1.1674e+001 32142 100772,100876,101115
 5.5000e+000 101164  4.8308e+000 -9.9615e+001  6.1851e+000 32142 100772,101115,101043
 5.5000e+000 101719 -6.0210e+001 -1.4330e+002  1.9263e+001 31538 101742,101477,101399
 5.5000e+000 101696 -7.3588e+001 -1.7318e+002  4.9804e+000 31538 101814,101742,101399
 5.5000e+000 101673 -8.4032e+001 -1.4851e+002 -1.1085e+001 31538 101814,101399,101373
 5.5000e+000 101650 -6.0835e+001 -1.0298e+002  1.3916e+001 31538 101425,101477,101451
 5.5000e+000 101627 -5.6435e+001 -1.2161e+002  3.9063e+000 31538 101399,101477,101425
 5.5000e+000 101604 -3.5112e+001 -1.7620e+002  3.5474e+001 31538 101477,101529,101503
 5.5000e+000 101581 -2.2602e+001 -9.8893e+001 -8.4432e+000 31538 101347,101555,101373
 5.5000e+000 101768 -6.7741e+001 -1.7484e+002  1.8305e+001 31538 101529,101477,101742
 5.5000e+000 101791 -6.0301e+001 -1.8006e+002 -6.6729e+000 31538 101529,101742,101555
 5.5000e+000 101840 -4.7217e+001 -1.4802e+002 -6.6415e+000 31538 101555,101742,101814
 5.5000e+000 101863 -6.2579e+001 -1.2790e+002 -2.1378e+001 31538 101555,101814,101373
 5.5000e+000 102111 -9.2286e+001 -2.3283e+002  3.1180e+001 31112 101886,101990,101912
 5.5000e+000 102088 -3.4084e+001 -1.4030e+002  1.3921e+000 31112 101886,102016,101990
 5.5000e+000 102065 -4.1657e+001 -2.2122e+002  4.1633e+001 31112 101912,101990,101964
 5.5000e+000 102042 -6.2535e+001 -2.6595e+002  4.9102e+001 31112 101912,101964,101938
 5.5000e+000 102408 -2.3319e+001 -1.3769e+002  1.1555e+001 30658 102431,102186,102160
 5.5000e+000 102385 -4.7544e+001 -1.3554e+002 -1.2182e-001 30658 102431,102160,102264
 5.5000e+000 102362 -4.6245e+001 -1.5022e+002  2.6377e+000 30658 102186,102238,102212
 5.5000e+000 102339 -5.1532e+001 -1.4426e+002 -9.2517e+000 30658 102134,102264,102160
 5.5000e+000 102316 -3.5970e+001 -1.2082e+002 -4.1147e+001 30658 102134,102290,102264
 5.5000e+000 102457 -4.3241e+001 -1.4608e+002  6.1813e+000 30658 102238,102186,102431
 5.5000e+000 102480 -6.9165e+001 -1.4636e+002 -6.5081e+000 30658 102238,102431,102264
 5.5000e+000 102681 -1.8585e+001 -1.6456e+002  2.3678e+001 30004 102704,102557,102505
 5.5000e+000 102658 -2.1216e+001 -1.6832e+002  2.5328e+001 30004 102704,102505,102609
 5.5000e+000 102635  2.7556e+000 -1.3853e+002  6.1000e+000 30004 102505,102557,102531
 5.5000e+000 102730 -2.1522e+001 -1.5865e+002  2.1414e+001 30004 102583,102557,102704
 5.5000e+000 102753 -2.8086e+001 -1.6401e+002  2.4401e+001 30004 102583,102704,102609
 5.5000e+000 103003 -1.8920e+001 -1.3293e+002 -1.0513e+001 29564 103026,102804,102778
 5.5000e+000 102980 -2.4451e+001 -1.5876e+002 -1.5972e+001 29564 103026,102778,102908
 5.5000e+000 102957 -2.6253e+001 -1.3649e+002 -1.4144e+000 29564 102856,102908,102882
 5.5000e+000 102934 -3.6607e+001 -1.1984e+002  8.8737e+000 29564 102804,102856,102830
 5.5000e+000 103052 -1.7306e+001 -1.2034e+002  6.9368e+000 29564 102856,102804,103026
 5.5000e+000 103075 -2.4703e+001 -1.4127e+002 -9.3062e-001 29564 102856,103026,102908
 5.5000e+000 103634 -5.9387e+001 -1.5013e+002 -1.8089e+001 29160 103657,103418,103392
 5.5000e+000 103611 -5.5699e+001 -1.4306e+002 -8.3200e+000 29160 103657,103392,103314
 5.5000e+000 103588 -4.0937e+001 -1.2183e+002 -1.5090e+001 29160 103314,103392,103366
 5.5000e+000 103565 -3.4388e+001 -1.2909e+002 -1.8010e+001 29160 103314,103366,103340
 5.5000e+000 103542 -6.9058e+001 -1.3924e+002 -1.7439e+001 29160 103262,103444,103314
 5.5000e+000 103519 -8.3215e+001 -1.6636e+002 -2.5896e+001 29160 103262,103314,103288
 5.5000e+000 103496 -5.1881e+001 -1.5057e+002 -8.7601e+000 29160 103262,103470,103444
 5.5000e+000 103683 -7.4742e+001 -1.6278e+002 -3.0599e+001 29160 103444,103418,103657
 5.5000e+000 103706 -6.1308e+001 -1.4165e+002 -1.9212e+001 29160 103444,103657,103314
 5.5000e+000 104035 -4.0537e+001 -1.4435e+002  1.4035e+001 28770 103836,103914,103862
 5.5000e+000 104012 -3.8830e+001 -1.3728e+002  1.8882e+001 28770 103810,103914,103836
 5.5000e+000 103989  7.7131e+000 -1.2425e+002  2.2527e+001 28770 103810,103940,103914
 5.5000e+000 103966 -8.6701e+000 -1.1636e+002  2.8318e+001 28770 103862,103914,103888
 5.5000e+000 104185 -1.3103e+001 -1.2806e+002  2.4644e+001 28366 104208,104110,104084
 5.5000e+000 104162 -1.2715e+001 -1.1114e+002  1.8986e+001 28366 104280,104208,104084
 5.5000e+000 104234  2.6631e+001 -1.2950e+002  1.5141e+001 28366 104610,104208,104136
 5.5000e+000 104257 -2.3877e+001 -1.2242e+002  1.5819e+001 28366 104538,104410,104208
 5.5000e+000 104306 -4.0477e+001 -1.2414e+002  1.5519e+001 28366 104538,104208,104280
 5.5000e+000 104436 -7.1938e+000 -1.2772e+002  2.2096e+000 28366 104136,104208,104410
 5.5000e+000 104564 -4.1235e+001 -1.2135e+002  6.9690e+000 28366 104058,104410,104538
 5.5000e+000 104587 -5.1378e+001 -1.1917e+002  5.5041e+000 28366 104058,104538,104280
 5.5000e+000 104636  1.9402e+001 -1.3145e+002  2.0282e+001 28366 104110,104208,104610
 5.5000e+000 105349 -3.1646e+001 -1.1879e+002 -1.1762e+001 27976 105516,105372,105107
 5.5000e+000 105326 -5.1212e+001 -1.2130e+002  3.5100e+000 27976 105588,105372,105055
 5.5000e+000 105303 -5.5268e+001 -1.1778e+002 -1.3498e+001 27976 105444,105159,105133
 5.5000e+000 105280 -1.8483e+001 -1.2266e+002 -7.3740e+000 27976 105516,105107,105081
 5.5000e+000 105257 -4.7897e+001 -1.3432e+002  1.1540e+001 27976 105588,105055,105029
 5.5000e+000 105234 -2.5646e+001 -1.0166e+002  2.9064e+000 27976 105003,105185,105159
 5.5000e+000 105211 -3.5607e+001 -8.1866e+001  1.6801e+001 27976 104977,105185,105003
 5.5000e+000 105398 -2.5798e+001 -1.2229e+002 -1.5120e+001 27976 105133,105107,105372
 5.5000e+000 105421 -4.3424e+001 -1.2762e+002 -7.8096e+000 27976 105444,105133,105372
 5.5000e+000 105470 -4.4437e+001 -1.0130e+002 -7.1176e+000 27976 105003,105159,105444
 5.5000e+000 105493 -3.5810e+001 -1.1234e+002 -4.3959e+000 27976 105003,105444,105372
 5.5000e+000 105542 -2.2893e+001 -1.1869e+002 -3.2202e-001 27976 105055,105372,105516
 5.5000e+000 105565 -2.7337e+000 -1.1965e+002  2.5990e+000 27976 105055,105516,105081
 5.5000e+000 105614 -5.8380e+001 -1.3414e+002  9.7731e+000 27976 105003,105372,105588
 5.5000e+000 105637 -5.6933e+001 -1.4682e+002  1.8574e+001 27976 105003,105588,105029
 5.5000e+000 106143 -5.2111e+001 -1.7625e+002  1.1000e+001 27664 106166,105846,105820
 5.5000e+000 106120 -3.5417e+001 -1.3095e+002  5.2888e+000 27664 106310,106166,105820
 5.5000e+000 106097 -1.6131e+001 -1.5906e+002 -3.2890e+001 27664 106382,106238,105950
 5.5000e+000 106074 -2.3288e+001 -1.2705e+002  4.5269e+000 27664 106310,105820,106002
 5.5000e+000 106051  1.3222e+001 -1.4357e+002 -2.7094e+001 27664 106382,105950,105924
 5.5000e+000 106028 -4.3499e+000 -2.5814e+002 -7.6390e+000 27664 105846,105898,105872
 5.5000e+000 106192 -4.6763e+001 -1.9716e+002 -2.6278e+001 27664 105898,105846,106166
 5.5000e+000 106215 -2.7449e+001 -1.6456e+002 -1.0608e+001 27664 106238,105898,106166
 5.5000e+000 106264 -8.6770e+001 -1.7714e+002 -4.3638e+001 27664 105976,105950,106238
 5.5000e+000 106287 -2.8045e+001 -1.6174e+002 -1.1410e+001 27664 105976,106238,106166
 5.5000e+000 106336 -2.3023e+001 -1.4064e+002  1.7255e+001 27664 105976,106166,106310
 5.5000e+000 106359 -8.8286e+000 -1.3559e+002  1.5970e+001 27664 105976,106310,106002
 5.5000e+000 106408 -2.9726e+001 -1.3521e+002  9.7643e-002 27664 105898,106238,106382
 5.5000e+000 106431 -1.1739e+001 -1.2668e+002  3.2641e+000 27664 105898,106382,105924
 5.5000e+000 106728 -1.4249e+001 -9.4049e+001  1.7775e+001 27153 106751,106506,106454
 5.5000e+000 106705 -1.3893e+001 -9.6126e+001  1.4647e+001 27153 106751,106454,106610
 5.5000e+000 106682 -2.3690e+001 -7.2928e+001  4.0286e+000 27153 106454,106506,106480
 5.5000e+000 106659 -2.2376e+001 -9.2711e+001  1.0191e+001 27153 106532,106610,106584
 5.5000e+000 106636 -3.6979e+001 -5.2906e+001  2.0935e+001 27153 106532,106584,106558
 5.5000e+000 106777 -1.0417e+001 -9.1343e+001  1.8999e+001 27153 106532,106506,106751
 5.5000e+000 106800 -1.1261e+001 -9.4404e+001  1.5391e+001 27153 106532,106751,106610
 5.5000e+000 107180 -1.7814e+001 -1.1627e+002  6.8857e+000 26642 107203,106984,106958
 5.5000e+000 107157 -5.7340e+001 -1.3434e+002  1.5868e+000 26642 107203,106958,106932
 5.5000e+000 107134 -6.8648e+001 -1.4747e+002 -2.1495e+001 26642 107275,107036,107010
 5.5000e+000 107111 -4.4725e+001 -1.4440e+002 -2.7798e+001 26642 106932,107062,107036
 5.5000e+000 107088 -1.3439e+000 -1.1298e+002  1.2955e+001 26642 106906,107062,106932
 5.5000e+000 107229  2.2680e+000 -1.0802e+002 -3.6314e+001 26642 107010,106984,107203
 5.5000e+000 107252 -6.0268e+001 -1.3671e+002 -2.6172e+001 26642 107275,107010,107203
 5.5000e+000 107301 -5.8470e+001 -1.4581e+002 -2.7538e+001 26642 106932,107036,107275
 5.5000e+000 107324 -5.5392e+001 -1.4618e+002 -2.9080e+001 26642 106932,107275,107203
 5.5000e+000 107675 -3.3408e+001 -8.9427e+001  1.0336e+001 26045 107450,107554,107476
 5.5000e+000 107652 -2.7155e+001 -7.8987e+001  4.4768e+000 26045 107450,107580,107554
 5.5000e+000 107629 -1.3883e+001 -6.5950e+001  1.0732e+000 26045 107476,107528,107502
 5.5000e+000 107606 -8.0149e+000 -8.2824e+001  6.8967e+000 26045 107476,107554,107528
 5.5000e+000 107874 -2.2589e+001 -1.3138e+002  3.3120e+001 25641 107750,107802,107776
 5.5000e+000 107851 -2.7685e+001 -9.2280e+001  1.8459e+001 25641 107724,107802,107750
 5.5000e+000 107828 -3.0888e+001 -9.3429e+001  1.8511e+001 25641 107698,107802,107724
 5.5000e+000 108431 -1.0807e+001 -1.4310e+002  2.6227e+001 25023 108526,108267,108241
 5.5000e+000 108408 -2.3143e-001 -1.3494e+002  4.9871e+000 25023 108059,108267,108085
 5.5000e+000 108385 -1.9808e+001 -1.4791e+002  2.6023e+001 25023 108454,108163,108111
 5.5000e+000 108362 -6.7142e+001 -1.4864e+002  4.4391e+001 25023 108454,108111,108085
 5.5000e+000 108339 -5.2109e+001 -1.9211e+002  4.4762e+001 25023 108111,108163,108137
 5.5000e+000 108316 -3.4990e+001 -1.0679e+002 -7.1804e+000 25023 108163,108241,108215
 5.5000e+000 108293  1.1967e+001 -8.5453e+001  4.4479e-002 25023 108163,108215,108189
 5.5000e+000 108480 -3.7377e+000 -1.3148e+002  2.0670e+000 25023 108241,108163,108454
 5.5000e+000 108503 -2.0719e+001 -1.4005e+002  2.5645e+001 25023 108526,108241,108454
 5.5000e+000 108552 -2.2828e+001 -1.4290e+002  2.0532e+001 25023 108085,108267,108526
 5.5000e+000 108575 -3.3277e+001 -1.4047e+002  1.9714e+001 25023 108085,108526,108454
 5.5000e+000 108823  4.5340e+000 -1.0247e+002  1.5609e+001 24461 108624,108728,108650
 5.5000e+000 108800 -1.2997e+001 -2.1799e+002 -1.5639e+001 24461 108598,108728,108624
 5.5000e+000 108777  2.2667e-001 -1.3462e+002  1.0853e+001 24461 108650,108728,108676
 5.5000e+000 108754 -5.9693e+001 -3.8511e+002  3.3541e+001 24461 108676,108728,108702
 5.5000e+000 109022 -3.8169e+001 -1.0670e+002  1.5503e+001 24121 108872,108924,108898
 5.5000e+000 108999 -2.5687e+001 -1.0545e+002  1.7520e+001 24121 108846,108924,108872
 5.5000e+000 108976 -4.4779e+001 -1.1379e+002  1.8659e+001 24121 108846,108950,108924
 5.5000e+000 109483 -4.4963e+001 -1.4884e+002 -1.4367e+001 23717 109209,109339,109235
 5.5000e+000 109460 -1.6716e+001 -1.6833e+002 -3.4862e+001 23717 109209,109365,109339
 5.5000e+000 109437 -3.9107e-001 -1.8759e+002 -1.1000e+001 23717 109287,109339,109313
 5.5000e+000 109414 -8.4378e+001 -1.8869e+002  1.0502e+001 23717 109235,109339,109287
 5.5000e+000 109391  6.1075e+000 -2.2188e+002  8.2179e+001 23717 109235,109287,109261
 5.5000e+000 109910 -5.9177e+001 -1.7477e+002 -1.8240e+001 23305 109613,109743,109717
 5.5000e+000 109887 -5.8662e+001 -1.7574e+002 -1.1761e+001 23305 109613,109769,109743
 5.5000e+000 109864 -7.0522e+001 -1.6706e+002 -1.6064e+001 23305 109613,109717,109639
 5.5000e+000 109841 -4.5008e+001 -1.6131e+002 -5.1759e+000 23305 109587,109769,109613
 5.5000e+000 109818  1.5880e+000 -1.3648e+002  1.2556e+001 23305 109639,109717,109691
 5.5000e+000 109795 -1.3391e+001 -1.0800e+002 -2.6547e+001 23305 109639,109691,109665
 5.5000e+000 110180 -3.5742e+000 -4.9740e+001 -1.1060e+001 22851 110007,110059,110033
 5.5000e+000 110157 -3.5387e+001 -1.3660e+002  6.5525e+000 22851 109981,110059,110007
 5.5000e+000 110134 -5.0156e+001 -1.4842e+002  8.0995e-001 22851 109955,110059,109981
 5.5000e+000 110111 -2.0074e+001 -1.6502e+002 -1.2825e+001 22851 109955,110085,110059
 5.5000e+000 110737 -1.6509e+001 -1.5097e+002 -4.2081e+001 22333 110760,110469,110391
 5.5000e+000 110714 -3.1996e+000 -1.7513e+002 -3.2497e+001 22333 110760,110391,110365
 5.5000e+000 110691 -1.2396e+001 -1.3517e+002 -3.3520e+001 22333 110832,110521,110469
 5.5000e+000 110668 -3.2835e+001 -2.6947e+002  2.0446e+001 22333 110417,110469,110443
 5.5000e+000 110645 -6.9193e+001 -2.4042e+002  1.2397e+001 22333 110391,110469,110417
 5.5000e+000 110622 -2.1772e+000 -1.3706e+002 -1.6561e+001 22333 110469,110521,110495
 5.5000e+000 110599 -1.1322e+001 -9.5487e+001  1.2025e+001 22333 110365,110573,110547
 5.5000e+000 110786 -7.6164e+000 -1.3926e+002 -3.8173e+001 22333 110832,110469,110760
 5.5000e+000 110809  1.1866e+001 -1.5170e+002 -2.5926e+001 22333 110547,110760,110365
 5.5000e+000 110858 -1.2470e+001 -1.4438e+002 -3.2558e+001 22333 110547,110521,110832
 5.5000e+000 110881 -1.1647e+001 -1.5317e+002 -3.8296e+001 22333 110547,110832,110760
 5.5000e+000 111308 -7.5640e+001 -1.8363e+002  1.3347e+001 21829 111331,111063,111011
 5.5000e+000 111285 -6.6325e+001 -1.6770e+002 -3.5459e+000 21829 111331,111011,111167
 5.5000e+000 111262 -7.8314e+001 -1.8385e+002  1.4210e+001 21829 111403,111089,111063
 5.5000e+000 111239 -9.7198e+001 -1.9792e+002  2.9021e+001 21829 111011,111063,111037
 5.5000e+000 111216 -4.3464e+001 -1.2340e+002  5.7828e+000 21829 110985,111167,111011
 5.5000e+000 111193 -9.9422e+001 -3.2329e+002  7.0770e+001 21829 111089,111141,111115
 5.5000e+000 111357 -7.5742e+001 -1.8619e+002  1.4128e+001 21829 111403,111063,111331
 5.5000e+000 111380 -7.8437e+001 -1.9221e+002  4.0199e-001 21829 111141,111331,111167
 5.5000e+000 111429 -8.5290e+001 -1.8728e+002  1.5308e+001 21829 111141,111089,111403
 5.5000e+000 111452 -7.9500e+001 -1.8833e+002  1.5242e+001 21829 111141,111403,111331
 5.5000e+000 112056  6.1819e+001 -1.3383e+002  4.1423e+000 21489 111687,111765,111739
 5.5000e+000 112033  1.9930e+001 -1.5511e+002  1.5691e+001 21489 112151,112079,111687
 5.5000e+000 112010  2.1585e+000 -2.4147e+002  1.2351e+001 21489 111791,111843,111817
 5.5000e+000 111987 -3.7627e+001 -1.9537e+002 -1.6343e+001 21489 112079,111843,111791
 5.5000e+000 111964  4.4367e+001 -1.4273e+002  3.0092e+001 21489 112151,111687,111661
 5.5000e+000 111941 -5.9770e+000 -1.0318e+002  2.4633e+001 21489 111661,111869,111843
 5.5000e+000 111918  6.3361e+001 -1.4504e+002  2.2816e+001 21489 111687,111739,111713
 5.5000e+000 111895  1.8816e+001 -4.5685e+001  6.5879e+000 21489 111635,111869,111661
 5.5000e+000 112105 -1.8153e+001 -1.6835e+002  8.8244e+000 21489 111765,111687,112079
 5.5000e+000 112128 -1.7100e+001 -1.6087e+002  9.1293e+000 21489 111765,112079,111791
 5.5000e+000 112177 -2.0944e+001 -1.5236e+002 -5.2980e+000 21489 111843,112079,112151
 5.5000e+000 112200  1.2367e+000 -1.4740e+002  6.4000e+000 21489 111843,112151,111661
 5.5000e+000 112578 -2.8880e+001 -1.9648e+002  8.4481e+000 21177 112382,112434,112408
 5.5000e+000 112555 -3.6742e+001 -1.9112e+002 -1.6289e-001 21177 112330,112434,112382
 5.5000e+000 112532 -2.5003e+001 -1.5958e+002  3.2524e+001 21177 112304,112434,112330
 5.5000e+000 112509 -3.7793e+001 -1.8533e+002  0.0000e+000 21177 112330,112382,112356
 5.5000e+000 112486 -6.2889e+000 -8.6266e+001  5.0727e+000 21177 112304,112460,112434
 5.5000e+000 112679 -6.3763e-001 -1.0034e+002 -2.5615e+001 20666 112601,112653,112627
 5.5000e+000 112927 -5.8675e+001 -1.9804e+002  7.0489e+000 19762 112702,112754,112728
 5.5000e+000 112904 -2.1979e+001 -1.8874e+002 -1.8389e+000 19762 112702,112832,112754
 5.5000e+000 112881 -4.9366e+001 -2.0265e+002  3.2084e+001 19762 112754,112832,112806
 5.5000e+000 112858 -7.0824e+001 -2.6135e+002  3.3767e+001 19762 112754,112806,112780
 5.5000e+000 113297 -5.3743e+001 -2.4093e+002  1.5693e+001 19308 112974,113052,113026
 5.5000e+000 113274 -3.6386e+001 -2.0086e+002  5.4325e+000 19308 112974,113156,113052
 5.5000e+000 113251 -2.0057e+001 -2.6671e+002 -3.2186e+001 19308 113052,113130,113104
 5.5000e+000 113228 -3.9838e+001 -2.0060e+002 -9.9311e-002 19308 113052,113156,113130
 5.5000e+000 113205 -3.8333e+001 -2.3216e+002  0.0000e+000 19308 113052,113104,113078
 5.5000e+000 113182 -7.7718e+001 -2.5073e+002 -1.2829e+000 19308 112974,113026,113000
 5.5000e+000 113547 -2.1026e-002 -2.1532e+002 -1.5503e+001 18711 113570,113374,113348
 5.5000e+000 113524 -6.5864e+000 -1.9722e+002 -9.5254e+000 18711 113570,113348,113452
 5.5000e+000 113501  9.9047e-001 -1.4668e+002 -4.0971e+001 18711 113322,113452,113348
 5.5000e+000 113478 -1.9493e+001 -1.9504e+002 -7.2654e+001 18711 113374,113426,113400
 5.5000e+000 113596  6.8378e-001 -1.9542e+002 -2.0004e+001 18711 113426,113374,113570
 5.5000e+000 113619 -7.0849e+000 -1.8007e+002 -1.0249e+001 18711 113426,113570,113452
 5.5000e+000 113771 -1.0949e+002 -2.7260e+002 -1.5062e+001 18307 113670,113722,113696
 5.5000e+000 113748 -8.5552e+001 -2.5605e+002 -7.1733e+000 18307 113644,113722,113670
 5.5000e+000 113972 -4.8090e+001 -2.3075e+002  4.8291e+000 17945 113822,113874,113848
 5.5000e+000 113949 -4.8513e+001 -2.2966e+002  5.6282e+000 17945 113822,113900,113874
 5.5000e+000 113926 -6.7605e+001 -1.8139e+002  9.6649e+001 17945 113796,113900,113822
 5.5000e+000 114075 -3.0620e+001 -3.3530e+002  3.7184e+001 17482 113997,114049,114023
 5.5000e+000 114479 -1.2896e+001 -1.8763e+002 -2.9227e+001 17042 114257,114361,114335
 5.5000e+000 114456 -4.4404e+001 -1.8013e+002 -4.7429e+000 17042 114205,114361,114257
 5.5000e+000 114433 -4.9626e+001 -2.0888e+002  8.0501e+000 17042 114205,114257,114231
 5.5000e+000 114410  3.9595e+001 -2.7910e+002 -1.6920e+001 17042 114283,114335,114309
 5.5000e+000 114387 -1.7761e+000 -2.4040e+002 -1.2372e+001 17042 114257,114335,114283
 5.5000e+000 114879 -1.0272e+002 -1.8861e+002 -8.4694e-001 16638 114631,114683,114657
 5.5000e+000 114856 -1.9620e+001 -1.5364e+002  2.5396e+000 16638 114605,114683,114631
 5.5000e+000 114833  2.6958e+001 -8.3838e+001 -2.1086e+001 16638 114605,114761,114683
 5.5000e+000 114810 -6.7894e+000 -2.1221e+002 -1.0472e+001 16638 114683,114735,114709
 5.5000e+000 114787 -1.5032e+001 -2.2044e+002 -1.4796e+001 16638 114683,114761,114735
 5.5000e+000 115078 -9.0605e+001 -2.0615e+002  5.2980e+000 16232 114954,115006,114980
 5.5000e+000 115055 -9.0195e+001 -2.2777e+002  9.9507e+000 16232 114928,115006,114954
 5.5000e+000 115032 -4.3366e+001 -2.8197e+002  1.9241e+001 16232 114902,115006,114928
 5.5000e+000 115228 -4.9853e+001 -2.0429e+002  6.5396e+000 15482 115101,115153,115127
 5.5000e+000 115205 -4.8784e+001 -1.9428e+002 -2.8028e+000 15482 115101,115179,115153
 5.5000e+000 115331 -3.8241e+001 -1.8635e+002 -2.4135e+001 15163 115253,115305,115279
 5.5000e+000 115434 -6.3952e+001 -2.0388e+002  3.6865e+001 421 115356,115408,115382
 5.6000e+000 68213 -9.0983e+000 -1.0205e+002 -1.0745e+001 67888 68112,68164,68138
 5.6000e+000 68190 -1.2490e+002 -1.3654e+002 -1.8419e+001 67888 68086,68164,68112
 5.6000e+000 68314 -1.0096e+001 -1.4629e+002  1.4322e+001 67576 68236,68288,68262
 5.6000e+000 68584 -6.2050e+001 -2.7729e+002  1.4439e+001 67378 68385,68489,68463
 5.6000e+000 68561 -1.9738e+001 -2.5714e+002  8.0323e+000 67378 68359,68489,68385
 5.6000e+000 68538 -4.6802e+001 -2.3360e+002  2.0945e+001 67378 68385,68463,68411
 5.6000e+000 68515 -2.3576e+001 -1.5720e+002  1.2098e+001 67378 68411,68463,68437
 5.6000e+000 68964 -6.4464e+001 -2.5255e+002  3.8346e+001 67130 68690,68820,68716
 5.6000e+000 68941  4.8300e+001 -2.6338e+002  7.0951e+001 67130 68690,68846,68820
 5.6000e+000 68918 -5.9978e+001 -1.6670e+002  5.5849e+000 67130 68742,68820,68794
 5.6000e+000 68895 -1.5248e+001 -1.6506e+002  1.6103e+001 67130 68716,68820,68742
 5.6000e+000 68872 -4.0102e+001 -1.3866e+002 -1.6485e+001 67130 68742,68794,68768
 5.6000e+000 69065 -5.3657e+001 -1.4126e+002  4.5706e+000 66926 68987,69039,69013
 5.6000e+000 69445 -3.3032e+001 -1.2909e+002 -6.3572e+000 66614 69223,69301,69275
 5.6000e+000 69422 -4.7328e+001 -1.3671e+002 -3.1319e+000 66614 69171,69301,69223
 5.6000e+000 69399 -5.4400e+001 -1.3934e+002  2.3699e-001 66614 69171,69327,69301
 5.6000e+000 69376 -1.6419e+001 -6.5011e+001 -2.6709e-002 66614 69223,69275,69249
 5.6000e+000 69353 -4.1285e+001 -1.4533e+002 -2.9319e+000 66614 69171,69223,69197
 5.6000e+000 69546 -5.0957e+001 -2.2675e+002  1.4009e+001 66416 69468,69520,69494
 5.6000e+000 69997 -4.7608e+001 -2.2756e+002 -1.7338e+001 66104 69700,69830,69726
 5.6000e+000 69974 -6.5757e+001 -2.7723e+002 -3.6034e+001 66104 69700,69856,69830
 5.6000e+000 69951 -5.1574e+001 -1.7618e+002 -1.2834e+001 66104 69726,69804,69778
 5.6000e+000 69928 -4.1894e+001 -2.1268e+002 -1.7603e+001 66104 69726,69830,69804
 5.6000e+000 69905 -5.3887e+001 -1.6774e+002 -6.1785e+000 66104 69726,69778,69752
 5.6000e+000 69882 -2.0670e+001 -3.8127e+002 -7.0931e+001 66104 69674,69856,69700
 5.6000e+000 70326 -4.2376e+001 -1.0423e+002  1.6376e+000 65814 70349,70153,70127
 5.6000e+000 70303 -2.5666e+001 -1.0258e+002  4.6543e+000 65814 70349,70127,70101
 5.6000e+000 70280 -2.3682e+001 -9.7261e+001  4.0521e+001 65814 70101,70231,70205
 5.6000e+000 70257  1.5506e+000 -1.1316e+002  1.4116e+001 65814 70153,70205,70179
 5.6000e+000 70375 -3.4586e+001 -1.0977e+002  1.4809e+001 65814 70205,70153,70349
 5.6000e+000 70398 -9.1489e+000 -1.0415e+002  1.5969e+001 65814 70205,70349,70101
 5.6000e+000 70904 -1.6955e+001 -5.3557e+001 -1.9234e+001 65502 70607,70737,70685
 5.6000e+000 70881 -2.4773e+001 -4.3050e+001 -2.4580e+001 65502 70581,70737,70607
 5.6000e+000 70858 -2.3681e+001 -7.0975e+000 -5.3338e+000 65502 70581,70763,70737
 5.6000e+000 70835 -2.5505e+001 -5.8657e+001 -2.4909e+001 65502 70685,70737,70711
 5.6000e+000 70812 -9.7767e+001 -7.1590e+001 -6.0786e-001 65502 70607,70659,70633
 5.6000e+000 70789 -2.9159e+001 -7.5625e+001  1.4587e+000 65502 70607,70685,70659
 5.6000e+000 71103 -2.5515e+001 -1.9695e+002 -6.2198e+000 65304 71126,70979,70953
 5.6000e+000 71080 -4.9424e+001 -1.9495e+002 -2.7819e+000 65304 71126,70953,70927
 5.6000e+000 71057 -7.0640e+001 -1.9907e+002  1.0652e+001 65304 70927,71031,71005
 5.6000e+000 71152 -4.8881e+001 -1.8758e+002 -1.3145e+001 65304 71005,70979,71126
 5.6000e+000 71175 -7.5121e+001 -1.8833e+002 -4.4391e+000 65304 71005,71126,70927
 5.6000e+000 71374 -3.7235e+001 -1.8612e+002  9.7924e+000 65106 71198,71276,71224
 5.6000e+000 71351 -5.5174e+001 -1.9748e+002  4.9131e+000 65106 71198,71302,71276
 5.6000e+000 71328 -2.8148e+001 -1.6072e+002  2.3773e+001 65106 71224,71276,71250
 5.6000e+000 71756 -2.3443e+001 -1.3226e+002 -8.7562e+000 64652 71508,71638,71534
 5.6000e+000 71733  2.0767e+000 -1.2152e+002  1.7171e-002 64652 71482,71638,71508
 5.6000e+000 71710 -5.3564e+001 -1.3614e+002 -1.1713e+001 64652 71534,71586,71560
 5.6000e+000 71687 -4.5838e+001 -1.4526e+002 -2.2984e+001 64652 71534,71612,71586
 5.6000e+000 71664 -6.4795e+001 -1.5078e+002 -2.4019e+001 64652 71534,71638,71612
 5.6000e+000 72085 -6.1865e+001 -1.4967e+002 -1.9817e+001 64248 71886,71964,71912
 5.6000e+000 72062 -4.9453e+001 -1.4658e+002 -1.8948e+001 64248 71860,71964,71886
 5.6000e+000 72039 -2.4934e+001 -1.5997e+002 -1.3280e+001 64248 71912,71964,71938
 5.6000e+000 72016 -5.2360e+001 -1.3887e+002 -1.8635e+001 64248 71860,71990,71964
 5.6000e+000 72235 -5.1591e+000 -9.5258e+001 -1.2787e+001 63858 72588,72258,72134
 5.6000e+000 72212 -2.6110e+001 -8.4595e+001  2.8462e+000 63858 72330,72258,72108
 5.6000e+000 72284 -1.8450e+001 -6.6488e+001 -9.0869e+000 63858 72160,72134,72258
 5.6000e+000 72307 -5.6509e+001 -9.2443e+001 -1.5643e+001 63858 72460,72258,72186
 5.6000e+000 72356 -4.6929e+001 -8.8666e+001 -1.5137e+001 63858 72186,72258,72330
 5.6000e+000 72486 -2.5023e+001 -8.7600e+001 -1.3923e+001 63858 72160,72258,72460
 5.6000e+000 72614 -1.3155e+001 -1.0321e+002 -1.4965e-001 63858 72108,72258,72588
 5.6000e+000 73248 -3.6314e+001 -1.6777e+002  3.6526e+001 63404 72902,72954,72928
 5.6000e+000 73225 -8.1236e+001 -1.6560e+002  1.6260e+001 63404 73271,72954,72902
 5.6000e+000 73202 -7.2529e+001 -1.3474e+002  1.3932e+001 63404 73271,72902,73032
 5.6000e+000 73179 -4.9609e+001 -1.1759e+002  4.1535e+000 63404 72902,73058,73032
 5.6000e+000 73156 -6.6343e+001 -1.5632e+002  2.9546e+000 63404 72980,73032,73006
 5.6000e+000 73133 -4.6411e+001 -1.1744e+002  4.2648e+000 63404 72876,73058,72902
 5.6000e+000 73110 -1.3865e+001 -5.6732e+001 -2.9153e+001 63404 72876,73084,73058
 5.6000e+000 73297 -7.0001e+001 -1.6989e+002 -2.5460e+000 63404 72980,72954,73271
 5.6000e+000 73320 -6.9045e+001 -1.5320e+002 -2.1087e+000 63404 72980,73271,73032
 5.6000e+000 73470 -5.7601e+001 -3.8118e+002  4.0740e+001 63014 73343,73395,73369
 5.6000e+000 73447 -1.7980e+002 -4.6652e+002 -8.5105e+000 63014 73343,73421,73395
 5.6000e+000 73929 -5.6315e+000 -1.7074e+002  7.4135e+000 62702 73759,73811,73785
 5.6000e+000 73906  3.2321e+000 -1.6436e+002  1.3771e+001 62702 73655,73811,73759
 5.6000e+000 73883 -2.6620e+001 -1.8630e+002 -3.9258e-002 62702 73655,73759,73681
 5.6000e+000 73860 -3.1391e+000 -1.3856e+002 -2.7934e+001 62702 73681,73759,73707
 5.6000e+000 73837 -8.0084e+001 -1.6037e+002  3.0380e+000 62702 73707,73759,73733
 5.6000e+000 74209 -1.0447e+002 -1.6090e+002  2.1378e+000 62404 74059,74137,74085
 5.6000e+000 74186 -1.2092e+002 -2.0626e+002  2.3760e+001 62404 74033,74137,74059
 5.6000e+000 74163 -1.0870e+002 -1.4693e+002  2.1923e+000 62404 74085,74137,74111
 5.6000e+000 74408 -7.3516e+000 -1.3763e+002  7.2250e+000 62000 74258,74336,74284
 5.6000e+000 74385 -3.1961e+000 -1.3339e+002  1.4478e+001 62000 74232,74336,74258
 5.6000e+000 74362 -3.4500e+001 -1.3922e+002 -2.2560e+000 62000 74284,74336,74310
 5.6000e+000 74509 -1.1703e+001 -1.5314e+002  1.4339e+001 61802 74431,74483,74457
 5.6000e+000 74759 -5.6146e+001 -1.4010e+002  3.2295e+000 61554 74782,74586,74560
 5.6000e+000 74736 -3.8168e+001 -1.3162e+002  5.9415e+000 61554 74782,74560,74664
 5.6000e+000 74713 -5.0378e+001 -1.0818e+002  3.7292e+001 61554 74854,74612,74586
 5.6000e+000 74690 -4.6931e+001 -1.4425e+002  1.3567e+000 61554 74534,74664,74560
 5.6000e+000 74808 -6.6165e+001 -1.3129e+002  1.1347e+001 61554 74854,74586,74782
 5.6000e+000 74831 -4.3325e+001 -1.6468e+002  9.4341e+000 61554 74638,74782,74664
 5.6000e+000 74880 -1.6793e+001 -1.3200e+002  4.0163e+001 61554 74638,74612,74854
 5.6000e+000 74903 -1.7491e+001 -1.2996e+002  2.0702e+001 61554 74638,74854,74782
 5.6000e+000 75285 -2.3993e+001 -1.4248e+002  1.1202e+000 61356 75063,75167,75115
 5.6000e+000 75262 -3.0347e+001 -1.5008e+002 -7.8333e+000 61356 75037,75167,75063
 5.6000e+000 75239  2.9118e+000 -1.4653e+002 -1.0989e+000 61356 75115,75167,75141
 5.6000e+000 75216 -1.3506e+001 -1.3471e+002  4.7774e+000 61356 75063,75115,75089
 5.6000e+000 75193 -6.2861e+001 -1.1919e+002  9.6180e+000 61356 75011,75167,75037
 5.6000e+000 75631 -1.1176e+001 -1.1381e+002  4.0894e+000 60952 75654,75412,75360
 5.6000e+000 75608 -2.3130e+001 -1.2984e+002 -2.3684e+000 60952 75654,75360,75334
 5.6000e+000 75585 -2.4531e+001 -1.6975e+002  9.5862e+000 60952 75726,75438,75412
 5.6000e+000 75562 -1.5905e+001 -1.2896e+002 -2.0507e+001 60952 75308,75490,75334
 5.6000e+000 75539 -1.5454e+001 -1.1441e+002  1.0671e+000 60952 75360,75412,75386
 5.6000e+000 75516 -3.2662e+001 -1.9895e+002 -7.0145e+000 60952 75438,75490,75464
 5.6000e+000 75680 -1.0803e+001 -1.3948e+002  4.2298e+000 60952 75726,75412,75654
 5.6000e+000 75703 -1.1296e+001 -1.2943e+002 -4.7442e+000 60952 75490,75654,75334
 5.6000e+000 75752 -1.2236e+001 -1.3506e+002 -3.1065e-001 60952 75490,75438,75726
 5.6000e+000 75775 -1.2739e+001 -1.3226e+002 -5.4770e+000 60952 75490,75726,75654
 5.6000e+000 76155 -2.5277e+001 -1.3659e+002 -1.4498e+000 60754 75933,75985,75959
 5.6000e+000 76132 -3.8785e+001 -1.4536e+002  1.5543e+001 60754 75933,76037,75985
 5.6000e+000 76109 -3.3371e-002 -1.4038e+002  5.4422e+000 60754 75985,76037,76011
 5.6000e+000 76086 -6.1487e+001 -1.2322e+002  2.9919e+000 60754 75881,76037,75933
 5.6000e+000 76063 -8.3207e+001 -1.1430e+002  2.8126e+001 60754 75881,75933,75907
 5.6000e+000 76612 -2.6107e+001 -1.3061e+002  6.8619e+000 60350 76635,76442,76390
 5.6000e+000 76589 -3.2710e+000 -1.5007e+002  1.1548e+001 60350 76635,76390,76364
 5.6000e+000 76566 -9.4324e+000 -1.9533e+002 -1.2973e+001 60350 76364,76494,76468
 5.6000e+000 76543 -2.0890e+000 -1.1916e+002  1.1494e+001 60350 76390,76442,76416
 5.6000e+000 76520 -7.1283e+001 -1.2300e+002 -3.0702e+001 60350 76338,76494,76364
 5.6000e+000 76661 -3.8056e+001 -1.4426e+002  1.2939e+001 60350 76468,76442,76635
 5.6000e+000 76684 -2.1040e+001 -1.6530e+002  1.9670e+001 60350 76468,76635,76364
 5.6000e+000 76932 -5.4969e+001 -1.5344e+002  1.0464e+000 59946 76955,76733,76707
 5.6000e+000 76909 -5.5232e+001 -1.5360e+002  3.0106e+000 59946 77027,76955,76707
 5.6000e+000 76886 -5.2853e+001 -1.5491e+002  2.2490e+000 59946 77027,76707,76837
 5.6000e+000 76863 -2.5626e+001 -1.6480e+002 -1.7195e+001 59946 76733,76785,76759
 5.6000e+000 76981 -6.1903e+001 -1.5378e+002 -2.4933e+000 59946 76785,76733,76955
 5.6000e+000 77004 -5.6252e+001 -1.4622e+002  9.9354e-001 59946 76785,76955,76811
 5.6000e+000 77053 -5.2263e+001 -1.5144e+002  4.0344e+000 59946 76811,76955,77027
 5.6000e+000 77076 -5.1094e+001 -1.5372e+002  2.9374e+000 59946 76811,77027,76837
 5.6000e+000 77226 -6.1421e+001 -1.6052e+002  4.2430e+000 59542 77099,77151,77125
 5.6000e+000 77203 -8.0554e+001 -1.9914e+002  1.0585e+001 59542 77099,77177,77151
 5.6000e+000 77427 -8.2546e+001 -1.6923e+002 -1.0631e+001 59030 77450,77277,77251
 5.6000e+000 77404 -5.2607e+001 -1.3967e+002 -4.5743e+001 59030 77450,77251,77355
 5.6000e+000 77381 -2.0716e+001 -1.9691e+002 -4.9667e+000 59030 77277,77329,77303
 5.6000e+000 77476 -4.5469e+001 -1.7522e+002 -2.9961e+001 59030 77329,77277,77450
 5.6000e+000 77499 -1.1839e+001 -1.6125e+002 -5.7789e+001 59030 77329,77450,77355
 5.6000e+000 77749 -6.7560e+001 -2.1084e+002  1.6690e+001 58426 77772,77628,77602
 5.6000e+000 77726 -4.2539e+001 -2.3968e+002  4.5714e+001 58426 77524,77654,77628
 5.6000e+000 77703 -5.5790e+001 -2.0818e+002  1.2270e+001 58426 77772,77602,77550
 5.6000e+000 77680 -3.5495e+001 -1.9642e+002 -8.8189e+000 58426 77550,77602,77576
 5.6000e+000 77798 -5.3839e+001 -2.1265e+002  1.6174e+001 58426 77524,77628,77772
 5.6000e+000 77821 -4.7518e+001 -2.1278e+002  1.0485e+001 58426 77524,77772,77550
 5.6000e+000 78071 -8.7553e+001 -1.9158e+002  1.9839e+001 57922 78094,77924,77898
 5.6000e+000 78048 -9.9393e+001 -1.8821e+002  2.1793e+000 57922 78094,77898,77872
 5.6000e+000 78025 -8.2128e+001 -1.6930e+002  1.9451e+001 57922 78166,77846,77950
 5.6000e+000 78002 -4.5281e+001 -1.6564e+002  2.2250e+001 57922 77846,77976,77950
 5.6000e+000 78120 -7.2163e+001 -1.8637e+002  1.3288e+001 57922 77950,77924,78094
 5.6000e+000 78143 -8.3181e+001 -1.7248e+002  1.4004e+001 57922 78166,77950,78094
 5.6000e+000 78192 -7.7992e+001 -1.7817e+002  1.4199e+001 57922 77872,77846,78166
 5.6000e+000 78215 -8.3834e+001 -1.8739e+002  8.3714e+000 57922 77872,78166,78094
 5.6000e+000 78416  1.6758e+001 -1.5975e+002 -8.3448e+000 57468 78439,78292,78240
 5.6000e+000 78393 -9.1569e+000 -1.5126e+002  2.0057e-001 57468 78439,78240,78344
 5.6000e+000 78370  6.6950e+000 -2.1738e+002 -5.2971e+000 57468 78240,78292,78266
 5.6000e+000 78465 -8.4497e+000 -1.7230e+002 -1.3329e+001 57468 78318,78292,78439
 5.6000e+000 78488 -1.9032e+001 -1.5739e+002 -2.4675e+000 57468 78318,78439,78344
 5.6000e+000 78689  1.3516e+001 -1.9190e+002 -2.1159e+001 57014 78712,78539,78513
 5.6000e+000 78666 -1.4532e+001 -1.9037e+002 -2.9475e+000 57014 78712,78513,78617
 5.6000e+000 78643 -4.3939e+001 -1.9081e+002  1.9152e+001 57014 78565,78617,78591
 5.6000e+000 78738 -2.2391e+001 -1.6297e+002 -2.1463e+001 57014 78565,78539,78712
 5.6000e+000 78761 -6.3126e+001 -1.8569e+002  7.9084e+000 57014 78565,78712,78617
 5.6000e+000 79241 -6.1662e+001 -1.7100e+002  1.2949e+001 56652 79264,78895,78869
 5.6000e+000 79218 -2.9020e+001 -2.2271e+002 -1.3778e+001 56652 79264,78869,79051
 5.6000e+000 79195 -4.5099e+001 -1.9498e+002 -4.5580e+001 56652 78869,79077,79051
 5.6000e+000 79172 -4.8893e+001 -1.1454e+002 -2.4306e+001 56652 78895,78973,78947
 5.6000e+000 79149 -8.0750e+001 -3.3624e+002 -2.7633e+001 56652 78973,79051,78999
 5.6000e+000 79126 -4.2057e+001 -1.0712e+002 -2.7162e+001 56652 78895,78947,78921
 5.6000e+000 79103 -6.0276e+001 -2.1859e+002  5.1610e+001 56652 78999,79051,79025
 5.6000e+000 79290 -3.6738e+001 -1.3848e+002  3.0957e+001 56652 78973,78895,79264
 5.6000e+000 79313 -1.9354e+000 -1.9412e+002  5.9310e+000 56652 78973,79264,79051
 5.6000e+000 79512 -1.8357e+001 -2.5120e+002  1.9047e+001 56062 79388,79440,79414
 5.6000e+000 79489 -8.9846e+001 -1.2810e+002  3.3497e+001 56062 79336,79440,79388
 5.6000e+000 79466 -2.9896e+001 -1.7692e+002  3.9510e+001 56062 79336,79388,79362
 5.6000e+000 79941 -2.5596e+001 -1.3092e+002  2.2773e+001 55658 79964,79670,79644
 5.6000e+000 79918 -4.0084e+001 -1.3260e+002  2.5418e+001 55658 79964,79644,79800
 5.6000e+000 79895 -3.7433e+001 -1.4069e+002  1.3585e+001 55658 80036,79696,79670
 5.6000e+000 79872 -4.3923e+001 -1.1904e+002 -6.8233e-002 55658 80108,79722,79696
 5.6000e+000 79849 -6.4227e+001 -1.1614e+002  9.0184e+000 55658 79722,79774,79748
 5.6000e+000 79826  8.8782e-002 -1.1867e+002  6.9950e+000 55658 79618,79800,79644
 5.6000e+000 79990 -4.1310e+001 -1.4159e+002  1.7529e+001 55658 80036,79670,79964
 5.6000e+000 80013 -3.7003e+001 -1.2378e+002  2.6471e+001 55658 79774,79964,79800
 5.6000e+000 80062 -3.1616e+001 -1.2799e+002  1.1623e+001 55658 80108,79696,80036
 5.6000e+000 80085 -4.0865e+001 -1.2502e+002  2.3696e+001 55658 79774,80036,79964
 5.6000e+000 80134 -6.7825e+001 -1.2840e+002  5.1256e+000 55658 79774,79722,80108
 5.6000e+000 80157 -6.0897e+001 -1.4053e+002  1.6729e+001 55658 79774,80108,80036
 5.6000e+000 80307 -8.1698e+001 -1.3219e+002  1.2468e+001 55254 80402,80330,80206
 5.6000e+000 80284 -7.8756e+001 -1.8128e+002  1.4189e+001 55254 80330,80180,80258
 5.6000e+000 80356 -9.4846e+001 -1.6190e+002  3.0865e+001 55254 80232,80206,80330
 5.6000e+000 80379 -3.0761e+001 -1.3295e+002  4.6071e+001 55254 80232,80330,80258
 5.6000e+000 80428 -1.0597e+002 -1.6180e+002  5.2656e-001 55254 80180,80330,80402
 5.6000e+000 80659 -3.7089e+001 -1.9384e+002 -1.4629e+001 54850 80558,80610,80584
 5.6000e+000 80636 -5.9436e+000 -1.8631e+002 -1.7834e+001 54850 80532,80610,80558
 5.6000e+000 80760 -1.1385e+001 -1.2671e+002 -8.5573e+000 54652 80682,80734,80708
 5.6000e+000 81164 -1.0840e+001 -1.3677e+002 -2.1888e+000 54248 81187,80942,80890
 5.6000e+000 81141 -1.3918e+001 -1.3791e+002 -1.0359e+000 54248 81187,80890,81046
 5.6000e+000 81118 -1.5802e+001 -1.4406e+002  3.0568e+001 54248 80942,81020,80994
 5.6000e+000 81095 -8.7335e+000 -1.3529e+002  6.8954e-001 54248 80890,80942,80916
 5.6000e+000 81072 -2.2165e+001 -7.9465e+001  4.9950e+000 54248 80942,80994,80968
 5.6000e+000 81213 -1.4270e+001 -1.3537e+002 -2.0858e+000 54248 81020,80942,81187
 5.6000e+000 81236 -1.6771e+001 -1.3579e+002 -1.3508e+000 54248 81020,81187,81046
 5.6000e+000 81663 -8.3617e+001 -1.5361e+002  1.3885e+001 53594 81340,81444,81366
 5.6000e+000 81640 -7.9559e+001 -2.2533e+002  6.1617e+000 53594 81340,81470,81444
 5.6000e+000 81617 -3.9911e+001 -1.9761e+002 -2.0239e+001 53594 81340,81522,81470
 5.6000e+000 81594 -4.7098e+001 -1.1077e+002 -1.2324e+001 53594 81392,81444,81418
 5.6000e+000 81571 -6.1131e+001 -1.3237e+002 -1.9206e+001 53594 81366,81444,81392
 5.6000e+000 81548 -1.0046e+000 -2.6699e+002  2.7952e+001 53594 81470,81522,81496
 5.6000e+000 81943 -2.1276e+001 -1.0403e+002 -1.3045e+001 53104 81966,81845,81819
 5.6000e+000 81920 -3.2137e+001 -8.5110e+001 -1.6380e+001 53104 81966,81819,81767
 5.6000e+000 81897 -3.2874e+001 -8.6794e+001 -1.6482e+001 53104 81767,81819,81793
 5.6000e+000 81992 -1.3995e+001 -9.2323e+001 -1.6148e+001 53104 81871,81845,81966
 5.6000e+000 82015 -1.9599e+001 -6.5742e+001 -2.2058e+001 53104 81871,81966,81767
 5.6000e+000 82491 -2.4036e+001 -1.0659e+002 -1.1741e+001 52650 82145,82249,82171
 5.6000e+000 82468 -8.6769e+001 -1.2527e+002 -1.5278e+001 52650 82145,82301,82249
 5.6000e+000 82445 -9.1254e+001 -1.8901e+002 -3.2087e+001 52650 82249,82301,82275
 5.6000e+000 82422 -5.1169e+001 -2.4052e+002 -4.3795e+001 52650 82119,82301,82145
 5.6000e+000 82399 -2.9932e+001 -8.2251e+001  9.7722e+000 52650 82171,82249,82223
 5.6000e+000 82376  1.5063e+000 -2.2043e+002 -2.4779e+001 52650 82119,82327,82301
 5.6000e+000 82353 -7.1366e+000 -4.1507e+001 -1.7340e+001 52650 82171,82223,82197
 5.6000e+000 82739 -3.0378e+001 -9.5017e+001  5.4262e-001 52246 82762,82540,82514
 5.6000e+000 82716 -2.0117e+001 -4.2731e+001 -8.5651e+000 52246 82762,82514,82644
 5.6000e+000 82693 -4.8393e+001 -1.0823e+002  2.1898e+001 52246 82540,82618,82592
 5.6000e+000 82670 -5.4485e+001 -9.8693e+001  1.4625e+001 52246 82540,82592,82566
 5.6000e+000 82788 -2.0227e+001 -1.2100e+002  6.5936e+000 52246 82618,82540,82762
 5.6000e+000 82811 -3.1705e+001 -1.0410e+002 -8.3870e+000 52246 82618,82762,82644
 5.6000e+000 83059 -1.4869e+001 -1.3763e+002  1.2999e+001 51578 82860,82964,82938
 5.6000e+000 83036 -5.9418e-001 -9.4437e+001 -3.0452e+001 51578 82834,82964,82860
 5.6000e+000 83013 -7.3730e+000 -1.0595e+002  2.8161e+001 51578 82860,82938,82886
 5.6000e+000 82990 -6.1018e+000 -7.0878e+001  6.2337e+000 51578 82886,82938,82912
 5.6000e+000 83309 -2.5908e+001 -7.5203e+001  2.3500e+001 51138 83332,83162,83136
 5.6000e+000 83286 -9.8631e+000 -1.0097e+002  7.4366e+000 51138 83332,83136,83110
 5.6000e+000 83263 -3.8066e+001 -1.0398e+002 -5.1566e+000 51138 83404,83214,83188
 5.6000e+000 83240 -5.0117e-001 -6.0401e+001  5.2673e+000 51138 83084,83214,83110
 5.6000e+000 83358 -4.4223e+001 -1.0784e+002  3.2392e+001 51138 83188,83162,83332
 5.6000e+000 83381 -2.6495e+001 -1.1658e+002  6.5129e+000 51138 83404,83188,83332
 5.6000e+000 83430 -2.3250e+001 -7.1819e+001 -1.4252e+000 51138 83110,83214,83404
 5.6000e+000 83453 -1.4560e+001 -9.1593e+001  9.9919e+000 51138 83110,83404,83332
 5.6000e+000 83835 -2.6073e+001 -1.3262e+002 -8.4647e-001 50734 83613,83717,83691
 5.6000e+000 83812 -3.0050e+001 -1.4585e+002 -2.7264e+001 50734 83561,83717,83613
 5.6000e+000 83789 -1.7544e+001 -7.3362e+001 -4.0348e+001 50734 83561,83613,83587
 5.6000e+000 83766 -5.2016e+001 -9.1477e+001 -1.9702e-001 50734 83613,83691,83639
 5.6000e+000 83743 -5.5361e+001 -9.2266e+001  2.0188e+001 50734 83639,83691,83665
 5.6000e+000 84034 -3.4023e+001 -8.1467e+001  4.6706e+000 50230 84057,83884,83858
 5.6000e+000 84011 -3.3669e+001 -8.8075e+001 -7.6758e+000 50230 84129,84057,83858
 5.6000e+000 83988 -1.0221e+001 -9.4871e+001 -1.3529e+001 50230 84129,83858,83962
 5.6000e+000 84083 -1.8894e+001 -7.4552e+001  2.9566e+000 50230 83910,83884,84057
 5.6000e+000 84106 -2.1689e+001 -7.7944e+001  8.2074e-001 50230 83910,84057,83936
 5.6000e+000 84155 -3.1141e+000 -7.3749e+001 -7.0615e-001 50230 83936,84057,84129
 5.6000e+000 84178  5.7653e+000 -9.0944e+001 -1.0007e+001 50230 83936,84129,83962
 5.6000e+000 84558 -3.8666e+001 -1.1056e+002 -1.7792e+001 49768 84581,84388,84362
 5.6000e+000 84535 -7.8884e+001 -1.1292e+002 -7.3069e+000 49768 84581,84362,84310
 5.6000e+000 84512  1.9441e+000 -1.2250e+002 -1.9781e+001 49768 84653,84440,84414
 5.6000e+000 84489 -6.2313e+001 -1.2478e+002  9.2987e+000 49768 84310,84362,84336
 5.6000e+000 84466 -2.2537e+000 -8.9005e+001  1.3354e+001 49768 84284,84440,84310
 5.6000e+000 84607 -1.1784e+001 -9.5174e+001 -3.0276e+001 49768 84414,84388,84581
 5.6000e+000 84630 -1.4223e+001 -1.1434e+002 -1.3964e+001 49768 84653,84414,84581
 5.6000e+000 84679 -1.9879e+001 -1.1578e+002 -2.7100e+001 49768 84310,84440,84653
 5.6000e+000 84702 -4.3189e+001 -1.1573e+002 -2.7633e+001 49768 84310,84653,84581
 5.6000e+000 85159 -6.2780e+001 -1.5452e+002 -4.3876e+001 49192 84885,84937,84911
 5.6000e+000 85136 -6.0702e+001 -1.1635e+002 -3.1529e+001 49192 84885,85041,84937
 5.6000e+000 85113 -4.0726e+001 -9.8526e+001 -1.5073e+001 49192 84963,85041,84989
 5.6000e+000 85090 -3.5260e+001 -8.8011e+001 -1.9916e+001 49192 84937,85041,84963
 5.6000e+000 85067 -3.5321e+001 -9.2007e+001 -1.9545e+001 49192 84989,85041,85015
 5.6000e+000 85714 -6.4066e+001 -1.0212e+002  4.6203e-001 48638 85368,85498,85394
 5.6000e+000 85691 -8.0473e+001 -1.2017e+002  7.6796e+000 48638 85368,85524,85498
 5.6000e+000 85668 -7.5456e+001 -1.0001e+002  2.9969e+001 48638 85737,85420,85394
 5.6000e+000 85645 -6.1715e+001 -1.1238e+002  1.5225e+001 48638 85737,85394,85498
 5.6000e+000 85622 -4.8020e+001 -1.1255e+002  2.3789e+001 48638 85446,85498,85472
 5.6000e+000 85599 -2.0664e+001 -9.6887e+001  1.1726e+001 48638 85342,85524,85368
 5.6000e+000 85576 -7.7681e+001 -1.1117e+002  1.2206e+001 48638 85342,85550,85524
 5.6000e+000 85763 -5.2023e+001 -8.8056e+001  3.7802e+001 48638 85446,85420,85737
 5.6000e+000 85786 -5.2262e+001 -1.0215e+002  2.1303e+001 48638 85446,85737,85498
 5.6000e+000 86371 -5.4330e+001 -7.4570e+001 -3.8025e+000 48084 86100,86230,86178
 5.6000e+000 86348 -6.9465e+001 -1.0027e+002 -1.1454e+001 48084 86048,86230,86100
 5.6000e+000 86325 -4.9533e+001 -6.6933e+001  2.0574e+001 48084 86100,86178,86126
 5.6000e+000 86302 -3.8202e+001 -2.6680e+001 -2.0945e+001 48084 86048,86100,86074
 5.6000e+000 86279 -6.7611e+001 -1.2459e+002 -2.3320e+000 48084 86178,86230,86204
 5.6000e+000 86256 -4.3948e+001 -7.1075e+001  2.1078e+001 48084 86126,86178,86152
 5.6000e+000 86619 -3.6898e+001 -8.3272e+001  8.3440e+000 47630 86642,86446,86420
 5.6000e+000 86596 -4.4547e+001 -9.3376e+001 -1.1463e+001 47630 86642,86420,86394
 5.6000e+000 86573 -5.9204e+001 -1.0598e+002 -1.6773e+001 47630 86394,86524,86498
 5.6000e+000 86550 -2.5996e+001 -9.4085e+001  8.0369e+000 47630 86446,86498,86472
 5.6000e+000 86668 -4.7036e+001 -1.0590e+002  1.4934e+000 47630 86498,86446,86642
 5.6000e+000 86691 -5.0721e+001 -1.0909e+002 -1.7925e+001 47630 86498,86642,86394
 5.6000e+000 87022 -5.2361e+000 -5.6989e+001 -3.4510e+001 47226 87045,86875,86849
 5.6000e+000 86999 -2.6858e+000 -6.5025e+001 -3.2674e+001 47226 87045,86849,86797
 5.6000e+000 86976  5.2629e-001 -2.8466e+001 -1.0212e+001 47226 86797,86849,86823
 5.6000e+000 86953  1.0127e+000 -4.1471e+001 -1.8916e+001 47226 86875,86927,86901
 5.6000e+000 87071 -9.5346e+000 -6.3023e+001 -3.2620e+001 47226 86927,86875,87045
 5.6000e+000 87094 -4.8592e+000 -6.8484e+001 -3.1592e+001 47226 86927,87045,86797
 5.6000e+000 87244 -7.9682e+000 -1.2077e+002  3.3384e+001 46814 87267,87169,87143
 5.6000e+000 87221 -5.9199e+001 -1.0994e+002 -6.2095e+000 46814 87267,87143,87117
 5.6000e+000 87293 -6.2561e+000 -8.9208e+001  2.0668e+001 46814 87339,87267,87195
 5.6000e+000 87316 -1.8385e+000 -8.5349e+001  1.5104e+000 46814 87469,87267,87117
 5.6000e+000 87365 -3.4562e+000 -8.5938e+001  2.5449e+001 46814 87169,87267,87339
 5.6000e+000 87495 -1.0817e-001 -4.9206e+000 -1.8919e+000 46814 87195,87267,87469
 5.6000e+000 88001 -3.5622e+001 -8.0365e+001  2.2412e+001 46310 88024,87834,87808
 5.6000e+000 87978 -4.4100e+001 -8.2168e+001  1.2815e+001 46310 88024,87808,87756
 5.6000e+000 87955 -2.3248e+001 -1.0916e+002  5.8111e+000 46310 88096,87730,87860
 5.6000e+000 87932 -3.1458e+001 -1.0632e+002  1.3784e+001 46310 87756,87808,87782
 5.6000e+000 87909 -2.9611e+001 -1.2798e+002  4.6528e+000 46310 87678,87860,87730
 5.6000e+000 87886 -4.9279e+001 -2.2137e+002 -1.1231e+001 46310 87678,87730,87704
 5.6000e+000 88050 -3.1568e+001 -7.1919e+001  1.4063e+001 46310 87860,87834,88024
 5.6000e+000 88073 -2.3784e+001 -7.7368e+001  1.5811e+001 46310 88096,87860,88024
 5.6000e+000 88122 -3.0362e+001 -1.2423e+002 -4.9958e+000 46310 87756,87730,88096
 5.6000e+000 88145 -5.0474e+001 -1.1164e+002  5.9964e-001 46310 87756,88096,88024
 5.6000e+000 88572 -2.4916e+001 -1.0913e+002  7.9864e+000 45856 88249,88405,88275
 5.6000e+000 88549 -2.0213e+001 -3.3653e+001 -2.0925e+001 45856 88249,88431,88405
 5.6000e+000 88526 -5.8205e+001 -1.5658e+002 -2.1408e+001 45856 88327,88405,88353
 5.6000e+000 88503 -2.5538e+001 -1.3387e+002 -9.1256e+000 45856 88275,88405,88327
 5.6000e+000 88480 -4.9562e+001 -1.4227e+002 -2.8689e+001 45856 88353,88405,88379
 5.6000e+000 88457 -1.0681e+002 -2.9097e+002  2.3950e+001 45856 88275,88327,88301
 5.6000e+000 88950 -1.7861e+001 -6.5421e+001 -1.9066e+000 45658 88973,88754,88728
 5.6000e+000 88927 -1.5433e+001 -6.2815e+001 -9.0465e-001 45658 88973,88728,88676
 5.6000e+000 88904 -2.0495e+001 -7.4760e+001  2.6384e+001 45658 88676,88832,88806
 5.6000e+000 88881 -2.9857e+001 -9.0866e+001  8.6810e+000 45658 88676,88728,88702
 5.6000e+000 88858 -2.9070e+001 -6.3321e+001 -1.5804e+001 45658 88754,88806,88780
 5.6000e+000 88999 -1.9169e+001 -6.2303e+001 -1.0121e+000 45658 88806,88754,88973
 5.6000e+000 89022 -1.7759e+001 -6.0871e+001 -4.2075e-001 45658 88806,88973,88676
 5.6000e+000 89351 -3.3289e+001 -1.1136e+002 -5.2854e+000 45254 89152,89230,89204
 5.6000e+000 89328 -3.2216e+001 -1.1111e+002 -5.9440e+000 45254 89152,89256,89230
 5.6000e+000 89305 -1.2231e+001 -1.1803e+002 -1.5261e+001 45254 89126,89256,89152
 5.6000e+000 89282 -3.2760e-001 -1.1045e+002 -1.9419e+001 45254 89152,89204,89178
 5.6000e+000 89523 -1.4290e+001 -8.2759e+001  8.4256e-001 45006 89422,89474,89448
 5.6000e+000 89500 -1.2385e+001 -8.1973e+001  2.3562e+000 45006 89396,89474,89422
 5.6000e+000 89673 -9.0123e+001 -1.5892e+002  1.3640e+001 44495 89572,89624,89598
 5.6000e+000 89650 -9.2963e+001 -1.6103e+002  9.1965e+000 44495 89546,89624,89572
 5.6000e+000 90104 -9.6750e+000 -1.2018e+002 -6.7081e+000 44005 90199,90127,89937
 5.6000e+000 90081 -2.3415e+001 -1.1716e+002  1.6764e+000 44005 90271,90127,89859
 5.6000e+000 90058 -3.3994e+000 -1.2266e+002 -6.8602e+000 44005 90199,89937,89885
 5.6000e+000 90035 -3.3188e+001 -1.1021e+002  7.2670e+000 44005 90271,89859,89807
 5.6000e+000 90012 -1.8143e+001 -1.3294e+002 -1.5852e+001 44005 89885,89937,89911
 5.6000e+000 89989 -9.2680e+000 -1.1712e+002  1.9709e+001 44005 89807,89859,89833
 5.6000e+000 90153 -2.5684e+001 -1.2623e+002 -5.0176e+000 44005 89963,89937,90127
 5.6000e+000 90176 -2.6984e+001 -1.3423e+002  2.2827e+000 44005 89963,90127,89781
 5.6000e+000 90225 -2.6121e+001 -1.1826e+002 -2.9629e+000 44005 89859,90127,90199
 5.6000e+000 90248 -1.1836e+001 -1.1522e+002 -6.4440e-002 44005 89859,90199,89885
 5.6000e+000 90297 -3.6558e+001 -1.2552e+002 -2.0204e+000 44005 89781,90127,90271
 5.6000e+000 90320 -4.2198e+001 -1.1645e+002  4.4689e+000 44005 89781,90271,89807
 5.6000e+000 90470 -1.8042e+001 -1.2412e+002 -2.8694e+000 43601 90493,90369,90343
 5.6000e+000 90447 -3.2659e+001 -9.9505e+001  9.3920e+000 43601 90493,90343,90421
 5.6000e+000 90519 -4.0300e+001 -1.6913e+002 -1.8648e+001 43601 90395,90369,90493
 5.6000e+000 90542 -3.2206e+001 -1.1747e+002 -2.9653e+000 43601 90395,90493,90421
 5.6000e+000 90922 -3.9829e+001 -1.3281e+002  8.0104e+000 43154 90945,90700,90674
 5.6000e+000 90899 -3.5186e+001 -1.3556e+002 -1.5626e+001 43154 90945,90674,90648
 5.6000e+000 90876 -4.3895e+001 -1.0336e+002 -1.0462e+001 43154 90648,90778,90752
 5.6000e+000 90853 -2.2303e+001 -2.1177e+002  6.4394e+000 43154 90700,90752,90726
 5.6000e+000 90830 -2.7644e+001 -1.0361e+002 -5.4097e+000 43154 90648,90804,90778
 5.6000e+000 90971 -4.6657e+001 -1.5356e+002  1.1900e+001 43154 90752,90700,90945
 5.6000e+000 90994 -4.0301e+001 -1.4814e+002 -1.1093e+001 43154 90752,90945,90648
 5.6000e+000 91451 -1.3742e+001 -1.0795e+002 -2.0456e+001 42650 91203,91255,91229
 5.6000e+000 91428  9.0231e+000 -9.8070e+001 -9.1017e+000 42650 91203,91333,91255
 5.6000e+000 91405 -3.2813e+000 -1.5532e+002 -2.5999e+001 42650 91177,91333,91203
 5.6000e+000 91382 -5.0029e+001 -1.6827e+002  2.1867e+001 42650 91255,91333,91281
 5.6000e+000 91359 -1.0397e+001 -1.4001e+002  7.1347e+000 42650 91281,91333,91307
 5.6000e+000 91721 -7.2036e+001 -1.5943e+002  1.1811e+001 42288 91496,91600,91522
 5.6000e+000 91698 -3.9145e+001 -9.2771e+001 -4.4871e+000 42288 91496,91626,91600
 5.6000e+000 91675 -4.2902e+001 -1.4139e+002  1.2762e+001 42288 91522,91574,91548
 5.6000e+000 91652 -3.6097e+001 -1.4540e+002  1.2409e+001 42288 91522,91600,91574
 5.6000e+000 92199 -1.0804e+002 -1.7307e+002 -4.7127e+000 41898 92222,91983,91879
 5.6000e+000 92176 -1.1111e+002 -1.9188e+002 -1.2201e+001 41898 92294,92222,91879
 5.6000e+000 92153 -1.1800e+002 -1.8975e+002 -1.7154e+001 41898 92294,91879,91853
 5.6000e+000 92130 -9.3645e+001 -1.0316e+002  1.2510e+001 41898 91879,91957,91931
 5.6000e+000 92107 -9.5710e+001 -1.6833e+002 -4.6235e-001 41898 91879,91983,91957
 5.6000e+000 92084 -1.0633e+002 -9.9389e+001  2.5535e+001 41898 91879,91931,91905
 5.6000e+000 92061 -1.0384e+002 -1.7162e+002 -1.3539e+001 41898 91827,92035,91853
 5.6000e+000 92248 -1.0633e+002 -1.9637e+002  1.4708e-001 41898 92009,91983,92222
 5.6000e+000 92271 -1.0356e+002 -2.0039e+002 -1.5657e+001 41898 92009,92222,92035
 5.6000e+000 92320 -9.9706e+001 -1.8799e+002 -1.2359e+001 41898 92035,92222,92294
 5.6000e+000 92343 -1.0467e+002 -1.8458e+002 -1.6941e+001 41898 92035,92294,91853
 5.6000e+000 92770 -3.1129e+001 -1.4680e+002 -1.1977e+001 41437 92865,92793,92525
 5.6000e+000 92747 -4.3161e+001 -1.6632e+002 -1.5455e+001 41437 92793,92473,92629
 5.6000e+000 92724 -1.2469e+001 -1.5312e+002 -2.2125e+001 41437 92865,92525,92499
 5.6000e+000 92701 -5.0383e+001 -1.2761e+002 -2.5090e+001 41437 92525,92603,92577
 5.6000e+000 92678  2.3316e+000 -1.6143e+002 -1.3964e+001 41437 92447,92629,92473
 5.6000e+000 92655 -7.4115e+001 -1.1165e+002 -1.4567e+001 41437 92525,92577,92551
 5.6000e+000 92819 -3.4581e+001 -1.5466e+002 -2.4628e+001 41437 92603,92525,92793
 5.6000e+000 92842 -6.8987e+001 -1.6664e+002 -4.3384e+001 41437 92603,92793,92629
 5.6000e+000 92891  4.4132e+000 -1.5668e+002 -1.3765e+001 41437 92473,92793,92865
 5.6000e+000 92914  3.0451e+001 -1.5336e+002 -2.8122e+001 41437 92473,92865,92499
 5.6000e+000 93243 -2.7354e+001 -2.2642e+002  8.1521e+001 41097 93044,93096,93070
 5.6000e+000 93220 -4.6869e+001 -2.0304e+002  4.4132e+001 41097 93044,93122,93096
 5.6000e+000 93197  1.0544e+001 -1.3350e+002  1.6428e+001 41097 93044,93148,93122
 5.6000e+000 93174 -3.8895e+001 -9.9799e+001  4.1807e+001 41097 93018,93148,93044
 5.6000e+000 93393 -4.1898e+000 -1.6731e+002  1.1514e+001 40643 93416,93292,93344
 5.6000e+000 93370 -7.5553e+000 -1.5528e+002  1.2949e+001 40643 93266,93344,93292
 5.6000e+000 93442 -5.0652e+000 -1.6365e+002  1.7543e+001 40643 93318,93292,93416
 5.6000e+000 93901 -5.0086e+001 -1.5030e+002 -1.0436e+001 40132 93924,93731,93705
 5.6000e+000 93878 -5.1913e+001 -1.5429e+002 -1.1387e+001 40132 93996,93924,93705
 5.6000e+000 93855 -6.1189e+001 -1.7698e+002 -3.9681e+000 40132 93996,93705,93653
 5.6000e+000 93832 -2.5917e+001 -1.7053e+002 -9.7245e+000 40132 93653,93705,93679
 5.6000e+000 93809 -4.7359e+001 -1.4660e+002  5.3698e-001 40132 93627,93783,93757
 5.6000e+000 93950 -4.8543e+001 -1.5879e+002 -1.2111e+001 40132 93757,93731,93924
 5.6000e+000 93973 -5.4118e+001 -1.4126e+002 -3.0013e+000 40132 93757,93924,93627
 5.6000e+000 94022 -6.8920e+001 -1.6861e+002  4.8352e+000 40132 93627,93924,93996
 5.6000e+000 94045 -6.3967e+001 -1.7645e+002  1.0293e+001 40132 93627,93996,93653
 5.6000e+000 94423 -1.2068e+001 -1.8231e+002 -2.5304e+001 39514 94149,94227,94175
 5.6000e+000 94400 -1.9204e+001 -1.7027e+002  1.8827e+001 39514 94149,94305,94227
 5.6000e+000 94377  4.3619e+000 -2.1247e+002 -2.4943e+001 39514 94175,94227,94201
 5.6000e+000 94354 -5.2674e+001 -1.5909e+002  8.0147e+000 39514 94227,94305,94279
 5.6000e+000 94331 -2.1745e+001 -1.4466e+002  1.5467e+001 39514 94227,94279,94253
 5.6000e+000 94573 -1.5058e+001 -1.0135e+002 -1.9647e+001 38822 94596,94498,94472
 5.6000e+000 94550  1.8371e+001 -1.0768e+002  2.3751e+001 38822 94596,94472,94446
 5.6000e+000 94622 -5.3425e+001 -1.1763e+002 -2.1663e+001 38822 94524,94498,94596
 5.6000e+000 94645 -4.5277e+001 -1.3444e+002  2.6080e+001 38822 94524,94596,94446
 5.6000e+000 95025 -1.0245e+001 -1.2874e+002 -9.3711e+000 38418 95048,94829,94777
 5.6000e+000 95002 -1.3006e+001 -1.3496e+002 -1.5582e+001 38418 95120,95048,94777
 5.6000e+000 94979 -9.1343e+000 -1.3504e+002 -1.4515e+001 38418 95120,94777,94751
 5.6000e+000 94956 -7.1365e+000 -1.2273e+002 -1.7241e+001 38418 95192,94881,94855
 5.6000e+000 94933 -3.9508e+001 -1.1056e+002 -6.8962e+000 38418 94777,94829,94803
 5.6000e+000 95074 -2.2799e+001 -1.6735e+002 -3.2893e+000 38418 94855,94829,95048
 5.6000e+000 95097 -1.0635e+001 -1.3421e+002 -1.7814e+001 38418 95192,94855,95048
 5.6000e+000 95146 -2.4279e+001 -1.3046e+002 -1.2127e+001 38418 94907,95048,95120
 5.6000e+000 95169 -1.4874e+001 -1.2608e+002 -9.2524e+000 38418 94907,95120,94751
 5.6000e+000 95218 -1.1869e+001 -9.9639e+001 -1.5840e+001 38418 94907,94881,95192
 5.6000e+000 95241 -2.0443e+001 -1.1921e+002 -1.3130e+001 38418 94907,95192,95048
 5.6000e+000 95511 -4.1847e+001 -1.3683e+002  8.3467e+000 38049 95312,95390,95364
 5.6000e+000 95488 -2.5284e+001 -1.2905e+002  5.7286e+000 38049 95312,95416,95390
 5.6000e+000 95465 -1.2947e+001 -1.2915e+002 -6.5262e+000 38049 95312,95364,95338
 5.6000e+000 95442 -1.1505e+001 -1.1448e+002  1.1400e+001 38049 95286,95416,95312
 5.6000e+000 95808 -4.1900e+001 -1.6611e+002 -4.7733e+000 37437 95831,95586,95560
 5.6000e+000 95785  1.6292e+001 -1.7235e+002 -7.0843e+000 37437 95831,95560,95534
 5.6000e+000 95762 -8.3392e+001 -1.5571e+002  6.5470e+000 37437 95586,95664,95638
 5.6000e+000 95739 -1.0144e+001 -7.8760e+001 -4.0911e+001 37437 95534,95690,95664
 5.6000e+000 95716 -8.1554e+001 -1.1145e+002  3.8807e+000 37437 95586,95638,95612
 5.6000e+000 95857 -7.9792e+001 -1.5920e+002  1.9026e+001 37437 95664,95586,95831
 5.6000e+000 95880 -1.8402e+001 -1.6385e+002  1.7610e+001 37437 95664,95831,95534
 5.6000e+000 96390 -5.8713e+001 -1.2542e+002 -8.1854e+000 36883 96413,96145,96093
 5.6000e+000 96367 -4.9049e+001 -1.2029e+002 -4.1018e+000 36883 96413,96093,96067
 5.6000e+000 96344 -3.5019e+001 -1.4965e+002 -6.5934e-001 36883 96067,96249,96171
 5.6000e+000 96321 -5.1338e+001 -1.4375e+002 -3.7916e+000 36883 96093,96145,96119
 5.6000e+000 96298 -7.1829e+001 -2.4339e+002  2.1753e+001 36883 96171,96249,96197
 5.6000e+000 96275 -1.8001e+001 -1.9668e+002 -2.1939e+000 36883 96197,96249,96223
 5.6000e+000 96439 -5.5110e+001 -1.1981e+002  2.1031e-001 36883 96171,96145,96413
 5.6000e+000 96462 -4.7642e+001 -1.1874e+002  3.5118e+000 36883 96171,96413,96067
 5.6000e+000 96781 -4.5967e+001 -1.4407e+002 -2.1324e+001 36215 96559,96663,96637
 5.6000e+000 96758 -5.8901e+001 -1.5421e+002 -2.5721e+001 36215 96507,96663,96559
 5.6000e+000 96735 -5.6695e+001 -1.0241e+002  1.0970e+001 36215 96585,96637,96611
 5.6000e+000 96712 -1.2222e+002 -1.6704e+002 -1.8799e+001 36215 96559,96637,96585
 5.6000e+000 96689 -2.2705e+001 -1.7031e+002 -5.2584e+000 36215 96507,96559,96533
 5.6000e+000 97161  2.9917e+000 -7.7740e+001 -2.7473e+000 35818 97184,96965,96939
 5.6000e+000 97138 -7.0869e+000 -8.8087e+001 -8.2864e+000 35818 97184,96939,96887
 5.6000e+000 97115 -4.6775e+000 -1.0012e+002  1.8151e+001 35818 96965,97043,97017
 5.6000e+000 97092 -3.9959e+000 -8.2785e+001 -9.5598e+000 35818 96887,96939,96913
 5.6000e+000 97069 -5.3328e+001 -1.0162e+002  1.1357e+001 35818 96965,97017,96991
 5.6000e+000 97210  1.4154e+001 -8.6965e+001  3.5610e+000 35818 97043,96965,97184
 5.6000e+000 97233  5.6881e+000 -9.3989e+001 -1.0468e+000 35818 97043,97184,96887
 5.6000e+000 97739 -4.8211e+001 -1.4334e+002 -3.4902e+001 35214 97416,97468,97442
 5.6000e+000 97716 -5.6532e+001 -1.0219e+002 -1.1644e+001 35214 97416,97598,97468
 5.6000e+000 97693 -4.6722e+001 -9.4558e+001 -4.8431e+000 35214 97762,97520,97468
 5.6000e+000 97670 -4.9988e+001 -9.7631e+001 -8.5762e+000 35214 97762,97468,97598
 5.6000e+000 97647 -3.7901e+001 -9.4196e+001 -1.4503e+001 35214 97546,97598,97572
 5.6000e+000 97624 -3.0264e+001 -9.5986e+001 -6.6483e+000 35214 97468,97520,97494
 5.6000e+000 97788 -4.8102e+001 -9.9438e+001 -7.8541e+000 35214 97546,97520,97762
 5.6000e+000 97811 -4.9592e+001 -1.0167e+002 -1.1269e+001 35214 97546,97762,97598
 5.6000e+000 98189 -4.3715e+000 -7.2219e+001 -8.6012e+000 34760 98356,98212,97967
 5.6000e+000 98166 -1.2305e+001 -8.4379e+001 -1.5955e+001 34760 98284,98212,97941
 5.6000e+000 98143 -2.7971e+001 -7.4808e+001 -8.4408e+000 34760 98284,97941,97915
 5.6000e+000 98120 -6.0356e+000 -9.6491e+001 -4.5824e+000 34760 98484,97993,97967
 5.6000e+000 98097 -6.6213e+000 -7.8499e+001 -2.5612e+000 34760 98556,98045,98019
 5.6000e+000 98238 -1.0026e+001 -9.0256e+001 -4.6152e+000 34760 98484,97967,98212
 5.6000e+000 98261  2.2247e+000 -8.2237e+001 -7.1107e+000 34760 98556,98019,98212
 5.6000e+000 98310 -1.2305e-001 -6.6237e+001 -2.1276e+001 34760 98071,98212,98284
 5.6000e+000 98333 -9.1726e+000 -4.2288e+001 -1.6612e+001 34760 98071,98284,97915
 5.6000e+000 98382 -4.3011e+001 -9.5440e+001 -1.9445e+001 34760 97941,98212,98356
 5.6000e+000 98510 -3.2577e-001 -9.0624e+001 -6.9005e+000 34760 98019,97993,98484
 5.6000e+000 98533 -6.5100e+000 -8.6217e+001 -6.1453e+000 34760 98019,98484,98212
 5.6000e+000 98582  4.5239e+000 -7.3153e+001 -4.3500e-001 34760 98071,98045,98556
 5.6000e+000 98605  8.2718e+000 -8.0005e+001 -5.9397e+000 34760 98071,98556,98212
 5.6000e+000 99032 -5.6525e+001 -1.2719e+002  1.9601e+001 34156 98735,98891,98839
 5.6000e+000 99009 -4.8961e+001 -1.3198e+002  9.1656e+000 34156 98709,98891,98735
 5.6000e+000 98986 -1.7147e+001 -1.1425e+002  1.8498e+001 34156 98735,98813,98787
 5.6000e+000 98963 -2.0594e+001 -1.2497e+002  1.6046e+001 34156 98735,98839,98813
 5.6000e+000 98940  7.7788e+000 -1.7052e+002  2.1278e+001 34156 98735,98787,98761
 5.6000e+000 98917 -5.2242e+001 -1.1610e+002  1.4051e+001 34156 98839,98891,98865
 5.6000e+000 99231 -1.3436e+001 -6.3259e+001  6.0423e+000 33766 99055,99133,99107
 5.6000e+000 99208 -2.7383e+001 -8.5198e+001  1.2636e+001 33766 99055,99159,99133
 5.6000e+000 99185 -8.0066e+000 -8.1139e+001  1.4812e+001 33766 99055,99107,99081
 5.6000e+000 99818 -2.8691e+001 -9.1085e+001  2.1967e+000 33248 99521,99651,99573
 5.6000e+000 99795 -2.7597e+001 -8.6178e+001  9.9855e+000 33248 99521,99677,99651
 5.6000e+000 99772 -4.6762e+001 -1.1462e+002 -6.5440e+000 33248 99573,99651,99599
 5.6000e+000 99749 -3.0170e+001 -1.0952e+002  1.0295e+001 33248 99495,99677,99521
 5.6000e+000 99726 -2.1100e+001 -9.8929e+001 -2.3500e+001 33248 99599,99651,99625
 5.6000e+000 99703 -3.6303e+001 -1.1112e+002  6.7512e+000 33248 99521,99573,99547
 5.6000e+000 100196 -3.4419e+001 -1.0388e+002 -2.0108e+001 32794 100219,99948,99922
 5.6000e+000 100173 -3.9684e+001 -1.1462e+002 -8.9631e+000 32794 100219,99922,100052
 5.6000e+000 100150 -5.1483e+001 -1.0234e+002  6.1722e+000 32794 99974,100052,100026
 5.6000e+000 100127 -4.9346e+001 -9.5960e+001 -1.3918e+001 32794 99922,100078,100052
 5.6000e+000 100104 -5.1609e+001 -1.2460e+002  2.4344e+001 32794 99974,100026,100000
 5.6000e+000 100245 -4.7063e+001 -1.0308e+002 -9.9181e+000 32794 99974,99948,100219
 5.6000e+000 100268 -4.9409e+001 -1.1690e+002  1.4018e+000 32794 99974,100219,100052
 5.6000e+000 100418 -7.7405e+000 -9.9801e+001 -1.1353e+001 32504 100571,100343,100317
 5.6000e+000 100395 -4.2706e+001 -1.1565e+002  1.0293e+001 32504 100571,100317,100441
 5.6000e+000 100467  2.8838e+001 -5.4503e+001 -3.1967e+001 32504 100291,100369,100441
 5.6000e+000 100597  7.6530e+000 -8.3481e+001 -3.9211e+001 32504 100369,100343,100571
 5.6000e+000 100620 -8.2394e+000 -7.8030e+001 -2.0506e+001 32504 100369,100571,100441
 5.6000e+000 101020 -9.7859e+000 -7.4862e+001  2.7304e+000 32142 100772,100902,100876
 5.6000e+000 100997 -6.3617e+000 -6.4512e+001  3.8791e+000 32142 100746,100902,100772
 5.6000e+000 100974  4.0590e+000 -8.3701e+001  1.2210e+001 32142 101043,100824,100798
 5.6000e+000 100951 -1.2703e+001 -9.1651e+001  8.9025e+000 32142 101043,100798,100772
 5.6000e+000 100928 -4.6673e+001 -1.0859e+002 -2.8585e+001 32142 101115,100876,100850
 5.6000e+000 101069  2.0847e+001 -9.4203e+001 -8.9520e+000 32142 100850,100824,101043
 5.6000e+000 101092 -2.1066e+001 -1.1284e+002 -1.3004e+001 32142 101115,100850,101043
 5.6000e+000 101141 -1.4811e+001 -8.8661e+001 -1.1086e+001 32142 100772,100876,101115
 5.6000e+000 101164  5.4818e+000 -9.1345e+001  5.7732e+000 32142 100772,101115,101043
 5.6000e+000 101719 -5.5949e+001 -1.3302e+002  1.7778e+001 31538 101742,101477,101399
 5.6000e+000 101696 -6.8563e+001 -1.6098e+002  4.4098e+000 31538 101814,101742,101399
 5.6000e+000 101673 -7.8356e+001 -1.3814e+002 -1.0565e+001 31538 101814,101399,101373
 5.6000e+000 101650 -5.6973e+001 -9.5460e+001  1.2973e+001 31538 101425,101477,101451
 5.6000e+000 101627 -5.2582e+001 -1.1296e+002  3.5548e+000 31538 101399,101477,101425
 5.6000e+000 101604 -3.2530e+001 -1.6430e+002  3.2797e+001 31538 101477,101529,101503
 5.6000e+000 101581 -2.0162e+001 -9.1437e+001 -7.7152e+000 31538 101347,101555,101373
 5.6000e+000 101768 -6.2903e+001 -1.6257e+002  1.6794e+001 31538 101529,101477,101742
 5.6000e+000 101791 -5.5994e+001 -1.6741e+002 -6.4088e+000 31538 101529,101742,101555
 5.6000e+000 101840 -4.3907e+001 -1.3774e+002 -6.3083e+000 31538 101555,101742,101814
 5.6000e+000 101863 -5.8256e+001 -1.1908e+002 -2.0043e+001 31538 101555,101814,101373
 5.6000e+000 102111 -8.6790e+001 -2.1753e+002  2.9251e+001 31112 101886,101990,101912
 5.6000e+000 102088 -3.2186e+001 -1.3135e+002  1.0354e+000 31112 101886,102016,101990
 5.6000e+000 102065 -3.8697e+001 -2.0587e+002  3.8302e+001 31112 101912,101990,101964
 5.6000e+000 102042 -5.8541e+001 -2.4630e+002  4.5645e+001 31112 101912,101964,101938
 5.6000e+000 102408 -2.2600e+001 -1.2799e+002  1.0648e+001 30658 102431,102186,102160
 5.6000e+000 102385 -4.4889e+001 -1.2606e+002 -4.9352e-002 30658 102431,102160,102264
 5.6000e+000 102362 -4.3779e+001 -1.3981e+002  2.2341e+000 30658 102186,102238,102212
 5.6000e+000 102339 -4.8554e+001 -1.3420e+002 -8.5882e+000 30658 102134,102264,102160
 5.6000e+000 102316 -3.4649e+001 -1.1267e+002 -3.8232e+001 30658 102134,102290,102264
 5.6000e+000 102457 -4.0877e+001 -1.3577e+002  5.6995e+000 30658 102238,102186,102431
 5.6000e+000 102480 -6.4720e+001 -1.3607e+002 -5.9257e+000 30658 102238,102431,102264
 5.6000e+000 102681 -1.6795e+001 -1.5208e+002  2.1349e+001 30004 102704,102557,102505
 5.6000e+000 102658 -1.9242e+001 -1.5629e+002  2.3197e+001 30004 102704,102505,102609
 5.6000e+000 102635  3.1291e+000 -1.2662e+002  5.6382e+000 30004 102505,102557,102531
 5.6000e+000 102730 -1.9729e+001 -1.4584e+002  1.9053e+001 30004 102583,102557,102704
 5.6000e+000 102753 -2.6045e+001 -1.5147e+002  2.2367e+001 30004 102583,102704,102609
 5.6000e+000 103003 -1.6559e+001 -1.2316e+002 -1.0331e+001 29564 103026,102804,102778
 5.6000e+000 102980 -2.1999e+001 -1.4799e+002 -1.5419e+001 29564 103026,102778,102908
 5.6000e+000 102957 -2.4101e+001 -1.2661e+002 -1.5475e+000 29564 102856,102908,102882
 5.6000e+000 102934 -3.4377e+001 -1.1180e+002  8.6575e+000 29564 102804,102856,102830
 5.6000e+000 103052 -1.5250e+001 -1.1118e+002  6.4033e+000 29564 102856,102804,103026
 5.6000e+000 103075 -2.2382e+001 -1.3127e+002 -9.9431e-001 29564 102856,103026,102908
 5.6000e+000 103634 -5.5183e+001 -1.4075e+002 -1.7420e+001 29160 103657,103418,103392
 5.6000e+000 103611 -5.1678e+001 -1.3405e+002 -7.9874e+000 29160 103657,103392,103314
 5.6000e+000 103588 -3.7812e+001 -1.1339e+002 -1.4434e+001 29160 103314,103392,103366
 5.6000e+000 103565 -3.0647e+001 -1.1953e+002 -1.7623e+001 29160 103314,103366,103340
 5.6000e+000 103542 -6.3878e+001 -1.2923e+002 -1.5939e+001 29160 103262,103444,103314
 5.6000e+000 103519 -7.6939e+001 -1.5369e+002 -2.4446e+001 29160 103262,103314,103288
 5.6000e+000 103496 -4.7508e+001 -1.3906e+002 -8.2526e+000 29160 103262,103470,103444
 5.6000e+000 103683 -6.9909e+001 -1.5278e+002 -2.9233e+001 29160 103444,103418,103657
 5.6000e+000 103706 -5.7114e+001 -1.3279e+002 -1.8256e+001 29160 103444,103657,103314
 5.6000e+000 104035 -3.7582e+001 -1.3410e+002  1.2926e+001 28770 103836,103914,103862
 5.6000e+000 104012 -3.5575e+001 -1.2765e+002  1.7264e+001 28770 103810,103914,103836
 5.6000e+000 103989  7.1751e+000 -1.1580e+002  2.0737e+001 28770 103810,103940,103914
 5.6000e+000 103966 -7.7763e+000 -1.0827e+002  2.6293e+001 28770 103862,103914,103888
 5.6000e+000 104185 -1.2213e+001 -1.1868e+002  2.2415e+001 28366 104208,104110,104084
 5.6000e+000 104162 -1.1419e+001 -1.0200e+002  1.7262e+001 28366 104280,104208,104084
 5.6000e+000 104234  2.4597e+001 -1.1856e+002  1.4098e+001 28366 104610,104208,104136
 5.6000e+000 104257 -2.2120e+001 -1.1264e+002  1.4456e+001 28366 104538,104410,104208
 5.6000e+000 104306 -3.7185e+001 -1.1404e+002  1.4092e+001 28366 104538,104208,104280
 5.6000e+000 104436 -6.9489e+000 -1.1793e+002  1.9918e+000 28366 104136,104208,104410
 5.6000e+000 104564 -3.7883e+001 -1.1193e+002  6.4291e+000 28366 104058,104410,104538
 5.6000e+000 104587 -4.7119e+001 -1.0982e+002  5.0297e+000 28366 104058,104538,104280
 5.6000e+000 104636  1.8397e+001 -1.2036e+002  1.7947e+001 28366 104110,104208,104610
 5.6000e+000 105349 -2.9364e+001 -1.1012e+002 -1.0872e+001 27976 105516,105372,105107
 5.6000e+000 105326 -4.7836e+001 -1.1258e+002  3.2952e+000 27976 105588,105372,105055
 5.6000e+000 105303 -5.1486e+001 -1.0929e+002 -1.2929e+001 27976 105444,105159,105133
 5.6000e+000 105280 -1.7208e+001 -1.1364e+002 -6.8490e+000 27976 105516,105107,105081
 5.6000e+000 105257 -4.4775e+001 -1.2458e+002  1.0705e+001 27976 105588,105055,105029
 5.6000e+000 105234 -2.3991e+001 -9.4207e+001  2.8044e+000 27976 105003,105185,105159
 5.6000e+000 105211 -3.3289e+001 -7.5665e+001  1.5825e+001 27976 104977,105185,105003
 5.6000e+000 105398 -2.3809e+001 -1.1366e+002 -1.4077e+001 27976 105133,105107,105372
 5.6000e+000 105421 -4.0401e+001 -1.1875e+002 -7.4782e+000 27976 105444,105133,105372
 5.6000e+000 105470 -4.1453e+001 -9.3595e+001 -6.8734e+000 27976 105003,105159,105444
 5.6000e+000 105493 -3.3288e+001 -1.0411e+002 -4.2813e+000 27976 105003,105444,105372
 5.6000e+000 105542 -2.1280e+001 -1.1010e+002 -2.7035e-001 27976 105055,105372,105516
 5.6000e+000 105565 -2.6271e+000 -1.1091e+002  2.3909e+000 27976 105055,105516,105081
 5.6000e+000 105614 -5.4467e+001 -1.2441e+002  9.0612e+000 27976 105003,105372,105588
 5.6000e+000 105637 -5.3129e+001 -1.3610e+002  1.7180e+001 27976 105003,105588,105029
 5.6000e+000 106143 -4.7945e+001 -1.6349e+002  1.0472e+001 27664 106166,105846,105820
 5.6000e+000 106120 -3.1862e+001 -1.2011e+002  4.9502e+000 27664 106310,106166,105820
 5.6000e+000 106097 -1.4039e+001 -1.4724e+002 -3.1056e+001 27664 106382,106238,105950
 5.6000e+000 106074 -2.0967e+001 -1.1586e+002  3.7563e+000 27664 106310,105820,106002
 5.6000e+000 106051  1.3402e+001 -1.3283e+002 -2.5722e+001 27664 106382,105950,105924
 5.6000e+000 106028 -2.2776e+000 -2.4090e+002 -7.0483e+000 27664 105846,105898,105872
 5.6000e+000 106192 -4.2538e+001 -1.8310e+002 -2.4713e+001 27664 105898,105846,106166
 5.6000e+000 106215 -2.4460e+001 -1.5246e+002 -1.0160e+001 27664 106238,105898,106166
 5.6000e+000 106264 -8.0187e+001 -1.6419e+002 -4.1091e+001 27664 105976,105950,106238
 5.6000e+000 106287 -2.5186e+001 -1.4984e+002 -1.0886e+001 27664 105976,106238,106166
 5.6000e+000 106336 -2.0702e+001 -1.3012e+002  1.6010e+001 27664 105976,106166,106310
 5.6000e+000 106359 -7.8546e+000 -1.2474e+002  1.4321e+001 27664 105976,106310,106002
 5.6000e+000 106408 -2.6822e+001 -1.2510e+002 -2.0361e-001 27664 105898,106238,106382
 5.6000e+000 106431 -9.9826e+000 -1.1715e+002  2.6734e+000 27664 105898,106382,105924
 5.6000e+000 106728 -1.3470e+001 -8.7210e+001  1.6569e+001 27153 106751,106506,106454
 5.6000e+000 106705 -1.3065e+001 -8.9016e+001  1.3605e+001 27153 106751,106454,106610
 5.6000e+000 106682 -2.2167e+001 -6.7749e+001  3.9068e+000 27153 106454,106506,106480
 5.6000e+000 106659 -2.1156e+001 -8.5353e+001  9.2091e+000 27153 106532,106610,106584
 5.6000e+000 106636 -3.3708e+001 -4.8519e+001  1.9258e+001 27153 106532,106584,106558
 5.6000e+000 106777 -9.7583e+000 -8.4875e+001  1.7669e+001 27153 106532,106506,106751
 5.6000e+000 106800 -1.0436e+001 -8.7493e+001  1.4235e+001 27153 106532,106751,106610
 5.6000e+000 107180 -1.6930e+001 -1.0881e+002  6.3800e+000 26642 107203,106984,106958
 5.6000e+000 107157 -5.3939e+001 -1.2589e+002  8.0940e-001 26642 107203,106958,106932
 5.6000e+000 107134 -6.4366e+001 -1.3819e+002 -2.0720e+001 26642 107275,107036,107010
 5.6000e+000 107111 -4.1822e+001 -1.3504e+002 -2.6733e+001 26642 106932,107062,107036
 5.6000e+000 107088 -1.1709e+000 -1.0545e+002  1.2052e+001 26642 106906,107062,106932
 5.6000e+000 107229  1.1385e+000 -1.0256e+002 -3.3791e+001 26642 107010,106984,107203
 5.6000e+000 107252 -5.6599e+001 -1.2809e+002 -2.5019e+001 26642 107275,107010,107203
 5.6000e+000 107301 -5.4955e+001 -1.3666e+002 -2.6348e+001 26642 106932,107036,107275
 5.6000e+000 107324 -5.2149e+001 -1.3695e+002 -2.7752e+001 26642 106932,107275,107203
 5.6000e+000 107675 -3.1189e+001 -8.2731e+001  9.6294e+000 26045 107450,107554,107476
 5.6000e+000 107652 -2.5439e+001 -7.3281e+001  4.3384e+000 26045 107450,107580,107554
 5.6000e+000 107629 -1.3675e+001 -5.8289e+001  3.7805e-001 26045 107476,107528,107502
 5.6000e+000 107606 -7.3337e+000 -7.6359e+001  6.6106e+000 26045 107476,107554,107528
 5.6000e+000 107874 -2.1129e+001 -1.2200e+002  3.0909e+001 25641 107750,107802,107776
 5.6000e+000 107851 -2.5637e+001 -8.5721e+001  1.7493e+001 25641 107724,107802,107750
 5.6000e+000 107828 -2.8676e+001 -8.7218e+001  1.7021e+001 25641 107698,107802,107724
 5.6000e+000 108431 -9.8085e+000 -1.3268e+002  2.4539e+001 25023 108526,108267,108241
 5.6000e+000 108408 -1.2075e-001 -1.2482e+002  4.5263e+000 25023 108059,108267,108085
 5.6000e+000 108385 -1.8369e+001 -1.3742e+002  2.4369e+001 25023 108454,108163,108111
 5.6000e+000 108362 -6.2947e+001 -1.3807e+002  4.1689e+001 25023 108454,108111,108085
 5.6000e+000 108339 -4.8426e+001 -1.7859e+002  4.1828e+001 25023 108111,108163,108137
 5.6000e+000 108316 -3.2528e+001 -9.9175e+001 -6.7478e+000 25023 108163,108241,108215
 5.6000e+000 108293  1.0804e+001 -7.9385e+001  4.3216e-001 25023 108163,108215,108189
 5.6000e+000 108480 -3.2895e+000 -1.2203e+002  1.9292e+000 25023 108241,108163,108454
 5.6000e+000 108503 -1.9123e+001 -1.3001e+002  2.4062e+001 25023 108526,108241,108454
 5.6000e+000 108552 -2.1163e+001 -1.3221e+002  1.9151e+001 25023 108085,108267,108526
 5.6000e+000 108575 -3.0973e+001 -1.3010e+002  1.8456e+001 25023 108085,108526,108454
 5.6000e+000 108823  5.2119e+000 -9.5131e+001  1.4817e+001 24461 108624,108728,108650
 5.6000e+000 108800 -1.1534e+001 -2.0390e+002 -1.4670e+001 24461 108598,108728,108624
 5.6000e+000 108777  7.8854e-001 -1.2597e+002  1.0157e+001 24461 108650,108728,108676
 5.6000e+000 108754 -5.5287e+001 -3.6027e+002  3.1327e+001 24461 108676,108728,108702
 5.6000e+000 109022 -3.5036e+001 -9.8421e+001  1.4402e+001 24121 108872,108924,108898
 5.6000e+000 108999 -2.3697e+001 -9.7675e+001  1.6131e+001 24121 108846,108924,108872
 5.6000e+000 108976 -4.1363e+001 -1.0529e+002  1.6942e+001 24121 108846,108950,108924
 5.6000e+000 109483 -4.1942e+001 -1.3864e+002 -1.4024e+001 23717 109209,109339,109235
 5.6000e+000 109460 -1.6114e+001 -1.5764e+002 -3.2941e+001 23717 109209,109365,109339
 5.6000e+000 109437 -1.1707e+000 -1.7571e+002 -1.0498e+001 23717 109287,109339,109313
 5.6000e+000 109414 -7.8853e+001 -1.7641e+002  9.6696e+000 23717 109235,109339,109287
 5.6000e+000 109391  4.1776e+000 -2.0876e+002  7.5815e+001 23717 109235,109287,109261
 5.6000e+000 109910 -5.5332e+001 -1.6336e+002 -1.7001e+001 23305 109613,109743,109717
 5.6000e+000 109887 -5.4714e+001 -1.6417e+002 -1.1214e+001 23305 109613,109769,109743
 5.6000e+000 109864 -6.5446e+001 -1.5593e+002 -1.5130e+001 23305 109613,109717,109639
 5.6000e+000 109841 -4.1939e+001 -1.5158e+002 -4.9584e+000 23305 109587,109769,109613
 5.6000e+000 109818  1.7767e+000 -1.2744e+002  1.2038e+001 23305 109639,109717,109691
 5.6000e+000 109795 -1.1915e+001 -1.0095e+002 -2.4222e+001 23305 109639,109691,109665
 5.6000e+000 110180 -3.6082e+000 -4.6255e+001 -1.0149e+001 22851 110007,110059,110033
 5.6000e+000 110157 -3.3119e+001 -1.2687e+002  6.2369e+000 22851 109981,110059,110007
 5.6000e+000 110134 -4.7037e+001 -1.3824e+002  6.5879e-001 22851 109955,110059,109981
 5.6000e+000 110111 -1.8911e+001 -1.5463e+002 -1.2098e+001 22851 109955,110085,110059
 5.6000e+000 110737 -1.4938e+001 -1.4054e+002 -3.9706e+001 22333 110760,110469,110391
 5.6000e+000 110714 -2.4558e+000 -1.6296e+002 -3.0826e+001 22333 110760,110391,110365
 5.6000e+000 110691 -1.1337e+001 -1.2543e+002 -3.1408e+001 22333 110832,110521,110469
 5.6000e+000 110668 -3.0455e+001 -2.5022e+002  1.8954e+001 22333 110417,110469,110443
 5.6000e+000 110645 -6.4359e+001 -2.2420e+002  1.1845e+001 22333 110391,110469,110417
 5.6000e+000 110622 -1.9226e+000 -1.2736e+002 -1.5335e+001 22333 110469,110521,110495
 5.6000e+000 110599 -1.0740e+001 -8.9334e+001  1.1426e+001 22333 110365,110573,110547
 5.6000e+000 110786 -6.5130e+000 -1.2943e+002 -3.6002e+001 22333 110832,110469,110760
 5.6000e+000 110809  1.1666e+001 -1.4133e+002 -2.4612e+001 22333 110547,110760,110365
 5.6000e+000 110858 -1.1782e+001 -1.3445e+002 -3.0355e+001 22333 110547,110521,110832
 5.6000e+000 110881 -1.0626e+001 -1.4295e+002 -3.5956e+001 22333 110547,110832,110760
 5.6000e+000 111308 -7.0340e+001 -1.7142e+002  1.2501e+001 21829 111331,111063,111011
 5.6000e+000 111285 -6.2111e+001 -1.5647e+002 -3.6016e+000 21829 111331,111011,111167
 5.6000e+000 111262 -7.3117e+001 -1.7179e+002  1.3059e+001 21829 111403,111089,111063
 5.6000e+000 111239 -9.0220e+001 -1.8446e+002  2.6998e+001 21829 111011,111063,111037
 5.6000e+000 111216 -4.0250e+001 -1.1584e+002  5.4196e+000 21829 110985,111167,111011
 5.6000e+000 111193 -9.1789e+001 -3.0123e+002  6.6731e+001 21829 111089,111141,111115
 5.6000e+000 111357 -7.0691e+001 -1.7391e+002  1.3001e+001 21829 111403,111063,111331
 5.6000e+000 111380 -7.3443e+001 -1.7995e+002 -1.9660e-001 21829 111141,111331,111167
 5.6000e+000 111429 -7.9369e+001 -1.7498e+002  1.4188e+001 21829 111141,111089,111403
 5.6000e+000 111452 -7.4124e+001 -1.7608e+002  1.4071e+001 21829 111141,111403,111331
 5.6000e+000 112056  5.9076e+001 -1.2455e+002  2.5356e+000 21489 111687,111765,111739
 5.6000e+000 112033  1.9938e+001 -1.4429e+002  1.4973e+001 21489 112151,112079,111687
 5.6000e+000 112010  3.0815e+000 -2.2478e+002  1.0849e+001 21489 111791,111843,111817
 5.6000e+000 111987 -3.4459e+001 -1.8233e+002 -1.5635e+001 21489 112079,111843,111791
 5.6000e+000 111964  4.3036e+001 -1.3223e+002  2.8536e+001 21489 112151,111687,111661
 5.6000e+000 111941 -4.4613e+000 -9.5583e+001  2.2569e+001 21489 111661,111869,111843
 5.6000e+000 111918  6.0911e+001 -1.3566e+002  2.1220e+001 21489 111687,111739,111713
 5.6000e+000 111895  1.8699e+001 -4.1865e+001  5.8873e+000 21489 111635,111869,111661
 5.6000e+000 112105 -1.6026e+001 -1.5747e+002  8.2377e+000 21489 111765,111687,112079
 5.6000e+000 112128 -1.4712e+001 -1.4962e+002  8.4252e+000 21489 111765,112079,111791
 5.6000e+000 112177 -1.8533e+001 -1.4132e+002 -5.2585e+000 21489 111843,112079,112151
 5.6000e+000 112200  2.3367e+000 -1.3643e+002  5.7393e+000 21489 111843,112151,111661
 5.6000e+000 112578 -2.6373e+001 -1.8378e+002  8.2172e+000 21177 112382,112434,112408
 5.6000e+000 112555 -3.4096e+001 -1.7944e+002  1.8723e-002 21177 112330,112434,112382
 5.6000e+000 112532 -2.2309e+001 -1.4968e+002  3.0579e+001 21177 112304,112434,112330
 5.6000e+000 112509 -3.4766e+001 -1.7278e+002  0.0000e+000 21177 112330,112382,112356
 5.6000e+000 112486 -5.9712e+000 -7.9482e+001  4.4012e+000 21177 112304,112460,112434
 5.6000e+000 112679  2.5087e-001 -9.1996e+001 -2.3993e+001 20666 112601,112653,112627
 5.6000e+000 112927 -5.4753e+001 -1.8496e+002  6.3537e+000 19762 112702,112754,112728
 5.6000e+000 112904 -2.0464e+001 -1.7630e+002 -1.9474e+000 19762 112702,112832,112754
 5.6000e+000 112881 -4.5991e+001 -1.8895e+002  2.9856e+001 19762 112754,112832,112806
 5.6000e+000 112858 -6.6016e+001 -2.4385e+002  3.1495e+001 19762 112754,112806,112780
 5.6000e+000 113297 -4.9882e+001 -2.2415e+002  1.4625e+001 19308 112974,113052,113026
 5.6000e+000 113274 -3.3871e+001 -1.8677e+002  5.1021e+000 19308 112974,113156,113052
 5.6000e+000 113251 -1.8911e+001 -2.4798e+002 -2.9878e+001 19308 113052,113130,113104
 5.6000e+000 113228 -3.7102e+001 -1.8654e+002 -7.2852e-002 19308 113052,113156,113130
 5.6000e+000 113205 -3.5847e+001 -2.1588e+002  0.0000e+000 19308 113052,113104,113078
 5.6000e+000 113182 -7.2321e+001 -2.3357e+002 -1.2001e+000 19308 112974,113026,113000
 5.6000e+000 113547 -1.0475e+000 -2.0168e+002 -1.4263e+001 18711 113570,113374,113348
 5.6000e+000 113524 -7.3015e+000 -1.8491e+002 -8.7390e+000 18711 113570,113348,113452
 5.6000e+000 113501 -1.6208e-001 -1.3746e+002 -3.8171e+001 18711 113322,113452,113348
 5.6000e+000 113478 -1.8822e+001 -1.8260e+002 -6.7505e+001 18711 113374,113426,113400
 5.6000e+000 113596 -1.3387e-001 -1.8318e+002 -1.8499e+001 18711 113426,113374,113570
 5.6000e+000 113619 -7.5956e+000 -1.6901e+002 -9.4725e+000 18711 113426,113570,113452
 5.6000e+000 113771 -1.0203e+002 -2.5480e+002 -1.4118e+001 18307 113670,113722,113696
 5.6000e+000 113748 -7.9784e+001 -2.3832e+002 -6.5321e+000 18307 113644,113722,113670
 5.6000e+000 113972 -4.4810e+001 -2.1410e+002  4.4744e+000 17945 113822,113874,113848
 5.6000e+000 113949 -4.5048e+001 -2.1332e+002  5.0346e+000 17945 113822,113900,113874
 5.6000e+000 113926 -6.3439e+001 -1.6932e+002  9.0155e+001 17945 113796,113900,113822
 5.6000e+000 114075 -2.8433e+001 -3.1123e+002  3.4689e+001 17482 113997,114049,114023
 5.6000e+000 114479 -1.2214e+001 -1.7517e+002 -2.7398e+001 17042 114257,114361,114335
 5.6000e+000 114456 -4.1435e+001 -1.6742e+002 -4.5374e+000 17042 114205,114361,114257
 5.6000e+000 114433 -4.6423e+001 -1.9430e+002  7.4237e+000 17042 114205,114257,114231
 5.6000e+000 114410  3.6376e+001 -2.6043e+002 -1.5593e+001 17042 114283,114335,114309
 5.6000e+000 114387 -1.5777e+000 -2.2423e+002 -1.1519e+001 17042 114257,114335,114283
 5.6000e+000 114879 -9.5294e+001 -1.7493e+002 -1.6526e+000 16638 114631,114683,114657
 5.6000e+000 114856 -1.7786e+001 -1.4248e+002  2.4436e+000 16638 114605,114683,114631
 5.6000e+000 114833  2.5833e+001 -7.7260e+001 -1.9738e+001 16638 114605,114761,114683
 5.6000e+000 114810 -6.2501e+000 -1.9781e+002 -9.5177e+000 16638 114683,114735,114709
 5.6000e+000 114787 -1.3562e+001 -2.0567e+002 -1.3743e+001 16638 114683,114761,114735
 5.6000e+000 115078 -8.4550e+001 -1.9254e+002  5.0587e+000 16232 114954,115006,114980
 5.6000e+000 115055 -8.4121e+001 -2.1259e+002  9.3673e+000 16232 114928,115006,114954
 5.6000e+000 115032 -4.0368e+001 -2.6248e+002  1.8135e+001 16232 114902,115006,114928
 5.6000e+000 115228 -4.6650e+001 -1.9139e+002  6.2689e+000 15482 115101,115153,115127
 5.6000e+000 115205 -4.5533e+001 -1.8202e+002 -2.4367e+000 15482 115101,115179,115153
 5.6000e+000 115331 -3.4840e+001 -1.7473e+002 -2.2899e+001 15163 115253,115305,115279
 5.6000e+000 115434 -5.8820e+001 -1.8925e+002  3.3584e+001 421 115356,115408,115382
 5.7000e+000 68213 -8.4060e+000 -9.1555e+001 -1.0161e+001 67888 68112,68164,68138
 5.7000e+000 68190 -1.1824e+002 -1.2504e+002 -1.6680e+001 67888 68086,68164,68112
 5.7000e+000 68314 -1.1982e+001 -1.3572e+002  1.3974e+001 67576 68236,68288,68262
 5.7000e+000 68584 -5.8103e+001 -2.5863e+002  1.3665e+001 67378 68385,68489,68463
 5.7000e+000 68561 -1.7613e+001 -2.3936e+002  7.5506e+000 67378 68359,68489,68385
 5.7000e+000 68538 -4.3793e+001 -2.1749e+002  1.9771e+001 67378 68385,68463,68411
 5.7000e+000 68515 -2.0770e+001 -1.4465e+002  1.0916e+001 67378 68411,68463,68437
 5.7000e+000 68964 -6.0772e+001 -2.3628e+002  3.6257e+001 67130 68690,68820,68716
 5.7000e+000 68941  4.4911e+001 -2.4674e+002  6.6782e+001 67130 68690,68846,68820
 5.7000e+000 68918 -5.6574e+001 -1.5536e+002  5.7826e+000 67130 68742,68820,68794
 5.7000e+000 68895 -1.4512e+001 -1.5343e+002  1.5333e+001 67130 68716,68820,68742
 5.7000e+000 68872 -3.7637e+001 -1.2895e+002 -1.5601e+001 67130 68742,68794,68768
 5.7000e+000 69065 -5.0139e+001 -1.3144e+002  3.3969e+000 66926 68987,69039,69013
 5.7000e+000 69445 -2.9048e+001 -1.2038e+002 -6.6469e+000 66614 69223,69301,69275
 5.7000e+000 69422 -4.4788e+001 -1.2869e+002 -3.2323e+000 66614 69171,69301,69223
 5.7000e+000 69399 -5.0266e+001 -1.3014e+002 -6.0117e-001 66614 69171,69327,69301
 5.7000e+000 69376 -1.6148e+001 -6.4135e+001  7.6299e-001 66614 69223,69275,69249
 5.7000e+000 69353 -3.7975e+001 -1.3282e+002 -2.1566e+000 66614 69171,69223,69197
 5.7000e+000 69546 -4.8909e+001 -2.1151e+002  1.3495e+001 66416 69468,69520,69494
 5.7000e+000 69997 -4.5782e+001 -2.1256e+002 -1.5882e+001 66104 69700,69830,69726
 5.7000e+000 69974 -6.3392e+001 -2.5985e+002 -3.3697e+001 66104 69700,69856,69830
 5.7000e+000 69951 -5.0066e+001 -1.6456e+002 -1.1966e+001 66104 69726,69804,69778
 5.7000e+000 69928 -4.0292e+001 -1.9843e+002 -1.6219e+001 66104 69726,69830,69804
 5.7000e+000 69905 -5.1730e+001 -1.5613e+002 -5.4394e+000 66104 69726,69778,69752
 5.7000e+000 69882 -1.9829e+001 -3.5676e+002 -6.7093e+001 66104 69674,69856,69700
 5.7000e+000 70326 -3.9791e+001 -9.7355e+001  1.2450e+000 65814 70349,70153,70127
 5.7000e+000 70303 -2.3958e+001 -9.5908e+001  4.2020e+000 65814 70349,70127,70101
 5.7000e+000 70280 -2.1766e+001 -9.1714e+001  3.7204e+001 65814 70101,70231,70205
 5.7000e+000 70257  1.2843e-002 -1.0528e+002  1.3227e+001 65814 70153,70205,70179
 5.7000e+000 70375 -3.2379e+001 -1.0250e+002  1.3727e+001 65814 70205,70153,70349
 5.7000e+000 70398 -8.2883e+000 -9.7300e+001  1.4932e+001 65814 70205,70349,70101
 5.7000e+000 70904 -1.5795e+001 -4.8861e+001 -1.8199e+001 65502 70607,70737,70685
 5.7000e+000 70881 -2.3360e+001 -3.8864e+001 -2.3285e+001 65502 70581,70737,70607
 5.7000e+000 70858 -2.2535e+001 -4.7699e+000 -4.7070e+000 65502 70581,70763,70737
 5.7000e+000 70835 -2.4074e+001 -5.3687e+001 -2.3276e+001 65502 70685,70737,70711
 5.7000e+000 70812 -9.2007e+001 -6.6043e+001 -4.0178e-001 65502 70607,70659,70633
 5.7000e+000 70789 -2.7310e+001 -6.9613e+001  1.6163e+000 65502 70607,70685,70659
 5.7000e+000 71103 -2.4008e+001 -1.8333e+002 -5.9831e+000 65304 71126,70979,70953
 5.7000e+000 71080 -4.7518e+001 -1.8091e+002 -2.7086e+000 65304 71126,70953,70927
 5.7000e+000 71057 -6.8785e+001 -1.8576e+002  8.9309e+000 65304 70927,71031,71005
 5.7000e+000 71152 -4.6831e+001 -1.7521e+002 -1.2830e+001 65304 71005,70979,71126
 5.7000e+000 71175 -7.2296e+001 -1.7507e+002 -4.4505e+000 65304 71005,71126,70927
 5.7000e+000 71374 -3.5610e+001 -1.7369e+002  9.1872e+000 65106 71198,71276,71224
 5.7000e+000 71351 -5.2652e+001 -1.8351e+002  5.0385e+000 65106 71198,71302,71276
 5.7000e+000 71328 -2.5879e+001 -1.4722e+002  2.1055e+001 65106 71224,71276,71250
 5.7000e+000 71756 -2.2593e+001 -1.2220e+002 -8.5058e+000 64652 71508,71638,71534
 5.7000e+000 71733  5.0186e-001 -1.1248e+002  1.1611e+000 64652 71482,71638,71508
 5.7000e+000 71710 -5.0243e+001 -1.2607e+002 -1.1775e+001 64652 71534,71586,71560
 5.7000e+000 71687 -4.3615e+001 -1.3445e+002 -2.1640e+001 64652 71534,71612,71586
 5.7000e+000 71664 -6.0402e+001 -1.3940e+002 -2.2486e+001 64652 71534,71638,71612
 5.7000e+000 72085 -5.7923e+001 -1.3925e+002 -1.8746e+001 64248 71886,71964,71912
 5.7000e+000 72062 -4.6493e+001 -1.3628e+002 -1.8073e+001 64248 71860,71964,71886
 5.7000e+000 72039 -2.3109e+001 -1.4865e+002 -1.2525e+001 64248 71912,71964,71938
 5.7000e+000 72016 -5.1076e+001 -1.3116e+002 -1.6993e+001 64248 71860,71990,71964
 5.7000e+000 72235 -4.6896e+000 -8.8804e+001 -1.1488e+001 63858 72588,72258,72134
 5.7000e+000 72212 -2.5124e+001 -7.8112e+001  3.0635e+000 63858 72330,72258,72108
 5.7000e+000 72284 -1.8083e+001 -6.1214e+001 -8.0714e+000 63858 72160,72134,72258
 5.7000e+000 72307 -5.4051e+001 -8.6006e+001 -1.4409e+001 63858 72460,72258,72186
 5.7000e+000 72356 -4.5310e+001 -8.2772e+001 -1.4174e+001 63858 72186,72258,72330
 5.7000e+000 72486 -2.5226e+001 -8.2777e+001 -1.2007e+001 63858 72160,72258,72460
 5.7000e+000 72614 -1.2444e+001 -9.6278e+001  1.3407e-001 63858 72108,72258,72588
 5.7000e+000 73248 -3.4499e+001 -1.5917e+002  3.3903e+001 63404 72902,72954,72928
 5.7000e+000 73225 -7.6224e+001 -1.5529e+002  1.5034e+001 63404 73271,72954,72902
 5.7000e+000 73202 -6.8314e+001 -1.2564e+002  1.3045e+001 63404 73271,72902,73032
 5.7000e+000 73179 -4.6981e+001 -1.0940e+002  3.6390e+000 63404 72902,73058,73032
 5.7000e+000 73156 -6.3887e+001 -1.4772e+002  1.7821e+000 63404 72980,73032,73006
 5.7000e+000 73133 -4.3862e+001 -1.0838e+002  4.1165e+000 63404 72876,73058,72902
 5.7000e+000 73110 -1.3516e+001 -5.2236e+001 -2.6792e+001 63404 72876,73084,73058
 5.7000e+000 73297 -6.5927e+001 -1.5956e+002 -2.9084e+000 63404 72980,72954,73271
 5.7000e+000 73320 -6.5391e+001 -1.4343e+002 -2.2909e+000 63404 72980,73271,73032
 5.7000e+000 73470 -5.4022e+001 -3.5672e+002  3.8178e+001 63014 73343,73395,73369
 5.7000e+000 73447 -1.6834e+002 -4.3633e+002 -7.8990e+000 63014 73343,73421,73395
 5.7000e+000 73929 -1.0804e+001 -1.5867e+002  9.8859e+000 62702 73759,73811,73785
 5.7000e+000 73906  4.8529e-001 -1.5318e+002  1.1310e+001 62702 73655,73811,73759
 5.7000e+000 73883 -2.3894e+001 -1.7230e+002  7.3993e-002 62702 73655,73759,73681
 5.7000e+000 73860 -2.4034e+000 -1.2843e+002 -2.4914e+001 62702 73681,73759,73707
 5.7000e+000 73837 -7.2781e+001 -1.4718e+002  3.3874e+000 62702 73707,73759,73733
 5.7000e+000 74209 -9.6851e+001 -1.4801e+002  1.8921e+000 62404 74059,74137,74085
 5.7000e+000 74186 -1.1268e+002 -1.9082e+002  2.2279e+001 62404 74033,74137,74059
 5.7000e+000 74163 -1.0078e+002 -1.3657e+002  1.8241e+000 62404 74085,74137,74111
 5.7000e+000 74408 -5.4611e+000 -1.2793e+002  7.1719e+000 62000 74258,74336,74284
 5.7000e+000 74385 -3.7424e+000 -1.2481e+002  1.4161e+001 62000 74232,74336,74258
 5.7000e+000 74362 -3.1564e+001 -1.2966e+002 -1.9607e+000 62000 74284,74336,74310
 5.7000e+000 74509 -1.0824e+001 -1.3541e+002  1.1686e+001 61802 74431,74483,74457
 5.7000e+000 74759 -5.0555e+001 -1.2746e+002  2.9099e+000 61554 74782,74586,74560
 5.7000e+000 74736 -3.3375e+001 -1.2020e+002  4.8319e+000 61554 74782,74560,74664
 5.7000e+000 74713 -4.5347e+001 -9.9010e+001  3.4030e+001 61554 74854,74612,74586
 5.7000e+000 74690 -4.1056e+001 -1.3173e+002  9.8218e-001 61554 74534,74664,74560
 5.7000e+000 74808 -5.9710e+001 -1.1999e+002  1.0235e+001 61554 74854,74586,74782
 5.7000e+000 74831 -3.8868e+001 -1.5224e+002  8.3993e+000 61554 74638,74782,74664
 5.7000e+000 74880 -1.4586e+001 -1.2078e+002  3.6659e+001 61554 74638,74612,74854
 5.7000e+000 74903 -1.5158e+001 -1.1874e+002  1.8785e+001 61554 74638,74854,74782
 5.7000e+000 75285 -2.2016e+001 -1.3045e+002  1.4963e+000 61356 75063,75167,75115
 5.7000e+000 75262 -2.7201e+001 -1.3618e+002 -6.3608e+000 61356 75037,75167,75063
 5.7000e+000 75239  2.2596e+000 -1.3417e+002 -4.8408e-001 61356 75115,75167,75141
 5.7000e+000 75216 -1.2028e+001 -1.2485e+002  3.7277e+000 61356 75063,75115,75089
 5.7000e+000 75193 -5.9253e+001 -1.1142e+002  7.9817e+000 61356 75011,75167,75037
 5.7000e+000 75631 -9.1435e+000 -1.0418e+002  4.2379e+000 60952 75654,75412,75360
 5.7000e+000 75608 -1.8975e+001 -1.1937e+002 -1.8000e+000 60952 75654,75360,75334
 5.7000e+000 75585 -2.0842e+001 -1.5429e+002  8.6500e+000 60952 75726,75438,75412
 5.7000e+000 75562 -1.4126e+001 -1.1981e+002 -1.9509e+001 60952 75308,75490,75334
 5.7000e+000 75539 -1.3189e+001 -1.0425e+002  1.7187e-001 60952 75360,75412,75386
 5.7000e+000 75516 -3.0966e+001 -1.8775e+002 -6.8290e+000 60952 75438,75490,75464
 5.7000e+000 75680 -8.8099e+000 -1.2762e+002  4.3671e+000 60952 75726,75412,75654
 5.7000e+000 75703 -9.1306e+000 -1.2015e+002 -3.5477e+000 60952 75490,75654,75334
 5.7000e+000 75752 -1.0592e+001 -1.2372e+002  3.1808e-002 60952 75490,75438,75726
 5.7000e+000 75775 -1.1001e+001 -1.2139e+002 -4.2442e+000 60952 75490,75726,75654
 5.7000e+000 76155 -2.4184e+001 -1.2732e+002 -1.1169e+000 60754 75933,75985,75959
 5.7000e+000 76132 -3.9103e+001 -1.3631e+002  1.3830e+001 60754 75933,76037,75985
 5.7000e+000 76109  8.9989e-001 -1.3116e+002  3.4107e+000 60754 75985,76037,76011
 5.7000e+000 76086 -5.8478e+001 -1.1554e+002  3.0218e+000 60754 75881,76037,75933
 5.7000e+000 76063 -7.8231e+001 -1.0631e+002  2.6248e+001 60754 75881,75933,75907
 5.7000e+000 76612 -2.4567e+001 -1.2236e+002  6.9801e+000 60350 76635,76442,76390
 5.7000e+000 76589 -3.2964e+000 -1.4031e+002  1.1372e+001 60350 76635,76390,76364
 5.7000e+000 76566 -7.8835e+000 -1.8233e+002 -1.1899e+001 60350 76364,76494,76468
 5.7000e+000 76543 -1.6829e+000 -1.1157e+002  1.1018e+001 60350 76390,76442,76416
 5.7000e+000 76520 -6.6314e+001 -1.1323e+002 -2.8632e+001 60350 76338,76494,76364
 5.7000e+000 76661 -3.5716e+001 -1.3491e+002  1.2565e+001 60350 76468,76442,76635
 5.7000e+000 76684 -1.9885e+001 -1.5437e+002  1.8834e+001 60350 76468,76635,76364
 5.7000e+000 76932 -5.1226e+001 -1.4063e+002  5.9151e-001 59946 76955,76733,76707
 5.7000e+000 76909 -5.1730e+001 -1.4118e+002  3.3011e+000 59946 77027,76955,76707
 5.7000e+000 76886 -4.9536e+001 -1.4212e+002  2.5823e+000 59946 77027,76707,76837
 5.7000e+000 76863 -2.5905e+001 -1.5300e+002 -1.5446e+001 59946 76733,76785,76759
 5.7000e+000 76981 -5.8408e+001 -1.4149e+002 -2.3069e+000 59946 76785,76733,76955
 5.7000e+000 77004 -5.3067e+001 -1.3589e+002  1.6537e+000 59946 76785,76955,76811
 5.7000e+000 77053 -4.8931e+001 -1.3962e+002  3.9113e+000 59946 76811,76955,77027
 5.7000e+000 77076 -4.7700e+001 -1.4122e+002  2.8709e+000 59946 76811,77027,76837
 5.7000e+000 77226 -5.6146e+001 -1.4980e+002  4.0784e+000 59542 77099,77151,77125
 5.7000e+000 77203 -7.4623e+001 -1.8677e+002  1.0378e+001 59542 77099,77177,77151
 5.7000e+000 77427 -7.6912e+001 -1.5763e+002 -1.0102e+001 59030 77450,77277,77251
 5.7000e+000 77404 -4.9487e+001 -1.3112e+002 -4.2768e+001 59030 77450,77251,77355
 5.7000e+000 77381 -1.9190e+001 -1.8289e+002 -4.5410e+000 59030 77277,77329,77303
 5.7000e+000 77476 -4.2713e+001 -1.6294e+002 -2.7720e+001 59030 77329,77277,77450
 5.7000e+000 77499 -1.1568e+001 -1.5047e+002 -5.3639e+001 59030 77329,77450,77355
 5.7000e+000 77749 -6.2533e+001 -1.9804e+002  1.5882e+001 58426 77772,77628,77602
 5.7000e+000 77726 -3.9603e+001 -2.2373e+002  4.1172e+001 58426 77524,77654,77628
 5.7000e+000 77703 -5.2818e+001 -1.9511e+002  1.2195e+001 58426 77772,77602,77550
 5.7000e+000 77680 -3.3720e+001 -1.8408e+002 -7.4552e+000 58426 77550,77602,77576
 5.7000e+000 77798 -5.1184e+001 -2.0041e+002  1.5097e+001 58426 77524,77628,77772
 5.7000e+000 77821 -4.5730e+001 -1.9954e+002  1.0467e+001 58426 77524,77772,77550
 5.7000e+000 78071 -8.1892e+001 -1.7713e+002  1.8667e+001 57922 78094,77924,77898
 5.7000e+000 78048 -9.3253e+001 -1.7426e+002  1.8865e+000 57922 78094,77898,77872
 5.7000e+000 78025 -7.5990e+001 -1.5654e+002  1.8069e+001 57922 78166,77846,77950
 5.7000e+000 78002 -4.1349e+001 -1.5323e+002  2.0779e+001 57922 77846,77976,77950
 5.7000e+000 78120 -6.8179e+001 -1.7248e+002  1.2833e+001 57922 77950,77924,78094
 5.7000e+000 78143 -7.7983e+001 -1.5962e+002  1.3570e+001 57922 78166,77950,78094
 5.7000e+000 78192 -7.1187e+001 -1.6461e+002  1.2466e+001 57922 77872,77846,78166
 5.7000e+000 78215 -7.7651e+001 -1.7292e+002  7.4556e+000 57922 77872,78166,78094
 5.7000e+000 78416  1.4631e+001 -1.4990e+002 -7.5364e+000 57468 78439,78292,78240
 5.7000e+000 78393 -9.5481e+000 -1.4243e+002  4.6895e-001 57468 78439,78240,78344
 5.7000e+000 78370  5.6627e+000 -2.0259e+002 -4.5822e+000 57468 78240,78292,78266
 5.7000e+000 78465 -8.9121e+000 -1.6148e+002 -1.1883e+001 57468 78318,78292,78439
 5.7000e+000 78488 -1.8791e+001 -1.4789e+002 -1.8046e+000 57468 78318,78439,78344
 5.7000e+000 78689  1.1073e+001 -1.7788e+002 -1.9011e+001 57014 78712,78539,78513
 5.7000e+000 78666 -1.4152e+001 -1.7692e+002 -2.6967e+000 57014 78712,78513,78617
 5.7000e+000 78643 -3.9523e+001 -1.7645e+002  1.8273e+001 57014 78565,78617,78591
 5.7000e+000 78738 -2.1190e+001 -1.5080e+002 -1.9039e+001 57014 78565,78539,78712
 5.7000e+000 78761 -5.8167e+001 -1.7226e+002  7.4084e+000 57014 78565,78712,78617
 5.7000e+000 79241 -5.8249e+001 -1.5911e+002  1.2361e+001 56652 79264,78895,78869
 5.7000e+000 79218 -2.7416e+001 -2.0672e+002 -1.2745e+001 56652 79264,78869,79051
 5.7000e+000 79195 -4.1340e+001 -1.8099e+002 -4.1919e+001 56652 78869,79077,79051
 5.7000e+000 79172 -4.5256e+001 -1.0668e+002 -2.3081e+001 56652 78895,78973,78947
 5.7000e+000 79149 -7.4843e+001 -3.1289e+002 -2.6139e+001 56652 78973,79051,78999
 5.7000e+000 79126 -3.9532e+001 -9.8870e+001 -2.5642e+001 56652 78895,78947,78921
 5.7000e+000 79103 -5.5665e+001 -2.0314e+002  4.7578e+001 56652 78999,79051,79025
 5.7000e+000 79290 -3.4506e+001 -1.2935e+002  2.8698e+001 56652 78973,78895,79264
 5.7000e+000 79313 -1.5130e+000 -1.8039e+002  5.0942e+000 56652 78973,79264,79051
 5.7000e+000 79512 -1.7380e+001 -2.3475e+002  1.7642e+001 56062 79388,79440,79414
 5.7000e+000 79489 -8.3866e+001 -1.2006e+002  3.1163e+001 56062 79336,79440,79388
 5.7000e+000 79466 -2.6854e+001 -1.6971e+002  3.6294e+001 56062 79336,79388,79362
 5.7000e+000 79941 -2.4429e+001 -1.2034e+002  2.1168e+001 55658 79964,79670,79644
 5.7000e+000 79918 -3.7082e+001 -1.2309e+002  2.3793e+001 55658 79964,79644,79800
 5.7000e+000 79895 -3.4784e+001 -1.2869e+002  1.2814e+001 55658 80036,79696,79670
 5.7000e+000 79872 -4.0402e+001 -1.0866e+002  3.1809e-001 55658 80108,79722,79696
 5.7000e+000 79849 -5.8925e+001 -1.0651e+002  9.3880e+000 55658 79722,79774,79748
 5.7000e+000 79826  2.3394e+000 -1.0931e+002  6.4747e+000 55658 79618,79800,79644
 5.7000e+000 79990 -3.8372e+001 -1.2950e+002  1.6578e+001 55658 80036,79670,79964
 5.7000e+000 80013 -3.3624e+001 -1.1360e+002  2.5001e+001 55658 79774,79964,79800
 5.7000e+000 80062 -2.9391e+001 -1.1699e+002  1.0854e+001 55658 80108,79696,80036
 5.7000e+000 80085 -3.7914e+001 -1.1497e+002  2.1900e+001 55658 79774,80036,79964
 5.7000e+000 80134 -6.1978e+001 -1.1773e+002  5.2038e+000 55658 79774,79722,80108
 5.7000e+000 80157 -5.5754e+001 -1.2879e+002  1.5695e+001 55658 79774,80108,80036
 5.7000e+000 80307 -7.7604e+001 -1.2338e+002  1.1257e+001 55254 80402,80330,80206
 5.7000e+000 80284 -7.4572e+001 -1.6734e+002  1.3135e+001 55254 80330,80180,80258
 5.7000e+000 80356 -8.9472e+001 -1.5014e+002  2.8618e+001 55254 80232,80206,80330
 5.7000e+000 80379 -3.0086e+001 -1.2328e+002  4.2940e+001 55254 80232,80330,80258
 5.7000e+000 80428 -9.9769e+001 -1.4960e+002  6.4265e-001 55254 80180,80330,80402
 5.7000e+000 80659 -3.4961e+001 -1.8130e+002 -1.4002e+001 54850 80558,80610,80584
 5.7000e+000 80636 -7.4934e+000 -1.7393e+002 -1.6061e+001 54850 80532,80610,80558
 5.7000e+000 80760 -1.0322e+001 -1.1689e+002 -7.5698e+000 54652 80682,80734,80708
 5.7000e+000 81164 -9.4554e+000 -1.2486e+002 -2.0088e+000 54248 81187,80942,80890
 5.7000e+000 81141 -1.2523e+001 -1.2597e+002 -8.6197e-001 54248 81187,80890,81046
 5.7000e+000 81118 -1.4252e+001 -1.3135e+002  2.7088e+001 54248 80942,81020,80994
 5.7000e+000 81095 -7.9402e+000 -1.2462e+002  6.8577e-001 54248 80890,80942,80916
 5.7000e+000 81072 -1.9384e+001 -7.3470e+001  4.1686e+000 54248 80942,80994,80968
 5.7000e+000 81213 -1.2712e+001 -1.2354e+002 -1.9122e+000 54248 81020,80942,81187
 5.7000e+000 81236 -1.5248e+001 -1.2397e+002 -1.1669e+000 54248 81020,81187,81046
 5.7000e+000 81663 -7.8379e+001 -1.4340e+002  1.3069e+001 53594 81340,81444,81366
 5.7000e+000 81640 -7.4745e+001 -2.1122e+002  5.8504e+000 53594 81340,81470,81444
 5.7000e+000 81617 -3.8991e+001 -1.8542e+002 -1.9746e+001 53594 81340,81522,81470
 5.7000e+000 81594 -4.4810e+001 -1.0349e+002 -1.1294e+001 53594 81392,81444,81418
 5.7000e+000 81571 -5.7380e+001 -1.2364e+002 -1.7591e+001 53594 81366,81444,81392
 5.7000e+000 81548 -1.7600e+000 -2.4732e+002  2.3443e+001 53594 81470,81522,81496
 5.7000e+000 81943 -1.9905e+001 -9.6416e+001 -1.1911e+001 53104 81966,81845,81819
 5.7000e+000 81920 -2.9769e+001 -7.8339e+001 -1.4906e+001 53104 81966,81819,81767
 5.7000e+000 81897 -3.1033e+001 -8.0708e+001 -1.5742e+001 53104 81767,81819,81793
 5.7000e+000 81992 -1.3252e+001 -8.4844e+001 -1.4606e+001 53104 81871,81845,81966
 5.7000e+000 82015 -1.8124e+001 -5.9470e+001 -1.9970e+001 53104 81871,81966,81767
 5.7000e+000 82491 -2.2390e+001 -9.9660e+001 -1.1583e+001 52650 82145,82249,82171
 5.7000e+000 82468 -8.0867e+001 -1.1771e+002 -1.4212e+001 52650 82145,82301,82249
 5.7000e+000 82445 -8.5302e+001 -1.7742e+002 -2.9659e+001 52650 82249,82301,82275
 5.7000e+000 82422 -5.0748e+001 -2.2533e+002 -4.1042e+001 52650 82119,82301,82145
 5.7000e+000 82399 -2.8462e+001 -7.6658e+001  8.8322e+000 52650 82171,82249,82223
 5.7000e+000 82376  8.1537e-002 -2.0582e+002 -2.3055e+001 52650 82119,82327,82301
 5.7000e+000 82353 -7.1038e+000 -3.9263e+001 -1.6001e+001 52650 82171,82223,82197
 5.7000e+000 82739 -2.9090e+001 -8.8610e+001  3.6420e-001 52246 82762,82540,82514
 5.7000e+000 82716 -1.9605e+001 -4.1212e+001 -7.9589e+000 52246 82762,82514,82644
 5.7000e+000 82693 -4.4525e+001 -9.9692e+001  2.0292e+001 52246 82540,82618,82592
 5.7000e+000 82670 -4.9590e+001 -9.0594e+001  1.3435e+001 52246 82540,82592,82566
 5.7000e+000 82788 -1.9736e+001 -1.1213e+002  5.9377e+000 52246 82618,82540,82762
 5.7000e+000 82811 -2.9906e+001 -9.6776e+001 -7.6531e+000 52246 82618,82762,82644
 5.7000e+000 83059 -1.4960e+001 -1.2822e+002  1.1829e+001 51578 82860,82964,82938
 5.7000e+000 83036 -2.3867e+000 -9.0007e+001 -2.8115e+001 51578 82834,82964,82860
 5.7000e+000 83013 -7.5230e+000 -9.9552e+001  2.5497e+001 51578 82860,82938,82886
 5.7000e+000 82990 -5.6324e+000 -6.6884e+001  6.2373e+000 51578 82886,82938,82912
 5.7000e+000 83309 -2.4769e+001 -7.0078e+001  2.1897e+001 51138 83332,83162,83136
 5.7000e+000 83286 -9.4058e+000 -9.4256e+001  6.8033e+000 51138 83332,83136,83110
 5.7000e+000 83263 -3.4979e+001 -9.6968e+001 -4.3288e+000 51138 83404,83214,83188
 5.7000e+000 83240 -5.4731e-001 -5.6431e+001  5.6229e+000 51138 83084,83214,83110
 5.7000e+000 83358 -4.2270e+001 -1.0078e+002  3.0698e+001 51138 83188,83162,83332
 5.7000e+000 83381 -2.4672e+001 -1.0861e+002  6.3960e+000 51138 83404,83188,83332
 5.7000e+000 83430 -2.1430e+001 -6.7134e+001 -1.2977e+000 51138 83110,83214,83404
 5.7000e+000 83453 -1.3914e+001 -8.5444e+001  9.2470e+000 51138 83110,83404,83332
 5.7000e+000 83835 -2.5717e+001 -1.2402e+002 -1.0590e+000 50734 83613,83717,83691
 5.7000e+000 83812 -2.9650e+001 -1.3682e+002 -2.4733e+001 50734 83561,83717,83613
 5.7000e+000 83789 -1.7465e+001 -6.8398e+001 -3.7204e+001 50734 83561,83613,83587
 5.7000e+000 83766 -4.8269e+001 -8.5716e+001 -1.0053e-001 50734 83613,83691,83639
 5.7000e+000 83743 -5.1454e+001 -8.6514e+001  1.9055e+001 50734 83639,83691,83665
 5.7000e+000 84034 -3.2476e+001 -7.6260e+001  4.8514e+000 50230 84057,83884,83858
 5.7000e+000 84011 -3.1608e+001 -8.1486e+001 -7.1985e+000 50230 84129,84057,83858
 5.7000e+000 83988 -9.5044e+000 -8.7583e+001 -1.2750e+001 50230 84129,83858,83962
 5.7000e+000 84083 -1.8107e+001 -6.9350e+001  2.3091e+000 50230 83910,83884,84057
 5.7000e+000 84106 -2.0340e+001 -7.1240e+001  1.5911e-001 50230 83910,84057,83936
 5.7000e+000 84155 -2.7893e+000 -6.8375e+001 -7.6532e-001 50230 83936,84057,84129
 5.7000e+000 84178  5.6324e+000 -8.4240e+001 -9.5041e+000 50230 83936,84129,83962
 5.7000e+000 84558 -3.6449e+001 -1.0292e+002 -1.6445e+001 49768 84581,84388,84362
 5.7000e+000 84535 -7.4249e+001 -1.0531e+002 -6.7636e+000 49768 84581,84362,84310
 5.7000e+000 84512  1.8769e+000 -1.1444e+002 -1.8420e+001 49768 84653,84440,84414
 5.7000e+000 84489 -5.9366e+001 -1.1706e+002  8.4209e+000 49768 84310,84362,84336
 5.7000e+000 84466 -2.2597e+000 -8.3394e+001  1.2076e+001 49768 84284,84440,84310
 5.7000e+000 84607 -1.1648e+001 -8.9121e+001 -2.7973e+001 49768 84414,84388,84581
 5.7000e+000 84630 -1.3372e+001 -1.0663e+002 -1.2934e+001 49768 84653,84414,84581
 5.7000e+000 84679 -1.8727e+001 -1.0817e+002 -2.5328e+001 49768 84310,84440,84653
 5.7000e+000 84702 -4.0760e+001 -1.0807e+002 -2.5850e+001 49768 84310,84653,84581
 5.7000e+000 85159 -5.9767e+001 -1.4347e+002 -4.0550e+001 49192 84885,84937,84911
 5.7000e+000 85136 -5.7417e+001 -1.0597e+002 -2.8774e+001 49192 84885,85041,84937
 5.7000e+000 85113 -3.8674e+001 -9.0614e+001 -1.3415e+001 49192 84963,85041,84989
 5.7000e+000 85090 -3.4053e+001 -8.1961e+001 -1.7984e+001 49192 84937,85041,84963
 5.7000e+000 85067 -3.3934e+001 -8.3538e+001 -1.8581e+001 49192 84989,85041,85015
 5.7000e+000 85714 -5.9680e+001 -9.5006e+001  5.2084e-001 48638 85368,85498,85394
 5.7000e+000 85691 -7.4369e+001 -1.1124e+002  6.9808e+000 48638 85368,85524,85498
 5.7000e+000 85668 -7.0882e+001 -9.2910e+001  2.8159e+001 48638 85737,85420,85394
 5.7000e+000 85645 -5.7839e+001 -1.0462e+002  1.4175e+001 48638 85737,85394,85498
 5.7000e+000 85622 -4.5016e+001 -1.0442e+002  2.2199e+001 48638 85446,85498,85472
 5.7000e+000 85599 -1.9965e+001 -9.0202e+001  1.1042e+001 48638 85342,85524,85368
 5.7000e+000 85576 -7.4288e+001 -1.0380e+002  1.1490e+001 48638 85342,85550,85524
 5.7000e+000 85763 -4.8675e+001 -8.1582e+001  3.5575e+001 48638 85446,85420,85737
 5.7000e+000 85786 -4.8896e+001 -9.4942e+001  1.9926e+001 48638 85446,85737,85498
 5.7000e+000 86371 -5.0945e+001 -6.9093e+001 -3.4898e+000 48084 86100,86230,86178
 5.7000e+000 86348 -6.5656e+001 -9.3436e+001 -1.0831e+001 48084 86048,86230,86100
 5.7000e+000 86325 -4.6061e+001 -6.1818e+001  1.9111e+001 48084 86100,86178,86126
 5.7000e+000 86302 -3.7126e+001 -2.6266e+001 -1.9907e+001 48084 86048,86100,86074
 5.7000e+000 86279 -6.3142e+001 -1.1635e+002 -2.3252e+000 48084 86178,86230,86204
 5.7000e+000 86256 -4.1489e+001 -6.4815e+001  1.9599e+001 48084 86126,86178,86152
 5.7000e+000 86619 -3.4392e+001 -7.7161e+001  7.2274e+000 47630 86642,86446,86420
 5.7000e+000 86596 -4.1140e+001 -8.6345e+001 -1.1011e+001 47630 86642,86420,86394
 5.7000e+000 86573 -5.4515e+001 -9.8785e+001 -1.5514e+001 47630 86394,86524,86498
 5.7000e+000 86550 -2.3959e+001 -8.8184e+001  7.1046e+000 47630 86446,86498,86472
 5.7000e+000 86668 -4.3736e+001 -9.8062e+001  1.2053e+000 47630 86498,86446,86642
 5.7000e+000 86691 -4.6879e+001 -1.0089e+002 -1.6681e+001 47630 86498,86642,86394
 5.7000e+000 87022 -5.6025e+000 -5.3086e+001 -3.1613e+001 47226 87045,86875,86849
 5.7000e+000 86999 -3.0767e+000 -6.0578e+001 -2.9831e+001 47226 87045,86849,86797
 5.7000e+000 86976  2.7513e-002 -2.6873e+001 -9.3407e+000 47226 86797,86849,86823
 5.7000e+000 86953  3.9913e-001 -3.7561e+001 -1.7817e+001 47226 86875,86927,86901
 5.7000e+000 87071 -9.7672e+000 -5.8577e+001 -2.9798e+001 47226 86927,86875,87045
 5.7000e+000 87094 -5.2671e+000 -6.3686e+001 -2.8802e+001 47226 86927,87045,86797
 5.7000e+000 87244 -7.8507e+000 -1.1275e+002  3.1555e+001 46814 87267,87169,87143
 5.7000e+000 87221 -5.5525e+001 -1.0207e+002 -5.4664e+000 46814 87267,87143,87117
 5.7000e+000 87293 -6.5539e+000 -8.2633e+001  1.9501e+001 46814 87339,87267,87195
 5.7000e+000 87316 -6.9775e-001 -7.8567e+001  1.0763e+000 46814 87469,87267,87117
 5.7000e+000 87365 -4.8731e+000 -7.9810e+001  2.4284e+001 46814 87169,87267,87339
 5.7000e+000 87495 -6.2331e-001 -3.7173e+000 -1.5101e+000 46814 87195,87267,87469
 5.7000e+000 88001 -3.2228e+001 -7.3302e+001  2.1323e+001 46310 88024,87834,87808
 5.7000e+000 87978 -4.0909e+001 -7.5249e+001  1.1960e+001 46310 88024,87808,87756
 5.7000e+000 87955 -2.2510e+001 -1.0042e+002  5.3290e+000 46310 88096,87730,87860
 5.7000e+000 87932 -2.9036e+001 -9.9091e+001  1.2759e+001 46310 87756,87808,87782
 5.7000e+000 87909 -2.8760e+001 -1.1739e+002  3.9205e+000 46310 87678,87860,87730
 5.7000e+000 87886 -4.4159e+001 -1.9513e+002 -1.0436e+001 46310 87678,87730,87704
 5.7000e+000 88050 -2.8157e+001 -6.4920e+001  1.2367e+001 46310 87860,87834,88024
 5.7000e+000 88073 -2.2674e+001 -7.0697e+001  1.4342e+001 46310 88096,87860,88024
 5.7000e+000 88122 -2.8333e+001 -1.1462e+002 -5.0669e+000 46310 87756,87730,88096
 5.7000e+000 88145 -4.6675e+001 -1.0298e+002  9.8648e-003 46310 87756,88096,88024
 5.7000e+000 88572 -2.3140e+001 -1.0061e+002  7.5507e+000 45856 88249,88405,88275
 5.7000e+000 88549 -1.8096e+001 -3.1424e+001 -1.8986e+001 45856 88249,88431,88405
 5.7000e+000 88526 -5.4613e+001 -1.4609e+002 -2.0200e+001 45856 88327,88405,88353
 5.7000e+000 88503 -2.4249e+001 -1.2423e+002 -8.7059e+000 45856 88275,88405,88327
 5.7000e+000 88480 -4.6483e+001 -1.3321e+002 -2.7705e+001 45856 88353,88405,88379
 5.7000e+000 88457 -1.0029e+002 -2.7221e+002  2.2173e+001 45856 88275,88327,88301
 5.7000e+000 88950 -1.5903e+001 -5.9097e+001 -2.5999e+000 45658 88973,88754,88728
 5.7000e+000 88927 -1.3098e+001 -5.5531e+001 -1.3570e+000 45658 88973,88728,88676
 5.7000e+000 88904 -1.8480e+001 -6.6350e+001  2.4833e+001 45658 88676,88832,88806
 5.7000e+000 88881 -2.8055e+001 -8.5119e+001  7.7635e+000 45658 88676,88728,88702
 5.7000e+000 88858 -2.7259e+001 -5.7743e+001 -1.5356e+001 45658 88754,88806,88780
 5.7000e+000 88999 -1.7390e+001 -5.5124e+001 -1.5587e+000 45658 88806,88754,88973
 5.7000e+000 89022 -1.5933e+001 -5.3136e+001 -7.7285e-001 45658 88806,88973,88676
 5.7000e+000 89351 -3.0882e+001 -1.0336e+002 -4.9634e+000 45254 89152,89230,89204
 5.7000e+000 89328 -3.0792e+001 -1.0353e+002 -5.6902e+000 45254 89152,89256,89230
 5.7000e+000 89305 -1.1417e+001 -1.0986e+002 -1.4430e+001 45254 89126,89256,89152
 5.7000e+000 89282 -6.9411e-001 -1.0201e+002 -1.7917e+001 45254 89152,89204,89178
 5.7000e+000 89523 -1.1114e+001 -7.0510e+001 -2.5445e-001 45006 89422,89474,89448
 5.7000e+000 89500 -7.2026e+000 -6.8865e+001  2.8663e+000 45006 89396,89474,89422
 5.7000e+000 89673 -8.3673e+001 -1.4720e+002  1.2761e+001 44495 89572,89624,89598
 5.7000e+000 89650 -8.6511e+001 -1.4969e+002  8.6615e+000 44495 89546,89624,89572
 5.7000e+000 90104 -9.4669e+000 -1.1175e+002 -6.7409e+000 44005 90199,90127,89937
 5.7000e+000 90081 -2.1983e+001 -1.0824e+002  1.1203e+000 44005 90271,90127,89859
 5.7000e+000 90058 -3.5987e+000 -1.1402e+002 -6.8665e+000 44005 90199,89937,89885
 5.7000e+000 90035 -3.1111e+001 -1.0088e+002  6.3968e+000 44005 90271,89859,89807
 5.7000e+000 90012 -1.7043e+001 -1.2506e+002 -1.4729e+001 44005 89885,89937,89911
 5.7000e+000 89989 -7.6084e+000 -1.0737e+002  1.8358e+001 44005 89807,89859,89833
 5.7000e+000 90153 -2.3356e+001 -1.1681e+002 -4.7117e+000 44005 89963,89937,90127
 5.7000e+000 90176 -2.5764e+001 -1.2705e+002  2.0186e+000 44005 89963,90127,89781
 5.7000e+000 90225 -2.4766e+001 -1.0983e+002 -3.2778e+000 44005 89859,90127,90199
 5.7000e+000 90248 -1.1401e+001 -1.0689e+002 -5.4368e-001 44005 89859,90199,89885
 5.7000e+000 90297 -3.4157e+001 -1.1684e+002 -2.9645e+000 44005 89781,90127,90271
 5.7000e+000 90320 -3.9356e+001 -1.0751e+002  3.2324e+000 44005 89781,90271,89807
 5.7000e+000 90470 -1.6671e+001 -1.1323e+002 -3.1672e+000 43601 90493,90369,90343
 5.7000e+000 90447 -3.0083e+001 -9.0703e+001  8.0690e+000 43601 90493,90343,90421
 5.7000e+000 90519 -3.6948e+001 -1.5436e+002 -1.7575e+001 43601 90395,90369,90493
 5.7000e+000 90542 -2.9572e+001 -1.0710e+002 -3.2135e+000 43601 90395,90493,90421
 5.7000e+000 90922 -3.6620e+001 -1.2239e+002  7.0314e+000 43154 90945,90700,90674
 5.7000e+000 90899 -3.1496e+001 -1.2472e+002 -1.5411e+001 43154 90945,90674,90648
 5.7000e+000 90876 -3.9994e+001 -9.6099e+001 -1.0023e+001 43154 90648,90778,90752
 5.7000e+000 90853 -2.0458e+001 -1.9524e+002  6.2303e+000 43154 90700,90752,90726
 5.7000e+000 90830 -2.5893e+001 -9.6703e+001 -5.2678e+000 43154 90648,90804,90778
 5.7000e+000 90971 -4.2946e+001 -1.4212e+002  1.1127e+001 43154 90752,90700,90945
 5.7000e+000 90994 -3.6378e+001 -1.3676e+002 -1.0721e+001 43154 90752,90945,90648
 5.7000e+000 91451 -1.3197e+001 -1.0042e+002 -1.8865e+001 42650 91203,91255,91229
 5.7000e+000 91428  7.7686e+000 -9.1329e+001 -8.7619e+000 42650 91203,91333,91255
 5.7000e+000 91405 -2.7367e+000 -1.4472e+002 -2.4400e+001 42650 91177,91333,91203
 5.7000e+000 91382 -4.7289e+001 -1.5745e+002  1.9977e+001 42650 91255,91333,91281
 5.7000e+000 91359 -9.6746e+000 -1.3075e+002  6.1150e+000 42650 91281,91333,91307
 5.7000e+000 91721 -6.7563e+001 -1.4840e+002  1.1092e+001 42288 91496,91600,91522
 5.7000e+000 91698 -3.6778e+001 -8.5872e+001 -3.9778e+000 42288 91496,91626,91600
 5.7000e+000 91675 -4.0377e+001 -1.3192e+002  1.2088e+001 42288 91522,91574,91548
 5.7000e+000 91652 -3.3900e+001 -1.3526e+002  1.1650e+001 42288 91522,91600,91574
 5.7000e+000 92199 -1.0118e+002 -1.6138e+002 -4.4317e+000 41898 92222,91983,91879
 5.7000e+000 92176 -1.0380e+002 -1.7917e+002 -1.1507e+001 41898 92294,92222,91879
 5.7000e+000 92153 -1.1014e+002 -1.7676e+002 -1.6130e+001 41898 92294,91879,91853
 5.7000e+000 92130 -8.7332e+001 -9.5849e+001  1.1390e+001 41898 91879,91957,91931
 5.7000e+000 92107 -8.9619e+001 -1.5693e+002 -4.7654e-001 41898 91879,91983,91957
 5.7000e+000 92084 -1.0018e+002 -9.2784e+001  2.4350e+001 41898 91879,91931,91905
 5.7000e+000 92061 -9.6944e+001 -1.6021e+002 -1.3307e+001 41898 91827,92035,91853
 5.7000e+000 92248 -1.0012e+002 -1.8355e+002  2.9207e-001 41898 92009,91983,92222
 5.7000e+000 92271 -9.7070e+001 -1.8732e+002 -1.5079e+001 41898 92009,92222,92035
 5.7000e+000 92320 -9.3214e+001 -1.7515e+002 -1.2045e+001 41898 92035,92222,92294
 5.7000e+000 92343 -9.7838e+001 -1.7175e+002 -1.6362e+001 41898 92035,92294,91853
 5.7000e+000 92770 -2.8545e+001 -1.3565e+002 -1.0198e+001 41437 92865,92793,92525
 5.7000e+000 92747 -4.0053e+001 -1.5398e+002 -1.4597e+001 41437 92793,92473,92629
 5.7000e+000 92724 -1.1263e+001 -1.4102e+002 -1.9559e+001 41437 92865,92525,92499
 5.7000e+000 92701 -4.8626e+001 -1.1653e+002 -2.2294e+001 41437 92525,92603,92577
 5.7000e+000 92678  2.0696e+000 -1.4894e+002 -1.2970e+001 41437 92447,92629,92473
 5.7000e+000 92655 -7.0681e+001 -1.0403e+002 -1.3782e+001 41437 92525,92577,92551
 5.7000e+000 92819 -3.2383e+001 -1.4444e+002 -2.1822e+001 41437 92603,92525,92793
 5.7000e+000 92842 -6.4628e+001 -1.5549e+002 -4.0748e+001 41437 92603,92793,92629
 5.7000e+000 92891  4.4544e+000 -1.4597e+002 -1.2265e+001 41437 92473,92793,92865
 5.7000e+000 92914  2.8841e+001 -1.4197e+002 -2.5623e+001 41437 92473,92865,92499
 5.7000e+000 93243 -2.5638e+001 -2.1141e+002  7.6145e+001 41097 93044,93096,93070
 5.7000e+000 93220 -4.3944e+001 -1.8933e+002  4.0988e+001 41097 93044,93122,93096
 5.7000e+000 93197  9.4676e+000 -1.2435e+002  1.5122e+001 41097 93044,93148,93122
 5.7000e+000 93174 -3.7815e+001 -9.2123e+001  3.9407e+001 41097 93018,93148,93044
 5.7000e+000 93393 -3.9839e+000 -1.5526e+002  1.0433e+001 40643 93416,93292,93344
 5.7000e+000 93370 -6.9583e+000 -1.4451e+002  1.1723e+001 40643 93266,93344,93292
 5.7000e+000 93442 -4.7852e+000 -1.5176e+002  1.6169e+001 40643 93318,93292,93416
 5.7000e+000 93901 -4.7131e+001 -1.3981e+002 -9.3338e+000 40132 93924,93731,93705
 5.7000e+000 93878 -4.8113e+001 -1.4235e+002 -9.8823e+000 40132 93996,93924,93705
 5.7000e+000 93855 -5.6142e+001 -1.6204e+002 -2.9656e+000 40132 93996,93705,93653
 5.7000e+000 93832 -2.4427e+001 -1.5894e+002 -7.3280e+000 40132 93653,93705,93679
 5.7000e+000 93809 -4.4620e+001 -1.3650e+002  1.7705e-001 40132 93627,93783,93757
 5.7000e+000 93950 -4.5340e+001 -1.4649e+002 -1.0980e+001 40132 93757,93731,93924
 5.7000e+000 93973 -5.0990e+001 -1.3149e+002 -3.1460e+000 40132 93757,93924,93627
 5.7000e+000 94022 -6.3988e+001 -1.5516e+002  4.0415e+000 40132 93627,93924,93996
 5.7000e+000 94045 -5.9147e+001 -1.6186e+002  9.1755e+000 40132 93627,93996,93653
 5.7000e+000 94423 -1.1854e+001 -1.7039e+002 -2.4008e+001 39514 94149,94227,94175
 5.7000e+000 94400 -1.8344e+001 -1.5838e+002  1.7649e+001 39514 94149,94305,94227
 5.7000e+000 94377  2.9292e+000 -1.9788e+002 -2.3633e+001 39514 94175,94227,94201
 5.7000e+000 94354 -4.9213e+001 -1.4849e+002  7.6365e+000 39514 94227,94305,94279
 5.7000e+000 94331 -2.0007e+001 -1.3489e+002  1.4530e+001 39514 94227,94279,94253
 5.7000e+000 94573 -1.4253e+001 -9.4444e+001 -1.8307e+001 38822 94596,94498,94472
 5.7000e+000 94550  1.6886e+001 -9.9684e+001  2.1861e+001 38822 94596,94472,94446
 5.7000e+000 94622 -5.0066e+001 -1.0959e+002 -2.0887e+001 38822 94524,94498,94596
 5.7000e+000 94645 -4.2114e+001 -1.2411e+002  2.3284e+001 38822 94524,94596,94446
 5.7000e+000 95025 -1.0037e+001 -1.1997e+002 -8.6023e+000 38418 95048,94829,94777
 5.7000e+000 95002 -1.2292e+001 -1.2543e+002 -1.4133e+001 38418 95120,95048,94777
 5.7000e+000 94979 -8.5216e+000 -1.2565e+002 -1.3111e+001 38418 95120,94777,94751
 5.7000e+000 94956 -7.1431e+000 -1.1423e+002 -1.5635e+001 38418 95192,94881,94855
 5.7000e+000 94933 -3.5729e+001 -1.0211e+002 -6.8050e+000 38418 94777,94829,94803
 5.7000e+000 95074 -2.1378e+001 -1.5498e+002 -2.9942e+000 38418 94855,94829,95048
 5.7000e+000 95097 -1.0317e+001 -1.2482e+002 -1.6218e+001 38418 95192,94855,95048
 5.7000e+000 95146 -2.2885e+001 -1.2145e+002 -1.0870e+001 38418 94907,95048,95120
 5.7000e+000 95169 -1.3964e+001 -1.1753e+002 -8.1843e+000 38418 94907,95120,94751
 5.7000e+000 95218 -1.1532e+001 -9.2933e+001 -1.4356e+001 38418 94907,94881,95192
 5.7000e+000 95241 -1.9371e+001 -1.1097e+002 -1.1901e+001 38418 94907,95192,95048
 5.7000e+000 95511 -3.7351e+001 -1.2489e+002  7.4842e+000 38049 95312,95390,95364
 5.7000e+000 95488 -2.2856e+001 -1.1806e+002  5.1210e+000 38049 95312,95416,95390
 5.7000e+000 95465 -1.0577e+001 -1.1766e+002 -6.2853e+000 38049 95312,95364,95338
 5.7000e+000 95442 -9.7798e+000 -1.0460e+002  1.0431e+001 38049 95286,95416,95312
 5.7000e+000 95808 -3.8967e+001 -1.5504e+002 -4.4895e+000 37437 95831,95586,95560
 5.7000e+000 95785  1.4840e+001 -1.6066e+002 -6.5382e+000 37437 95831,95560,95534
 5.7000e+000 95762 -7.7723e+001 -1.4673e+002  6.6309e+000 37437 95586,95664,95638
 5.7000e+000 95739 -1.1076e+001 -7.4355e+001 -3.7928e+001 37437 95534,95690,95664
 5.7000e+000 95716 -7.6635e+001 -1.0380e+002  3.6417e+000 37437 95586,95638,95612
 5.7000e+000 95857 -7.4054e+001 -1.4849e+002  1.7538e+001 37437 95664,95586,95831
 5.7000e+000 95880 -1.7325e+001 -1.5265e+002  1.6325e+001 37437 95664,95831,95534
 5.7000e+000 96390 -5.4895e+001 -1.1655e+002 -7.8593e+000 36883 96413,96145,96093
 5.7000e+000 96367 -4.5987e+001 -1.1174e+002 -3.8075e+000 36883 96413,96093,96067
 5.7000e+000 96344 -3.2218e+001 -1.3945e+002 -1.0231e+000 36883 96067,96249,96171
 5.7000e+000 96321 -4.7755e+001 -1.3343e+002 -3.8565e+000 36883 96093,96145,96119
 5.7000e+000 96298 -6.6447e+001 -2.2686e+002  2.0504e+001 36883 96171,96249,96197
 5.7000e+000 96275 -1.6710e+001 -1.8353e+002 -1.7465e+000 36883 96197,96249,96223
 5.7000e+000 96439 -5.1381e+001 -1.1090e+002 -2.2408e-001 36883 96171,96145,96413
 5.7000e+000 96462 -4.4614e+001 -1.1012e+002  3.1048e+000 36883 96171,96413,96067
 5.7000e+000 96781 -4.2742e+001 -1.3420e+002 -1.9951e+001 36215 96559,96663,96637
 5.7000e+000 96758 -5.4041e+001 -1.4276e+002 -2.3679e+001 36215 96507,96663,96559
 5.7000e+000 96735 -5.2030e+001 -9.5018e+001  1.0332e+001 36215 96585,96637,96611
 5.7000e+000 96712 -1.1356e+002 -1.5549e+002 -1.7632e+001 36215 96559,96637,96585
 5.7000e+000 96689 -2.0827e+001 -1.5744e+002 -4.9024e+000 36215 96507,96559,96533
 5.7000e+000 97161  2.3789e+000 -7.1863e+001 -2.3000e+000 35818 97184,96965,96939
 5.7000e+000 97138 -6.8140e+000 -8.0898e+001 -7.4368e+000 35818 97184,96939,96887
 5.7000e+000 97115 -5.5462e+000 -9.3211e+001  1.7057e+001 35818 96965,97043,97017
 5.7000e+000 97092 -3.0926e+000 -7.5187e+001 -9.0627e+000 35818 96887,96939,96913
 5.7000e+000 97069 -5.0041e+001 -9.4685e+001  1.0813e+001 35818 96965,97017,96991
 5.7000e+000 97210  1.2563e+001 -7.9914e+001  3.2516e+000 35818 97043,96965,97184
 5.7000e+000 97233  4.7733e+000 -8.6018e+001 -1.0444e+000 35818 97043,97184,96887
 5.7000e+000 97739 -4.4493e+001 -1.3368e+002 -3.3041e+001 35214 97416,97468,97442
 5.7000e+000 97716 -5.1942e+001 -9.3951e+001 -1.1208e+001 35214 97416,97598,97468
 5.7000e+000 97693 -4.2513e+001 -8.7033e+001 -4.9970e+000 35214 97762,97520,97468
 5.7000e+000 97670 -4.5761e+001 -8.9899e+001 -8.2975e+000 35214 97762,97468,97598
 5.7000e+000 97647 -3.3800e+001 -8.6793e+001 -1.3777e+001 35214 97546,97598,97572
 5.7000e+000 97624 -2.7554e+001 -8.7852e+001 -6.7672e+000 35214 97468,97520,97494
 5.7000e+000 97788 -4.3703e+001 -9.1413e+001 -7.9024e+000 35214 97546,97520,97762
 5.7000e+000 97811 -4.5243e+001 -9.3470e+001 -1.0911e+001 35214 97546,97762,97598
 5.7000e+000 98189 -3.8877e+000 -6.5783e+001 -8.1485e+000 34760 98356,98212,97967
 5.7000e+000 98166 -1.1404e+001 -7.7763e+001 -1.4977e+001 34760 98284,98212,97941
 5.7000e+000 98143 -2.5714e+001 -6.9070e+001 -8.1405e+000 34760 98284,97941,97915
 5.7000e+000 98120 -5.7426e+000 -8.9993e+001 -4.2176e+000 34760 98484,97993,97967
 5.7000e+000 98097 -5.2739e+000 -7.1438e+001 -2.5915e+000 34760 98556,98045,98019
 5.7000e+000 98238 -9.6004e+000 -8.3876e+001 -4.2372e+000 34760 98484,97967,98212
 5.7000e+000 98261  2.8622e+000 -7.5654e+001 -6.8065e+000 34760 98556,98019,98212
 5.7000e+000 98310 -1.6342e-001 -6.1347e+001 -1.9921e+001 34760 98071,98212,98284
 5.7000e+000 98333 -8.5337e+000 -3.9619e+001 -1.5713e+001 34760 98071,98284,97915
 5.7000e+000 98382 -3.9616e+001 -8.7845e+001 -1.8371e+001 34760 97941,98212,98356
 5.7000e+000 98510 -2.8819e-001 -8.4204e+001 -6.4615e+000 34760 98019,97993,98484
 5.7000e+000 98533 -6.2442e+000 -7.9840e+001 -5.6986e+000 34760 98019,98484,98212
 5.7000e+000 98582  4.8228e+000 -6.5886e+001 -2.9419e-001 34760 98071,98045,98556
 5.7000e+000 98605  8.2003e+000 -7.2937e+001 -5.5092e+000 34760 98071,98556,98212
 5.7000e+000 99032 -5.2802e+001 -1.1802e+002  1.8396e+001 34156 98735,98891,98839
 5.7000e+000 99009 -4.6556e+001 -1.2278e+002  8.6920e+000 34156 98709,98891,98735
 5.7000e+000 98986 -1.6378e+001 -1.0620e+002  1.7032e+001 34156 98735,98813,98787
 5.7000e+000 98963 -1.9816e+001 -1.1627e+002  1.5228e+001 34156 98735,98839,98813
 5.7000e+000 98940  6.8007e+000 -1.5868e+002  1.9610e+001 34156 98735,98787,98761
 5.7000e+000 98917 -4.9151e+001 -1.0846e+002  1.3157e+001 34156 98839,98891,98865
 5.7000e+000 99231 -1.1993e+001 -5.7908e+001  5.5129e+000 33766 99055,99133,99107
 5.7000e+000 99208 -2.5527e+001 -7.8372e+001  1.1816e+001 33766 99055,99159,99133
 5.7000e+000 99185 -6.6432e+000 -7.5723e+001  1.4216e+001 33766 99055,99107,99081
 5.7000e+000 99818 -2.5853e+001 -8.2937e+001  1.8669e+000 33248 99521,99651,99573
 5.7000e+000 99795 -2.4484e+001 -7.8279e+001  9.0235e+000 33248 99521,99677,99651
 5.7000e+000 99772 -4.2872e+001 -1.0586e+002 -6.2283e+000 33248 99573,99651,99599
 5.7000e+000 99749 -2.6160e+001 -9.8867e+001  9.6230e+000 33248 99495,99677,99521
 5.7000e+000 99726 -1.9358e+001 -9.0454e+001 -2.1530e+001 33248 99599,99651,99625
 5.7000e+000 99703 -3.2810e+001 -1.0215e+002  6.1376e+000 33248 99521,99573,99547
 5.7000e+000 100196 -3.0840e+001 -9.5870e+001 -1.8732e+001 32794 100219,99948,99922
 5.7000e+000 100173 -3.5755e+001 -1.0582e+002 -7.9220e+000 32794 100219,99922,100052
 5.7000e+000 100150 -4.7048e+001 -9.3629e+001  6.3482e+000 32794 99974,100052,100026
 5.7000e+000 100127 -4.5109e+001 -8.8932e+001 -1.2358e+001 32794 99922,100078,100052
 5.7000e+000 100104 -4.6965e+001 -1.1293e+002  2.2154e+001 32794 99974,100026,100000
 5.7000e+000 100245 -4.3054e+001 -9.5367e+001 -9.3747e+000 32794 99974,99948,100219
 5.7000e+000 100268 -4.5027e+001 -1.0806e+002  1.6213e+000 32794 99974,100219,100052
 5.7000e+000 100418 -7.0553e+000 -9.3087e+001 -1.0607e+001 32504 100571,100343,100317
 5.7000e+000 100395 -3.9925e+001 -1.0798e+002  9.7854e+000 32504 100571,100317,100441
 5.7000e+000 100467  2.7839e+001 -5.0220e+001 -2.9964e+001 32504 100291,100369,100441
 5.7000e+000 100597  7.4482e+000 -7.7669e+001 -3.6795e+001 32504 100369,100343,100571
 5.7000e+000 100620 -7.4986e+000 -7.2529e+001 -1.9167e+001 32504 100369,100571,100441
 5.7000e+000 101020 -9.0954e+000 -6.8929e+001  2.4281e+000 32142 100772,100902,100876
 5.7000e+000 100997 -5.6246e+000 -5.9142e+001  3.6379e+000 32142 100746,100902,100772
 5.7000e+000 100974  4.4642e+000 -7.5097e+001  1.1848e+001 32142 101043,100824,100798
 5.7000e+000 100951 -1.1391e+001 -8.3326e+001  8.3801e+000 32142 101043,100798,100772
 5.7000e+000 100928 -4.2366e+001 -9.9108e+001 -2.6133e+001 32142 101115,100876,100850
 5.7000e+000 101069  1.9928e+001 -8.5542e+001 -7.9137e+000 32142 100850,100824,101043
 5.7000e+000 101092 -1.8696e+001 -1.0290e+002 -1.1882e+001 32142 101115,100850,101043
 5.7000e+000 101141 -1.2944e+001 -8.1042e+001 -9.9244e+000 32142 100772,100876,101115
 5.7000e+000 101164  5.7612e+000 -8.3453e+001  5.5256e+000 32142 100772,101115,101043
 5.7000e+000 101719 -5.2292e+001 -1.2428e+002  1.6710e+001 31538 101742,101477,101399
 5.7000e+000 101696 -6.3810e+001 -1.4999e+002  4.4133e+000 31538 101814,101742,101399
 5.7000e+000 101673 -7.2828e+001 -1.2857e+002 -9.4773e+000 31538 101814,101399,101373
 5.7000e+000 101650 -5.2729e+001 -8.8808e+001  1.2159e+001 31538 101425,101477,101451
 5.7000e+000 101627 -4.9017e+001 -1.0532e+002  3.2907e+000 31538 101399,101477,101425
 5.7000e+000 101604 -3.0507e+001 -1.5393e+002  3.0654e+001 31538 101477,101529,101503
 5.7000e+000 101581 -1.9212e+001 -8.4551e+001 -6.7190e+000 31538 101347,101555,101373
 5.7000e+000 101768 -5.8657e+001 -1.5147e+002  1.5775e+001 31538 101529,101477,101742
 5.7000e+000 101791 -5.2453e+001 -1.5607e+002 -5.8416e+000 31538 101529,101742,101555
 5.7000e+000 101840 -4.1101e+001 -1.2814e+002 -5.6926e+000 31538 101555,101742,101814
 5.7000e+000 101863 -5.4383e+001 -1.1066e+002 -1.8441e+001 31538 101555,101814,101373
 5.7000e+000 102111 -8.1112e+001 -2.0311e+002  2.7392e+001 31112 101886,101990,101912
 5.7000e+000 102088 -3.0137e+001 -1.2236e+002  1.1850e+000 31112 101886,102016,101990
 5.7000e+000 102065 -3.6449e+001 -1.9195e+002  3.5340e+001 31112 101912,101990,101964
 5.7000e+000 102042 -5.3832e+001 -2.2871e+002  4.1606e+001 31112 101912,101964,101938
 5.7000e+000 102408 -2.1263e+001 -1.1872e+002  1.0222e+001 30658 102431,102186,102160
 5.7000e+000 102385 -4.1810e+001 -1.1659e+002 -4.0982e-002 30658 102431,102160,102264
 5.7000e+000 102362 -4.0827e+001 -1.3023e+002  2.2122e+000 30658 102186,102238,102212
 5.7000e+000 102339 -4.5504e+001 -1.2458e+002 -8.3790e+000 30658 102134,102264,102160
 5.7000e+000 102316 -3.1971e+001 -1.0469e+002 -3.5334e+001 30658 102134,102290,102264
 5.7000e+000 102457 -3.7999e+001 -1.2630e+002  5.5857e+000 30658 102238,102186,102431
 5.7000e+000 102480 -6.0019e+001 -1.2629e+002 -5.5461e+000 30658 102238,102431,102264
 5.7000e+000 102681 -1.6073e+001 -1.4102e+002  1.9822e+001 30004 102704,102557,102505
 5.7000e+000 102658 -1.8137e+001 -1.4551e+002  2.1798e+001 30004 102704,102505,102609
 5.7000e+000 102635  2.7141e+000 -1.1701e+002  5.0224e+000 30004 102505,102557,102531
 5.7000e+000 102730 -1.8668e+001 -1.3481e+002  1.7722e+001 30004 102583,102557,102704
 5.7000e+000 102753 -2.4150e+001 -1.4037e+002  2.1206e+001 30004 102583,102704,102609
 5.7000e+000 103003 -1.6086e+001 -1.1441e+002 -9.2868e+000 29564 103026,102804,102778
 5.7000e+000 102980 -2.0966e+001 -1.3692e+002 -1.3968e+001 29564 103026,102778,102908
 5.7000e+000 102957 -2.2529e+001 -1.1738e+002 -1.2579e+000 29564 102856,102908,102882
 5.7000e+000 102934 -3.3314e+001 -1.0403e+002  8.0875e+000 29564 102804,102856,102830
 5.7000e+000 103052 -1.4772e+001 -1.0347e+002  5.9132e+000 29564 102856,102804,103026
 5.7000e+000 103075 -2.1238e+001 -1.2172e+002 -8.6723e-001 29564 102856,103026,102908
 5.7000e+000 103634 -5.1495e+001 -1.3058e+002 -1.6103e+001 29160 103657,103418,103392
 5.7000e+000 103611 -4.8010e+001 -1.2387e+002 -7.0326e+000 29160 103657,103392,103314
 5.7000e+000 103588 -3.5026e+001 -1.0499e+002 -1.3013e+001 29160 103314,103392,103366
 5.7000e+000 103565 -2.7891e+001 -1.1072e+002 -1.6186e+001 29160 103314,103366,103340
 5.7000e+000 103542 -5.8879e+001 -1.1853e+002 -1.5043e+001 29160 103262,103444,103314
 5.7000e+000 103519 -7.0878e+001 -1.4062e+002 -2.3324e+001 29160 103262,103314,103288
 5.7000e+000 103496 -4.3166e+001 -1.2711e+002 -8.1836e+000 29160 103262,103470,103444
 5.7000e+000 103683 -6.5772e+001 -1.4250e+002 -2.8052e+001 29160 103444,103418,103657
 5.7000e+000 103706 -5.3099e+001 -1.2241e+002 -1.7466e+001 29160 103444,103657,103314
 5.7000e+000 104035 -3.5380e+001 -1.2477e+002  1.1885e+001 28770 103836,103914,103862
 5.7000e+000 104012 -3.3124e+001 -1.1825e+002  1.6231e+001 28770 103810,103914,103836
 5.7000e+000 103989  6.3226e+000 -1.0727e+002  1.9387e+001 28770 103810,103940,103914
 5.7000e+000 103966 -7.1740e+000 -1.0062e+002  2.4542e+001 28770 103862,103914,103888
 5.7000e+000 104185 -1.0735e+001 -1.0911e+002  2.1037e+001 28366 104208,104110,104084
 5.7000e+000 104162 -1.0886e+001 -9.4580e+001  1.5654e+001 28366 104280,104208,104084
 5.7000e+000 104234  2.3463e+001 -1.0986e+002  1.2849e+001 28366 104610,104208,104136
 5.7000e+000 104257 -1.9797e+001 -1.0367e+002  1.3254e+001 28366 104538,104410,104208
 5.7000e+000 104306 -3.3822e+001 -1.0517e+002  1.3023e+001 28366 104538,104208,104280
 5.7000e+000 104436 -5.5739e+000 -1.0771e+002  1.7591e+000 28366 104136,104208,104410
 5.7000e+000 104564 -3.4487e+001 -1.0274e+002  5.7538e+000 28366 104058,104410,104538
 5.7000e+000 104587 -4.3036e+001 -1.0095e+002  4.5351e+000 28366 104058,104538,104280
 5.7000e+000 104636  1.7573e+001 -1.1143e+002  1.7102e+001 28366 104110,104208,104610
 5.7000e+000 105349 -2.7592e+001 -1.0273e+002 -1.0043e+001 27976 105516,105372,105107
 5.7000e+000 105326 -4.5097e+001 -1.0514e+002  3.2476e+000 27976 105588,105372,105055
 5.7000e+000 105303 -4.8373e+001 -1.0189e+002 -1.2246e+001 27976 105444,105159,105133
 5.7000e+000 105280 -1.6271e+001 -1.0598e+002 -6.3181e+000 27976 105516,105107,105081
 5.7000e+000 105257 -4.2306e+001 -1.1610e+002  1.0015e+001 27976 105588,105055,105029
 5.7000e+000 105234 -2.2651e+001 -8.7622e+001  2.8903e+000 27976 105003,105185,105159
 5.7000e+000 105211 -3.1277e+001 -7.0274e+001  1.5071e+001 27976 104977,105185,105003
 5.7000e+000 105398 -2.2548e+001 -1.0625e+002 -1.2973e+001 27976 105133,105107,105372
 5.7000e+000 105421 -3.7962e+001 -1.1103e+002 -6.9972e+000 27976 105444,105133,105372
 5.7000e+000 105470 -3.9059e+001 -8.6849e+001 -6.4666e+000 27976 105003,105159,105444
 5.7000e+000 105493 -3.1289e+001 -9.6888e+001 -3.9903e+000 27976 105003,105444,105372
 5.7000e+000 105542 -2.0057e+001 -1.0280e+002 -1.1539e-001 27976 105055,105372,105516
 5.7000e+000 105565 -2.6389e+000 -1.0349e+002  2.3309e+000 27976 105055,105516,105081
 5.7000e+000 105614 -5.1159e+001 -1.1595e+002  8.5229e+000 27976 105003,105372,105588
 5.7000e+000 105637 -4.9938e+001 -1.2663e+002  1.5938e+001 27976 105003,105588,105029
 5.7000e+000 106143 -4.3669e+001 -1.5109e+002  9.8384e+000 27664 106166,105846,105820
 5.7000e+000 106120 -2.8869e+001 -1.1048e+002  4.8093e+000 27664 106310,106166,105820
 5.7000e+000 106097 -1.2691e+001 -1.3638e+002 -2.8614e+001 27664 106382,106238,105950
 5.7000e+000 106074 -1.8991e+001 -1.0646e+002  3.6196e+000 27664 106310,105820,106002
 5.7000e+000 106051  1.2551e+001 -1.2265e+002 -2.3168e+001 27664 106382,105950,105924
 5.7000e+000 106028 -1.0195e+000 -2.2325e+002 -6.7394e+000 27664 105846,105898,105872
 5.7000e+000 106192 -3.8866e+001 -1.6957e+002 -2.3119e+001 27664 105898,105846,106166
 5.7000e+000 106215 -2.1864e+001 -1.4061e+002 -9.5649e+000 27664 106238,105898,106166
 5.7000e+000 106264 -7.3729e+001 -1.5175e+002 -3.8234e+001 27664 105976,105950,106238
 5.7000e+000 106287 -2.2691e+001 -1.3824e+002 -1.0207e+001 27664 105976,106238,106166
 5.7000e+000 106336 -1.8717e+001 -1.1987e+002  1.4938e+001 27664 105976,106166,106310
 5.7000e+000 106359 -7.0400e+000 -1.1481e+002  1.3292e+001 27664 105976,106310,106002
 5.7000e+000 106408 -2.4033e+001 -1.1481e+002 -1.8282e-001 27664 105898,106238,106382
 5.7000e+000 106431 -8.7681e+000 -1.0741e+002  3.0142e+000 27664 105898,106382,105924
 5.7000e+000 106728 -1.2186e+001 -8.0357e+001  1.5176e+001 27153 106751,106506,106454
 5.7000e+000 106705 -1.1868e+001 -8.2264e+001  1.2331e+001 27153 106751,106454,106610
 5.7000e+000 106682 -2.0271e+001 -6.2665e+001  3.5066e+000 27153 106454,106506,106480
 5.7000e+000 106659 -1.9307e+001 -7.8203e+001  8.3880e+000 27153 106532,106610,106584
 5.7000e+000 106636 -3.1603e+001 -4.4412e+001  1.7530e+001 27153 106532,106584,106558
 5.7000e+000 106777 -8.7192e+000 -7.7909e+001  1.6283e+001 27153 106532,106506,106751
 5.7000e+000 106800 -9.4931e+000 -8.0711e+001  1.3002e+001 27153 106532,106751,106610
 5.7000e+000 107180 -1.5498e+001 -1.0049e+002  6.0882e+000 26642 107203,106984,106958
 5.7000e+000 107157 -4.9643e+001 -1.1629e+002  7.6601e-001 26642 107203,106958,106932
 5.7000e+000 107134 -5.9971e+001 -1.2823e+002 -1.8866e+001 26642 107275,107036,107010
 5.7000e+000 107111 -3.9247e+001 -1.2506e+002 -2.4846e+001 26642 106932,107062,107036
 5.7000e+000 107088 -1.2765e+000 -9.7511e+001  1.1212e+001 26642 106906,107062,106932
 5.7000e+000 107229  1.4326e+000 -9.4337e+001 -3.1293e+001 26642 107010,106984,107203
 5.7000e+000 107252 -5.2431e+001 -1.1831e+002 -2.3006e+001 26642 107275,107010,107203
 5.7000e+000 107301 -5.0871e+001 -1.2677e+002 -2.4367e+001 26642 106932,107036,107275
 5.7000e+000 107324 -4.8197e+001 -1.2702e+002 -2.5706e+001 26642 106932,107275,107203
 5.7000e+000 107675 -2.9949e+001 -7.7040e+001  9.0912e+000 26045 107450,107554,107476
 5.7000e+000 107652 -2.4121e+001 -6.8115e+001  4.1478e+000 26045 107450,107580,107554
 5.7000e+000 107629 -1.3290e+001 -5.2091e+001 -4.9864e-002 26045 107476,107528,107502
 5.7000e+000 107606 -6.9685e+000 -7.0735e+001  6.3931e+000 26045 107476,107554,107528
 5.7000e+000 107874 -1.9484e+001 -1.1234e+002  2.8571e+001 25641 107750,107802,107776
 5.7000e+000 107851 -2.3782e+001 -7.8981e+001  1.6093e+001 25641 107724,107802,107750
 5.7000e+000 107828 -2.6425e+001 -8.0154e+001  1.5849e+001 25641 107698,107802,107724
 5.7000e+000 108431 -8.9847e+000 -1.2340e+002  2.2981e+001 25023 108526,108267,108241
 5.7000e+000 108408 -1.2136e-001 -1.1596e+002  4.0701e+000 25023 108059,108267,108085
 5.7000e+000 108385 -1.7385e+001 -1.2817e+002  2.2555e+001 25023 108454,108163,108111
 5.7000e+000 108362 -5.9013e+001 -1.2858e+002  3.8916e+001 25023 108454,108111,108085
 5.7000e+000 108339 -4.5090e+001 -1.6602e+002  3.8615e+001 25023 108111,108163,108137
 5.7000e+000 108316 -3.0698e+001 -9.2638e+001 -6.4431e+000 25023 108163,108241,108215
 5.7000e+000 108293  9.5454e+000 -7.4193e+001  5.5921e-001 25023 108163,108215,108189
 5.7000e+000 108480 -3.2492e+000 -1.1358e+002  1.7467e+000 25023 108241,108163,108454
 5.7000e+000 108503 -1.7825e+001 -1.2094e+002  2.2556e+001 25023 108526,108241,108454
 5.7000e+000 108552 -1.9775e+001 -1.2284e+002  1.7856e+001 25023 108085,108267,108526
 5.7000e+000 108575 -2.9081e+001 -1.2091e+002  1.7226e+001 25023 108085,108526,108454
 5.7000e+000 108823  6.2678e+000 -8.7285e+001  1.3487e+001 24461 108624,108728,108650
 5.7000e+000 108800 -9.9804e+000 -1.8792e+002 -1.3939e+001 24461 108598,108728,108624
 5.7000e+000 108777  1.5979e+000 -1.1613e+002  8.9598e+000 24461 108650,108728,108676
 5.7000e+000 108754 -4.9523e+001 -3.3168e+002  2.8877e+001 24461 108676,108728,108702
 5.7000e+000 109022 -3.2598e+001 -9.1299e+001  1.3510e+001 24121 108872,108924,108898
 5.7000e+000 108999 -2.2129e+001 -9.1041e+001  1.4991e+001 24121 108846,108924,108872
 5.7000e+000 108976 -3.8009e+001 -9.7953e+001  1.5876e+001 24121 108846,108950,108924
 5.7000e+000 109483 -3.9148e+001 -1.2906e+002 -1.2741e+001 23717 109209,109339,109235
 5.7000e+000 109460 -1.5405e+001 -1.4719e+002 -3.0238e+001 23717 109209,109365,109339
 5.7000e+000 109437 -1.2003e+000 -1.6349e+002 -9.9458e+000 23717 109287,109339,109313
 5.7000e+000 109414 -7.2894e+001 -1.6374e+002  9.0393e+000 23717 109235,109339,109287
 5.7000e+000 109391  4.8672e+000 -1.9407e+002  7.0991e+001 23717 109235,109287,109261
 5.7000e+000 109910 -5.1359e+001 -1.5158e+002 -1.5782e+001 23305 109613,109743,109717
 5.7000e+000 109887 -5.1000e+001 -1.5244e+002 -1.0336e+001 23305 109613,109769,109743
 5.7000e+000 109864 -6.0992e+001 -1.4407e+002 -1.4050e+001 23305 109613,109717,109639
 5.7000e+000 109841 -3.9019e+001 -1.3953e+002 -4.5859e+000 23305 109587,109769,109613
 5.7000e+000 109818  1.2450e+000 -1.1772e+002  1.0446e+001 23305 109639,109717,109691
 5.7000e+000 109795 -1.2156e+001 -9.3585e+001 -2.2926e+001 23305 109639,109691,109665
 5.7000e+000 110180 -3.9594e+000 -4.3528e+001 -9.4438e+000 22851 110007,110059,110033
 5.7000e+000 110157 -3.1408e+001 -1.1856e+002  5.8747e+000 22851 109981,110059,110007
 5.7000e+000 110134 -4.4275e+001 -1.2929e+002  5.6514e-001 22851 109955,110059,109981
 5.7000e+000 110111 -1.7909e+001 -1.4510e+002 -1.1397e+001 22851 109955,110085,110059
 5.7000e+000 110737 -1.3295e+001 -1.2995e+002 -3.6506e+001 22333 110760,110469,110391
 5.7000e+000 110714 -1.8968e+000 -1.5058e+002 -2.8351e+001 22333 110760,110391,110365
 5.7000e+000 110691 -1.0006e+001 -1.1634e+002 -2.9018e+001 22333 110832,110521,110469
 5.7000e+000 110668 -2.8596e+001 -2.3224e+002  1.7877e+001 22333 110417,110469,110443
 5.7000e+000 110645 -5.9556e+001 -2.0851e+002  1.1406e+001 22333 110391,110469,110417
 5.7000e+000 110622 -1.9507e+000 -1.1807e+002 -1.5111e+001 22333 110469,110521,110495
 5.7000e+000 110599 -9.9408e+000 -8.3034e+001  1.0993e+001 22333 110365,110573,110547
 5.7000e+000 110786 -5.6300e+000 -1.1992e+002 -3.3142e+001 22333 110832,110469,110760
 5.7000e+000 110809  1.1162e+001 -1.3067e+002 -2.2589e+001 22333 110547,110760,110365
 5.7000e+000 110858 -1.0533e+001 -1.2455e+002 -2.8026e+001 22333 110547,110521,110832
 5.7000e+000 110881 -9.4127e+000 -1.3215e+002 -3.3053e+001 22333 110547,110832,110760
 5.7000e+000 111308 -6.4754e+001 -1.5854e+002  1.1658e+001 21829 111331,111063,111011
 5.7000e+000 111285 -5.6939e+001 -1.4465e+002 -3.2128e+000 21829 111331,111011,111167
 5.7000e+000 111262 -6.7316e+001 -1.5863e+002  1.2252e+001 21829 111403,111089,111063
 5.7000e+000 111239 -8.3384e+001 -1.7092e+002  2.5203e+001 21829 111011,111063,111037
 5.7000e+000 111216 -3.6478e+001 -1.0624e+002  5.2096e+000 21829 110985,111167,111011
 5.7000e+000 111193 -8.6101e+001 -2.8241e+002  6.2366e+001 21829 111089,111141,111115
 5.7000e+000 111357 -6.4970e+001 -1.6072e+002  1.2187e+001 21829 111403,111063,111331
 5.7000e+000 111380 -6.7469e+001 -1.6629e+002  4.6441e-002 21829 111141,111331,111167
 5.7000e+000 111429 -7.3393e+001 -1.6172e+002  1.3339e+001 21829 111141,111089,111403
 5.7000e+000 111452 -6.8297e+001 -1.6280e+002  1.3221e+001 21829 111141,111403,111331
 5.7000e+000 112056  5.6094e+001 -1.1426e+002  4.7377e+000 21489 111687,111765,111739
 5.7000e+000 112033  1.8956e+001 -1.3237e+002  1.4059e+001 21489 112151,112079,111687
 5.7000e+000 112010  3.0888e+000 -2.0635e+002  1.0041e+001 21489 111791,111843,111817
 5.7000e+000 111987 -3.1230e+001 -1.6758e+002 -1.4148e+001 21489 112079,111843,111791
 5.7000e+000 111964  4.0264e+001 -1.2137e+002  2.6592e+001 21489 112151,111687,111661
 5.7000e+000 111941 -3.0904e+000 -8.7764e+001  2.1043e+001 21489 111661,111869,111843
 5.7000e+000 111918  5.7020e+001 -1.2301e+002  1.9246e+001 21489 111687,111739,111713
 5.7000e+000 111895  1.8622e+001 -3.7428e+001  4.8928e+000 21489 111635,111869,111661
 5.7000e+000 112105 -1.4272e+001 -1.4420e+002  7.9620e+000 21489 111765,111687,112079
 5.7000e+000 112128 -1.3209e+001 -1.3731e+002  8.1842e+000 21489 111765,112079,111791
 5.7000e+000 112177 -1.6516e+001 -1.2968e+002 -4.5675e+000 21489 111843,112079,112151
 5.7000e+000 112200  2.7376e+000 -1.2527e+002  5.5978e+000 21489 111843,112151,111661
 5.7000e+000 112578 -2.3026e+001 -1.6780e+002  7.8075e+000 21177 112382,112434,112408
 5.7000e+000 112555 -3.0701e+001 -1.6485e+002  4.4682e-002 21177 112330,112434,112382
 5.7000e+000 112532 -1.9485e+001 -1.3705e+002  2.8512e+001 21177 112304,112434,112330
 5.7000e+000 112509 -3.1281e+001 -1.5839e+002  0.0000e+000 21177 112330,112382,112356
 5.7000e+000 112486 -4.8953e+000 -7.1720e+001  4.1936e+000 21177 112304,112460,112434
 5.7000e+000 112679  1.7570e-001 -8.1359e+001 -2.2390e+001 20666 112601,112653,112627
 5.7000e+000 112927 -5.0783e+001 -1.7152e+002  5.9041e+000 19762 112702,112754,112728
 5.7000e+000 112904 -1.8970e+001 -1.6370e+002 -1.7523e+000 19762 112702,112832,112754
 5.7000e+000 112881 -4.2674e+001 -1.7542e+002  2.7798e+001 19762 112754,112832,112806
 5.7000e+000 112858 -6.1717e+001 -2.2767e+002  2.9388e+001 19762 112754,112806,112780
 5.7000e+000 113297 -4.6542e+001 -2.0874e+002  1.3564e+001 19308 112974,113052,113026
 5.7000e+000 113274 -3.1744e+001 -1.7406e+002  4.7452e+000 19308 112974,113156,113052
 5.7000e+000 113251 -1.8050e+001 -2.3092e+002 -2.7767e+001 19308 113052,113130,113104
 5.7000e+000 113228 -3.4675e+001 -1.7370e+002 -3.4377e-002 19308 113052,113156,113130
 5.7000e+000 113205 -3.3703e+001 -2.0104e+002  0.0000e+000 19308 113052,113104,113078
 5.7000e+000 113182 -6.7315e+001 -2.1731e+002 -1.1119e+000 19308 112974,113026,113000
 5.7000e+000 113547 -5.0079e-001 -1.8732e+002 -1.3148e+001 18711 113570,113374,113348
 5.7000e+000 113524 -5.9916e+000 -1.7179e+002 -8.0165e+000 18711 113570,113348,113452
 5.7000e+000 113501  9.5338e-001 -1.2700e+002 -3.5284e+001 18711 113322,113452,113348
 5.7000e+000 113478 -1.7778e+001 -1.7039e+002 -6.2516e+001 18711 113374,113426,113400
 5.7000e+000 113596 -1.2590e-001 -1.7025e+002 -1.6975e+001 18711 113426,113374,113570
 5.7000e+000 113619 -6.5498e+000 -1.5700e+002 -8.5950e+000 18711 113426,113570,113452
 5.7000e+000 113771 -9.4506e+001 -2.3657e+002 -1.2999e+001 18307 113670,113722,113696
 5.7000e+000 113748 -7.4185e+001 -2.2147e+002 -6.0590e+000 18307 113644,113722,113670
 5.7000e+000 113972 -4.1927e+001 -1.9959e+002  4.2440e+000 17945 113822,113874,113848
 5.7000e+000 113949 -4.1779e+001 -1.9865e+002  4.8494e+000 17945 113822,113900,113874
 5.7000e+000 113926 -5.8516e+001 -1.5693e+002  8.3724e+001 17945 113796,113900,113822
 5.7000e+000 114075 -2.5897e+001 -2.8911e+002  3.2335e+001 17482 113997,114049,114023
 5.7000e+000 114479 -1.1643e+001 -1.6338e+002 -2.5379e+001 17042 114257,114361,114335
 5.7000e+000 114456 -3.8666e+001 -1.5608e+002 -4.2075e+000 17042 114205,114361,114257
 5.7000e+000 114433 -4.2915e+001 -1.8110e+002  6.9286e+000 17042 114205,114257,114231
 5.7000e+000 114410  3.3128e+001 -2.4281e+002 -1.4469e+001 17042 114283,114335,114309
 5.7000e+000 114387 -1.9455e+000 -2.0896e+002 -1.0761e+001 17042 114257,114335,114283
 5.7000e+000 114879 -8.8261e+001 -1.6292e+002  2.0993e-001 16638 114631,114683,114657
 5.7000e+000 114856 -1.6356e+001 -1.3241e+002  2.3717e+000 16638 114605,114683,114631
 5.7000e+000 114833  2.4852e+001 -7.0587e+001 -1.8511e+001 16638 114605,114761,114683
 5.7000e+000 114810 -5.4519e+000 -1.8405e+002 -9.1354e+000 16638 114683,114735,114709
 5.7000e+000 114787 -1.2104e+001 -1.9106e+002 -1.2883e+001 16638 114683,114761,114735
 5.7000e+000 115078 -7.9068e+001 -1.7928e+002  4.7777e+000 16232 114954,115006,114980
 5.7000e+000 115055 -7.8002e+001 -1.9750e+002  8.5686e+000 16232 114928,115006,114954
 5.7000e+000 115032 -3.7710e+001 -2.4452e+002  1.6546e+001 16232 114902,115006,114928
 5.7000e+000 115228 -4.2288e+001 -1.7609e+002  5.6658e+000 15482 115101,115153,115127
 5.7000e+000 115205 -4.1672e+001 -1.6775e+002 -2.2016e+000 15482 115101,115179,115153
 5.7000e+000 115331 -3.1415e+001 -1.5980e+002 -2.0951e+001 15163 115253,115305,115279
 5.7000e+000 115434 -5.4262e+001 -1.7642e+002  3.3257e+001 421 115356,115408,115382
 5.8000e+000 68213 -9.9920e+000 -8.4502e+001 -9.3038e+000 67888 68112,68164,68138
 5.8000e+000 68190 -1.0936e+002 -1.1243e+002 -1.7917e+001 67888 68086,68164,68112
 5.8000e+000 68314 -1.7423e+001 -1.2943e+002  1.0064e+001 67576 68236,68288,68262
 5.8000e+000 68584 -5.3841e+001 -2.3932e+002  1.2747e+001 67378 68385,68489,68463
 5.8000e+000 68561 -1.7135e+001 -2.2186e+002  7.2177e+000 67378 68359,68489,68385
 5.8000e+000 68538 -4.0204e+001 -2.0047e+002  1.8570e+001 67378 68385,68463,68411
 5.8000e+000 68515 -1.9418e+001 -1.3382e+002  1.0604e+001 67378 68411,68463,68437
 5.8000e+000 68964 -5.8004e+001 -2.2025e+002  3.3801e+001 67130 68690,68820,68716
 5.8000e+000 68941  4.0898e+001 -2.3046e+002  6.2317e+001 67130 68690,68846,68820
 5.8000e+000 68918 -5.3384e+001 -1.4433e+002  5.5610e+000 67130 68742,68820,68794
 5.8000e+000 68895 -1.5614e+001 -1.4312e+002  1.4589e+001 67130 68716,68820,68742
 5.8000e+000 68872 -3.5182e+001 -1.1891e+002 -1.4978e+001 67130 68742,68794,68768
 5.8000e+000 69065 -4.8681e+001 -1.2012e+002  3.1854e+000 66926 68987,69039,69013
 5.8000e+000 69445 -2.8638e+001 -1.0998e+002 -6.7208e+000 66614 69223,69301,69275
 5.8000e+000 69422 -4.3389e+001 -1.1832e+002 -2.6528e+000 66614 69171,69301,69223
 5.8000e+000 69399 -4.9386e+001 -1.2042e+002  2.0755e-001 66614 69171,69327,69301
 5.8000e+000 69376 -1.5938e+001 -5.6214e+001 -5.5768e-002 66614 69223,69275,69249
 5.8000e+000 69353 -3.6399e+001 -1.2292e+002 -1.6032e+000 66614 69171,69223,69197
 5.8000e+000 69546 -4.8000e+001 -1.9736e+002  1.2280e+001 66416 69468,69520,69494
 5.8000e+000 69997 -4.4176e+001 -1.9794e+002 -1.4701e+001 66104 69700,69830,69726
 5.8000e+000 69974 -6.0370e+001 -2.4002e+002 -3.0576e+001 66104 69700,69856,69830
 5.8000e+000 69951 -4.7900e+001 -1.5311e+002 -1.1209e+001 66104 69726,69804,69778
 5.8000e+000 69928 -3.8883e+001 -1.8468e+002 -1.5192e+001 66104 69726,69830,69804
 5.8000e+000 69905 -4.8946e+001 -1.4496e+002 -5.0126e+000 66104 69726,69778,69752
 5.8000e+000 69882 -1.9405e+001 -3.2863e+002 -6.1758e+001 66104 69674,69856,69700
 5.8000e+000 70326 -3.7466e+001 -9.0332e+001  7.9416e-001 65814 70349,70153,70127
 5.8000e+000 70303 -2.2268e+001 -8.9178e+001  3.8380e+000 65814 70349,70127,70101
 5.8000e+000 70280 -2.0454e+001 -8.5339e+001  3.5250e+001 65814 70101,70231,70205
 5.8000e+000 70257 -3.6463e-001 -9.6213e+001  1.2602e+001 65814 70153,70205,70179
 5.8000e+000 70375 -3.0333e+001 -9.4819e+001  1.2577e+001 65814 70205,70153,70349
 5.8000e+000 70398 -7.3863e+000 -9.0191e+001  1.3982e+001 65814 70205,70349,70101
 5.8000e+000 70904 -1.5109e+001 -4.4735e+001 -1.6968e+001 65502 70607,70737,70685
 5.8000e+000 70881 -2.2339e+001 -3.5735e+001 -2.1555e+001 65502 70581,70737,70607
 5.8000e+000 70858 -2.1162e+001 -3.7851e+000 -4.7502e+000 65502 70581,70763,70737
 5.8000e+000 70835 -2.2125e+001 -4.8954e+001 -2.1777e+001 65502 70685,70737,70711
 5.8000e+000 70812 -8.6722e+001 -6.0016e+001 -2.7708e-001 65502 70607,70659,70633
 5.8000e+000 70789 -2.5680e+001 -6.3736e+001  1.4804e+000 65502 70607,70685,70659
 5.8000e+000 71103 -2.2061e+001 -1.6934e+002 -5.2986e+000 65304 71126,70979,70953
 5.8000e+000 71080 -4.3964e+001 -1.6664e+002 -2.3565e+000 65304 71126,70953,70927
 5.8000e+000 71057 -6.3527e+001 -1.7168e+002  8.1339e+000 65304 70927,71031,71005
 5.8000e+000 71152 -4.3108e+001 -1.6249e+002 -1.1661e+001 65304 71005,70979,71126
 5.8000e+000 71175 -6.6547e+001 -1.6155e+002 -4.0097e+000 65304 71005,71126,70927
 5.8000e+000 71374 -3.3789e+001 -1.5931e+002  8.4431e+000 65106 71198,71276,71224
 5.8000e+000 71351 -4.7609e+001 -1.6833e+002  4.5499e+000 65106 71198,71302,71276
 5.8000e+000 71328 -2.5872e+001 -1.3650e+002  2.2894e+001 65106 71224,71276,71250
 5.8000e+000 71756 -2.0994e+001 -1.1306e+002 -7.7432e+000 64652 71508,71638,71534
 5.8000e+000 71733 -2.3145e-001 -1.0441e+002 -4.8215e-001 64652 71482,71638,71508
 5.8000e+000 71710 -4.7854e+001 -1.1834e+002 -1.0931e+001 64652 71534,71586,71560
 5.8000e+000 71687 -4.1998e+001 -1.2598e+002 -1.9735e+001 64652 71534,71612,71586
 5.8000e+000 71664 -5.6866e+001 -1.2984e+002 -2.1040e+001 64652 71534,71638,71612
 5.8000e+000 72085 -5.4819e+001 -1.2859e+002 -1.7911e+001 64248 71886,71964,71912
 5.8000e+000 72062 -4.4096e+001 -1.2640e+002 -1.6709e+001 64248 71860,71964,71886
 5.8000e+000 72039 -2.3473e+001 -1.3585e+002 -1.2097e+001 64248 71912,71964,71938
 5.8000e+000 72016 -4.8745e+001 -1.1984e+002 -1.5726e+001 64248 71860,71990,71964
 5.8000e+000 72235 -4.2623e+000 -8.1729e+001 -1.0626e+001 63858 72588,72258,72134
 5.8000e+000 72212 -2.3917e+001 -7.2670e+001  2.5822e+000 63858 72330,72258,72108
 5.8000e+000 72284 -1.7006e+001 -5.5307e+001 -7.3416e+000 63858 72160,72134,72258
 5.8000e+000 72307 -5.1064e+001 -7.9525e+001 -1.3333e+001 63858 72460,72258,72186
 5.8000e+000 72356 -4.2542e+001 -7.6668e+001 -1.3418e+001 63858 72186,72258,72330
 5.8000e+000 72486 -2.4036e+001 -7.6432e+001 -1.1123e+001 63858 72160,72258,72460
 5.8000e+000 72614 -1.2675e+001 -8.9114e+001  1.3060e-002 63858 72108,72258,72588
 5.8000e+000 73248 -3.3122e+001 -1.4906e+002  3.1608e+001 63404 72902,72954,72928
 5.8000e+000 73225 -7.1668e+001 -1.4444e+002  1.4145e+001 63404 73271,72954,72902
 5.8000e+000 73202 -6.4025e+001 -1.1653e+002  1.2160e+001 63404 73271,72902,73032
 5.8000e+000 73179 -4.5180e+001 -1.0192e+002  3.5688e+000 63404 72902,73058,73032
 5.8000e+000 73156 -6.0820e+001 -1.3814e+002  4.8608e-001 63404 72980,73032,73006
 5.8000e+000 73133 -4.3512e+001 -1.0044e+002  4.2162e+000 63404 72876,73058,72902
 5.8000e+000 73110 -1.2388e+001 -4.7961e+001 -2.4385e+001 63404 72876,73084,73058
 5.8000e+000 73297 -6.1802e+001 -1.4842e+002 -2.7865e+000 63404 72980,72954,73271
 5.8000e+000 73320 -6.1127e+001 -1.3328e+002 -2.2995e+000 63404 72980,73271,73032
 5.8000e+000 73470 -5.0123e+001 -3.3359e+002  3.5911e+001 63014 73343,73395,73369
 5.8000e+000 73447 -1.5735e+002 -4.0784e+002 -7.2952e+000 63014 73343,73421,73395
 5.8000e+000 73929 -7.7839e+000 -1.4556e+002  6.6093e+000 62702 73759,73811,73785
 5.8000e+000 73906  9.1959e-001 -1.4021e+002  1.0401e+001 62702 73655,73811,73759
 5.8000e+000 73883 -2.1555e+001 -1.5914e+002  9.1292e-002 62702 73655,73759,73681
 5.8000e+000 73860 -2.0493e+000 -1.1940e+002 -2.2961e+001 62702 73681,73759,73707
 5.8000e+000 73837 -6.8670e+001 -1.3710e+002  3.8349e+000 62702 73707,73759,73733
 5.8000e+000 74209 -9.0531e+001 -1.3654e+002  1.8861e+000 62404 74059,74137,74085
 5.8000e+000 74186 -1.0423e+002 -1.7638e+002  2.0894e+001 62404 74033,74137,74059
 5.8000e+000 74163 -9.2051e+001 -1.2435e+002  2.6681e+000 62404 74085,74137,74111
 5.8000e+000 74408 -6.9646e+000 -1.1902e+002  6.3769e+000 62000 74258,74336,74284
 5.8000e+000 74385 -2.5097e+000 -1.1444e+002  1.4225e+001 62000 74232,74336,74258
 5.8000e+000 74362 -3.0378e+001 -1.2098e+002 -1.8456e+000 62000 74284,74336,74310
 5.8000e+000 74509 -1.1123e+001 -1.3004e+002  1.2330e+001 61802 74431,74483,74457
 5.8000e+000 74759 -4.8467e+001 -1.1824e+002  3.0275e+000 61554 74782,74586,74560
 5.8000e+000 74736 -3.4075e+001 -1.1132e+002  5.3015e+000 61554 74782,74560,74664
 5.8000e+000 74713 -4.2959e+001 -9.0845e+001  3.1394e+001 61554 74854,74612,74586
 5.8000e+000 74690 -4.0287e+001 -1.1820e+002  1.3364e+000 61554 74534,74664,74560
 5.8000e+000 74808 -5.6483e+001 -1.1093e+002  9.5614e+000 61554 74854,74586,74782
 5.8000e+000 74831 -3.7789e+001 -1.3985e+002  8.0386e+000 61554 74638,74782,74664
 5.8000e+000 74880 -1.4853e+001 -1.1175e+002  3.4094e+001 61554 74638,74612,74854
 5.8000e+000 74903 -1.5512e+001 -1.1020e+002  1.7747e+001 61554 74638,74854,74782
 5.8000e+000 75285 -1.9859e+001 -1.1771e+002  7.8488e-001 61356 75063,75167,75115
 5.8000e+000 75262 -2.5751e+001 -1.2600e+002 -6.0716e+000 61356 75037,75167,75063
 5.8000e+000 75239  8.7479e-001 -1.2392e+002 -5.6199e-002 61356 75115,75167,75141
 5.8000e+000 75216 -1.0522e+001 -1.1229e+002  3.0014e+000 61356 75063,75115,75089
 5.8000e+000 75193 -5.4347e+001 -1.0392e+002  6.7711e+000 61356 75011,75167,75037
 5.8000e+000 75631 -1.0249e+001 -9.5054e+001  3.9043e+000 60952 75654,75412,75360
 5.8000e+000 75608 -1.9764e+001 -1.0944e+002 -1.8219e+000 60952 75654,75360,75334
 5.8000e+000 75585 -2.1344e+001 -1.4338e+002  7.6202e+000 60952 75726,75438,75412
 5.8000e+000 75562 -1.3227e+001 -1.0872e+002 -1.7278e+001 60952 75308,75490,75334
 5.8000e+000 75539 -1.4414e+001 -9.5567e+001  7.9743e-001 60952 75360,75412,75386
 5.8000e+000 75516 -3.0420e+001 -1.7049e+002 -6.5649e+000 60952 75438,75490,75464
 5.8000e+000 75680 -9.6733e+000 -1.1736e+002  3.9174e+000 60952 75726,75412,75654
 5.8000e+000 75703 -1.0357e+001 -1.0961e+002 -3.6094e+000 60952 75490,75654,75334
 5.8000e+000 75752 -1.2276e+001 -1.1372e+002 -5.8555e-001 60952 75490,75438,75726
 5.8000e+000 75775 -1.2641e+001 -1.1156e+002 -4.5064e+000 60952 75490,75726,75654
 5.8000e+000 76155 -2.2859e+001 -1.1624e+002 -1.7310e+000 60754 75933,75985,75959
 5.8000e+000 76132 -3.6195e+001 -1.2446e+002  1.2709e+001 60754 75933,76037,75985
 5.8000e+000 76109  1.4506e+000 -1.1916e+002  2.8388e+000 60754 75985,76037,76011
 5.8000e+000 76086 -5.2823e+001 -1.0582e+002  3.3877e+000 60754 75881,76037,75933
 5.8000e+000 76063 -7.0359e+001 -9.6503e+001  2.4376e+001 60754 75881,75933,75907
 5.8000e+000 76612 -2.3342e+001 -1.1352e+002  6.5133e+000 60350 76635,76442,76390
 5.8000e+000 76589 -3.1313e+000 -1.3037e+002  1.0715e+001 60350 76635,76390,76364
 5.8000e+000 76566 -8.1835e+000 -1.6968e+002 -1.0780e+001 60350 76364,76494,76468
 5.8000e+000 76543 -2.0857e+000 -1.0352e+002  1.0154e+001 60350 76390,76442,76416
 5.8000e+000 76520 -6.2811e+001 -1.0532e+002 -2.6473e+001 60350 76338,76494,76364
 5.8000e+000 76661 -3.3992e+001 -1.2529e+002  1.1747e+001 60350 76468,76442,76635
 5.8000e+000 76684 -1.8973e+001 -1.4362e+002  1.7703e+001 60350 76468,76635,76364
 5.8000e+000 76932 -4.7324e+001 -1.3007e+002  2.9834e-001 59946 76955,76733,76707
 5.8000e+000 76909 -4.8297e+001 -1.3186e+002  2.4354e+000 59946 77027,76955,76707
 5.8000e+000 76886 -4.6562e+001 -1.3338e+002  1.9149e+000 59946 77027,76707,76837
 5.8000e+000 76863 -2.2691e+001 -1.4062e+002 -1.4691e+001 59946 76733,76785,76759
 5.8000e+000 76981 -5.4138e+001 -1.3123e+002 -1.9360e+000 59946 76785,76733,76955
 5.8000e+000 77004 -4.9106e+001 -1.2455e+002  1.1917e+000 59946 76785,76955,76811
 5.8000e+000 77053 -4.6453e+001 -1.2936e+002  3.9297e+000 59946 76811,76955,77027
 5.8000e+000 77076 -4.5960e+001 -1.3214e+002  3.2050e+000 59946 76811,77027,76837
 5.8000e+000 77226 -5.2845e+001 -1.3889e+002  3.6755e+000 59542 77099,77151,77125
 5.8000e+000 77203 -7.0559e+001 -1.7399e+002  9.9078e+000 59542 77099,77177,77151
 5.8000e+000 77427 -7.1685e+001 -1.4688e+002 -8.5998e+000 59030 77450,77277,77251
 5.8000e+000 77404 -4.6185e+001 -1.2250e+002 -3.9244e+001 59030 77450,77251,77355
 5.8000e+000 77381 -2.1999e+001 -1.7095e+002 -4.0338e+000 59030 77277,77329,77303
 5.8000e+000 77476 -3.9836e+001 -1.5183e+002 -2.5017e+001 59030 77329,77277,77450
 5.8000e+000 77499 -1.0712e+001 -1.4043e+002 -4.9348e+001 59030 77329,77450,77355
 5.8000e+000 77749 -5.9005e+001 -1.8356e+002  1.4887e+001 58426 77772,77628,77602
 5.8000e+000 77726 -3.6557e+001 -2.0663e+002  3.7519e+001 58426 77524,77654,77628
 5.8000e+000 77703 -4.9601e+001 -1.8063e+002  1.1314e+001 58426 77772,77602,77550
 5.8000e+000 77680 -3.2681e+001 -1.7066e+002 -7.5521e+000 58426 77550,77602,77576
 5.8000e+000 77798 -4.8008e+001 -1.8601e+002  1.4068e+001 58426 77524,77628,77772
 5.8000e+000 77821 -4.2695e+001 -1.8503e+002  9.5969e+000 58426 77524,77772,77550
 5.8000e+000 78071 -7.6326e+001 -1.6483e+002  1.7963e+001 57922 78094,77924,77898
 5.8000e+000 78048 -8.7287e+001 -1.6228e+002  1.8748e+000 57922 78094,77898,77872
 5.8000e+000 78025 -7.0669e+001 -1.4574e+002  1.7024e+001 57922 78166,77846,77950
 5.8000e+000 78002 -3.8334e+001 -1.4131e+002  1.8684e+001 57922 77846,77976,77950
 5.8000e+000 78120 -6.2989e+001 -1.6061e+002  1.2296e+001 57922 77950,77924,78094
 5.8000e+000 78143 -7.2630e+001 -1.4863e+002  1.2881e+001 57922 78166,77950,78094
 5.8000e+000 78192 -6.6195e+001 -1.5324e+002  1.1808e+001 57922 77872,77846,78166
 5.8000e+000 78215 -7.2291e+001 -1.6096e+002  7.1791e+000 57922 77872,78166,78094
 5.8000e+000 78416  1.3290e+001 -1.3839e+002 -7.2200e+000 57468 78439,78292,78240
 5.8000e+000 78393 -9.0155e+000 -1.3221e+002  2.1675e-001 57468 78439,78240,78344
 5.8000e+000 78370  4.5241e+000 -1.8741e+002 -4.7697e+000 57468 78240,78292,78266
 5.8000e+000 78465 -8.5828e+000 -1.4893e+002 -1.0781e+001 57468 78318,78292,78439
 5.8000e+000 78488 -1.7707e+001 -1.3692e+002 -1.5770e+000 57468 78318,78439,78344
 5.8000e+000 78689  7.7112e+000 -1.6415e+002 -1.6367e+001 57014 78712,78539,78513
 5.8000e+000 78666 -1.4644e+001 -1.6264e+002 -1.8268e+000 57014 78712,78513,78617
 5.8000e+000 78643 -3.5929e+001 -1.6205e+002  1.6694e+001 57014 78565,78617,78591
 5.8000e+000 78738 -2.0882e+001 -1.4142e+002 -1.6658e+001 57014 78565,78539,78712
 5.8000e+000 78761 -5.3130e+001 -1.5897e+002  6.7315e+000 57014 78565,78712,78617
 5.8000e+000 79241 -5.3632e+001 -1.4728e+002  1.1551e+001 56652 79264,78895,78869
 5.8000e+000 79218 -2.5280e+001 -1.9098e+002 -1.1555e+001 56652 79264,78869,79051
 5.8000e+000 79195 -3.7919e+001 -1.6622e+002 -3.9364e+001 56652 78869,79077,79051
 5.8000e+000 79172 -4.1626e+001 -9.9187e+001 -2.0827e+001 56652 78895,78973,78947
 5.8000e+000 79149 -6.9589e+001 -2.9156e+002 -2.4125e+001 56652 78973,79051,78999
 5.8000e+000 79126 -3.5879e+001 -9.1943e+001 -2.3335e+001 56652 78895,78947,78921
 5.8000e+000 79103 -5.1918e+001 -1.9031e+002  4.4075e+001 56652 78999,79051,79025
 5.8000e+000 79290 -3.1861e+001 -1.1995e+002  2.6561e+001 56652 78973,78895,79264
 5.8000e+000 79313 -1.5405e+000 -1.6684e+002  4.8294e+000 56652 78973,79264,79051
 5.8000e+000 79512 -1.5958e+001 -2.1734e+002  1.6318e+001 56062 79388,79440,79414
 5.8000e+000 79489 -7.7608e+001 -1.1132e+002  2.8823e+001 56062 79336,79440,79388
 5.8000e+000 79466 -2.4222e+001 -1.5966e+002  3.3275e+001 56062 79336,79388,79362
 5.8000e+000 79941 -2.1237e+001 -1.1044e+002  2.0555e+001 55658 79964,79670,79644
 5.8000e+000 79918 -3.3470e+001 -1.1188e+002  2.2790e+001 55658 79964,79644,79800
 5.8000e+000 79895 -3.1744e+001 -1.1896e+002  1.1712e+001 55658 80036,79696,79670
 5.8000e+000 79872 -3.6286e+001 -9.6939e+001  1.3978e-001 55658 80108,79722,79696
 5.8000e+000 79849 -5.2826e+001 -9.4690e+001  8.9425e+000 55658 79722,79774,79748
 5.8000e+000 79826 -6.2369e-001 -1.0098e+002  5.0632e+000 55658 79618,79800,79644
 5.8000e+000 79990 -3.4481e+001 -1.1927e+002  1.6167e+001 55658 80036,79670,79964
 5.8000e+000 80013 -3.0879e+001 -1.0440e+002  2.3669e+001 55658 79774,79964,79800
 5.8000e+000 80062 -2.5970e+001 -1.0607e+002  1.0300e+001 55658 80108,79696,80036
 5.8000e+000 80085 -3.4195e+001 -1.0548e+002  2.1386e+001 55658 79774,80036,79964
 5.8000e+000 80134 -5.6634e+001 -1.0724e+002  5.3005e+000 55658 79774,79722,80108
 5.8000e+000 80157 -5.0750e+001 -1.1862e+002  1.5552e+001 55658 79774,80108,80036
 5.8000e+000 80307 -7.2626e+001 -1.1326e+002  9.9603e+000 55254 80402,80330,80206
 5.8000e+000 80284 -6.9654e+001 -1.5541e+002  1.1648e+001 55254 80330,80180,80258
 5.8000e+000 80356 -8.3987e+001 -1.3887e+002  2.6073e+001 55254 80232,80206,80330
 5.8000e+000 80379 -2.8516e+001 -1.1383e+002  3.8934e+001 55254 80232,80330,80258
 5.8000e+000 80428 -9.2243e+001 -1.3849e+002 -1.3617e-001 55254 80180,80330,80402
 5.8000e+000 80659 -3.1922e+001 -1.6806e+002 -1.2663e+001 54850 80558,80610,80584
 5.8000e+000 80636 -9.1653e+000 -1.6174e+002 -1.4143e+001 54850 80532,80610,80558
 5.8000e+000 80760 -1.1803e+001 -1.0538e+002 -6.7671e+000 54652 80682,80734,80708
 5.8000e+000 81164 -1.0362e+001 -1.1266e+002 -1.5435e+000 54248 81187,80942,80890
 5.8000e+000 81141 -1.2573e+001 -1.1430e+002 -6.6209e-001 54248 81187,80890,81046
 5.8000e+000 81118 -1.4557e+001 -1.1826e+002  2.4993e+001 54248 80942,81020,80994
 5.8000e+000 81095 -8.5720e+000 -1.1186e+002  1.2488e+000 54248 80890,80942,80916
 5.8000e+000 81072 -1.9080e+001 -6.5554e+001  4.1330e+000 54248 80942,80994,80968
 5.8000e+000 81213 -1.2963e+001 -1.1107e+002 -1.3012e+000 54248 81020,80942,81187
 5.8000e+000 81236 -1.4586e+001 -1.1196e+002 -7.4384e-001 54248 81020,81187,81046
 5.8000e+000 81663 -7.3326e+001 -1.3279e+002  1.2151e+001 53594 81340,81444,81366
 5.8000e+000 81640 -6.9777e+001 -1.9615e+002  5.2986e+000 53594 81340,81470,81444
 5.8000e+000 81617 -3.7325e+001 -1.7220e+002 -1.9102e+001 53594 81340,81522,81470
 5.8000e+000 81594 -4.1560e+001 -9.5567e+001 -1.0300e+001 53594 81392,81444,81418
 5.8000e+000 81571 -5.3560e+001 -1.1436e+002 -1.6239e+001 53594 81366,81444,81392
 5.8000e+000 81548 -2.2936e+000 -2.2834e+002  2.0131e+001 53594 81470,81522,81496
 5.8000e+000 81943 -1.8811e+001 -8.9751e+001 -1.1208e+001 53104 81966,81845,81819
 5.8000e+000 81920 -2.7802e+001 -7.3085e+001 -1.3935e+001 53104 81966,81819,81767
 5.8000e+000 81897 -2.8902e+001 -7.5170e+001 -1.4633e+001 53104 81767,81819,81793
 5.8000e+000 81992 -1.2755e+001 -7.9225e+001 -1.3663e+001 53104 81871,81845,81966
 5.8000e+000 82015 -1.7163e+001 -5.5856e+001 -1.8564e+001 53104 81871,81966,81767
 5.8000e+000 82491 -2.2113e+001 -9.2373e+001 -1.1338e+001 52650 82145,82249,82171
 5.8000e+000 82468 -7.4942e+001 -1.0918e+002 -1.3201e+001 52650 82145,82301,82249
 5.8000e+000 82445 -7.9331e+001 -1.6390e+002 -2.6972e+001 52650 82249,82301,82275
 5.8000e+000 82422 -4.6994e+001 -2.0880e+002 -3.7874e+001 52650 82119,82301,82145
 5.8000e+000 82399 -2.7544e+001 -7.0874e+001  7.6470e+000 52650 82171,82249,82223
 5.8000e+000 82376 -4.9247e-001 -1.9100e+002 -2.0444e+001 52650 82119,82327,82301
 5.8000e+000 82353 -6.0783e+000 -3.6292e+001 -1.4982e+001 52650 82171,82223,82197
 5.8000e+000 82739 -2.9298e+001 -8.0106e+001 -3.1255e-001 52246 82762,82540,82514
 5.8000e+000 82716 -1.9616e+001 -3.7703e+001 -8.1211e+000 52246 82762,82514,82644
 5.8000e+000 82693 -4.2489e+001 -9.0897e+001  1.8121e+001 52246 82540,82618,82592
 5.8000e+000 82670 -4.6101e+001 -8.3691e+001  1.2687e+001 52246 82540,82592,82566
 5.8000e+000 82788 -1.9753e+001 -1.0187e+002  5.3030e+000 52246 82618,82540,82762
 5.8000e+000 82811 -2.7325e+001 -8.7791e+001 -6.8402e+000 52246 82618,82762,82644
 5.8000e+000 83059 -1.3578e+001 -1.1790e+002  1.0795e+001 51578 82860,82964,82938
 5.8000e+000 83036 -1.8520e+000 -8.2606e+001 -2.5823e+001 51578 82834,82964,82860
 5.8000e+000 83013 -6.5268e+000 -9.1820e+001  2.3186e+001 51578 82860,82938,82886
 5.8000e+000 82990 -4.1281e+000 -6.1200e+001  6.1520e+000 51578 82886,82938,82912
 5.8000e+000 83309 -2.3086e+001 -6.4282e+001  2.0497e+001 51138 83332,83162,83136
 5.8000e+000 83286 -9.5048e+000 -8.6994e+001  6.3971e+000 51138 83332,83136,83110
 5.8000e+000 83263 -3.2545e+001 -8.9568e+001 -3.9058e+000 51138 83404,83214,83188
 5.8000e+000 83240 -4.4447e-001 -5.1688e+001  5.1679e+000 51138 83084,83214,83110
 5.8000e+000 83358 -3.9401e+001 -9.3091e+001  2.8583e+001 51138 83188,83162,83332
 5.8000e+000 83381 -2.3083e+001 -1.0037e+002  6.0364e+000 51138 83404,83188,83332
 5.8000e+000 83430 -2.0027e+001 -6.1736e+001 -1.3514e+000 51138 83110,83214,83404
 5.8000e+000 83453 -1.3251e+001 -7.8770e+001  8.4531e+000 51138 83110,83404,83332
 5.8000e+000 83835 -2.4395e+001 -1.1466e+002 -9.2551e-001 50734 83613,83717,83691
 5.8000e+000 83812 -2.8255e+001 -1.2702e+002 -2.2564e+001 50734 83561,83717,83613
 5.8000e+000 83789 -1.7375e+001 -6.4007e+001 -3.3977e+001 50734 83561,83613,83587
 5.8000e+000 83766 -4.5061e+001 -7.9646e+001 -8.1677e-002 50734 83613,83691,83639
 5.8000e+000 83743 -4.7930e+001 -8.0044e+001  1.7989e+001 50734 83639,83691,83665
 5.8000e+000 84034 -2.9612e+001 -7.0144e+001  4.6644e+000 50230 84057,83884,83858
 5.8000e+000 84011 -2.9203e+001 -7.5635e+001 -6.0201e+000 50230 84129,84057,83858
 5.8000e+000 83988 -9.0521e+000 -8.1771e+001 -1.1014e+001 50230 84129,83858,83962
 5.8000e+000 84083 -1.7715e+001 -6.4271e+001  2.1495e+000 50230 83910,83884,84057
 5.8000e+000 84106 -1.8984e+001 -6.4531e+001  4.8867e-001 50230 83910,84057,83936
 5.8000e+000 84155 -3.0327e+000 -6.2911e+001  1.1203e-001 50230 83936,84057,84129
 5.8000e+000 84178  4.5702e+000 -7.7999e+001 -7.9113e+000 50230 83936,84129,83962
 5.8000e+000 84558 -3.4077e+001 -9.4710e+001 -1.4941e+001 49768 84581,84388,84362
 5.8000e+000 84535 -6.9093e+001 -9.7203e+001 -6.2476e+000 49768 84581,84362,84310
 5.8000e+000 84512  1.2688e+000 -1.0609e+002 -1.7091e+001 49768 84653,84440,84414
 5.8000e+000 84489 -5.5120e+001 -1.0834e+002  8.0367e+000 49768 84310,84362,84336
 5.8000e+000 84466 -2.6094e+000 -7.7843e+001  1.0910e+001 49768 84284,84440,84310
 5.8000e+000 84607 -1.0730e+001 -8.2424e+001 -2.5814e+001 49768 84414,84388,84581
 5.8000e+000 84630 -1.2755e+001 -9.8578e+001 -1.2057e+001 49768 84653,84414,84581
 5.8000e+000 84679 -1.7665e+001 -1.0053e+002 -2.3446e+001 49768 84310,84440,84653
 5.8000e+000 84702 -3.8073e+001 -1.0031e+002 -2.3982e+001 49768 84310,84653,84581
 5.8000e+000 85159 -5.3448e+001 -1.3058e+002 -3.6861e+001 49192 84885,84937,84911
 5.8000e+000 85136 -5.1147e+001 -9.7264e+001 -2.6639e+001 49192 84885,85041,84937
 5.8000e+000 85113 -3.6128e+001 -8.2466e+001 -1.2151e+001 49192 84963,85041,84989
 5.8000e+000 85090 -3.1820e+001 -7.5124e+001 -1.7849e+001 49192 84937,85041,84963
 5.8000e+000 85067 -3.3742e+001 -7.6069e+001 -1.7376e+001 49192 84989,85041,85015
 5.8000e+000 85714 -5.5498e+001 -8.7239e+001  7.2884e-001 48638 85368,85498,85394
 5.8000e+000 85691 -6.9632e+001 -1.0286e+002  6.9440e+000 48638 85368,85524,85498
 5.8000e+000 85668 -6.6012e+001 -8.5282e+001  2.6564e+001 48638 85737,85420,85394
 5.8000e+000 85645 -5.3680e+001 -9.6119e+001  1.3405e+001 48638 85737,85394,85498
 5.8000e+000 85622 -4.1552e+001 -9.5521e+001  2.0876e+001 48638 85446,85498,85472
 5.8000e+000 85599 -1.8152e+001 -8.2830e+001  1.0469e+001 48638 85342,85524,85368
 5.8000e+000 85576 -6.8210e+001 -9.6186e+001  1.1441e+001 48638 85342,85550,85524
 5.8000e+000 85763 -4.5083e+001 -7.4636e+001  3.3433e+001 48638 85446,85420,85737
 5.8000e+000 85786 -4.5260e+001 -8.7121e+001  1.8728e+001 48638 85446,85737,85498
 5.8000e+000 86371 -4.7455e+001 -6.2897e+001 -3.3514e+000 48084 86100,86230,86178
 5.8000e+000 86348 -6.1161e+001 -8.6073e+001 -1.0262e+001 48084 86048,86230,86100
 5.8000e+000 86325 -4.2276e+001 -5.5827e+001  1.7774e+001 48084 86100,86178,86126
 5.8000e+000 86302 -3.4864e+001 -2.4156e+001 -1.8901e+001 48084 86048,86100,86074
 5.8000e+000 86279 -5.9093e+001 -1.0774e+002 -2.1972e+000 48084 86178,86230,86204
 5.8000e+000 86256 -3.7860e+001 -5.8187e+001  1.8344e+001 48084 86126,86178,86152
 5.8000e+000 86619 -3.1780e+001 -7.1836e+001  5.9399e+000 47630 86642,86446,86420
 5.8000e+000 86596 -3.7457e+001 -8.0127e+001 -1.1000e+001 47630 86642,86420,86394
 5.8000e+000 86573 -5.1757e+001 -9.0308e+001 -1.4538e+001 47630 86394,86524,86498
 5.8000e+000 86550 -2.2023e+001 -8.1949e+001  6.3931e+000 47630 86446,86498,86472
 5.8000e+000 86668 -4.0411e+001 -9.1221e+001  8.8964e-001 47630 86498,86446,86642
 5.8000e+000 86691 -4.2830e+001 -9.3639e+001 -1.5738e+001 47630 86498,86642,86394
 5.8000e+000 87022 -5.2623e+000 -4.8052e+001 -2.9305e+001 47226 87045,86875,86849
 5.8000e+000 86999 -3.0392e+000 -5.5112e+001 -2.7714e+001 47226 87045,86849,86797
 5.8000e+000 86976  2.6408e-001 -2.3582e+001 -9.2813e+000 47226 86797,86849,86823
 5.8000e+000 86953  3.3157e-001 -3.4218e+001 -1.6020e+001 47226 86875,86927,86901
 5.8000e+000 87071 -9.0290e+000 -5.3396e+001 -2.7647e+001 47226 86927,86875,87045
 5.8000e+000 87094 -4.9406e+000 -5.8187e+001 -2.6760e+001 47226 86927,87045,86797
 5.8000e+000 87244 -7.2621e+000 -1.0405e+002  2.9602e+001 46814 87267,87169,87143
 5.8000e+000 87221 -5.2135e+001 -9.4581e+001 -5.1979e+000 46814 87267,87143,87117
 5.8000e+000 87293 -5.7429e+000 -7.6654e+001  1.8203e+001 46814 87339,87267,87195
 5.8000e+000 87316 -9.0529e-001 -7.2610e+001  9.3579e-001 46814 87469,87267,87117
 5.8000e+000 87365 -4.0516e+000 -7.3885e+001  2.2828e+001 46814 87169,87267,87339
 5.8000e+000 87495 -4.0484e-001 -3.0993e+000 -1.6670e+000 46814 87195,87267,87469
 5.8000e+000 88001 -2.9467e+001 -6.7743e+001  1.9963e+001 46310 88024,87834,87808
 5.8000e+000 87978 -3.7806e+001 -6.9788e+001  1.1872e+001 46310 88024,87808,87756
 5.8000e+000 87955 -2.0951e+001 -9.2641e+001  5.3104e+000 46310 88096,87730,87860
 5.8000e+000 87932 -2.8499e+001 -9.0389e+001  1.2302e+001 46310 87756,87808,87782
 5.8000e+000 87909 -2.5817e+001 -1.0780e+002  4.5695e+000 46310 87678,87860,87730
 5.8000e+000 87886 -4.0142e+001 -1.8171e+002 -9.4561e+000 46310 87678,87730,87704
 5.8000e+000 88050 -2.5255e+001 -5.9026e+001  1.1154e+001 46310 87860,87834,88024
 5.8000e+000 88073 -2.0971e+001 -6.5453e+001  1.3429e+001 46310 88096,87860,88024
 5.8000e+000 88122 -2.6157e+001 -1.0552e+002 -4.1268e+000 46310 87756,87730,88096
 5.8000e+000 88145 -4.2668e+001 -9.4771e+001  4.1552e-001 46310 87756,88096,88024
 5.8000e+000 88572 -2.1826e+001 -9.2332e+001  7.6478e+000 45856 88249,88405,88275
 5.8000e+000 88549 -1.6113e+001 -2.6625e+001 -1.7592e+001 45856 88249,88431,88405
 5.8000e+000 88526 -5.1618e+001 -1.3575e+002 -1.8862e+001 45856 88327,88405,88353
 5.8000e+000 88503 -2.2846e+001 -1.1500e+002 -7.9686e+000 45856 88275,88405,88327
 5.8000e+000 88480 -4.3656e+001 -1.2361e+002 -2.6747e+001 45856 88353,88405,88379
 5.8000e+000 88457 -9.2880e+001 -2.5325e+002  2.0347e+001 45856 88275,88327,88301
 5.8000e+000 88950 -1.4139e+001 -5.3035e+001 -2.0969e+000 45658 88973,88754,88728
 5.8000e+000 88927 -1.1046e+001 -5.1334e+001 -1.0676e+000 45658 88973,88728,88676
 5.8000e+000 88904 -1.7835e+001 -6.1919e+001  2.2172e+001 45658 88676,88832,88806
 5.8000e+000 88881 -2.4551e+001 -7.7671e+001  7.7035e+000 45658 88676,88728,88702
 5.8000e+000 88858 -2.4565e+001 -5.1504e+001 -1.3337e+001 45658 88754,88806,88780
 5.8000e+000 88999 -1.6181e+001 -5.0473e+001 -8.5656e-001 45658 88806,88754,88973
 5.8000e+000 89022 -1.3917e+001 -4.9614e+001 -4.0159e-001 45658 88806,88973,88676
 5.8000e+000 89351 -2.8332e+001 -9.4892e+001 -4.5097e+000 45254 89152,89230,89204
 5.8000e+000 89328 -2.9057e+001 -9.5416e+001 -5.2596e+000 45254 89152,89256,89230
 5.8000e+000 89305 -1.0640e+001 -1.0116e+002 -1.3367e+001 45254 89126,89256,89152
 5.8000e+000 89282 -8.3203e-001 -9.3377e+001 -1.6317e+001 45254 89152,89204,89178
 5.8000e+000 89523 -9.0085e+000 -5.7237e+001  3.3135e-001 45006 89422,89474,89448
 5.8000e+000 89500 -6.4387e+000 -5.6166e+001  2.3773e+000 45006 89396,89474,89422
 5.8000e+000 89673 -7.6043e+001 -1.3403e+002  1.1127e+001 44495 89572,89624,89598
 5.8000e+000 89650 -7.8972e+001 -1.3733e+002  7.5665e+000 44495 89546,89624,89572
 5.8000e+000 90104 -8.6691e+000 -1.0424e+002 -6.5844e+000 44005 90199,90127,89937
 5.8000e+000 90081 -2.1090e+001 -1.0087e+002  8.9988e-001 44005 90271,90127,89859
 5.8000e+000 90058 -2.9947e+000 -1.0648e+002 -6.7229e+000 44005 90199,89937,89885
 5.8000e+000 90035 -2.9090e+001 -9.3872e+001  5.5586e+000 44005 90271,89859,89807
 5.8000e+000 90012 -1.5615e+001 -1.1643e+002 -1.4184e+001 44005 89885,89937,89911
 5.8000e+000 89989 -8.3657e+000 -9.9511e+001  1.6031e+001 44005 89807,89859,89833
 5.8000e+000 90153 -2.2191e+001 -1.0931e+002 -5.0084e+000 44005 89963,89937,90127
 5.8000e+000 90176 -2.4278e+001 -1.1882e+002  1.7570e+000 44005 89963,90127,89781
 5.8000e+000 90225 -2.3673e+001 -1.0234e+002 -3.1899e+000 44005 89859,90127,90199
 5.8000e+000 90248 -1.0636e+001 -9.9467e+001 -5.2234e-001 44005 89859,90199,89885
 5.8000e+000 90297 -3.1626e+001 -1.0887e+002 -3.0749e+000 44005 89781,90127,90271
 5.8000e+000 90320 -3.6141e+001 -1.0017e+002  2.4425e+000 44005 89781,90271,89807
 5.8000e+000 90470 -1.6199e+001 -1.0451e+002 -2.4259e+000 43601 90493,90369,90343
 5.8000e+000 90447 -2.8150e+001 -8.3759e+001  7.6731e+000 43601 90493,90343,90421
 5.8000e+000 90519 -3.4261e+001 -1.4255e+002 -1.5677e+001 43601 90395,90369,90493
 5.8000e+000 90542 -2.7149e+001 -9.8915e+001 -2.8360e+000 43601 90395,90493,90421
 5.8000e+000 90922 -3.3452e+001 -1.1239e+002  6.2998e+000 43154 90945,90700,90674
 5.8000e+000 90899 -2.8749e+001 -1.1458e+002 -1.4553e+001 43154 90945,90674,90648
 5.8000e+000 90876 -3.6728e+001 -8.8887e+001 -9.5349e+000 43154 90648,90778,90752
 5.8000e+000 90853 -1.8624e+001 -1.7956e+002  5.6255e+000 43154 90700,90752,90726
 5.8000e+000 90830 -2.4711e+001 -9.0452e+001 -4.4947e+000 43154 90648,90804,90778
 5.8000e+000 90971 -3.9358e+001 -1.3077e+002  1.0088e+001 43154 90752,90700,90945
 5.8000e+000 90994 -3.3311e+001 -1.2582e+002 -1.0208e+001 43154 90752,90945,90648
 5.8000e+000 91451 -1.2575e+001 -9.3305e+001 -1.8068e+001 42650 91203,91255,91229
 5.8000e+000 91428  7.2130e+000 -8.4733e+001 -8.4476e+000 42650 91203,91333,91255
 5.8000e+000 91405 -3.1944e+000 -1.3455e+002 -2.3128e+001 42650 91177,91333,91203
 5.8000e+000 91382 -4.4091e+001 -1.4629e+002  1.8354e+001 42650 91255,91333,91281
 5.8000e+000 91359 -8.9712e+000 -1.2094e+002  5.0074e+000 42650 91281,91333,91307
 5.8000e+000 91721 -6.2605e+001 -1.3656e+002  1.0144e+001 42288 91496,91600,91522
 5.8000e+000 91698 -3.4881e+001 -8.0487e+001 -3.7574e+000 42288 91496,91626,91600
 5.8000e+000 91675 -3.6885e+001 -1.2164e+002  1.1086e+001 42288 91522,91574,91548
 5.8000e+000 91652 -3.1490e+001 -1.2438e+002  1.0714e+001 42288 91522,91600,91574
 5.8000e+000 92199 -9.4205e+001 -1.4896e+002 -4.1125e+000 41898 92222,91983,91879
 5.8000e+000 92176 -9.6752e+001 -1.6589e+002 -1.0849e+001 41898 92294,92222,91879
 5.8000e+000 92153 -1.0277e+002 -1.6387e+002 -1.5189e+001 41898 92294,91879,91853
 5.8000e+000 92130 -8.2181e+001 -8.7608e+001  1.1637e+001 41898 91879,91957,91931
 5.8000e+000 92107 -8.3314e+001 -1.4479e+002 -2.8029e-001 41898 91879,91983,91957
 5.8000e+000 92084 -9.4311e+001 -8.5396e+001  2.3676e+001 41898 91879,91931,91905
 5.8000e+000 92061 -9.0874e+001 -1.4900e+002 -1.2478e+001 41898 91827,92035,91853
 5.8000e+000 92248 -9.2508e+001 -1.6997e+002  2.3513e-001 41898 92009,91983,92222
 5.8000e+000 92271 -9.0375e+001 -1.7382e+002 -1.4237e+001 41898 92009,92222,92035
 5.8000e+000 92320 -8.6856e+001 -1.6238e+002 -1.1110e+001 41898 92035,92222,92294
 5.8000e+000 92343 -9.1208e+001 -1.5932e+002 -1.5142e+001 41898 92035,92294,91853
 5.8000e+000 92770 -2.5574e+001 -1.2447e+002 -1.0051e+001 41437 92865,92793,92525
 5.8000e+000 92747 -3.6102e+001 -1.4126e+002 -1.4089e+001 41437 92793,92473,92629
 5.8000e+000 92724 -9.3710e+000 -1.2961e+002 -1.8831e+001 41437 92865,92525,92499
 5.8000e+000 92701 -4.5182e+001 -1.0783e+002 -2.1668e+001 41437 92525,92603,92577
 5.8000e+000 92678  2.6402e+000 -1.3624e+002 -1.2396e+001 41437 92447,92629,92473
 5.8000e+000 92655 -6.3978e+001 -9.4691e+001 -1.3041e+001 41437 92525,92577,92551
 5.8000e+000 92819 -2.9067e+001 -1.3248e+002 -2.0784e+001 41437 92603,92525,92793
 5.8000e+000 92842 -5.8957e+001 -1.4271e+002 -3.8421e+001 41437 92603,92793,92629
 5.8000e+000 92891  5.4370e+000 -1.3384e+002 -1.1862e+001 41437 92473,92793,92865
 5.8000e+000 92914  2.8266e+001 -1.3028e+002 -2.4374e+001 41437 92473,92865,92499
 5.8000e+000 93243 -2.4691e+001 -1.9582e+002  7.0095e+001 41097 93044,93096,93070
 5.8000e+000 93220 -4.1633e+001 -1.7552e+002  3.7609e+001 41097 93044,93122,93096
 5.8000e+000 93197  8.1898e+000 -1.1523e+002  1.3590e+001 41097 93044,93148,93122
 5.8000e+000 93174 -3.4780e+001 -8.5162e+001  3.6148e+001 41097 93018,93148,93044
 5.8000e+000 93393 -3.2362e+000 -1.4373e+002  9.8997e+000 40643 93416,93292,93344
 5.8000e+000 93370 -6.8891e+000 -1.3315e+002  1.1012e+001 40643 93266,93344,93292
 5.8000e+000 93442 -4.3370e+000 -1.4041e+002  1.5550e+001 40643 93318,93292,93416
 5.8000e+000 93901 -4.2378e+001 -1.2915e+002 -9.3743e+000 40132 93924,93731,93705
 5.8000e+000 93878 -4.3612e+001 -1.3068e+002 -9.9090e+000 40132 93996,93924,93705
 5.8000e+000 93855 -5.1029e+001 -1.4883e+002 -3.7674e+000 40132 93996,93705,93653
 5.8000e+000 93832 -2.1178e+001 -1.4628e+002 -7.7622e+000 40132 93653,93705,93679
 5.8000e+000 93809 -4.1271e+001 -1.2446e+002  1.1140e-001 40132 93627,93783,93757
 5.8000e+000 93950 -4.0840e+001 -1.3439e+002 -1.0743e+001 40132 93757,93731,93924
 5.8000e+000 93973 -4.5554e+001 -1.1950e+002 -3.0044e+000 40132 93757,93924,93627
 5.8000e+000 94022 -5.7636e+001 -1.4227e+002  3.0078e+000 40132 93627,93924,93996
 5.8000e+000 94045 -5.3434e+001 -1.4849e+002  7.5480e+000 40132 93627,93996,93653
 5.8000e+000 94423 -1.1009e+001 -1.5789e+002 -2.1916e+001 39514 94149,94227,94175
 5.8000e+000 94400 -1.6657e+001 -1.4635e+002  1.5930e+001 39514 94149,94305,94227
 5.8000e+000 94377  2.7147e+000 -1.8245e+002 -2.1719e+001 39514 94175,94227,94201
 5.8000e+000 94354 -4.5913e+001 -1.3754e+002  6.3925e+000 39514 94227,94305,94279
 5.8000e+000 94331 -1.9185e+001 -1.2510e+002  1.2618e+001 39514 94227,94279,94253
 5.8000e+000 94573 -1.1615e+001 -8.6331e+001 -1.6995e+001 38822 94596,94498,94472
 5.8000e+000 94550  1.6714e+001 -9.1323e+001  1.9682e+001 38822 94596,94472,94446
 5.8000e+000 94622 -4.4137e+001 -1.0010e+002 -1.9152e+001 38822 94524,94498,94596
 5.8000e+000 94645 -3.7052e+001 -1.1369e+002  2.1166e+001 38822 94524,94596,94446
 5.8000e+000 95025 -8.8927e+000 -1.0930e+002 -8.1901e+000 38418 95048,94829,94777
 5.8000e+000 95002 -1.1066e+001 -1.1450e+002 -1.3443e+001 38418 95120,95048,94777
 5.8000e+000 94979 -7.6233e+000 -1.1524e+002 -1.2578e+001 38418 95120,94777,94751
 5.8000e+000 94956 -5.5478e+000 -1.0477e+002 -1.4566e+001 38418 95192,94881,94855
 5.8000e+000 94933 -3.2937e+001 -9.2549e+001 -6.5145e+000 38418 94777,94829,94803
 5.8000e+000 95074 -1.9307e+001 -1.4153e+002 -2.9823e+000 38418 94855,94829,95048
 5.8000e+000 95097 -8.4632e+000 -1.1418e+002 -1.4977e+001 38418 95192,94855,95048
 5.8000e+000 95146 -2.0304e+001 -1.1178e+002 -1.0541e+001 38418 94907,95048,95120
 5.8000e+000 95169 -1.2519e+001 -1.0909e+002 -8.3262e+000 38418 94907,95120,94751
 5.8000e+000 95218 -9.5667e+000 -8.5690e+001 -1.3448e+001 38418 94907,94881,95192
 5.8000e+000 95241 -1.6738e+001 -1.0182e+002 -1.1142e+001 38418 94907,95192,95048
 5.8000e+000 95511 -3.4534e+001 -1.1564e+002  7.1463e+000 38049 95312,95390,95364
 5.8000e+000 95488 -2.0792e+001 -1.0909e+002  4.6875e+000 38049 95312,95416,95390
 5.8000e+000 95465 -1.0223e+001 -1.0923e+002 -5.3680e+000 38049 95312,95364,95338
 5.8000e+000 95442 -9.1989e+000 -9.6050e+001  9.6152e+000 38049 95286,95416,95312
 5.8000e+000 95808 -3.5920e+001 -1.4214e+002 -4.5020e+000 37437 95831,95586,95560
 5.8000e+000 95785  1.4094e+001 -1.4726e+002 -6.3483e+000 37437 95831,95560,95534
 5.8000e+000 95762 -7.1864e+001 -1.3395e+002  5.7934e+000 37437 95586,95664,95638
 5.8000e+000 95739 -9.9142e+000 -6.7255e+001 -3.5347e+001 37437 95534,95690,95664
 5.8000e+000 95716 -7.0980e+001 -9.3610e+001  2.8963e+000 37437 95586,95638,95612
 5.8000e+000 95857 -6.8558e+001 -1.3587e+002  1.5989e+001 37437 95664,95586,95831
 5.8000e+000 95880 -1.5854e+001 -1.3965e+002  1.4927e+001 37437 95664,95831,95534
 5.8000e+000 96390 -5.1256e+001 -1.0777e+002 -7.1839e+000 36883 96413,96145,96093
 5.8000e+000 96367 -4.3388e+001 -1.0347e+002 -3.3588e+000 36883 96413,96093,96067
 5.8000e+000 96344 -3.1440e+001 -1.2992e+002 -8.1636e-001 36883 96067,96249,96171
 5.8000e+000 96321 -4.3999e+001 -1.2368e+002 -3.4813e+000 36883 96093,96145,96119
 5.8000e+000 96298 -6.2665e+001 -2.0946e+002  1.8158e+001 36883 96171,96249,96197
 5.8000e+000 96275 -1.6748e+001 -1.7002e+002 -1.9749e+000 36883 96197,96249,96223
 5.8000e+000 96439 -4.8010e+001 -1.0243e+002 -5.0712e-001 36883 96171,96145,96413
 5.8000e+000 96462 -4.2133e+001 -1.0193e+002  2.6780e+000 36883 96171,96413,96067
 5.8000e+000 96781 -3.9744e+001 -1.2418e+002 -1.8602e+001 36215 96559,96663,96637
 5.8000e+000 96758 -5.0632e+001 -1.3174e+002 -2.1931e+001 36215 96507,96663,96559
 5.8000e+000 96735 -4.8813e+001 -8.7196e+001  9.3893e+000 36215 96585,96637,96611
 5.8000e+000 96712 -1.0587e+002 -1.4394e+002 -1.6516e+001 36215 96559,96637,96585
 5.8000e+000 96689 -2.2115e+001 -1.4516e+002 -5.7394e+000 36215 96507,96559,96533
 5.8000e+000 97161  2.3806e+000 -6.6721e+001 -2.2248e+000 35818 97184,96965,96939
 5.8000e+000 97138 -6.4402e+000 -7.4089e+001 -7.4201e+000 35818 97184,96939,96887
 5.8000e+000 97115 -5.1317e+000 -8.6654e+001  1.5667e+001 35818 96965,97043,97017
 5.8000e+000 97092 -3.4778e+000 -6.8851e+001 -8.6193e+000 35818 96887,96939,96913
 5.8000e+000 97069 -4.6699e+001 -8.7441e+001  9.9959e+000 35818 96965,97017,96991
 5.8000e+000 97210  1.2272e+001 -7.3451e+001  2.5431e+000 35818 97043,96965,97184
 5.8000e+000 97233  4.6157e+000 -7.8275e+001 -1.8588e+000 35818 97043,97184,96887
 5.8000e+000 97739 -4.0530e+001 -1.2240e+002 -3.1828e+001 35214 97416,97468,97442
 5.8000e+000 97716 -4.8532e+001 -8.6927e+001 -1.0941e+001 35214 97416,97598,97468
 5.8000e+000 97693 -3.9731e+001 -8.0535e+001 -4.7650e+000 35214 97762,97520,97468
 5.8000e+000 97670 -4.2170e+001 -8.3011e+001 -7.9321e+000 35214 97762,97468,97598
 5.8000e+000 97647 -3.1501e+001 -7.8971e+001 -1.3208e+001 35214 97546,97598,97572
 5.8000e+000 97624 -2.6868e+001 -8.2150e+001 -6.0395e+000 35214 97468,97520,97494
 5.8000e+000 97788 -4.0887e+001 -8.4516e+001 -7.0793e+000 35214 97546,97520,97762
 5.8000e+000 97811 -4.1955e+001 -8.6336e+001 -9.9909e+000 35214 97546,97762,97598
 5.8000e+000 98189 -2.6429e+000 -5.9535e+001 -7.6599e+000 34760 98356,98212,97967
 5.8000e+000 98166 -9.6991e+000 -7.0579e+001 -1.3860e+001 34760 98284,98212,97941
 5.8000e+000 98143 -2.3142e+001 -6.2452e+001 -7.4593e+000 34760 98284,97941,97915
 5.8000e+000 98120 -4.3727e+000 -7.9859e+001 -4.1520e+000 34760 98484,97993,97967
 5.8000e+000 98097 -4.0159e+000 -6.5239e+001 -2.4398e+000 34760 98556,98045,98019
 5.8000e+000 98238 -7.5498e+000 -7.5160e+001 -4.2214e+000 34760 98484,97967,98212
 5.8000e+000 98261  3.3563e+000 -6.8807e+001 -6.2459e+000 34760 98556,98019,98212
 5.8000e+000 98310  7.4785e-001 -5.5239e+001 -1.8446e+001 34760 98071,98212,98284
 5.8000e+000 98333 -7.1029e+000 -3.4886e+001 -1.4503e+001 34760 98071,98284,97915
 5.8000e+000 98382 -3.6895e+001 -8.0221e+001 -1.7307e+001 34760 97941,98212,98356
 5.8000e+000 98510  3.5420e-001 -7.5600e+001 -5.9755e+000 34760 98019,97993,98484
 5.8000e+000 98533 -4.6434e+000 -7.2408e+001 -5.4828e+000 34760 98019,98484,98212
 5.8000e+000 98582  5.1516e+000 -6.0424e+001 -4.7115e-001 34760 98071,98045,98556
 5.8000e+000 98605  8.2391e+000 -6.6567e+001 -5.1455e+000 34760 98071,98556,98212
 5.8000e+000 99032 -4.9009e+001 -1.0798e+002  1.7050e+001 34156 98735,98891,98839
 5.8000e+000 99009 -4.2620e+001 -1.1262e+002  7.4475e+000 34156 98709,98891,98735
 5.8000e+000 98986 -1.5544e+001 -9.7646e+001  1.5670e+001 34156 98735,98813,98787
 5.8000e+000 98963 -1.8810e+001 -1.0687e+002  1.4307e+001 34156 98735,98839,98813
 5.8000e+000 98940  6.5828e+000 -1.4552e+002  1.8337e+001 34156 98735,98787,98761
 5.8000e+000 98917 -4.5745e+001 -9.9539e+001  1.2877e+001 34156 98839,98891,98865
 5.8000e+000 99231 -1.1207e+001 -5.3021e+001  5.5892e+000 33766 99055,99133,99107
 5.8000e+000 99208 -2.3118e+001 -7.0986e+001  1.1133e+001 33766 99055,99159,99133
 5.8000e+000 99185 -6.4406e+000 -6.9561e+001  1.3519e+001 33766 99055,99107,99081
 5.8000e+000 99818 -2.3755e+001 -7.5847e+001  2.1882e+000 33248 99521,99651,99573
 5.8000e+000 99795 -2.1854e+001 -7.1201e+001  8.9519e+000 33248 99521,99677,99651
 5.8000e+000 99772 -3.9051e+001 -9.7023e+001 -4.9858e+000 33248 99573,99651,99599
 5.8000e+000 99749 -2.4168e+001 -9.1104e+001  9.1599e+000 33248 99495,99677,99521
 5.8000e+000 99726 -1.7517e+001 -8.2586e+001 -1.8923e+001 33248 99599,99651,99625
 5.8000e+000 99703 -2.9677e+001 -9.3339e+001  5.9609e+000 33248 99521,99573,99547
 5.8000e+000 100196 -2.9630e+001 -8.8014e+001 -1.7019e+001 32794 100219,99948,99922
 5.8000e+000 100173 -3.3928e+001 -9.6607e+001 -6.9474e+000 32794 100219,99922,100052
 5.8000e+000 100150 -4.3445e+001 -8.4820e+001  5.8476e+000 32794 99974,100052,100026
 5.8000e+000 100127 -4.0381e+001 -8.0301e+001 -1.1486e+001 32794 99922,100078,100052
 5.8000e+000 100104 -4.2986e+001 -1.0392e+002  2.1580e+001 32794 99974,100026,100000
 5.8000e+000 100245 -4.1046e+001 -8.7989e+001 -9.0605e+000 32794 99974,99948,100219
 5.8000e+000 100268 -4.2439e+001 -9.8761e+001  1.2110e+000 32794 99974,100219,100052
 5.8000e+000 100418 -7.1050e+000 -8.6111e+001 -1.0074e+001 32504 100571,100343,100317
 5.8000e+000 100395 -3.7883e+001 -1.0005e+002  8.8831e+000 32504 100571,100317,100441
 5.8000e+000 100467  2.4997e+001 -4.6614e+001 -2.8121e+001 32504 100291,100369,100441
 5.8000e+000 100597  6.4279e+000 -7.1820e+001 -3.4640e+001 32504 100369,100343,100571
 5.8000e+000 100620 -7.6112e+000 -6.7109e+001 -1.8256e+001 32504 100369,100571,100441
 5.8000e+000 101020 -7.2002e+000 -6.1830e+001  2.5475e+000 32142 100772,100902,100876
 5.8000e+000 100997 -5.6204e+000 -5.3482e+001  2.8474e+000 32142 100746,100902,100772
 5.8000e+000 100974  4.1971e+000 -6.8582e+001  1.1242e+001 32142 101043,100824,100798
 5.8000e+000 100951 -1.0340e+001 -7.6422e+001  7.9205e+000 32142 101043,100798,100772
 5.8000e+000 100928 -3.9263e+001 -9.1178e+001 -2.4395e+001 32142 101115,100876,100850
 5.8000e+000 101069  1.8186e+001 -7.8706e+001 -6.8745e+000 32142 100850,100824,101043
 5.8000e+000 101092 -1.7311e+001 -9.4949e+001 -1.0890e+001 32142 101115,100850,101043
 5.8000e+000 101141 -1.1913e+001 -7.3891e+001 -9.3909e+000 32142 100772,100876,101115
 5.8000e+000 101164  5.5450e+000 -7.6254e+001  5.2104e+000 32142 100772,101115,101043
 5.8000e+000 101719 -4.8460e+001 -1.1418e+002  1.5447e+001 31538 101742,101477,101399
 5.8000e+000 101696 -5.8691e+001 -1.3780e+002  4.1345e+000 31538 101814,101742,101399
 5.8000e+000 101673 -6.6650e+001 -1.1829e+002 -8.2827e+000 31538 101814,101399,101373
 5.8000e+000 101650 -4.9734e+001 -8.1969e+001  1.1611e+001 31538 101425,101477,101451
 5.8000e+000 101627 -4.5365e+001 -9.7131e+001  3.4073e+000 31538 101399,101477,101425
 5.8000e+000 101604 -2.8221e+001 -1.4192e+002  2.8222e+001 31538 101477,101529,101503
 5.8000e+000 101581 -1.7304e+001 -7.7797e+001 -5.7214e+000 31538 101347,101555,101373
 5.8000e+000 101768 -5.4195e+001 -1.3926e+002  1.4475e+001 31538 101529,101477,101742
 5.8000e+000 101791 -4.8890e+001 -1.4372e+002 -5.5875e+000 31538 101529,101742,101555
 5.8000e+000 101840 -3.8534e+001 -1.1787e+002 -5.1176e+000 31538 101555,101742,101814
 5.8000e+000 101863 -5.0355e+001 -1.0196e+002 -1.6522e+001 31538 101555,101814,101373
 5.8000e+000 102111 -7.6110e+001 -1.8805e+002  2.5211e+001 31112 101886,101990,101912
 5.8000e+000 102088 -2.8951e+001 -1.1385e+002  7.4975e-001 31112 101886,102016,101990
 5.8000e+000 102065 -3.4125e+001 -1.7713e+002  3.2085e+001 31112 101912,101990,101964
 5.8000e+000 102042 -4.8955e+001 -2.0926e+002  3.7330e+001 31112 101912,101964,101938
 5.8000e+000 102408 -2.0246e+001 -1.0894e+002  9.2765e+000 30658 102431,102186,102160
 5.8000e+000 102385 -3.8899e+001 -1.0699e+002 -6.5137e-002 30658 102431,102160,102264
 5.8000e+000 102362 -3.8068e+001 -1.1906e+002  2.5040e+000 30658 102186,102238,102212
 5.8000e+000 102339 -4.2700e+001 -1.1441e+002 -7.6161e+000 30658 102134,102264,102160
 5.8000e+000 102316 -3.0386e+001 -9.5812e+001 -3.3117e+001 30658 102134,102290,102264
 5.8000e+000 102457 -3.5408e+001 -1.1590e+002  5.0570e+000 30658 102238,102186,102431
 5.8000e+000 102480 -5.5397e+001 -1.1587e+002 -5.0730e+000 30658 102238,102431,102264
 5.8000e+000 102681 -1.4188e+001 -1.2869e+002  1.8163e+001 30004 102704,102557,102505
 5.8000e+000 102658 -1.5740e+001 -1.3318e+002  2.0143e+001 30004 102704,102505,102609
 5.8000e+000 102635  2.5391e+000 -1.0718e+002  5.0634e+000 30004 102505,102557,102531
 5.8000e+000 102730 -1.6465e+001 -1.2282e+002  1.6279e+001 30004 102583,102557,102704
 5.8000e+000 102753 -2.0928e+001 -1.2804e+002  1.9745e+001 30004 102583,102704,102609
 5.8000e+000 103003 -1.5268e+001 -1.0512e+002 -8.3171e+000 29564 103026,102804,102778
 5.8000e+000 102980 -1.9776e+001 -1.2596e+002 -1.2659e+001 29564 103026,102778,102908
 5.8000e+000 102957 -2.1587e+001 -1.0862e+002 -1.0451e+000 29564 102856,102908,102882
 5.8000e+000 102934 -3.1535e+001 -9.5725e+001  7.8541e+000 29564 102804,102856,102830
 5.8000e+000 103052 -1.4085e+001 -9.5009e+001  5.7521e+000 29564 102856,102804,103026
 5.8000e+000 103075 -2.0071e+001 -1.1190e+002 -5.3607e-001 29564 102856,103026,102908
 5.8000e+000 103634 -4.7369e+001 -1.2005e+002 -1.5301e+001 29160 103657,103418,103392
 5.8000e+000 103611 -4.4064e+001 -1.1375e+002 -6.3375e+000 29160 103657,103392,103314
 5.8000e+000 103588 -3.2245e+001 -9.6138e+001 -1.1833e+001 29160 103314,103392,103366
 5.8000e+000 103565 -2.5031e+001 -1.0077e+002 -1.5036e+001 29160 103314,103366,103340
 5.8000e+000 103542 -5.3416e+001 -1.0735e+002 -1.3239e+001 29160 103262,103444,103314
 5.8000e+000 103519 -6.4768e+001 -1.2826e+002 -2.1071e+001 29160 103262,103314,103288
 5.8000e+000 103496 -3.9401e+001 -1.1598e+002 -6.5408e+000 29160 103262,103470,103444
 5.8000e+000 103683 -6.1350e+001 -1.3155e+002 -2.6651e+001 29160 103444,103418,103657
 5.8000e+000 103706 -4.9165e+001 -1.1248e+002 -1.6222e+001 29160 103444,103657,103314
 5.8000e+000 104035 -3.2936e+001 -1.1501e+002  1.1231e+001 28770 103836,103914,103862
 5.8000e+000 104012 -3.0786e+001 -1.0915e+002  1.5113e+001 28770 103810,103914,103836
 5.8000e+000 103989  5.2771e+000 -9.8645e+001  1.7484e+001 28770 103810,103940,103914
 5.8000e+000 103966 -7.1660e+000 -9.3177e+001  2.2802e+001 28770 103862,103914,103888
 5.8000e+000 104185 -9.9618e+000 -1.0058e+002  1.9460e+001 28366 104208,104110,104084
 5.8000e+000 104162 -9.8014e+000 -8.6161e+001  1.4432e+001 28366 104280,104208,104084
 5.8000e+000 104234  2.1136e+001 -1.0007e+002  1.2108e+001 28366 104610,104208,104136
 5.8000e+000 104257 -1.7741e+001 -9.4834e+001  1.2153e+001 28366 104538,104410,104208
 5.8000e+000 104306 -3.0619e+001 -9.5942e+001  1.1787e+001 28366 104538,104208,104280
 5.8000e+000 104436 -5.1881e+000 -9.8273e+001  2.0412e+000 28366 104136,104208,104410
 5.8000e+000 104564 -3.1220e+001 -9.4336e+001  5.2839e+000 28366 104058,104410,104538
 5.8000e+000 104587 -3.9120e+001 -9.2446e+001  4.0424e+000 28366 104058,104538,104280
 5.8000e+000 104636  1.6180e+001 -1.0143e+002  1.5519e+001 28366 104110,104208,104610
 5.8000e+000 105349 -2.5460e+001 -9.4453e+001 -9.0699e+000 27976 105516,105372,105107
 5.8000e+000 105326 -4.1715e+001 -9.6835e+001  2.9408e+000 27976 105588,105372,105055
 5.8000e+000 105303 -4.4896e+001 -9.3887e+001 -1.1451e+001 27976 105444,105159,105133
 5.8000e+000 105280 -1.5025e+001 -9.7518e+001 -5.5937e+000 27976 105516,105107,105081
 5.8000e+000 105257 -3.9264e+001 -1.0718e+002  9.1358e+000 27976 105588,105055,105029
 5.8000e+000 105234 -2.1415e+001 -8.0893e+001  3.1281e+000 27976 105003,105185,105159
 5.8000e+000 105211 -2.9070e+001 -6.4947e+001  1.4297e+001 27976 104977,105185,105003
 5.8000e+000 105398 -2.0739e+001 -9.8052e+001 -1.1834e+001 27976 105133,105107,105372
 5.8000e+000 105421 -3.5030e+001 -1.0254e+002 -6.4836e+000 27976 105444,105133,105372
 5.8000e+000 105470 -3.6028e+001 -7.9634e+001 -5.9698e+000 27976 105003,105159,105444
 5.8000e+000 105493 -2.8682e+001 -8.9148e+001 -3.6235e+000 27976 105003,105444,105372
 5.8000e+000 105542 -1.8507e+001 -9.4394e+001  3.1938e-002 27976 105055,105372,105516
 5.8000e+000 105565 -2.4928e+000 -9.5134e+001  2.3426e+000 27976 105055,105516,105081
 5.8000e+000 105614 -4.7142e+001 -1.0706e+002  7.9469e+000 27976 105003,105372,105588
 5.8000e+000 105637 -4.6100e+001 -1.1708e+002  1.4756e+001 27976 105003,105588,105029
 5.8000e+000 106143 -3.9160e+001 -1.3806e+002  8.7816e+000 27664 106166,105846,105820
 5.8000e+000 106120 -2.5878e+001 -1.0029e+002  4.3676e+000 27664 106310,106166,105820
 5.8000e+000 106097 -1.1208e+001 -1.2454e+002 -2.6309e+001 27664 106382,106238,105950
 5.8000e+000 106074 -1.7132e+001 -9.6126e+001  2.9073e+000 27664 106310,105820,106002
 5.8000e+000 106051  1.1946e+001 -1.1204e+002 -2.1404e+001 27664 106382,105950,105924
 5.8000e+000 106028 -8.0154e-001 -2.0645e+002 -5.9700e+000 27664 105846,105898,105872
 5.8000e+000 106192 -3.5460e+001 -1.5542e+002 -2.1638e+001 27664 105898,105846,106166
 5.8000e+000 106215 -1.9583e+001 -1.2852e+002 -8.7902e+000 27664 106238,105898,106166
 5.8000e+000 106264 -6.7203e+001 -1.3868e+002 -3.5090e+001 27664 105976,105950,106238
 5.8000e+000 106287 -2.0389e+001 -1.2642e+002 -9.3533e+000 27664 105976,106238,106166
 5.8000e+000 106336 -1.6845e+001 -1.0966e+002  1.3610e+001 27664 105976,106166,106310
 5.8000e+000 106359 -6.4231e+000 -1.0451e+002  1.1725e+001 27664 105976,106310,106002
 5.8000e+000 106408 -2.1680e+001 -1.0487e+002 -2.0343e-001 27664 105898,106238,106382
 5.8000e+000 106431 -7.6558e+000 -9.8105e+001  2.6366e+000 27664 105898,106382,105924
 5.8000e+000 106728 -1.1643e+001 -7.3548e+001  1.4578e+001 27153 106751,106506,106454
 5.8000e+000 106705 -1.1255e+001 -7.5273e+001  1.1751e+001 27153 106751,106454,106610
 5.8000e+000 106682 -1.8646e+001 -5.8327e+001  4.4944e+000 27153 106454,106506,106480
 5.8000e+000 106659 -1.7935e+001 -7.1748e+001  8.0060e+000 27153 106532,106610,106584
 5.8000e+000 106636 -2.8676e+001 -3.9906e+001  1.6708e+001 27153 106532,106584,106558
 5.8000e+000 106777 -8.1335e+000 -7.1423e+001  1.5593e+001 27153 106532,106506,106751
 5.8000e+000 106800 -8.7614e+000 -7.3885e+001  1.2316e+001 27153 106532,106751,106610
 5.8000e+000 107180 -1.4676e+001 -9.2999e+001  5.7074e+000 26642 107203,106984,106958
 5.8000e+000 107157 -4.5821e+001 -1.0753e+002  4.0606e-001 26642 107203,106958,106932
 5.8000e+000 107134 -5.5850e+001 -1.1886e+002 -1.7235e+001 26642 107275,107036,107010
 5.8000e+000 107111 -3.7201e+001 -1.1644e+002 -2.2722e+001 26642 106932,107062,107036
 5.8000e+000 107088 -1.2260e+000 -9.0931e+001  9.7824e+000 26642 106906,107062,106932
 5.8000e+000 107229  6.7393e-001 -8.7723e+001 -2.8555e+001 26642 107010,106984,107203
 5.8000e+000 107252 -4.8671e+001 -1.0936e+002 -2.1160e+001 26642 107275,107010,107203
 5.8000e+000 107301 -4.7190e+001 -1.1749e+002 -2.2513e+001 26642 106932,107036,107275
 5.8000e+000 107324 -4.4686e+001 -1.1774e+002 -2.3767e+001 26642 106932,107275,107203
 5.8000e+000 107675 -2.8265e+001 -7.1170e+001  8.3574e+000 26045 107450,107554,107476
 5.8000e+000 107652 -2.2399e+001 -6.2859e+001  3.8136e+000 26045 107450,107580,107554
 5.8000e+000 107629 -1.3208e+001 -4.5955e+001 -5.7697e-001 26045 107476,107528,107502
 5.8000e+000 107606 -6.4968e+000 -6.5037e+001  6.0043e+000 26045 107476,107554,107528
 5.8000e+000 107874 -1.8620e+001 -1.0407e+002  2.6562e+001 25641 107750,107802,107776
 5.8000e+000 107851 -2.2391e+001 -7.3368e+001  1.5228e+001 25641 107724,107802,107750
 5.8000e+000 107828 -2.5543e+001 -7.4598e+001  1.5152e+001 25641 107698,107802,107724
 5.8000e+000 108431 -8.0076e+000 -1.1344e+002  2.1291e+001 25023 108526,108267,108241
 5.8000e+000 108408 -9.4253e-002 -1.0568e+002  3.8054e+000 25023 108059,108267,108085
 5.8000e+000 108385 -1.5787e+001 -1.1866e+002  2.0887e+001 25023 108454,108163,108111
 5.8000e+000 108362 -5.4653e+001 -1.1882e+002  3.6384e+001 25023 108454,108111,108085
 5.8000e+000 108339 -4.1768e+001 -1.5367e+002  3.5757e+001 25023 108111,108163,108137
 5.8000e+000 108316 -2.8384e+001 -8.5548e+001 -5.8605e+000 25023 108163,108241,108215
 5.8000e+000 108293  8.5333e+000 -6.8587e+001  7.7015e-001 25023 108163,108215,108189
 5.8000e+000 108480 -2.7313e+000 -1.0511e+002  1.8034e+000 25023 108241,108163,108454
 5.8000e+000 108503 -1.6074e+001 -1.1185e+002  2.1138e+001 25023 108526,108241,108454
 5.8000e+000 108552 -1.8035e+001 -1.1194e+002  1.6503e+001 25023 108085,108267,108526
 5.8000e+000 108575 -2.6498e+001 -1.1078e+002  1.6173e+001 25023 108085,108526,108454
 5.8000e+000 108823  6.1472e+000 -8.0746e+001  1.2377e+001 24461 108624,108728,108650
 5.8000e+000 108800 -9.1187e+000 -1.7413e+002 -1.3126e+001 24461 108598,108728,108624
 5.8000e+000 108777  1.5353e+000 -1.0630e+002  8.2179e+000 24461 108650,108728,108676
 5.8000e+000 108754 -4.5183e+001 -3.0386e+002  2.6613e+001 24461 108676,108728,108702
 5.8000e+000 109022 -3.0956e+001 -8.3291e+001  1.2696e+001 24121 108872,108924,108898
 5.8000e+000 108999 -2.0166e+001 -8.3567e+001  1.4080e+001 24121 108846,108924,108872
 5.8000e+000 108976 -3.5661e+001 -9.0138e+001  1.4507e+001 24121 108846,108950,108924
 5.8000e+000 109483 -3.6193e+001 -1.1874e+002 -1.1995e+001 23717 109209,109339,109235
 5.8000e+000 109460 -1.4115e+001 -1.3563e+002 -2.8285e+001 23717 109209,109365,109339
 5.8000e+000 109437 -9.2217e-001 -1.4937e+002 -8.2450e+000 23717 109287,109339,109313
 5.8000e+000 109414 -6.7163e+001 -1.5083e+002  8.2214e+000 23717 109235,109339,109287
 5.8000e+000 109391  4.7726e+000 -1.7930e+002  6.5615e+001 23717 109235,109287,109261
 5.8000e+000 109910 -4.7660e+001 -1.4002e+002 -1.4382e+001 23305 109613,109743,109717
 5.8000e+000 109887 -4.7281e+001 -1.4071e+002 -9.7962e+000 23305 109613,109769,109743
 5.8000e+000 109864 -5.6525e+001 -1.3431e+002 -1.2635e+001 23305 109613,109717,109639
 5.8000e+000 109841 -3.5965e+001 -1.3021e+002 -4.1903e+000 23305 109587,109769,109613
 5.8000e+000 109818  1.5432e+000 -1.0972e+002  9.3190e+000 23305 109639,109717,109691
 5.8000e+000 109795 -1.0743e+001 -8.7437e+001 -2.1447e+001 23305 109639,109691,109665
 5.8000e+000 110180 -3.8306e+000 -4.0062e+001 -8.6157e+000 22851 110007,110059,110033
 5.8000e+000 110157 -2.9133e+001 -1.0927e+002  5.5683e+000 22851 109981,110059,110007
 5.8000e+000 110134 -4.1097e+001 -1.1946e+002  4.8497e-001 22851 109955,110059,109981
 5.8000e+000 110111 -1.6704e+001 -1.3485e+002 -1.0590e+001 22851 109955,110085,110059
 5.8000e+000 110737 -1.1832e+001 -1.1981e+002 -3.3696e+001 22333 110760,110469,110391
 5.8000e+000 110714 -1.5623e+000 -1.3909e+002 -2.6078e+001 22333 110760,110391,110365
 5.8000e+000 110691 -9.3531e+000 -1.0631e+002 -2.6374e+001 22333 110832,110521,110469
 5.8000e+000 110668 -2.5503e+001 -2.1347e+002  1.6323e+001 22333 110417,110469,110443
 5.8000e+000 110645 -5.4080e+001 -1.9143e+002  1.0308e+001 22333 110391,110469,110417
 5.8000e+000 110622 -1.6864e+000 -1.0789e+002 -1.3340e+001 22333 110469,110521,110495
 5.8000e+000 110599 -9.2909e+000 -7.6352e+001  1.0340e+001 22333 110365,110573,110547
 5.8000e+000 110786 -4.8902e+000 -1.0995e+002 -3.0577e+001 22333 110832,110469,110760
 5.8000e+000 110809  1.0339e+001 -1.2053e+002 -2.0899e+001 22333 110547,110760,110365
 5.8000e+000 110858 -1.0097e+001 -1.1444e+002 -2.5325e+001 22333 110547,110521,110832
 5.8000e+000 110881 -8.7535e+000 -1.2204e+002 -3.0385e+001 22333 110547,110832,110760
 5.8000e+000 111308 -5.9659e+001 -1.4586e+002  1.1165e+001 21829 111331,111063,111011
 5.8000e+000 111285 -5.2569e+001 -1.3279e+002 -2.9506e+000 21829 111331,111011,111167
 5.8000e+000 111262 -6.2092e+001 -1.4679e+002  1.1700e+001 21829 111403,111089,111063
 5.8000e+000 111239 -7.6922e+001 -1.5774e+002  2.3598e+001 21829 111011,111063,111037
 5.8000e+000 111216 -3.4051e+001 -9.8346e+001  4.6915e+000 21829 110985,111167,111011
 5.8000e+000 111193 -7.9904e+001 -2.6043e+002  5.7510e+001 21829 111089,111141,111115
 5.8000e+000 111357 -6.0118e+001 -1.4858e+002  1.1635e+001 21829 111403,111063,111331
 5.8000e+000 111380 -6.2447e+001 -1.5283e+002  2.4652e-001 21829 111141,111331,111167
 5.8000e+000 111429 -6.8399e+001 -1.4951e+002  1.2180e+001 21829 111141,111089,111403
 5.8000e+000 111452 -6.3308e+001 -1.4965e+002  1.2401e+001 21829 111141,111403,111331
 5.8000e+000 112056  5.1287e+001 -1.0508e+002  3.3598e+000 21489 111687,111765,111739
 5.8000e+000 112033  1.7592e+001 -1.2175e+002  1.3108e+001 21489 112151,112079,111687
 5.8000e+000 112010  3.1582e+000 -1.8918e+002  8.9665e+000 21489 111791,111843,111817
 5.8000e+000 111987 -2.8513e+001 -1.5416e+002 -1.2932e+001 21489 112079,111843,111791
 5.8000e+000 111964  3.7160e+001 -1.1147e+002  2.4596e+001 21489 112151,111687,111661
 5.8000e+000 111941 -2.6744e+000 -8.0069e+001  1.9521e+001 21489 111661,111869,111843
 5.8000e+000 111918  5.2311e+001 -1.1396e+002  1.8137e+001 21489 111687,111739,111713
 5.8000e+000 111895  1.6800e+001 -3.4951e+001  4.3557e+000 21489 111635,111869,111661
 5.8000e+000 112105 -1.2883e+001 -1.3282e+002  7.4377e+000 21489 111765,111687,112079
 5.8000e+000 112128 -1.1802e+001 -1.2627e+002  7.6037e+000 21489 111765,112079,111791
 5.8000e+000 112177 -1.4915e+001 -1.1914e+002 -4.1505e+000 21489 111843,112079,112151
 5.8000e+000 112200  2.7166e+000 -1.1499e+002  5.1587e+000 21489 111843,112151,111661
 5.8000e+000 112578 -2.1040e+001 -1.5463e+002  7.4447e+000 21177 112382,112434,112408
 5.8000e+000 112555 -2.8017e+001 -1.5126e+002  1.9005e-001 21177 112330,112434,112382
 5.8000e+000 112532 -1.7672e+001 -1.2560e+002  2.6486e+001 21177 112304,112434,112330
 5.8000e+000 112509 -2.8332e+001 -1.4372e+002  0.0000e+000 21177 112330,112382,112356
 5.8000e+000 112486 -3.5521e+000 -6.4760e+001  3.8130e+000 21177 112304,112460,112434
 5.8000e+000 112679  8.0735e-001 -7.5048e+001 -2.0898e+001 20666 112601,112653,112627
 5.8000e+000 112927 -4.6841e+001 -1.5924e+002  5.3685e+000 19762 112702,112754,112728
 5.8000e+000 112904 -1.7679e+001 -1.5158e+002 -1.7563e+000 19762 112702,112832,112754
 5.8000e+000 112881 -3.9536e+001 -1.6238e+002  2.5496e+001 19762 112754,112832,112806
 5.8000e+000 112858 -5.6998e+001 -2.1090e+002  2.7311e+001 19762 112754,112806,112780
 5.8000e+000 113297 -4.2903e+001 -1.9297e+002  1.2572e+001 19308 112974,113052,113026
 5.8000e+000 113274 -2.9319e+001 -1.6083e+002  4.4317e+000 19308 112974,113156,113052
 5.8000e+000 113251 -1.6814e+001 -2.1340e+002 -2.5637e+001 19308 113052,113130,113104
 5.8000e+000 113228 -3.2062e+001 -1.6053e+002 -2.0891e-002 19308 113052,113156,113130
 5.8000e+000 113205 -3.1221e+001 -1.8578e+002  0.0000e+000 19308 113052,113104,113078
 5.8000e+000 113182 -6.2345e+001 -2.0120e+002 -1.1108e+000 19308 112974,113026,113000
 5.8000e+000 113547 -4.8782e-001 -1.7210e+002 -1.2345e+001 18711 113570,113374,113348
 5.8000e+000 113524 -5.8390e+000 -1.5795e+002 -7.6891e+000 18711 113570,113348,113452
 5.8000e+000 113501  1.4078e+000 -1.1536e+002 -3.2047e+001 18711 113322,113452,113348
 5.8000e+000 113478 -1.5926e+001 -1.5705e+002 -5.7764e+001 18711 113374,113426,113400
 5.8000e+000 113596  4.4584e-001 -1.5654e+002 -1.5943e+001 18711 113426,113374,113570
 5.8000e+000 113619 -5.9891e+000 -1.4461e+002 -8.3405e+000 18711 113426,113570,113452
 5.8000e+000 113771 -8.7134e+001 -2.1813e+002 -1.2051e+001 18307 113670,113722,113696
 5.8000e+000 113748 -6.8280e+001 -2.0390e+002 -5.5585e+000 18307 113644,113722,113670
 5.8000e+000 113972 -3.8477e+001 -1.8484e+002  3.8778e+000 17945 113822,113874,113848
 5.8000e+000 113949 -3.8863e+001 -1.8404e+002  4.4755e+000 17945 113822,113900,113874
 5.8000e+000 113926 -5.4234e+001 -1.4482e+002  7.7602e+001 17945 113796,113900,113822
 5.8000e+000 114075 -2.3984e+001 -2.6680e+002  2.9995e+001 17482 113997,114049,114023
 5.8000e+000 114479 -1.0694e+001 -1.5113e+002 -2.3743e+001 17042 114257,114361,114335
 5.8000e+000 114456 -3.5862e+001 -1.4420e+002 -3.9966e+000 17042 114205,114361,114257
 5.8000e+000 114433 -3.9762e+001 -1.6762e+002  6.4276e+000 17042 114205,114257,114231
 5.8000e+000 114410  3.0420e+001 -2.2501e+002 -1.3269e+001 17042 114283,114335,114309
 5.8000e+000 114387 -1.4568e+000 -1.9319e+002 -1.0053e+001 17042 114257,114335,114283
 5.8000e+000 114879 -8.0746e+001 -1.4873e+002 -3.8353e-001 16638 114631,114683,114657
 5.8000e+000 114856 -1.4495e+001 -1.2075e+002  2.4550e+000 16638 114605,114683,114631
 5.8000e+000 114833  2.2915e+001 -6.5146e+001 -1.6688e+001 16638 114605,114761,114683
 5.8000e+000 114810 -4.7067e+000 -1.6831e+002 -7.6251e+000 16638 114683,114735,114709
 5.8000e+000 114787 -1.0574e+001 -1.7504e+002 -1.1308e+001 16638 114683,114761,114735
 5.8000e+000 115078 -7.2827e+001 -1.6455e+002  4.3563e+000 16232 114954,115006,114980
 5.8000e+000 115055 -7.2106e+001 -1.8285e+002  8.2274e+000 16232 114928,115006,114954
 5.8000e+000 115032 -3.5022e+001 -2.2456e+002  1.5738e+001 16232 114902,115006,114928
 5.8000e+000 115228 -3.8461e+001 -1.6332e+002  5.2829e+000 15482 115101,115153,115127
 5.8000e+000 115205 -3.9617e+001 -1.5613e+002 -2.0310e+000 15482 115101,115179,115153
 5.8000e+000 115331 -2.8605e+001 -1.4729e+002 -1.8910e+001 15163 115253,115305,115279
 5.8000e+000 115434 -4.9522e+001 -1.6102e+002  2.9803e+001 421 115356,115408,115382
 5.9000e+000 68213 -7.1691e+000 -7.4776e+001 -8.5874e+000 67888 68112,68164,68138
 5.9000e+000 68190 -9.9265e+001 -1.0156e+002 -1.5699e+001 67888 68086,68164,68112
 5.9000e+000 68314 -1.6956e+001 -1.1567e+002  9.4128e+000 67576 68236,68288,68262
 5.9000e+000 68584 -4.8171e+001 -2.2026e+002  1.1851e+001 67378 68385,68489,68463
 5.9000e+000 68561 -1.5685e+001 -2.0450e+002  6.2807e+000 67378 68359,68489,68385
 5.9000e+000 68538 -3.5646e+001 -1.8484e+002  1.7203e+001 67378 68385,68463,68411
 5.9000e+000 68515 -1.6969e+001 -1.2428e+002  1.0066e+001 67378 68411,68463,68437
 5.9000e+000 68964 -5.4432e+001 -2.0390e+002  3.1561e+001 67130 68690,68820,68716
 5.9000e+000 68941  3.7090e+001 -2.1397e+002  5.7881e+001 67130 68690,68846,68820
 5.9000e+000 68918 -5.1385e+001 -1.3347e+002  5.4010e+000 67130 68742,68820,68794
 5.9000e+000 68895 -1.4632e+001 -1.3155e+002  1.3529e+001 67130 68716,68820,68742
 5.9000e+000 68872 -3.4590e+001 -1.0947e+002 -1.2978e+001 67130 68742,68794,68768
 5.9000e+000 69065 -4.8725e+001 -1.0928e+002  3.6659e+000 66926 68987,69039,69013
 5.9000e+000 69445 -2.6641e+001 -9.9170e+001 -6.3757e+000 66614 69223,69301,69275
 5.9000e+000 69422 -4.1712e+001 -1.0719e+002 -3.0050e+000 66614 69171,69301,69223
 5.9000e+000 69399 -4.4953e+001 -1.0633e+002 -1.3851e+000 66614 69171,69327,69301
 5.9000e+000 69376 -1.6840e+001 -5.3088e+001  5.1794e-001 66614 69223,69275,69249
 5.9000e+000 69353 -3.4610e+001 -1.1052e+002 -1.7352e+000 66614 69171,69223,69197
 5.9000e+000 69546 -4.4444e+001 -1.8151e+002  1.1609e+001 66416 69468,69520,69494
 5.9000e+000 69997 -4.0829e+001 -1.8152e+002 -1.3769e+001 66104 69700,69830,69726
 5.9000e+000 69974 -5.5141e+001 -2.2121e+002 -2.8676e+001 66104 69700,69856,69830
 5.9000e+000 69951 -4.4498e+001 -1.4010e+002 -1.0288e+001 66104 69726,69804,69778
 5.9000e+000 69928 -3.6149e+001 -1.6929e+002 -1.3966e+001 66104 69726,69830,69804
 5.9000e+000 69905 -4.6622e+001 -1.3303e+002 -4.6731e+000 66104 69726,69778,69752
 5.9000e+000 69882 -1.7402e+001 -3.0318e+002 -5.7454e+001 66104 69674,69856,69700
 5.9000e+000 70326 -3.4879e+001 -8.2700e+001  9.4063e-001 65814 70349,70153,70127
 5.9000e+000 70303 -2.0874e+001 -8.1289e+001  3.4453e+000 65814 70349,70127,70101
 5.9000e+000 70280 -1.9124e+001 -7.8239e+001  3.2586e+001 65814 70101,70231,70205
 5.9000e+000 70257 -1.4641e+000 -8.8661e+001  1.2046e+001 65814 70153,70205,70179
 5.9000e+000 70375 -2.8362e+001 -8.7395e+001  1.2018e+001 65814 70205,70153,70349
 5.9000e+000 70398 -7.0053e+000 -8.2624e+001  1.2965e+001 65814 70205,70349,70101
 5.9000e+000 70904 -1.4992e+001 -4.0674e+001 -1.5753e+001 65502 70607,70737,70685
 5.9000e+000 70881 -2.0913e+001 -3.1960e+001 -2.0155e+001 65502 70581,70737,70607
 5.9000e+000 70858 -1.9514e+001 -1.9729e+000 -4.8270e+000 65502 70581,70763,70737
 5.9000e+000 70835 -2.0732e+001 -4.4196e+001 -1.9964e+001 65502 70685,70737,70711
 5.9000e+000 70812 -8.2508e+001 -5.4627e+001 -1.5614e-002 65502 70607,70659,70633
 5.9000e+000 70789 -2.4745e+001 -5.8111e+001  1.6447e+000 65502 70607,70685,70659
 5.9000e+000 71103 -2.1417e+001 -1.5723e+002 -5.5631e+000 65304 71126,70979,70953
 5.9000e+000 71080 -4.1295e+001 -1.5544e+002 -2.7315e+000 65304 71126,70953,70927
 5.9000e+000 71057 -6.0285e+001 -1.6018e+002  6.2091e+000 65304 70927,71031,71005
 5.9000e+000 71152 -4.0675e+001 -1.4988e+002 -1.1289e+001 65304 71005,70979,71126
 5.9000e+000 71175 -6.2310e+001 -1.5019e+002 -4.1257e+000 65304 71005,71126,70927
 5.9000e+000 71374 -3.2318e+001 -1.4745e+002  7.5790e+000 65106 71198,71276,71224
 5.9000e+000 71351 -4.3672e+001 -1.5517e+002  4.2235e+000 65106 71198,71302,71276
 5.9000e+000 71328 -2.5139e+001 -1.2684e+002  1.9738e+001 65106 71224,71276,71250
 5.9000e+000 71756 -2.0959e+001 -1.0570e+002 -7.2893e+000 64652 71508,71638,71534
 5.9000e+000 71733  2.4681e-001 -9.6855e+001  2.3863e-001 64652 71482,71638,71508
 5.9000e+000 71710 -4.5781e+001 -1.1013e+002 -1.0592e+001 64652 71534,71586,71560
 5.9000e+000 71687 -3.9480e+001 -1.1559e+002 -1.9084e+001 64652 71534,71612,71586
 5.9000e+000 71664 -5.3507e+001 -1.2019e+002 -1.9301e+001 64652 71534,71638,71612
 5.9000e+000 72085 -5.0788e+001 -1.1953e+002 -1.6901e+001 64248 71886,71964,71912
 5.9000e+000 72062 -4.0996e+001 -1.1822e+002 -1.5151e+001 64248 71860,71964,71886
 5.9000e+000 72039 -2.0287e+001 -1.2643e+002 -1.1216e+001 64248 71912,71964,71938
 5.9000e+000 72016 -4.5976e+001 -1.1247e+002 -1.3992e+001 64248 71860,71990,71964
 5.9000e+000 72235 -4.2589e+000 -7.5230e+001 -9.5454e+000 63858 72588,72258,72134
 5.9000e+000 72212 -2.3914e+001 -6.7278e+001  2.2972e+000 63858 72330,72258,72108
 5.9000e+000 72284 -1.7256e+001 -5.0473e+001 -6.6745e+000 63858 72160,72134,72258
 5.9000e+000 72307 -4.8751e+001 -7.2905e+001 -1.2330e+001 63858 72460,72258,72186
 5.9000e+000 72356 -4.0677e+001 -7.0125e+001 -1.2333e+001 63858 72186,72258,72330
 5.9000e+000 72486 -2.4763e+001 -7.1621e+001 -9.3682e+000 63858 72160,72258,72460
 5.9000e+000 72614 -1.3227e+001 -8.2374e+001 -1.7958e-001 63858 72108,72258,72588
 5.9000e+000 73248 -3.3678e+001 -1.4025e+002  2.7976e+001 63404 72902,72954,72928
 5.9000e+000 73225 -6.6494e+001 -1.3390e+002  1.3050e+001 63404 73271,72954,72902
 5.9000e+000 73202 -5.9638e+001 -1.0737e+002  1.1388e+001 63404 73271,72902,73032
 5.9000e+000 73179 -4.2551e+001 -9.3814e+001  3.2727e+000 63404 72902,73058,73032
 5.9000e+000 73156 -5.7484e+001 -1.2826e+002 -2.1495e-001 63404 72980,73032,73006
 5.9000e+000 73133 -4.0958e+001 -9.1663e+001  4.1948e+000 63404 72876,73058,72902
 5.9000e+000 73110 -1.0750e+001 -4.2864e+001 -2.2280e+001 63404 72876,73084,73058
 5.9000e+000 73297 -5.7498e+001 -1.3779e+002 -2.9315e+000 63404 72980,72954,73271
 5.9000e+000 73320 -5.7209e+001 -1.2331e+002 -2.2855e+000 63404 72980,73271,73032
 5.9000e+000 73470 -4.7228e+001 -3.1036e+002  3.3536e+001 63014 73343,73395,73369
 5.9000e+000 73447 -1.4702e+002 -3.7897e+002 -6.6612e+000 63014 73343,73421,73395
 5.9000e+000 73929 -7.0906e+000 -1.3427e+002  7.5509e+000 62702 73759,73811,73785
 5.9000e+000 73906 -2.9444e-001 -1.3022e+002  1.0034e+001 62702 73655,73811,73759
 5.9000e+000 73883 -2.2889e+001 -1.4673e+002 -4.2555e-001 62702 73655,73759,73681
 5.9000e+000 73860 -5.4046e+000 -1.1094e+002 -2.0576e+001 62702 73681,73759,73707
 5.9000e+000 73837 -6.3963e+001 -1.2483e+002  2.9363e+000 62702 73707,73759,73733
 5.9000e+000 74209 -8.4032e+001 -1.2392e+002  9.0150e-001 62404 74059,74137,74085
 5.9000e+000 74186 -9.7019e+001 -1.6072e+002  1.8441e+001 62404 74033,74137,74059
 5.9000e+000 74163 -8.3691e+001 -1.1450e+002  2.0479e+000 62404 74085,74137,74111
 5.9000e+000 74408 -6.7012e+000 -1.0867e+002  6.0069e+000 62000 74258,74336,74284
 5.9000e+000 74385 -2.7058e+000 -1.0490e+002  1.2237e+001 62000 74232,74336,74258
 5.9000e+000 74362 -2.8386e+001 -1.1063e+002 -1.6181e+000 62000 74284,74336,74310
 5.9000e+000 74509 -8.2821e+000 -1.1282e+002  1.0776e+001 61802 74431,74483,74457
 5.9000e+000 74759 -4.5353e+001 -1.0683e+002  2.7018e+000 61554 74782,74586,74560
 5.9000e+000 74736 -3.1957e+001 -1.0113e+002  4.2302e+000 61554 74782,74560,74664
 5.9000e+000 74713 -4.1336e+001 -8.4709e+001  2.9660e+001 61554 74854,74612,74586
 5.9000e+000 74690 -3.7455e+001 -1.0848e+002  1.1713e+000 61554 74534,74664,74560
 5.9000e+000 74808 -5.3262e+001 -1.0160e+002  8.8415e+000 61554 74854,74586,74782
 5.9000e+000 74831 -3.5344e+001 -1.2758e+002  6.7441e+000 61554 74638,74782,74664
 5.9000e+000 74880 -1.4530e+001 -1.0200e+002  3.1480e+001 61554 74638,74612,74854
 5.9000e+000 74903 -1.4884e+001 -9.9842e+001  1.5675e+001 61554 74638,74854,74782
 5.9000e+000 75285 -1.9291e+001 -1.0729e+002  9.0166e-001 61356 75063,75167,75115
 5.9000e+000 75262 -2.3439e+001 -1.1202e+002 -5.2261e+000 61356 75037,75167,75063
 5.9000e+000 75239 -1.0400e+000 -1.1088e+002 -3.6224e-001 61356 75115,75167,75141
 5.9000e+000 75216 -1.2375e+001 -1.0364e+002  2.2921e+000 61356 75063,75115,75089
 5.9000e+000 75193 -4.5306e+001 -9.1815e+001  6.3451e+000 61356 75011,75167,75037
 5.9000e+000 75631 -1.0112e+001 -8.5042e+001  3.7066e+000 60952 75654,75412,75360
 5.9000e+000 75608 -1.6191e+001 -9.8398e+001 -1.4507e+000 60952 75654,75360,75334
 5.9000e+000 75585 -2.0865e+001 -1.2824e+002  7.6720e+000 60952 75726,75438,75412
 5.9000e+000 75562 -1.1289e+001 -9.8381e+001 -1.5670e+001 60952 75308,75490,75334
 5.9000e+000 75539 -1.3298e+001 -8.4922e+001  3.1030e-002 60952 75360,75412,75386
 5.9000e+000 75516 -2.7775e+001 -1.5187e+002 -5.8105e+000 60952 75438,75490,75464
 5.9000e+000 75680 -1.0410e+001 -1.0503e+002  4.0595e+000 60952 75726,75412,75654
 5.9000e+000 75703 -9.5237e+000 -9.9663e+001 -2.4821e+000 60952 75490,75654,75334
 5.9000e+000 75752 -1.2257e+001 -1.0174e+002  2.5422e-001 60952 75490,75438,75726
 5.9000e+000 75775 -1.2599e+001 -9.9720e+001 -3.4199e+000 60952 75490,75726,75654
 5.9000e+000 76155 -2.1211e+001 -1.0658e+002 -2.6078e+000 60754 75933,75985,75959
 5.9000e+000 76132 -3.4467e+001 -1.1481e+002  1.2118e+001 60754 75933,76037,75985
 5.9000e+000 76109 -8.4934e-001 -1.0980e+002  3.2579e+000 60754 75985,76037,76011
 5.9000e+000 76086 -5.1088e+001 -9.7959e+001  2.8850e+000 60754 75881,76037,75933
 5.9000e+000 76063 -6.5911e+001 -9.1451e+001  2.0130e+001 60754 75881,75933,75907
 5.9000e+000 76612 -2.0846e+001 -1.0429e+002  6.2543e+000 60350 76635,76442,76390
 5.9000e+000 76589 -2.1827e+000 -1.1996e+002  1.0128e+001 60350 76635,76390,76364
 5.9000e+000 76566 -7.6152e+000 -1.5699e+002 -1.0034e+001 60350 76364,76494,76468
 5.9000e+000 76543 -1.4162e+000 -9.5142e+001  9.6087e+000 60350 76390,76442,76416
 5.9000e+000 76520 -5.8284e+001 -9.6835e+001 -2.4592e+001 60350 76338,76494,76364
 5.9000e+000 76661 -3.0683e+001 -1.1523e+002  1.1124e+001 60350 76468,76442,76635
 5.9000e+000 76684 -1.6810e+001 -1.3226e+002  1.6629e+001 60350 76468,76635,76364
 5.9000e+000 76932 -4.5311e+001 -1.1875e+002 -3.1759e-001 59946 76955,76733,76707
 5.9000e+000 76909 -4.6297e+001 -1.2054e+002  1.9424e+000 59946 77027,76955,76707
 5.9000e+000 76886 -4.5022e+001 -1.2170e+002  1.5622e+000 59946 77027,76707,76837
 5.9000e+000 76863 -2.2070e+001 -1.2951e+002 -1.3722e+001 59946 76733,76785,76759
 5.9000e+000 76981 -5.1382e+001 -1.2009e+002 -1.8456e+000 59946 76785,76733,76955
 5.9000e+000 77004 -4.7179e+001 -1.1530e+002  1.1102e+000 59946 76785,76955,76811
 5.9000e+000 77053 -4.4844e+001 -1.1866e+002  3.0526e+000 59946 76811,76955,77027
 5.9000e+000 77076 -4.4485e+001 -1.2074e+002  2.5146e+000 59946 76811,77027,76837
 5.9000e+000 77226 -4.7822e+001 -1.2787e+002  3.5053e+000 59542 77099,77151,77125
 5.9000e+000 77203 -6.4583e+001 -1.6061e+002  9.6602e+000 59542 77099,77177,77151
 5.9000e+000 77427 -6.5687e+001 -1.3515e+002 -8.5232e+000 59030 77450,77277,77251
 5.9000e+000 77404 -4.2720e+001 -1.1352e+002 -3.6425e+001 59030 77450,77251,77355
 5.9000e+000 77381 -2.2437e+001 -1.5772e+002 -3.8658e+000 59030 77277,77329,77303
 5.9000e+000 77476 -3.6896e+001 -1.3947e+002 -2.3215e+001 59030 77329,77277,77450
 5.9000e+000 77499 -1.0429e+001 -1.2934e+002 -4.5396e+001 59030 77329,77450,77355
 5.9000e+000 77749 -5.3850e+001 -1.6971e+002  1.3791e+001 58426 77772,77628,77602
 5.9000e+000 77726 -3.4092e+001 -1.9110e+002  3.4241e+001 58426 77524,77654,77628
 5.9000e+000 77703 -4.5643e+001 -1.6683e+002  1.0657e+001 58426 77772,77602,77550
 5.9000e+000 77680 -3.0912e+001 -1.5805e+002 -6.5251e+000 58426 77550,77602,77576
 5.9000e+000 77798 -4.4149e+001 -1.7224e+002  1.2920e+001 58426 77524,77628,77772
 5.9000e+000 77821 -3.9406e+001 -1.7095e+002  9.0472e+000 58426 77524,77772,77550
 5.9000e+000 78071 -6.9269e+001 -1.5042e+002  1.5679e+001 57922 78094,77924,77898
 5.9000e+000 78048 -7.8634e+001 -1.4720e+002  1.4014e+000 57922 78094,77898,77872
 5.9000e+000 78025 -6.4748e+001 -1.3187e+002  1.5317e+001 57922 78166,77846,77950
 5.9000e+000 78002 -3.5556e+001 -1.2818e+002  1.7012e+001 57922 77846,77976,77950
 5.9000e+000 78120 -5.6664e+001 -1.4580e+002  1.0318e+001 57922 77950,77924,78094
 5.9000e+000 78143 -6.5650e+001 -1.3448e+002  1.0895e+001 57922 78166,77950,78094
 5.9000e+000 78192 -6.1421e+001 -1.3905e+002  1.1083e+001 57922 77872,77846,78166
 5.9000e+000 78215 -6.6189e+001 -1.4654e+002  6.3529e+000 57922 77872,78166,78094
 5.9000e+000 78416  1.2283e+001 -1.2702e+002 -6.3552e+000 57468 78439,78292,78240
 5.9000e+000 78393 -7.8734e+000 -1.2067e+002  3.2214e-001 57468 78439,78240,78344
 5.9000e+000 78370  3.6360e+000 -1.7349e+002 -4.2765e+000 57468 78240,78292,78266
 5.9000e+000 78465 -7.3852e+000 -1.3672e+002 -1.0064e+001 57468 78318,78292,78439
 5.9000e+000 78488 -1.5612e+001 -1.2531e+002 -1.6408e+000 57468 78318,78439,78344
 5.9000e+000 78689  6.3978e+000 -1.5187e+002 -1.5259e+001 57014 78712,78539,78513
 5.9000e+000 78666 -1.3890e+001 -1.5128e+002 -2.1641e+000 57014 78712,78513,78617
 5.9000e+000 78643 -3.3732e+001 -1.4996e+002  1.5196e+001 57014 78565,78617,78591
 5.9000e+000 78738 -1.9500e+001 -1.2955e+002 -1.5131e+001 57014 78565,78539,78712
 5.9000e+000 78761 -4.9358e+001 -1.4728e+002  6.1491e+000 57014 78565,78712,78617
 5.9000e+000 79241 -4.9892e+001 -1.3476e+002  1.0128e+001 56652 79264,78895,78869
 5.9000e+000 79218 -2.3647e+001 -1.7544e+002 -1.1320e+001 56652 79264,78869,79051
 5.9000e+000 79195 -3.5795e+001 -1.5398e+002 -3.5765e+001 56652 78869,79077,79051
 5.9000e+000 79172 -3.8961e+001 -9.0587e+001 -1.8985e+001 56652 78895,78973,78947
 5.9000e+000 79149 -6.4984e+001 -2.6813e+002 -2.3030e+001 56652 78973,79051,78999
 5.9000e+000 79126 -3.3987e+001 -8.4581e+001 -2.1130e+001 56652 78895,78947,78921
 5.9000e+000 79103 -4.7470e+001 -1.7241e+002  3.9184e+001 56652 78999,79051,79025
 5.9000e+000 79290 -2.9703e+001 -1.0932e+002  2.4119e+001 56652 78973,78895,79264
 5.9000e+000 79313 -1.6585e+000 -1.5301e+002  3.9502e+000 56652 78973,79264,79051
 5.9000e+000 79512 -1.4644e+001 -2.0013e+002  1.5031e+001 56062 79388,79440,79414
 5.9000e+000 79489 -7.1157e+001 -1.0237e+002  2.6656e+001 56062 79336,79440,79388
 5.9000e+000 79466 -2.1348e+001 -1.5007e+002  3.0331e+001 56062 79336,79388,79362
 5.9000e+000 79941 -1.8493e+001 -1.0046e+002  1.8469e+001 55658 79964,79670,79644
 5.9000e+000 79918 -3.0238e+001 -1.0237e+002  2.0743e+001 55658 79964,79644,79800
 5.9000e+000 79895 -2.9130e+001 -1.0730e+002  1.1008e+001 55658 80036,79696,79670
 5.9000e+000 79872 -3.3544e+001 -8.7879e+001  4.4691e-001 55658 80108,79722,79696
 5.9000e+000 79849 -4.8046e+001 -8.3557e+001  9.0862e+000 55658 79722,79774,79748
 5.9000e+000 79826  6.9741e-001 -9.1943e+001  5.0791e+000 55658 79618,79800,79644
 5.9000e+000 79990 -3.1164e+001 -1.0748e+002  1.4566e+001 55658 80036,79670,79964
 5.9000e+000 80013 -2.8148e+001 -9.4942e+001  2.1358e+001 55658 79774,79964,79800
 5.9000e+000 80062 -2.4078e+001 -9.6045e+001  9.7279e+000 55658 80108,79696,80036
 5.9000e+000 80085 -3.1555e+001 -9.6133e+001  1.9566e+001 55658 79774,80036,79964
 5.9000e+000 80134 -5.2101e+001 -9.7040e+001  5.0790e+000 55658 79774,79722,80108
 5.9000e+000 80157 -4.6706e+001 -1.0730e+002  1.4427e+001 55658 79774,80108,80036
 5.9000e+000 80307 -6.8090e+001 -1.0327e+002  8.1647e+000 55254 80402,80330,80206
 5.9000e+000 80284 -6.4824e+001 -1.4198e+002  8.9265e+000 55254 80330,80180,80258
 5.9000e+000 80356 -7.9181e+001 -1.2824e+002  2.4125e+001 55254 80232,80206,80330
 5.9000e+000 80379 -2.6518e+001 -1.0462e+002  3.4785e+001 55254 80232,80330,80258
 5.9000e+000 80428 -8.5703e+001 -1.2735e+002 -1.3918e+000 55254 80180,80330,80402
 5.9000e+000 80659 -2.9583e+001 -1.5539e+002 -1.2068e+001 54850 80558,80610,80584
 5.9000e+000 80636 -9.3151e+000 -1.4934e+002 -1.2951e+001 54850 80532,80610,80558
 5.9000e+000 80760 -1.1582e+001 -9.4833e+001 -6.6584e+000 54652 80682,80734,80708
 5.9000e+000 81164 -9.5462e+000 -1.0193e+002 -1.9124e+000 54248 81187,80942,80890
 5.9000e+000 81141 -1.1033e+001 -1.0246e+002 -1.3574e+000 54248 81187,80890,81046
 5.9000e+000 81118 -1.2296e+001 -1.0780e+002  2.2614e+001 54248 80942,81020,80994
 5.9000e+000 81095 -6.9882e+000 -1.0014e+002  1.5557e+000 54248 80890,80942,80916
 5.9000e+000 81072 -1.6583e+001 -5.9780e+001  3.6222e+000 54248 80942,80994,80968
 5.9000e+000 81213 -1.1215e+001 -1.0126e+002 -1.8660e+000 54248 81020,80942,81187
 5.9000e+000 81236 -1.2424e+001 -1.0145e+002 -1.5144e+000 54248 81020,81187,81046
 5.9000e+000 81663 -6.7621e+001 -1.2217e+002  1.0821e+001 53594 81340,81444,81366
 5.9000e+000 81640 -6.5057e+001 -1.8117e+002  4.8260e+000 53594 81340,81470,81444
 5.9000e+000 81617 -3.5760e+001 -1.5905e+002 -1.8272e+001 53594 81340,81522,81470
 5.9000e+000 81594 -3.9609e+001 -8.8533e+001 -9.7495e+000 53594 81392,81444,81418
 5.9000e+000 81571 -5.0126e+001 -1.0559e+002 -1.5052e+001 53594 81366,81444,81392
 5.9000e+000 81548 -2.8384e+000 -2.0908e+002  1.6812e+001 53594 81470,81522,81496
 5.9000e+000 81943 -1.7765e+001 -8.2564e+001 -9.8895e+000 53104 81966,81845,81819
 5.9000e+000 81920 -2.7310e+001 -6.7050e+001 -1.2882e+001 53104 81966,81819,81767
 5.9000e+000 81897 -2.7983e+001 -6.8762e+001 -1.2754e+001 53104 81767,81819,81793
 5.9000e+000 81992 -1.1358e+001 -7.3217e+001 -1.2775e+001 53104 81871,81845,81966
 5.9000e+000 82015 -1.6539e+001 -5.1376e+001 -1.7987e+001 53104 81871,81966,81767
 5.9000e+000 82491 -2.1088e+001 -8.5043e+001 -1.0940e+001 52650 82145,82249,82171
 5.9000e+000 82468 -6.8631e+001 -1.0035e+002 -1.2434e+001 52650 82145,82301,82249
 5.9000e+000 82445 -7.2555e+001 -1.5006e+002 -2.4953e+001 52650 82249,82301,82275
 5.9000e+000 82422 -4.5929e+001 -1.9263e+002 -3.5539e+001 52650 82119,82301,82145
 5.9000e+000 82399 -2.5388e+001 -6.5382e+001  6.2314e+000 52650 82171,82249,82223
 5.9000e+000 82376 -4.0393e+000 -1.7674e+002 -1.7940e+001 52650 82119,82327,82301
 5.9000e+000 82353 -6.4786e+000 -3.4482e+001 -1.4081e+001 52650 82171,82223,82197
 5.9000e+000 82739 -2.6120e+001 -7.2561e+001 -3.0042e-001 52246 82762,82540,82514
 5.9000e+000 82716 -1.7582e+001 -3.4189e+001 -7.3166e+000 52246 82762,82514,82644
 5.9000e+000 82693 -3.9076e+001 -8.3052e+001  1.5787e+001 52246 82540,82618,82592
 5.9000e+000 82670 -4.0062e+001 -7.2680e+001  8.6506e+000 52246 82540,82592,82566
 5.9000e+000 82788 -1.7759e+001 -9.2194e+001  4.6593e+000 52246 82618,82540,82762
 5.9000e+000 82811 -2.4911e+001 -7.9548e+001 -6.3443e+000 52246 82618,82762,82644
 5.9000e+000 83059 -1.2767e+001 -1.0790e+002  1.0182e+001 51578 82860,82964,82938
 5.9000e+000 83036 -2.6424e+000 -7.6916e+001 -2.4744e+001 51578 82834,82964,82860
 5.9000e+000 83013 -7.0546e+000 -8.4454e+001  2.1321e+001 51578 82860,82938,82886
 5.9000e+000 82990 -5.1509e+000 -5.7990e+001  6.2469e+000 51578 82886,82938,82912
 5.9000e+000 83309 -2.1867e+001 -5.7556e+001  1.9217e+001 51138 83332,83162,83136
 5.9000e+000 83286 -8.4773e+000 -7.8748e+001  6.0021e+000 51138 83332,83136,83110
 5.9000e+000 83263 -2.9636e+001 -8.0896e+001 -3.0494e+000 51138 83404,83214,83188
 5.9000e+000 83240 -2.6317e-001 -4.5549e+001  5.1624e+000 51138 83084,83214,83110
 5.9000e+000 83358 -3.7572e+001 -8.4571e+001  2.7448e+001 51138 83188,83162,83332
 5.9000e+000 83381 -2.1071e+001 -9.0999e+001  6.1977e+000 51138 83404,83188,83332
 5.9000e+000 83430 -1.8110e+001 -5.4806e+001 -1.1256e+000 51138 83110,83214,83404
 5.9000e+000 83453 -1.2212e+001 -7.0778e+001  8.0423e+000 51138 83110,83404,83332
 5.9000e+000 83835 -2.2203e+001 -1.0536e+002 -8.7983e-001 50734 83613,83717,83691
 5.9000e+000 83812 -2.5938e+001 -1.1716e+002 -2.0447e+001 50734 83561,83717,83613
 5.9000e+000 83789 -1.6061e+001 -5.8429e+001 -3.1029e+001 50734 83561,83613,83587
 5.9000e+000 83766 -4.1443e+001 -7.3025e+001 -1.5449e-001 50734 83613,83691,83639
 5.9000e+000 83743 -4.4208e+001 -7.3645e+001  1.6472e+001 50734 83639,83691,83665
 5.9000e+000 84034 -2.6351e+001 -6.3476e+001  3.5063e+000 50230 84057,83884,83858
 5.9000e+000 84011 -2.6288e+001 -6.8638e+001 -5.2553e+000 50230 84129,84057,83858
 5.9000e+000 83988 -8.0144e+000 -7.4252e+001 -9.7773e+000 50230 84129,83858,83962
 5.9000e+000 84083 -1.7862e+001 -5.8824e+001  4.7447e-001 50230 83910,83884,84057
 5.9000e+000 84106 -1.7575e+001 -5.7337e+001  7.8235e-002 50230 83910,84057,83936
 5.9000e+000 84155 -2.6485e+000 -5.7065e+001  3.1343e-001 50230 83936,84057,84129
 5.9000e+000 84178  4.2486e+000 -7.0799e+001 -6.9698e+000 50230 83936,84129,83962
 5.9000e+000 84558 -3.2261e+001 -8.7368e+001 -1.3573e+001 49768 84581,84388,84362
 5.9000e+000 84535 -6.4482e+001 -8.9775e+001 -5.6857e+000 49768 84581,84362,84310
 5.9000e+000 84512  1.7626e-001 -9.8103e+001 -1.5648e+001 49768 84653,84440,84414
 5.9000e+000 84489 -5.2002e+001 -1.0027e+002  7.2086e+000 49768 84310,84362,84336
 5.9000e+000 84466 -3.0262e+000 -7.2417e+001  9.6105e+000 49768 84284,84440,84310
 5.9000e+000 84607 -1.0603e+001 -7.6147e+001 -2.3662e+001 49768 84414,84388,84581
 5.9000e+000 84630 -1.2665e+001 -9.1027e+001 -1.1044e+001 49768 84653,84414,84581
 5.9000e+000 84679 -1.7206e+001 -9.3132e+001 -2.1484e+001 49768 84310,84440,84653
 5.9000e+000 84702 -3.5970e+001 -9.2853e+001 -2.2011e+001 49768 84310,84653,84581
 5.9000e+000 85159 -5.0876e+001 -1.1904e+002 -3.3387e+001 49192 84885,84937,84911
 5.9000e+000 85136 -4.8360e+001 -8.7173e+001 -2.3961e+001 49192 84885,85041,84937
 5.9000e+000 85113 -3.3339e+001 -7.5453e+001 -1.1445e+001 49192 84963,85041,84989
 5.9000e+000 85090 -2.9791e+001 -6.9006e+001 -1.5324e+001 49192 84937,85041,84963
 5.9000e+000 85067 -3.1466e+001 -6.8987e+001 -1.6883e+001 49192 84989,85041,85015
 5.9000e+000 85714 -5.1601e+001 -7.9667e+001  7.1203e-001 48638 85368,85498,85394
 5.9000e+000 85691 -6.4127e+001 -9.3875e+001  6.2153e+000 48638 85368,85524,85498
 5.9000e+000 85668 -6.2093e+001 -7.8320e+001  2.5026e+001 48638 85737,85420,85394
 5.9000e+000 85645 -5.0067e+001 -8.7934e+001  1.2441e+001 48638 85737,85394,85498
 5.9000e+000 85622 -3.8000e+001 -8.7494e+001  1.9398e+001 48638 85446,85498,85472
 5.9000e+000 85599 -1.6576e+001 -7.5469e+001  9.7239e+000 48638 85342,85524,85368
 5.9000e+000 85576 -6.1505e+001 -8.6894e+001  1.0197e+001 48638 85342,85550,85524
 5.9000e+000 85763 -4.1871e+001 -6.8174e+001  3.1129e+001 48638 85446,85420,85737
 5.9000e+000 85786 -4.1922e+001 -7.9750e+001  1.7170e+001 48638 85446,85737,85498
 5.9000e+000 86371 -4.4440e+001 -5.7310e+001 -3.0596e+000 48084 86100,86230,86178
 5.9000e+000 86348 -5.7241e+001 -7.9489e+001 -9.5906e+000 48084 86048,86230,86100
 5.9000e+000 86325 -3.8808e+001 -5.0341e+001  1.6757e+001 48084 86100,86178,86126
 5.9000e+000 86302 -3.3092e+001 -2.2615e+001 -1.7984e+001 48084 86048,86100,86074
 5.9000e+000 86279 -5.4644e+001 -9.9276e+001 -2.4251e+000 48084 86178,86230,86204
 5.9000e+000 86256 -3.3926e+001 -5.1755e+001  1.7601e+001 48084 86126,86178,86152
 5.9000e+000 86619 -2.9622e+001 -6.5275e+001  6.2193e+000 47630 86642,86446,86420
 5.9000e+000 86596 -3.4768e+001 -7.3068e+001 -9.9017e+000 47630 86642,86420,86394
 5.9000e+000 86573 -4.7093e+001 -8.1673e+001 -1.3578e+001 47630 86394,86524,86498
 5.9000e+000 86550 -2.1149e+001 -7.4657e+001  6.6878e+000 47630 86446,86498,86472
 5.9000e+000 86668 -3.7799e+001 -8.3666e+001  1.5780e+000 47630 86498,86446,86642
 5.9000e+000 86691 -3.9871e+001 -8.5876e+001 -1.4254e+001 47630 86498,86642,86394
 5.9000e+000 87022 -4.9886e+000 -4.3293e+001 -2.6214e+001 47226 87045,86875,86849
 5.9000e+000 86999 -2.7480e+000 -4.9604e+001 -2.4665e+001 47226 87045,86849,86797
 5.9000e+000 86976  4.6942e-001 -2.0857e+001 -8.2091e+000 47226 86797,86849,86823
 5.9000e+000 86953 -2.4574e-001 -3.0706e+001 -1.4912e+001 47226 86875,86927,86901
 5.9000e+000 87071 -8.5861e+000 -4.7908e+001 -2.4651e+001 47226 86927,86875,87045
 5.9000e+000 87094 -4.6725e+000 -5.2205e+001 -2.3782e+001 47226 86927,87045,86797
 5.9000e+000 87244 -6.7879e+000 -9.5586e+001  2.7575e+001 46814 87267,87169,87143
 5.9000e+000 87221 -4.8368e+001 -8.7004e+001 -4.6950e+000 46814 87267,87143,87117
 5.9000e+000 87293 -5.6728e+000 -7.0669e+001  1.6733e+001 46814 87339,87267,87195
 5.9000e+000 87316  3.4127e-001 -6.6112e+001  3.4213e-001 46814 87469,87267,87117
 5.9000e+000 87365 -4.8236e+000 -6.8134e+001  2.1578e+001 46814 87169,87267,87339
 5.9000e+000 87495 -5.4567e-001 -2.5929e+000 -1.5341e+000 46814 87195,87267,87469
 5.9000e+000 88001 -2.7452e+001 -6.1310e+001  1.8366e+001 46310 88024,87834,87808
 5.9000e+000 87978 -3.5256e+001 -6.3201e+001  1.0606e+001 46310 88024,87808,87756
 5.9000e+000 87955 -1.9193e+001 -8.4455e+001  4.5983e+000 46310 88096,87730,87860
 5.9000e+000 87932 -2.4308e+001 -8.2102e+001  1.1725e+001 46310 87756,87808,87782
 5.9000e+000 87909 -2.3641e+001 -9.8515e+001  3.9607e+000 46310 87678,87860,87730
 5.9000e+000 87886 -3.4451e+001 -1.6400e+002 -1.0641e+001 46310 87678,87730,87704
 5.9000e+000 88050 -2.3954e+001 -5.4157e+001  1.0533e+001 46310 87860,87834,88024
 5.9000e+000 88073 -1.9390e+001 -5.9232e+001  1.2285e+001 46310 88096,87860,88024
 5.9000e+000 88122 -2.4283e+001 -9.6436e+001 -4.1171e+000 46310 87756,87730,88096
 5.9000e+000 88145 -3.9900e+001 -8.6504e+001  1.8902e-001 46310 87756,88096,88024
 5.9000e+000 88572 -2.0358e+001 -8.3675e+001  7.6427e+000 45856 88249,88405,88275
 5.9000e+000 88549 -1.5797e+001 -2.4999e+001 -1.4876e+001 45856 88249,88431,88405
 5.9000e+000 88526 -4.7647e+001 -1.2387e+002 -1.7279e+001 45856 88327,88405,88353
 5.9000e+000 88503 -2.0637e+001 -1.0491e+002 -7.1090e+000 45856 88275,88405,88327
 5.9000e+000 88480 -4.0682e+001 -1.1458e+002 -2.5665e+001 45856 88353,88405,88379
 5.9000e+000 88457 -8.5799e+001 -2.3318e+002  1.9244e+001 45856 88275,88327,88301
 5.9000e+000 88950 -1.2338e+001 -4.8307e+001 -2.4403e+000 45658 88973,88754,88728
 5.9000e+000 88927 -9.6202e+000 -4.5444e+001 -1.3270e+000 45658 88973,88728,88676
 5.9000e+000 88904 -1.6290e+001 -5.4761e+001  2.0062e+001 45658 88676,88832,88806
 5.9000e+000 88881 -2.2637e+001 -7.1135e+001  6.6171e+000 45658 88676,88728,88702
 5.9000e+000 88858 -2.2206e+001 -4.8007e+001 -1.2585e+001 45658 88754,88806,88780
 5.9000e+000 88999 -1.3836e+001 -4.4804e+001 -1.4298e+000 45658 88806,88754,88973
 5.9000e+000 89022 -1.2257e+001 -4.3251e+001 -7.8491e-001 45658 88806,88973,88676
 5.9000e+000 89351 -2.5887e+001 -8.7160e+001 -4.0345e+000 45254 89152,89230,89204
 5.9000e+000 89328 -2.7452e+001 -8.8049e+001 -4.8251e+000 45254 89152,89256,89230
 5.9000e+000 89305 -1.0656e+001 -9.3297e+001 -1.2226e+001 45254 89126,89256,89152
 5.9000e+000 89282 -1.7706e+000 -8.5503e+001 -1.4396e+001 45254 89152,89204,89178
 5.9000e+000 89523 -1.0173e+001 -6.0334e+001  5.2840e-002 45006 89422,89474,89448
 5.9000e+000 89500 -6.6187e+000 -5.8842e+001  2.8874e+000 45006 89396,89474,89422
 5.9000e+000 89673 -6.9885e+001 -1.2297e+002  1.0118e+001 44495 89572,89624,89598
 5.9000e+000 89650 -7.2524e+001 -1.2632e+002  7.2491e+000 44495 89546,89624,89572
 5.9000e+000 90104 -7.9470e+000 -9.5401e+001 -6.3795e+000 44005 90199,90127,89937
 5.9000e+000 90081 -1.8794e+001 -9.2684e+001  7.6371e-001 44005 90271,90127,89859
 5.9000e+000 90058 -2.9758e+000 -9.7353e+001 -6.4976e+000 44005 90199,89937,89885
 5.9000e+000 90035 -2.6897e+001 -8.6550e+001  5.4206e+000 44005 90271,89859,89807
 5.9000e+000 90012 -1.4234e+001 -1.0806e+002 -1.2786e+001 44005 89885,89937,89911
 5.9000e+000 89989 -8.4875e+000 -9.1695e+001  1.4839e+001 44005 89807,89859,89833
 5.9000e+000 90153 -2.0554e+001 -1.0000e+002 -4.5777e+000 44005 89963,89937,90127
 5.9000e+000 90176 -2.2417e+001 -1.0862e+002  1.6466e+000 44005 89963,90127,89781
 5.9000e+000 90225 -2.1207e+001 -9.3650e+001 -3.3897e+000 44005 89859,90127,90199
 5.9000e+000 90248 -9.7073e+000 -9.1056e+001 -1.0196e+000 44005 89859,90199,89885
 5.9000e+000 90297 -2.9613e+001 -9.9955e+001 -2.5813e+000 44005 89781,90127,90271
 5.9000e+000 90320 -3.4262e+001 -9.2076e+001  2.8558e+000 44005 89781,90271,89807
 5.9000e+000 90470 -1.4181e+001 -9.4851e+001 -2.4146e+000 43601 90493,90369,90343
 5.9000e+000 90447 -2.5513e+001 -7.5994e+001  7.0480e+000 43601 90493,90343,90421
 5.9000e+000 90519 -3.1372e+001 -1.2890e+002 -1.4386e+001 43601 90395,90369,90493
 5.9000e+000 90542 -2.5407e+001 -8.9591e+001 -2.2418e+000 43601 90395,90493,90421
 5.9000e+000 90922 -2.9726e+001 -1.0256e+002  5.6826e+000 43154 90945,90700,90674
 5.9000e+000 90899 -2.5406e+001 -1.0450e+002 -1.3020e+001 43154 90945,90674,90648
 5.9000e+000 90876 -3.2045e+001 -7.9626e+001 -8.7274e+000 43154 90648,90778,90752
 5.9000e+000 90853 -1.6413e+001 -1.6206e+002  5.2797e+000 43154 90700,90752,90726
 5.9000e+000 90830 -2.1667e+001 -8.0404e+001 -4.9032e+000 43154 90648,90804,90778
 5.9000e+000 90971 -3.4977e+001 -1.1899e+002  9.1355e+000 43154 90752,90700,90945
 5.9000e+000 90994 -2.9479e+001 -1.1454e+002 -9.0717e+000 43154 90752,90945,90648
 5.9000e+000 91451 -1.1427e+001 -8.6453e+001 -1.6464e+001 42650 91203,91255,91229
 5.9000e+000 91428  6.5821e+000 -7.8656e+001 -7.2441e+000 42650 91203,91333,91255
 5.9000e+000 91405 -3.3084e+000 -1.2429e+002 -2.0752e+001 42650 91177,91333,91203
 5.9000e+000 91382 -4.1109e+001 -1.3554e+002  1.7758e+001 42650 91255,91333,91281
 5.9000e+000 91359 -8.5907e+000 -1.1170e+002  5.0508e+000 42650 91281,91333,91307
 5.9000e+000 91721 -5.8341e+001 -1.2606e+002  9.5497e+000 42288 91496,91600,91522
 5.9000e+000 91698 -3.2755e+001 -7.4631e+001 -3.7285e+000 42288 91496,91626,91600
 5.9000e+000 91675 -3.3589e+001 -1.1152e+002  1.0233e+001 42288 91522,91574,91548
 5.9000e+000 91652 -2.9187e+001 -1.1462e+002  1.0119e+001 42288 91522,91600,91574
 5.9000e+000 92199 -8.7578e+001 -1.3756e+002 -3.9741e+000 41898 92222,91983,91879
 5.9000e+000 92176 -8.9947e+001 -1.5353e+002 -1.0334e+001 41898 92294,92222,91879
 5.9000e+000 92153 -9.5552e+001 -1.5156e+002 -1.4393e+001 41898 92294,91879,91853
 5.9000e+000 92130 -7.5762e+001 -8.0764e+001  1.0312e+001 41898 91879,91957,91931
 5.9000e+000 92107 -7.6899e+001 -1.3342e+002 -5.7777e-001 41898 91879,91983,91957
 5.9000e+000 92084 -8.8069e+001 -7.9882e+001  2.2116e+001 41898 91879,91931,91905
 5.9000e+000 92061 -8.4760e+001 -1.3889e+002 -1.2322e+001 41898 91827,92035,91853
 5.9000e+000 92248 -8.6129e+001 -1.5743e+002  1.6417e-001 41898 92009,91983,92222
 5.9000e+000 92271 -8.3990e+001 -1.6103e+002 -1.3569e+001 41898 92009,92222,92035
 5.9000e+000 92320 -8.0622e+001 -1.5016e+002 -1.0654e+001 41898 92035,92222,92294
 5.9000e+000 92343 -8.4683e+001 -1.4723e+002 -1.4428e+001 41898 92035,92294,91853
 5.9000e+000 92770 -2.3553e+001 -1.1341e+002 -9.2399e+000 41437 92865,92793,92525
 5.9000e+000 92747 -3.2951e+001 -1.2861e+002 -1.2402e+001 41437 92793,92473,92629
 5.9000e+000 92724 -8.7814e+000 -1.1836e+002 -1.7255e+001 41437 92865,92525,92499
 5.9000e+000 92701 -4.0786e+001 -9.8342e+001 -1.9826e+001 41437 92525,92603,92577
 5.9000e+000 92678  2.4280e+000 -1.2561e+002 -1.1560e+001 41437 92447,92629,92473
 5.9000e+000 92655 -5.8139e+001 -8.7520e+001 -1.2561e+001 41437 92525,92577,92551
 5.9000e+000 92819 -2.6521e+001 -1.2021e+002 -1.9050e+001 41437 92603,92525,92793
 5.9000e+000 92842 -5.3480e+001 -1.2953e+002 -3.4447e+001 41437 92603,92793,92629
 5.9000e+000 92891  4.6496e+000 -1.2144e+002 -1.0694e+001 41437 92473,92793,92865
 5.9000e+000 92914  2.5360e+001 -1.1866e+002 -2.2069e+001 41437 92473,92865,92499
 5.9000e+000 93243 -2.2046e+001 -1.7841e+002  6.4239e+001 41097 93044,93096,93070
 5.9000e+000 93220 -3.8067e+001 -1.6165e+002  3.4724e+001 41097 93044,93122,93096
 5.9000e+000 93197  8.1035e+000 -1.0554e+002  1.2391e+001 41097 93044,93148,93122
 5.9000e+000 93174 -3.1031e+001 -7.7216e+001  3.3527e+001 41097 93018,93148,93044
 5.9000e+000 93393 -3.2783e+000 -1.3189e+002  8.9767e+000 40643 93416,93292,93344
 5.9000e+000 93370 -5.8226e+000 -1.2313e+002  1.0003e+001 40643 93266,93344,93292
 5.9000e+000 93442 -4.3176e+000 -1.2878e+002  1.4274e+001 40643 93318,93292,93416
 5.9000e+000 93901 -3.9153e+001 -1.1772e+002 -8.1139e+000 40132 93924,93731,93705
 5.9000e+000 93878 -4.0657e+001 -1.1955e+002 -8.7621e+000 40132 93996,93924,93705
 5.9000e+000 93855 -4.7298e+001 -1.3576e+002 -3.5054e+000 40132 93996,93705,93653
 5.9000e+000 93832 -2.0211e+001 -1.3384e+002 -7.0070e+000 40132 93653,93705,93679
 5.9000e+000 93809 -3.7957e+001 -1.1354e+002 -3.7950e-001 40132 93627,93783,93757
 5.9000e+000 93950 -3.7509e+001 -1.2286e+002 -9.5333e+000 40132 93757,93731,93924
 5.9000e+000 93973 -4.2059e+001 -1.0986e+002 -2.7566e+000 40132 93757,93924,93627
 5.9000e+000 94022 -5.2774e+001 -1.2976e+002  2.8325e+000 40132 93627,93924,93996
 5.9000e+000 94045 -4.9302e+001 -1.3538e+002  6.6862e+000 40132 93627,93996,93653
 5.9000e+000 94423 -1.1513e+001 -1.4613e+002 -2.0153e+001 39514 94149,94227,94175
 5.9000e+000 94400 -1.6655e+001 -1.3525e+002  1.4849e+001 39514 94149,94305,94227
 5.9000e+000 94377  1.7444e+000 -1.6808e+002 -2.0233e+001 39514 94175,94227,94201
 5.9000e+000 94354 -4.2294e+001 -1.2695e+002  6.5238e+000 39514 94227,94305,94279
 5.9000e+000 94331 -1.7756e+001 -1.1554e+002  1.2178e+001 39514 94227,94279,94253
 5.9000e+000 94573 -1.1819e+001 -7.8979e+001 -1.4593e+001 38822 94596,94498,94472
 5.9000e+000 94550  1.4097e+001 -8.2668e+001  1.8622e+001 38822 94596,94472,94446
 5.9000e+000 94622 -4.1478e+001 -9.1463e+001 -1.7559e+001 38822 94524,94498,94596
 5.9000e+000 94645 -3.4508e+001 -1.0235e+002  1.8926e+001 38822 94524,94596,94446
 5.9000e+000 95025 -8.8308e+000 -1.0015e+002 -7.2437e+000 38418 95048,94829,94777
 5.9000e+000 95002 -1.0330e+001 -1.0451e+002 -1.1783e+001 38418 95120,95048,94777
 5.9000e+000 94979 -7.0460e+000 -1.0517e+002 -1.0951e+001 38418 95120,94777,94751
 5.9000e+000 94956 -5.3099e+000 -9.6494e+001 -1.3292e+001 38418 95192,94881,94855
 5.9000e+000 94933 -3.0076e+001 -8.4334e+001 -5.9677e+000 38418 94777,94829,94803
 5.9000e+000 95074 -1.7832e+001 -1.2836e+002 -2.4484e+000 38418 94855,94829,95048
 5.9000e+000 95097 -8.1240e+000 -1.0407e+002 -1.3106e+001 38418 95192,94855,95048
 5.9000e+000 95146 -1.9148e+001 -1.0201e+002 -9.0062e+000 38418 94907,95048,95120
 5.9000e+000 95169 -1.1748e+001 -9.9438e+001 -6.8965e+000 38418 94907,95120,94751
 5.9000e+000 95218 -9.4092e+000 -7.9806e+001 -1.2488e+001 38418 94907,94881,95192
 5.9000e+000 95241 -1.6380e+001 -9.3589e+001 -9.9349e+000 38418 94907,95192,95048
 5.9000e+000 95511 -3.1338e+001 -1.0517e+002  6.7051e+000 38049 95312,95390,95364
 5.9000e+000 95488 -1.8850e+001 -9.9178e+001  4.3448e+000 38049 95312,95416,95390
 5.9000e+000 95465 -8.9939e+000 -9.9258e+001 -4.7963e+000 38049 95312,95364,95338
 5.9000e+000 95442 -9.1429e+000 -8.7299e+001  8.6613e+000 38049 95286,95416,95312
 5.9000e+000 95808 -3.3273e+001 -1.3171e+002 -4.4601e+000 37437 95831,95586,95560
 5.9000e+000 95785  1.2585e+001 -1.3557e+002 -5.7703e+000 37437 95831,95560,95534
 5.9000e+000 95762 -6.5953e+001 -1.2332e+002  5.8927e+000 37437 95586,95664,95638
 5.9000e+000 95739 -1.0260e+001 -6.2210e+001 -3.1965e+001 37437 95534,95690,95664
 5.9000e+000 95716 -6.5247e+001 -8.6567e+001  3.1893e+000 37437 95586,95638,95612
 5.9000e+000 95857 -6.3311e+001 -1.2523e+002  1.4455e+001 37437 95664,95586,95831
 5.9000e+000 95880 -1.4982e+001 -1.2784e+002  1.3878e+001 37437 95664,95831,95534
 5.9000e+000 96390 -4.7450e+001 -9.8937e+001 -7.2133e+000 36883 96413,96145,96093
 5.9000e+000 96367 -3.9980e+001 -9.4901e+001 -3.7755e+000 36883 96413,96093,96067
 5.9000e+000 96344 -2.8484e+001 -1.1978e+002 -1.3728e+000 36883 96067,96249,96171
 5.9000e+000 96321 -4.1186e+001 -1.1336e+002 -3.8232e+000 36883 96093,96145,96119
 5.9000e+000 96298 -5.7298e+001 -1.9352e+002  1.7084e+001 36883 96171,96249,96197
 5.9000e+000 96275 -1.3279e+001 -1.5664e+002 -1.5408e+000 36883 96197,96249,96223
 5.9000e+000 96439 -4.4472e+001 -9.4137e+001 -8.0148e-001 36883 96171,96145,96413
 5.9000e+000 96462 -3.8813e+001 -9.3518e+001  2.0301e+000 36883 96171,96413,96067
 5.9000e+000 96781 -3.6665e+001 -1.1430e+002 -1.7246e+001 36215 96559,96663,96637
 5.9000e+000 96758 -4.7019e+001 -1.2149e+002 -2.0412e+001 36215 96507,96663,96559
 5.9000e+000 96735 -4.4490e+001 -7.9645e+001  8.9238e+000 36215 96585,96637,96611
 5.9000e+000 96712 -9.7905e+001 -1.3257e+002 -1.5335e+001 36215 96559,96637,96585
 5.9000e+000 96689 -1.8032e+001 -1.3215e+002 -4.1593e+000 36215 96507,96559,96533
 5.9000e+000 97161  1.9706e+000 -6.0868e+001 -1.8479e+000 35818 97184,96965,96939
 5.9000e+000 97138 -5.9656e+000 -6.7775e+001 -6.4665e+000 35818 97184,96939,96887
 5.9000e+000 97115 -4.9716e+000 -7.9239e+001  1.4407e+001 35818 96965,97043,97017
 5.9000e+000 97092 -3.4753e+000 -6.4001e+001 -7.5637e+000 35818 96887,96939,96913
 5.9000e+000 97069 -4.2696e+001 -8.0041e+001  9.2343e+000 35818 96965,97017,96991
 5.9000e+000 97210  1.0833e+001 -6.7102e+001  2.5421e+000 35818 97043,96965,97184
 5.9000e+000 97233  3.9746e+000 -7.1673e+001 -1.3624e+000 35818 97043,97184,96887
 5.9000e+000 97739 -3.7689e+001 -1.1245e+002 -2.9660e+001 35214 97416,97468,97442
 5.9000e+000 97716 -4.4901e+001 -7.9263e+001 -1.0415e+001 35214 97416,97598,97468
 5.9000e+000 97693 -3.6272e+001 -7.3261e+001 -4.6876e+000 35214 97762,97520,97468
 5.9000e+000 97670 -3.8529e+001 -7.5450e+001 -7.3958e+000 35214 97762,97468,97598
 5.9000e+000 97647 -2.9624e+001 -7.2316e+001 -1.1856e+001 35214 97546,97598,97572
 5.9000e+000 97624 -2.4139e+001 -7.4257e+001 -6.0322e+000 35214 97468,97520,97494
 5.9000e+000 97788 -3.7256e+001 -7.6705e+001 -6.7566e+000 35214 97546,97520,97762
 5.9000e+000 97811 -3.8288e+001 -7.8309e+001 -9.2415e+000 35214 97546,97762,97598
 5.9000e+000 98189 -1.9645e+000 -5.2373e+001 -6.9578e+000 34760 98356,98212,97967
 5.9000e+000 98166 -8.5077e+000 -6.3171e+001 -1.2469e+001 34760 98284,98212,97941
 5.9000e+000 98143 -2.0581e+001 -5.5840e+001 -6.6989e+000 34760 98284,97941,97915
 5.9000e+000 98120 -3.2398e+000 -7.2869e+001 -3.9319e+000 34760 98484,97993,97967
 5.9000e+000 98097 -2.9581e+000 -5.7631e+001 -1.9423e+000 34760 98556,98045,98019
 5.9000e+000 98238 -6.7964e+000 -6.7335e+001 -3.9682e+000 34760 98484,97967,98212
 5.9000e+000 98261  3.5997e+000 -6.0669e+001 -5.3196e+000 34760 98556,98019,98212
 5.9000e+000 98310  9.4908e-001 -4.9226e+001 -1.6614e+001 34760 98071,98212,98284
 5.9000e+000 98333 -6.0813e+000 -3.0863e+001 -1.3046e+001 34760 98071,98284,97915
 5.9000e+000 98382 -3.3796e+001 -7.1973e+001 -1.6048e+001 34760 97941,98212,98356
 5.9000e+000 98510  1.7694e+000 -6.7640e+001 -5.9788e+000 34760 98019,97993,98484
 5.9000e+000 98533 -3.7185e+000 -6.3716e+001 -5.3079e+000 34760 98019,98484,98212
 5.9000e+000 98582  5.3147e+000 -5.3557e+001 -3.0771e-001 34760 98071,98045,98556
 5.9000e+000 98605  8.0493e+000 -5.8936e+001 -4.4255e+000 34760 98071,98556,98212
 5.9000e+000 99032 -4.5153e+001 -9.9367e+001  1.5965e+001 34156 98735,98891,98839
 5.9000e+000 99009 -3.9958e+001 -1.0362e+002  7.5281e+000 34156 98709,98891,98735
 5.9000e+000 98986 -1.4525e+001 -9.0069e+001  1.4769e+001 34156 98735,98813,98787
 5.9000e+000 98963 -1.7102e+001 -9.7787e+001  1.3233e+001 34156 98735,98839,98813
 5.9000e+000 98940  5.2720e+000 -1.3441e+002  1.7015e+001 34156 98735,98787,98761
 5.9000e+000 98917 -4.1997e+001 -9.1176e+001  1.1813e+001 34156 98839,98891,98865
 5.9000e+000 99231 -1.0372e+001 -4.7781e+001  4.7152e+000 33766 99055,99133,99107
 5.9000e+000 99208 -2.2130e+001 -6.4683e+001  1.0090e+001 33766 99055,99159,99133
 5.9000e+000 99185 -6.2439e+000 -6.4748e+001  1.2233e+001 33766 99055,99107,99081
 5.9000e+000 99818 -2.1792e+001 -6.9996e+001  1.8565e+000 33248 99521,99651,99573
 5.9000e+000 99795 -2.0074e+001 -6.5404e+001  8.6445e+000 33248 99521,99677,99651
 5.9000e+000 99772 -3.5685e+001 -8.8738e+001 -4.7498e+000 33248 99573,99651,99599
 5.9000e+000 99749 -2.2052e+001 -8.2352e+001  8.8224e+000 33248 99495,99677,99521
 5.9000e+000 99726 -1.6942e+001 -7.4564e+001 -1.6515e+001 33248 99599,99651,99625
 5.9000e+000 99703 -2.7224e+001 -8.4662e+001  5.1552e+000 33248 99521,99573,99547
 5.9000e+000 100196 -2.7167e+001 -8.0864e+001 -1.5573e+001 32794 100219,99948,99922
 5.9000e+000 100173 -3.0872e+001 -8.8161e+001 -6.2006e+000 32794 100219,99922,100052
 5.9000e+000 100150 -3.9354e+001 -7.6413e+001  5.3703e+000 32794 99974,100052,100026
 5.9000e+000 100127 -3.7882e+001 -7.3992e+001 -1.0020e+001 32794 99922,100078,100052
 5.9000e+000 100104 -3.7112e+001 -9.3341e+001  1.9747e+001 32794 99974,100026,100000
 5.9000e+000 100245 -3.7848e+001 -8.1247e+001 -8.8416e+000 32794 99974,99948,100219
 5.9000e+000 100268 -3.8705e+001 -9.0240e+001  7.4614e-001 32794 99974,100219,100052
 5.9000e+000 100418 -6.4815e+000 -7.8941e+001 -9.4963e+000 32504 100571,100343,100317
 5.9000e+000 100395 -3.4845e+001 -9.1794e+001  8.1356e+000 32504 100571,100317,100441
 5.9000e+000 100467  2.2954e+001 -4.2368e+001 -2.5881e+001 32504 100291,100369,100441
 5.9000e+000 100597  6.0625e+000 -6.5563e+001 -3.2088e+001 32504 100369,100343,100571
 5.9000e+000 100620 -6.8634e+000 -6.1133e+001 -1.6839e+001 32504 100369,100571,100441
 5.9000e+000 101020 -5.9353e+000 -5.4861e+001  2.3143e+000 32142 100772,100902,100876
 5.9000e+000 100997 -4.6484e+000 -4.6860e+001  2.4812e+000 32142 100746,100902,100772
 5.9000e+000 100974  4.7720e+000 -6.1165e+001  1.0197e+001 32142 101043,100824,100798
 5.9000e+000 100951 -8.4847e+000 -6.8029e+001  7.3043e+000 32142 101043,100798,100772
 5.9000e+000 100928 -3.5402e+001 -8.1566e+001 -2.2458e+001 32142 101115,100876,100850
 5.9000e+000 101069  1.7890e+001 -7.0060e+001 -6.5817e+000 32142 100850,100824,101043
 5.9000e+000 101092 -1.5097e+001 -8.4965e+001 -1.0071e+001 32142 101115,100850,101043
 5.9000e+000 101141 -1.0126e+001 -6.5813e+001 -8.5594e+000 32142 100772,100876,101115
 5.9000e+000 101164  5.9882e+000 -6.7949e+001  4.8528e+000 32142 100772,101115,101043
 5.9000e+000 101719 -4.4425e+001 -1.0451e+002  1.4066e+001 31538 101742,101477,101399
 5.9000e+000 101696 -5.3908e+001 -1.2614e+002  3.7120e+000 31538 101814,101742,101399
 5.9000e+000 101673 -6.1238e+001 -1.0813e+002 -7.7301e+000 31538 101814,101399,101373
 5.9000e+000 101650 -4.5200e+001 -7.4798e+001  1.0458e+001 31538 101425,101477,101451
 5.9000e+000 101627 -4.1836e+001 -8.8795e+001  2.9172e+000 31538 101399,101477,101425
 5.9000e+000 101604 -2.5615e+001 -1.3077e+002  2.5852e+001 31538 101477,101529,101503
 5.9000e+000 101581 -1.6491e+001 -7.0536e+001 -5.1257e+000 31538 101347,101555,101373
 5.9000e+000 101768 -4.9587e+001 -1.2742e+002  1.3115e+001 31538 101529,101477,101742
 5.9000e+000 101791 -4.4856e+001 -1.3155e+002 -5.2547e+000 31538 101529,101742,101555
 5.9000e+000 101840 -3.5343e+001 -1.0779e+002 -4.8059e+000 31538 101555,101742,101814
 5.9000e+000 101863 -4.6230e+001 -9.3094e+001 -1.5315e+001 31538 101555,101814,101373
 5.9000e+000 102111 -6.9933e+001 -1.7310e+002  2.3817e+001 31112 101886,101990,101912
 5.9000e+000 102088 -2.6200e+001 -1.0501e+002  8.1855e-001 31112 101886,102016,101990
 5.9000e+000 102065 -3.1914e+001 -1.6283e+002  2.9514e+001 31112 101912,101990,101964
 5.9000e+000 102042 -4.5045e+001 -1.9173e+002  3.4096e+001 31112 101912,101964,101938
 5.9000e+000 102408 -1.8836e+001 -9.9237e+001  8.6584e+000 30658 102431,102186,102160
 5.9000e+000 102385 -3.5595e+001 -9.7203e+001 -5.1395e-002 30658 102431,102160,102264
 5.9000e+000 102362 -3.5113e+001 -1.0928e+002  2.0139e+000 30658 102186,102238,102212
 5.9000e+000 102339 -3.8395e+001 -1.0379e+002 -7.0192e+000 30658 102134,102264,102160
 5.9000e+000 102316 -2.7503e+001 -8.7056e+001 -3.0162e+001 30658 102134,102290,102264
 5.9000e+000 102457 -3.2356e+001 -1.0588e+002  4.7951e+000 30658 102238,102186,102431
 5.9000e+000 102480 -5.0347e+001 -1.0563e+002 -4.6328e+000 30658 102238,102431,102264
 5.9000e+000 102681 -1.3503e+001 -1.1717e+002  1.5943e+001 30004 102704,102557,102505
 5.9000e+000 102658 -1.4686e+001 -1.2178e+002  1.7976e+001 30004 102704,102505,102609
 5.9000e+000 102635  2.2792e+000 -9.5493e+001  4.4350e+000 30004 102505,102557,102531
 5.9000e+000 102730 -1.5530e+001 -1.1144e+002  1.4215e+001 30004 102583,102557,102704
 5.9000e+000 102753 -1.9251e+001 -1.1650e+002  1.7747e+001 30004 102583,102704,102609
 5.9000e+000 103003 -1.3769e+001 -9.6024e+001 -7.5616e+000 29564 103026,102804,102778
 5.9000e+000 102980 -1.8041e+001 -1.1544e+002 -1.1510e+001 29564 103026,102778,102908
 5.9000e+000 102957 -1.9633e+001 -9.9077e+001 -6.1265e-001 29564 102856,102908,102882
 5.9000e+000 102934 -2.9341e+001 -8.8028e+001  7.7592e+000 29564 102804,102856,102830
 5.9000e+000 103052 -1.2785e+001 -8.6648e+001  5.5548e+000 29564 102856,102804,103026
 5.9000e+000 103075 -1.8366e+001 -1.0234e+002 -2.0380e-001 29564 102856,103026,102908
 5.9000e+000 103634 -4.3535e+001 -1.0952e+002 -1.4337e+001 29160 103657,103418,103392
 5.9000e+000 103611 -4.0113e+001 -1.0289e+002 -5.6687e+000 29160 103657,103392,103314
 5.9000e+000 103588 -2.9050e+001 -8.6867e+001 -1.0759e+001 29160 103314,103392,103366
 5.9000e+000 103565 -2.1648e+001 -9.1085e+001 -1.4043e+001 29160 103314,103366,103340
 5.9000e+000 103542 -4.8130e+001 -9.6596e+001 -1.2939e+001 29160 103262,103444,103314
 5.9000e+000 103519 -5.9318e+001 -1.1738e+002 -2.0428e+001 29160 103262,103314,103288
 5.9000e+000 103496 -3.5026e+001 -1.0499e+002 -6.4861e+000 29160 103262,103470,103444
 5.9000e+000 103683 -5.7201e+001 -1.2097e+002 -2.5845e+001 29160 103444,103418,103657
 5.9000e+000 103706 -4.4963e+001 -1.0147e+002 -1.5718e+001 29160 103444,103657,103314
 5.9000e+000 104035 -3.0209e+001 -1.0506e+002  1.0385e+001 28770 103836,103914,103862
 5.9000e+000 104012 -2.8579e+001 -9.9847e+001  1.3894e+001 28770 103810,103914,103836
 5.9000e+000 103989  4.6393e+000 -9.0229e+001  1.6136e+001 28770 103810,103940,103914
 5.9000e+000 103966 -6.4207e+000 -8.5280e+001  2.1075e+001 28770 103862,103914,103888
 5.9000e+000 104185 -8.6398e+000 -9.1132e+001  1.7692e+001 28366 104208,104110,104084
 5.9000e+000 104162 -8.6907e+000 -7.8107e+001  1.2938e+001 28366 104280,104208,104084
 5.9000e+000 104234  2.0191e+001 -9.1111e+001  1.0066e+001 28366 104610,104208,104136
 5.9000e+000 104257 -1.6905e+001 -8.5833e+001  1.0791e+001 28366 104538,104410,104208
 5.9000e+000 104306 -2.8341e+001 -8.7193e+001  1.0668e+001 28366 104538,104208,104280
 5.9000e+000 104436 -3.9858e+000 -8.6683e+001  9.2385e-001 28366 104136,104208,104410
 5.9000e+000 104564 -2.8929e+001 -8.4916e+001  4.6366e+000 28366 104058,104410,104538
 5.9000e+000 104587 -3.5850e+001 -8.3552e+001  3.6914e+000 28366 104058,104538,104280
 5.9000e+000 104636  1.4527e+001 -9.2570e+001  1.4374e+001 28366 104110,104208,104610
 5.9000e+000 105349 -2.3410e+001 -8.6541e+001 -8.2371e+000 27976 105516,105372,105107
 5.9000e+000 105326 -3.8618e+001 -8.8796e+001  2.8914e+000 27976 105588,105372,105055
 5.9000e+000 105303 -4.1466e+001 -8.6024e+001 -1.0791e+001 27976 105444,105159,105133
 5.9000e+000 105280 -1.3827e+001 -8.9326e+001 -5.0647e+000 27976 105516,105107,105081
 5.9000e+000 105257 -3.6399e+001 -9.7973e+001  8.4366e+000 27976 105588,105055,105029
 5.9000e+000 105234 -1.9798e+001 -7.3896e+001  2.9806e+000 27976 105003,105185,105159
 5.9000e+000 105211 -2.6910e+001 -5.9051e+001  1.3384e+001 27976 104977,105185,105003
 5.9000e+000 105398 -1.9038e+001 -9.0000e+001 -1.0806e+001 27976 105133,105107,105372
 5.9000e+000 105421 -3.2327e+001 -9.4246e+001 -6.0849e+000 27976 105444,105133,105372
 5.9000e+000 105470 -3.3355e+001 -7.2590e+001 -5.6433e+000 27976 105003,105159,105444
 5.9000e+000 105493 -2.6465e+001 -8.1536e+001 -3.4367e+000 27976 105003,105444,105372
 5.9000e+000 105542 -1.7025e+001 -8.6561e+001  1.5872e-001 27976 105055,105372,105516
 5.9000e+000 105565 -2.2837e+000 -8.7188e+001  2.2532e+000 27976 105055,105516,105081
 5.9000e+000 105614 -4.3522e+001 -9.7859e+001  7.3214e+000 27976 105003,105372,105588
 5.9000e+000 105637 -4.2570e+001 -1.0676e+002  1.3409e+001 27976 105003,105588,105029
 5.9000e+000 106143 -3.5197e+001 -1.2569e+002  8.0157e+000 27664 106166,105846,105820
 5.9000e+000 106120 -2.3041e+001 -9.1175e+001  3.9722e+000 27664 106310,106166,105820
 5.9000e+000 106097 -9.5779e+000 -1.1384e+002 -2.3943e+001 27664 106382,106238,105950
 5.9000e+000 106074 -1.5092e+001 -8.7449e+001  2.6813e+000 27664 106310,105820,106002
 5.9000e+000 106051  1.1475e+001 -1.0240e+002 -1.9410e+001 27664 106382,105950,105924
 5.9000e+000 106028  3.2927e-001 -1.8896e+002 -5.0107e+000 27664 105846,105898,105872
 5.9000e+000 106192 -3.1603e+001 -1.4139e+002 -1.9642e+001 27664 105898,105846,106166
 5.9000e+000 106215 -1.7332e+001 -1.1726e+002 -8.0089e+000 27664 106238,105898,106166
 5.9000e+000 106264 -6.0605e+001 -1.2660e+002 -3.2093e+001 27664 105976,105950,106238
 5.9000e+000 106287 -1.7926e+001 -1.1494e+002 -8.6636e+000 27664 105976,106238,106166
 5.9000e+000 106336 -1.4817e+001 -9.9621e+001  1.2370e+001 27664 105976,106166,106310
 5.9000e+000 106359 -5.3463e+000 -9.4999e+001  1.0694e+001 27664 105976,106310,106002
 5.9000e+000 106408 -1.9043e+001 -9.5818e+001 -2.1907e-001 27664 105898,106238,106382
 5.9000e+000 106431 -6.3153e+000 -8.9649e+001  2.4420e+000 27664 105898,106382,105924
 5.9000e+000 106728 -1.0129e+001 -6.6806e+001  1.3035e+001 27153 106751,106506,106454
 5.9000e+000 106705 -9.9346e+000 -6.8632e+001  1.0601e+001 27153 106751,106454,106610
 5.9000e+000 106682 -1.6670e+001 -5.3095e+001  3.7495e+000 27153 106454,106506,106480
 5.9000e+000 106659 -1.6558e+001 -6.5041e+001  7.3513e+000 27153 106532,106610,106584
 5.9000e+000 106636 -2.6152e+001 -3.6309e+001  1.5219e+001 27153 106532,106584,106558
 5.9000e+000 106777 -7.2053e+000 -6.4196e+001  1.4132e+001 27153 106532,106506,106751
 5.9000e+000 106800 -8.0515e+000 -6.7023e+001  1.1349e+001 27153 106532,106751,106610
 5.9000e+000 107180 -1.3379e+001 -8.4720e+001  4.7689e+000 26642 107203,106984,106958
 5.9000e+000 107157 -4.1828e+001 -9.7976e+001  1.6064e-003 26642 107203,106958,106932
 5.9000e+000 107134 -5.0722e+001 -1.0846e+002 -1.6221e+001 26642 107275,107036,107010
 5.9000e+000 107111 -3.3706e+001 -1.0568e+002 -2.1585e+001 26642 106932,107062,107036
 5.9000e+000 107088 -1.0126e+000 -8.2136e+001  9.1698e+000 26642 106906,107062,106932
 5.9000e+000 107229  7.0551e-001 -7.9697e+001 -2.6536e+001 26642 107010,106984,107203
 5.9000e+000 107252 -4.4235e+001 -9.9590e+001 -1.9679e+001 26642 107275,107010,107203
 5.9000e+000 107301 -4.2969e+001 -1.0729e+002 -2.1083e+001 26642 106932,107036,107275
 5.9000e+000 107324 -4.0841e+001 -1.0743e+002 -2.2147e+001 26642 106932,107275,107203
 5.9000e+000 107675 -2.6170e+001 -6.4741e+001  8.1119e+000 26045 107450,107554,107476
 5.9000e+000 107652 -2.1660e+001 -5.7711e+001  4.2080e+000 26045 107450,107580,107554
 5.9000e+000 107629 -1.3135e+001 -3.9343e+001 -6.6573e-001 26045 107476,107528,107502
 5.9000e+000 107606 -6.1958e+000 -5.8990e+001  6.1075e+000 26045 107476,107554,107528
 5.9000e+000 107874 -1.6964e+001 -9.4493e+001  2.4419e+001 25641 107750,107802,107776
 5.9000e+000 107851 -2.0627e+001 -6.7441e+001  1.4137e+001 25641 107724,107802,107750
 5.9000e+000 107828 -2.3536e+001 -6.8399e+001  1.4295e+001 25641 107698,107802,107724
 5.9000e+000 108431 -7.0464e+000 -1.0363e+002  1.9666e+001 25023 108526,108267,108241
 5.9000e+000 108408 -9.9945e-002 -9.6731e+001  3.5788e+000 25023 108059,108267,108085
 5.9000e+000 108385 -1.4593e+001 -1.0830e+002  1.9190e+001 25023 108454,108163,108111
 5.9000e+000 108362 -5.0501e+001 -1.0846e+002  3.3462e+001 25023 108454,108111,108085
 5.9000e+000 108339 -3.8030e+001 -1.4026e+002  3.2768e+001 25023 108111,108163,108137
 5.9000e+000 108316 -2.6177e+001 -7.8161e+001 -5.5046e+000 25023 108163,108241,108215
 5.9000e+000 108293  7.0379e+000 -6.2812e+001  9.1851e-001 25023 108163,108215,108189
 5.9000e+000 108480 -2.5411e+000 -9.5812e+001  1.5894e+000 25023 108241,108163,108454
 5.9000e+000 108503 -1.4688e+001 -1.0195e+002  1.9459e+001 25023 108526,108241,108454
 5.9000e+000 108552 -1.6492e+001 -1.0244e+002  1.5161e+001 25023 108085,108267,108526
 5.9000e+000 108575 -2.4514e+001 -1.0119e+002  1.4783e+001 25023 108085,108526,108454
 5.9000e+000 108823  6.1136e+000 -7.3509e+001  1.1372e+001 24461 108624,108728,108650
 5.9000e+000 108800 -8.1052e+000 -1.5938e+002 -1.2130e+001 24461 108598,108728,108624
 5.9000e+000 108777  6.7037e-001 -9.7067e+001  7.1767e+000 24461 108650,108728,108676
 5.9000e+000 108754 -4.1670e+001 -2.7683e+002  2.4077e+001 24461 108676,108728,108702
 5.9000e+000 109022 -2.7458e+001 -7.5984e+001  1.1747e+001 24121 108872,108924,108898
 5.9000e+000 108999 -1.8164e+001 -7.6156e+001  1.2957e+001 24121 108846,108924,108872
 5.9000e+000 108976 -3.2439e+001 -8.2310e+001  1.3601e+001 24121 108846,108950,108924
 5.9000e+000 109483 -3.2773e+001 -1.0854e+002 -1.1282e+001 23717 109209,109339,109235
 5.9000e+000 109460 -1.3135e+001 -1.2515e+002 -2.6001e+001 23717 109209,109365,109339
 5.9000e+000 109437 -1.1409e+000 -1.3672e+002 -8.1887e+000 23717 109287,109339,109313
 5.9000e+000 109414 -6.1284e+001 -1.3777e+002  7.0335e+000 23717 109235,109339,109287
 5.9000e+000 109391  5.3051e+000 -1.6343e+002  6.0025e+001 23717 109235,109287,109261
 5.9000e+000 109910 -4.3516e+001 -1.2887e+002 -1.3059e+001 23305 109613,109743,109717
 5.9000e+000 109887 -4.3414e+001 -1.2955e+002 -9.1661e+000 23305 109613,109769,109743
 5.9000e+000 109864 -5.1618e+001 -1.2172e+002 -1.1703e+001 23305 109613,109717,109639
 5.9000e+000 109841 -3.2886e+001 -1.1860e+002 -4.0761e+000 23305 109587,109769,109613
 5.9000e+000 109818  1.2754e+000 -9.9349e+001  8.9361e+000 23305 109639,109717,109691
 5.9000e+000 109795 -9.7587e+000 -7.8367e+001 -1.9786e+001 23305 109639,109691,109665
 5.9000e+000 110180 -4.0067e+000 -3.6945e+001 -7.8416e+000 22851 110007,110059,110033
 5.9000e+000 110157 -2.7150e+001 -1.0030e+002  5.2140e+000 22851 109981,110059,110007
 5.9000e+000 110134 -3.8225e+001 -1.0997e+002  3.4317e-001 22851 109955,110059,109981
 5.9000e+000 110111 -1.5576e+001 -1.2491e+002 -9.9453e+000 22851 109955,110085,110059
 5.9000e+000 110737 -1.0395e+001 -1.0879e+002 -3.1222e+001 22333 110760,110469,110391
 5.9000e+000 110714 -1.0627e+000 -1.2638e+002 -2.4281e+001 22333 110760,110391,110365
 5.9000e+000 110691 -8.4222e+000 -9.6117e+001 -2.4261e+001 22333 110832,110521,110469
 5.9000e+000 110668 -2.3338e+001 -1.9402e+002  1.4968e+001 22333 110417,110469,110443
 5.9000e+000 110645 -4.9652e+001 -1.7517e+002  9.9546e+000 22333 110391,110469,110417
 5.9000e+000 110622 -2.1692e+000 -9.7848e+001 -1.2455e+001 22333 110469,110521,110495
 5.9000e+000 110599 -9.1767e+000 -6.9721e+001  9.9638e+000 22333 110365,110573,110547
 5.9000e+000 110786 -4.0149e+000 -9.9620e+001 -2.8346e+001 22333 110832,110469,110760
 5.9000e+000 110809  9.8742e+000 -1.0955e+002 -1.9484e+001 22333 110547,110760,110365
 5.9000e+000 110858 -9.5091e+000 -1.0393e+002 -2.3140e+001 22333 110547,110521,110832
 5.9000e+000 110881 -7.8952e+000 -1.1114e+002 -2.7994e+001 22333 110547,110832,110760
 5.9000e+000 111308 -5.4392e+001 -1.3381e+002  1.0506e+001 21829 111331,111063,111011
 5.9000e+000 111285 -4.7322e+001 -1.2118e+002 -3.0217e+000 21829 111331,111011,111167
 5.9000e+000 111262 -5.6427e+001 -1.3490e+002  1.1095e+001 21829 111403,111089,111063
 5.9000e+000 111239 -6.9681e+001 -1.4403e+002  2.1608e+001 21829 111011,111063,111037
 5.9000e+000 111216 -3.0448e+001 -8.9014e+001  3.8978e+000 21829 110985,111167,111011
 5.9000e+000 111193 -7.4168e+001 -2.4301e+002  5.2716e+001 21829 111089,111141,111115
 5.9000e+000 111357 -5.4735e+001 -1.3640e+002  1.1047e+001 21829 111403,111063,111331
 5.9000e+000 111380 -5.6832e+001 -1.4047e+002  5.9243e-002 21829 111141,111331,111167
 5.9000e+000 111429 -6.1786e+001 -1.3723e+002  1.1518e+001 21829 111141,111089,111403
 5.9000e+000 111452 -5.7455e+001 -1.3734e+002  1.1707e+001 21829 111141,111403,111331
 5.9000e+000 112056  4.7160e+001 -9.4849e+001  2.4615e+000 21489 111687,111765,111739
 5.9000e+000 112033  1.7292e+001 -1.1057e+002  1.1994e+001 21489 112151,112079,111687
 5.9000e+000 112010  3.2119e+000 -1.7380e+002  7.9456e+000 21489 111791,111843,111817
 5.9000e+000 111987 -2.5519e+001 -1.4121e+002 -1.2368e+001 21489 112079,111843,111791
 5.9000e+000 111964  3.5322e+001 -1.0068e+002  2.2520e+001 21489 112151,111687,111661
 5.9000e+000 111941 -2.2222e+000 -7.2958e+001  1.6972e+001 21489 111661,111869,111843
 5.9000e+000 111918  4.9143e+001 -1.0332e+002  1.7185e+001 21489 111687,111739,111713
 5.9000e+000 111895  1.5837e+001 -3.1085e+001  4.0956e+000 21489 111635,111869,111661
 5.9000e+000 112105 -1.1071e+001 -1.2029e+002  6.9281e+000 21489 111765,111687,112079
 5.9000e+000 112128 -1.0313e+001 -1.1492e+002  7.1461e+000 21489 111765,112079,111791
 5.9000e+000 112177 -1.2559e+001 -1.0789e+002 -4.1934e+000 21489 111843,112079,112151
 5.9000e+000 112200  3.5998e+000 -1.0378e+002  4.3204e+000 21489 111843,112151,111661
 5.9000e+000 112578 -1.8494e+001 -1.4134e+002  6.8102e+000 21177 112382,112434,112408
 5.9000e+000 112555 -2.4856e+001 -1.3818e+002  1.7043e-001 21177 112330,112434,112382
 5.9000e+000 112532 -1.4098e+001 -1.1412e+002  2.4378e+001 21177 112304,112434,112330
 5.9000e+000 112509 -2.5120e+001 -1.3160e+002  0.0000e+000 21177 112330,112382,112356
 5.9000e+000 112486 -3.5314e+000 -5.6835e+001  3.2042e+000 21177 112304,112460,112434
 5.9000e+000 112679  8.7002e-001 -6.4990e+001 -1.9265e+001 20666 112601,112653,112627
 5.9000e+000 112927 -4.3308e+001 -1.4614e+002  5.0504e+000 19762 112702,112754,112728
 5.9000e+000 112904 -1.6068e+001 -1.3921e+002 -1.5577e+000 19762 112702,112832,112754
 5.9000e+000 112881 -3.6213e+001 -1.4914e+002  2.3572e+001 19762 112754,112832,112806
 5.9000e+000 112858 -5.2348e+001 -1.9419e+002  2.5380e+001 19762 112754,112806,112780
 5.9000e+000 113297 -3.9231e+001 -1.7721e+002  1.1626e+001 19308 112974,113052,113026
 5.9000e+000 113274 -2.6959e+001 -1.4753e+002  4.1824e+000 19308 112974,113156,113052
 5.9000e+000 113251 -1.5737e+001 -1.9569e+002 -2.3433e+001 19308 113052,113130,113104
 5.9000e+000 113228 -2.9503e+001 -1.4722e+002  3.4636e-002 19308 113052,113156,113130
 5.9000e+000 113205 -2.8887e+001 -1.7042e+002  0.0000e+000 19308 113052,113104,113078
 5.9000e+000 113182 -5.7301e+001 -1.8496e+002 -1.0594e+000 19308 112974,113026,113000
 5.9000e+000 113547  5.2732e-002 -1.5865e+002 -1.1006e+001 18711 113570,113374,113348
 5.9000e+000 113524 -4.6922e+000 -1.4501e+002 -6.4949e+000 18711 113570,113348,113452
 5.9000e+000 113501  2.0004e+000 -1.0566e+002 -2.9001e+001 18711 113322,113452,113348
 5.9000e+000 113478 -1.4858e+001 -1.4412e+002 -5.2636e+001 18711 113374,113426,113400
 5.9000e+000 113596  1.7931e-001 -1.4354e+002 -1.4362e+001 18711 113426,113374,113570
 5.9000e+000 113619 -5.2890e+000 -1.3182e+002 -6.9763e+000 18711 113426,113570,113452
 5.9000e+000 113771 -8.0093e+001 -2.0025e+002 -1.1248e+001 18307 113670,113722,113696
 5.9000e+000 113748 -6.2517e+001 -1.8728e+002 -5.2633e+000 18307 113644,113722,113670
 5.9000e+000 113972 -3.5971e+001 -1.6980e+002  3.6843e+000 17945 113822,113874,113848
 5.9000e+000 113949 -3.5628e+001 -1.6917e+002  4.0546e+000 17945 113822,113900,113874
 5.9000e+000 113926 -4.9327e+001 -1.3224e+002  7.0967e+001 17945 113796,113900,113822
 5.9000e+000 114075 -2.1572e+001 -2.4393e+002  2.7578e+001 17482 113997,114049,114023
 5.9000e+000 114479 -9.7546e+000 -1.3885e+002 -2.1652e+001 17042 114257,114361,114335
 5.9000e+000 114456 -3.2592e+001 -1.3219e+002 -3.6603e+000 17042 114205,114361,114257
 5.9000e+000 114433 -3.5915e+001 -1.5368e+002  5.9026e+000 17042 114205,114257,114231
 5.9000e+000 114410  2.7340e+001 -2.0695e+002 -1.1966e+001 17042 114283,114335,114309
 5.9000e+000 114387 -1.4030e+000 -1.7730e+002 -9.2072e+000 17042 114257,114335,114283
 5.9000e+000 114879 -7.3904e+001 -1.3619e+002 -2.2252e+000 16638 114631,114683,114657
 5.9000e+000 114856 -1.3579e+001 -1.1107e+002  2.2783e+000 16638 114605,114683,114631
 5.9000e+000 114833  2.1711e+001 -5.8785e+001 -1.5838e+001 16638 114605,114761,114683
 5.9000e+000 114810 -3.3503e+000 -1.5307e+002 -6.7287e+000 16638 114683,114735,114709
 5.9000e+000 114787 -8.5924e+000 -1.5966e+002 -1.0420e+001 16638 114683,114761,114735
 5.9000e+000 115078 -6.6617e+001 -1.5000e+002  4.1003e+000 16232 114954,115006,114980
 5.9000e+000 115055 -6.5929e+001 -1.6682e+002  7.6521e+000 16232 114928,115006,114954
 5.9000e+000 115032 -3.2010e+001 -2.0446e+002  1.4581e+001 16232 114902,115006,114928
 5.9000e+000 115228 -3.4848e+001 -1.4850e+002  4.9215e+000 15482 115101,115153,115127
 5.9000e+000 115205 -3.6229e+001 -1.4255e+002 -1.2702e+000 15482 115101,115179,115153
 5.9000e+000 115331 -2.5496e+001 -1.3399e+002 -1.7043e+001 15163 115253,115305,115279
 5.9000e+000 115434 -4.5773e+001 -1.4806e+002  2.5355e+001 421 115356,115408,115382
 6.0000e+000 68213 -5.4413e+000 -6.8204e+001 -7.6697e+000 67888 68112,68164,68138
 6.0000e+000 68190 -8.8097e+001 -9.3193e+001 -1.3153e+001 67888 68086,68164,68112
 6.0000e+000 68314 -1.1559e+001 -1.0452e+002  1.0063e+001 67576 68236,68288,68262
 6.0000e+000 68584 -4.8218e+001 -2.0330e+002  1.1353e+001 67378 68385,68489,68463
 6.0000e+000 68561 -1.2906e+001 -1.8678e+002  6.6331e+000 67378 68359,68489,68385
 6.0000e+000 68538 -3.6381e+001 -1.6890e+002  1.6406e+001 67378 68385,68463,68411
 6.0000e+000 68515 -1.7442e+001 -1.1345e+002  8.9891e+000 67378 68411,68463,68437
 6.0000e+000 68964 -5.0630e+001 -1.8767e+002  2.9335e+001 67130 68690,68820,68716
 6.0000e+000 68941  3.4863e+001 -1.9703e+002  5.3922e+001 67130 68690,68846,68820
 6.0000e+000 68918 -4.7221e+001 -1.2206e+002  5.3220e+000 67130 68742,68820,68794
 6.0000e+000 68895 -1.4059e+001 -1.2043e+002  1.2743e+001 67130 68716,68820,68742
 6.0000e+000 68872 -3.1209e+001 -9.9116e+001 -1.2138e+001 67130 68742,68794,68768
 6.0000e+000 69065 -4.2959e+001 -9.8489e+001  2.7795e+000 66926 68987,69039,69013
 6.0000e+000 69445 -2.7089e+001 -9.1373e+001 -4.8036e+000 66614 69223,69301,69275
 6.0000e+000 69422 -3.8797e+001 -9.7102e+001 -2.9596e+000 66614 69171,69301,69223
 6.0000e+000 69399 -4.3256e+001 -9.7066e+001 -7.7201e-001 66614 69171,69327,69301
 6.0000e+000 69376 -1.7036e+001 -5.1305e+001 -5.2208e-001 66614 69223,69275,69249
 6.0000e+000 69353 -3.2588e+001 -1.0050e+002 -1.9240e+000 66614 69171,69223,69197
 6.0000e+000 69546 -4.2102e+001 -1.6670e+002  1.0806e+001 66416 69468,69520,69494
 6.0000e+000 69997 -3.9071e+001 -1.6699e+002 -1.2139e+001 66104 69700,69830,69726
 6.0000e+000 69974 -5.3316e+001 -2.0259e+002 -2.5597e+001 66104 69700,69856,69830
 6.0000e+000 69951 -4.2249e+001 -1.2882e+002 -9.3522e+000 66104 69726,69804,69778
 6.0000e+000 69928 -3.4438e+001 -1.5566e+002 -1.2705e+001 66104 69726,69830,69804
 6.0000e+000 69905 -4.3833e+001 -1.2202e+002 -4.0428e+000 66104 69726,69778,69752
 6.0000e+000 69882 -1.6749e+001 -2.7828e+002 -5.3132e+001 66104 69674,69856,69700
 6.0000e+000 70326 -3.1826e+001 -7.5933e+001  8.7138e-001 65814 70349,70153,70127
 6.0000e+000 70303 -1.8911e+001 -7.4964e+001  3.4728e+000 65814 70349,70127,70101
 6.0000e+000 70280 -1.6718e+001 -7.0654e+001  2.9731e+001 65814 70101,70231,70205
 6.0000e+000 70257 -2.0964e+000 -8.0458e+001  1.1081e+001 65814 70153,70205,70179
 6.0000e+000 70375 -2.5775e+001 -7.9741e+001  1.0886e+001 65814 70205,70153,70349
 6.0000e+000 70398 -6.2696e+000 -7.5819e+001  1.2098e+001 65814 70205,70349,70101
 6.0000e+000 70904 -1.3137e+001 -3.6113e+001 -1.4529e+001 65502 70607,70737,70685
 6.0000e+000 70881 -1.9395e+001 -2.8351e+001 -1.8478e+001 65502 70581,70737,70607
 6.0000e+000 70858 -1.8326e+001 -2.8342e-001 -3.7587e+000 65502 70581,70763,70737
 6.0000e+000 70835 -1.8524e+001 -3.9403e+001 -1.8434e+001 65502 70685,70737,70711
 6.0000e+000 70812 -7.5728e+001 -4.8150e+001  1.2532e-001 65502 70607,70659,70633
 6.0000e+000 70789 -2.1870e+001 -5.1576e+001  1.5936e+000 65502 70607,70685,70659
 6.0000e+000 71103 -1.9186e+001 -1.4206e+002 -4.9141e+000 65304 71126,70979,70953
 6.0000e+000 71080 -3.8108e+001 -1.3945e+002 -2.4332e+000 65304 71126,70953,70927
 6.0000e+000 71057 -5.5705e+001 -1.4465e+002  5.3672e+000 65304 70927,71031,71005
 6.0000e+000 71152 -3.7353e+001 -1.3670e+002 -1.0445e+001 65304 71005,70979,71126
 6.0000e+000 71175 -5.7424e+001 -1.3541e+002 -3.9247e+000 65304 71005,71126,70927
 6.0000e+000 71374 -3.1538e+001 -1.3194e+002  7.0821e+000 65106 71198,71276,71224
 6.0000e+000 71351 -3.9472e+001 -1.3931e+002  3.7497e+000 65106 71198,71302,71276
 6.0000e+000 71328 -2.5733e+001 -1.1479e+002  1.7912e+001 65106 71224,71276,71250
 6.0000e+000 71756 -1.8687e+001 -9.3734e+001 -6.6061e+000 64652 71508,71638,71534
 6.0000e+000 71733  2.0695e-001 -8.5914e+001 -1.4683e-001 64652 71482,71638,71508
 6.0000e+000 71710 -4.2648e+001 -1.0066e+002 -9.9825e+000 64652 71534,71586,71560
 6.0000e+000 71687 -3.7287e+001 -1.0619e+002 -1.7529e+001 64652 71534,71612,71586
 6.0000e+000 71664 -4.8561e+001 -1.0975e+002 -1.7847e+001 64652 71534,71638,71612
 6.0000e+000 72085 -4.7190e+001 -1.0737e+002 -1.5506e+001 64248 71886,71964,71912
 6.0000e+000 72062 -3.7516e+001 -1.0574e+002 -1.4103e+001 64248 71860,71964,71886
 6.0000e+000 72039 -1.9346e+001 -1.1572e+002 -1.0673e+001 64248 71912,71964,71938
 6.0000e+000 72016 -4.3212e+001 -1.0194e+002 -1.2546e+001 64248 71860,71990,71964
 6.0000e+000 72235 -4.0615e+000 -6.8614e+001 -8.6007e+000 63858 72588,72258,72134
 6.0000e+000 72212 -2.2945e+001 -6.1772e+001  2.2675e+000 63858 72330,72258,72108
 6.0000e+000 72284 -1.7075e+001 -4.5836e+001 -6.1598e+000 63858 72160,72134,72258
 6.0000e+000 72307 -4.5271e+001 -6.6264e+001 -1.1250e+001 63858 72460,72258,72186
 6.0000e+000 72356 -3.8532e+001 -6.4112e+001 -1.1432e+001 63858 72186,72258,72330
 6.0000e+000 72486 -2.4310e+001 -6.5710e+001 -8.2739e+000 63858 72160,72258,72460
 6.0000e+000 72614 -1.2852e+001 -7.5358e+001 -1.1980e-001 63858 72108,72258,72588
 6.0000e+000 73248 -3.2547e+001 -1.2977e+002  2.5575e+001 63404 72902,72954,72928
 6.0000e+000 73225 -6.2409e+001 -1.2297e+002  1.1962e+001 63404 73271,72954,72902
 6.0000e+000 73202 -5.5767e+001 -9.8415e+001  1.0257e+001 63404 73271,72902,73032
 6.0000e+000 73179 -4.0653e+001 -8.6252e+001  2.8916e+000 63404 72902,73058,73032
 6.0000e+000 73156 -5.5090e+001 -1.1900e+002 -1.9506e+000 63404 72980,73032,73006
 6.0000e+000 73133 -3.9103e+001 -8.4099e+001  3.8135e+000 63404 72876,73058,72902
 6.0000e+000 73110 -1.0338e+001 -3.9688e+001 -2.0156e+001 63404 72876,73084,73058
 6.0000e+000 73297 -5.3801e+001 -1.2650e+002 -2.9000e+000 63404 72980,72954,73271
 6.0000e+000 73320 -5.3280e+001 -1.1316e+002 -2.4394e+000 63404 72980,73271,73032
 6.0000e+000 73470 -4.3243e+001 -2.8632e+002  3.0929e+001 63014 73343,73395,73369
 6.0000e+000 73447 -1.3540e+002 -3.4995e+002 -6.2171e+000 63014 73343,73421,73395
 6.0000e+000 73929 -1.0180e+001 -1.2362e+002  6.5963e+000 62702 73759,73811,73785
 6.0000e+000 73906 -3.3648e+000 -1.1962e+002  8.8927e+000 62702 73655,73811,73759
 6.0000e+000 73883 -2.2332e+001 -1.3379e+002  1.2182e-001 62702 73655,73759,73681
 6.0000e+000 73860 -6.8894e+000 -1.0216e+002 -1.7606e+001 62702 73681,73759,73707
 6.0000e+000 73837 -5.8497e+001 -1.1323e+002  3.0812e+000 62702 73707,73759,73733
 6.0000e+000 74209 -7.7906e+001 -1.1318e+002  1.0630e+000 62404 74059,74137,74085
 6.0000e+000 74186 -8.9837e+001 -1.4689e+002  1.7127e+001 62404 74033,74137,74059
 6.0000e+000 74163 -7.7861e+001 -1.0182e+002  2.2866e+000 62404 74085,74137,74111
 6.0000e+000 74408 -7.3390e+000 -9.9560e+001  5.4438e+000 62000 74258,74336,74284
 6.0000e+000 74385 -1.1715e+000 -9.5046e+001  1.1267e+001 62000 74232,74336,74258
 6.0000e+000 74362 -2.5508e+001 -9.9818e+001 -8.5116e-001 62000 74284,74336,74310
 6.0000e+000 74509 -9.8827e+000 -1.0335e+002  1.0663e+001 61802 74431,74483,74457
 6.0000e+000 74759 -4.1973e+001 -9.6683e+001  2.1957e+000 61554 74782,74586,74560
 6.0000e+000 74736 -2.9285e+001 -9.1344e+001  3.5955e+000 61554 74782,74560,74664
 6.0000e+000 74713 -3.7988e+001 -7.5474e+001  2.6457e+001 61554 74854,74612,74586
 6.0000e+000 74690 -3.4639e+001 -9.8976e+001  7.8459e-001 61554 74534,74664,74560
 6.0000e+000 74808 -4.9015e+001 -9.1412e+001  7.7541e+000 61554 74854,74586,74782
 6.0000e+000 74831 -3.2865e+001 -1.1599e+002  6.0965e+000 61554 74638,74782,74664
 6.0000e+000 74880 -1.3864e+001 -9.1908e+001  2.8356e+001 61554 74638,74612,74854
 6.0000e+000 74903 -1.4271e+001 -9.0195e+001  1.4229e+001 61554 74638,74854,74782
 6.0000e+000 75285 -1.8909e+001 -9.8130e+001  6.4781e-001 61356 75063,75167,75115
 6.0000e+000 75262 -2.2551e+001 -1.0229e+002 -4.7267e+000 61356 75037,75167,75063
 6.0000e+000 75239 -3.7930e+000 -9.9719e+001 -7.8622e-001 61356 75115,75167,75141
 6.0000e+000 75216 -1.4610e+001 -9.5045e+001  2.0827e+000 61356 75063,75115,75089
 6.0000e+000 75193 -4.2110e+001 -8.4165e+001  5.6852e+000 61356 75011,75167,75037
 6.0000e+000 75631 -9.2398e+000 -7.7815e+001  4.2911e+000 60952 75654,75412,75360
 6.0000e+000 75608 -1.6734e+001 -8.9834e+001 -4.6890e-001 60952 75654,75360,75334
 6.0000e+000 75585 -1.9028e+001 -1.1857e+002  7.4507e+000 60952 75726,75438,75412
 6.0000e+000 75562 -1.0989e+001 -8.8526e+001 -1.4146e+001 60952 75308,75490,75334
 6.0000e+000 75539 -1.4454e+001 -7.8634e+001  8.7226e-001 60952 75360,75412,75386
 6.0000e+000 75516 -2.5897e+001 -1.3966e+002 -4.8203e+000 60952 75438,75490,75464
 6.0000e+000 75680 -9.1213e+000 -9.6432e+001  4.4478e+000 60952 75726,75412,75654
 6.0000e+000 75703 -9.3142e+000 -8.9695e+001 -1.9365e+000 60952 75490,75654,75334
 6.0000e+000 75752 -1.1219e+001 -9.3125e+001  4.1447e-001 60952 75490,75438,75726
 6.0000e+000 75775 -1.1528e+001 -9.1392e+001 -2.7845e+000 60952 75490,75726,75654
 6.0000e+000 76155 -1.9551e+001 -9.5824e+001 -2.2403e+000 60754 75933,75985,75959
 6.0000e+000 76132 -3.1855e+001 -1.0333e+002  1.0816e+001 60754 75933,76037,75985
 6.0000e+000 76109  1.4465e-001 -9.7637e+001  2.2397e+000 60754 75985,76037,76011
 6.0000e+000 76086 -4.6586e+001 -8.9001e+001  2.6548e+000 60754 75881,76037,75933
 6.0000e+000 76063 -6.0590e+001 -8.4497e+001  1.8369e+001 60754 75881,75933,75907
 6.0000e+000 76612 -1.9283e+001 -9.5643e+001  5.9689e+000 60350 76635,76442,76390
 6.0000e+000 76589 -2.1055e+000 -1.1003e+002  9.5453e+000 60350 76635,76390,76364
 6.0000e+000 76566 -7.2218e+000 -1.4401e+002 -8.8937e+000 60350 76364,76494,76468
 6.0000e+000 76543 -1.3364e+000 -8.7333e+001  8.6008e+000 60350 76390,76442,76416
 6.0000e+000 76520 -5.4558e+001 -8.9077e+001 -2.2601e+001 60350 76338,76494,76364
 6.0000e+000 76661 -2.8337e+001 -1.0569e+002  1.0438e+001 60350 76468,76442,76635
 6.0000e+000 76684 -1.5569e+001 -1.2132e+002  1.5510e+001 60350 76468,76635,76364
 6.0000e+000 76932 -4.2186e+001 -1.0842e+002 -3.8731e-001 59946 76955,76733,76707
 6.0000e+000 76909 -4.2851e+001 -1.0956e+002  1.3784e+000 59946 77027,76955,76707
 6.0000e+000 76886 -4.1576e+001 -1.1064e+002  9.9287e-001 59946 77027,76707,76837
 6.0000e+000 76863 -1.9937e+001 -1.1609e+002 -1.3187e+001 59946 76733,76785,76759
 6.0000e+000 76981 -4.7273e+001 -1.0927e+002 -2.0656e+000 59946 76785,76733,76955
 6.0000e+000 77004 -4.3414e+001 -1.0434e+002  4.1559e-001 59946 76785,76955,76811
 6.0000e+000 77053 -4.1498e+001 -1.0783e+002  2.4030e+000 59946 76811,76955,77027
 6.0000e+000 77076 -4.1108e+001 -1.0977e+002  1.8649e+000 59946 76811,77027,76837
 6.0000e+000 77226 -4.3496e+001 -1.1680e+002  3.3104e+000 59542 77099,77151,77125
 6.0000e+000 77203 -5.9347e+001 -1.4781e+002  9.1019e+000 59542 77099,77177,77151
 6.0000e+000 77427 -6.0889e+001 -1.2400e+002 -7.4275e+000 59030 77450,77277,77251
 6.0000e+000 77404 -4.0164e+001 -1.0549e+002 -3.3443e+001 59030 77450,77251,77355
 6.0000e+000 77381 -2.1611e+001 -1.4373e+002 -3.4913e+000 59030 77277,77329,77303
 6.0000e+000 77476 -3.4612e+001 -1.2769e+002 -2.0568e+001 59030 77329,77277,77450
 6.0000e+000 77499 -1.0200e+001 -1.1917e+002 -4.1291e+001 59030 77329,77450,77355
 6.0000e+000 77749 -4.9472e+001 -1.5558e+002  1.2674e+001 58426 77772,77628,77602
 6.0000e+000 77726 -3.0176e+001 -1.7402e+002  3.0607e+001 58426 77524,77654,77628
 6.0000e+000 77703 -4.2106e+001 -1.5286e+002  9.8552e+000 58426 77772,77602,77550
 6.0000e+000 77680 -2.7689e+001 -1.4446e+002 -5.7180e+000 58426 77550,77602,77576
 6.0000e+000 77798 -4.0753e+001 -1.5799e+002  1.1838e+001 58426 77524,77628,77772
 6.0000e+000 77821 -3.6451e+001 -1.5665e+002  8.3757e+000 58426 77524,77772,77550
 6.0000e+000 78071 -6.4050e+001 -1.3973e+002  1.5856e+001 57922 78094,77924,77898
 6.0000e+000 78048 -7.2414e+001 -1.3378e+002  1.5357e+000 57922 78094,77898,77872
 6.0000e+000 78025 -5.8878e+001 -1.1962e+002  1.4186e+001 57922 78166,77846,77950
 6.0000e+000 78002 -3.2574e+001 -1.1689e+002  1.6102e+001 57922 77846,77976,77950
 6.0000e+000 78120 -5.0816e+001 -1.3313e+002  1.0210e+001 57922 77950,77924,78094
 6.0000e+000 78143 -6.0473e+001 -1.2208e+002  1.0598e+001 57922 78166,77950,78094
 6.0000e+000 78192 -5.5179e+001 -1.2609e+002  9.8128e+000 57922 77872,77846,78166
 6.0000e+000 78215 -6.0296e+001 -1.3270e+002  5.8227e+000 57922 77872,78166,78094
 6.0000e+000 78416  9.2647e+000 -1.1623e+002 -5.3581e+000 57468 78439,78292,78240
 6.0000e+000 78393 -7.0580e+000 -1.1069e+002  2.9522e-002 57468 78439,78240,78344
 6.0000e+000 78370  1.7597e+000 -1.5861e+002 -3.1949e+000 57468 78240,78292,78266
 6.0000e+000 78465 -6.5898e+000 -1.2417e+002 -8.6323e+000 57468 78318,78292,78439
 6.0000e+000 78488 -1.3254e+001 -1.1467e+002 -1.7530e+000 57468 78318,78439,78344
 6.0000e+000 78689  3.1083e+000 -1.3682e+002 -1.3496e+001 57014 78712,78539,78513
 6.0000e+000 78666 -1.4674e+001 -1.3557e+002 -1.9244e+000 57014 78712,78513,78617
 6.0000e+000 78643 -2.9797e+001 -1.3275e+002  1.3650e+001 57014 78565,78617,78591
 6.0000e+000 78738 -1.9666e+001 -1.1871e+002 -1.3709e+001 57014 78565,78539,78712
 6.0000e+000 78761 -4.5278e+001 -1.3263e+002  4.9010e+000 57014 78565,78712,78617
 6.0000e+000 79241 -4.5292e+001 -1.2286e+002  8.9897e+000 56652 79264,78895,78869
 6.0000e+000 79218 -2.1706e+001 -1.5958e+002 -1.0332e+001 56652 79264,78869,79051
 6.0000e+000 79195 -3.2614e+001 -1.3967e+002 -3.2866e+001 56652 78869,79077,79051
 6.0000e+000 79172 -3.5116e+001 -8.3006e+001 -1.6818e+001 56652 78895,78973,78947
 6.0000e+000 79149 -5.8373e+001 -2.4391e+002 -2.0475e+001 56652 78973,79051,78999
 6.0000e+000 79126 -2.9606e+001 -7.6791e+001 -1.9147e+001 56652 78895,78947,78921
 6.0000e+000 79103 -4.2839e+001 -1.5791e+002  3.6066e+001 56652 78999,79051,79025
 6.0000e+000 79290 -2.7182e+001 -9.9852e+001  2.1664e+001 56652 78973,78895,79264
 6.0000e+000 79313 -2.0131e+000 -1.3936e+002  3.4993e+000 56652 78973,79264,79051
 6.0000e+000 79512 -1.2856e+001 -1.8299e+002  1.3406e+001 56062 79388,79440,79414
 6.0000e+000 79489 -6.4392e+001 -9.3350e+001  2.4142e+001 56062 79336,79440,79388
 6.0000e+000 79466 -1.8780e+001 -1.3982e+002  2.7008e+001 56062 79336,79388,79362
 6.0000e+000 79941 -1.7857e+001 -9.1292e+001  1.7221e+001 55658 79964,79670,79644
 6.0000e+000 79918 -2.8293e+001 -9.3004e+001  1.9243e+001 55658 79964,79644,79800
 6.0000e+000 79895 -2.7075e+001 -9.7542e+001  1.1127e+001 55658 80036,79696,79670
 6.0000e+000 79872 -3.1459e+001 -8.1977e+001  1.8551e+000 55658 80108,79722,79696
 6.0000e+000 79849 -4.4822e+001 -7.6681e+001  1.0307e+001 55658 79722,79774,79748
 6.0000e+000 79826 -9.6062e-002 -8.3412e+001  5.5899e+000 55658 79618,79800,79644
 6.0000e+000 79990 -2.9078e+001 -9.7903e+001  1.3683e+001 55658 80036,79670,79964
 6.0000e+000 80013 -2.5910e+001 -8.6285e+001  2.0062e+001 55658 79774,79964,79800
 6.0000e+000 80062 -2.2982e+001 -8.8481e+001  9.9899e+000 55658 80108,79696,80036
 6.0000e+000 80085 -2.9517e+001 -8.7570e+001  1.8326e+001 55658 79774,80036,79964
 6.0000e+000 80134 -4.8088e+001 -8.8896e+001  5.5972e+000 55658 79774,79722,80108
 6.0000e+000 80157 -4.3329e+001 -9.7527e+001  1.3695e+001 55658 79774,80108,80036
 6.0000e+000 80307 -6.4210e+001 -9.5655e+001  6.2676e+000 55254 80402,80330,80206
 6.0000e+000 80284 -6.0509e+001 -1.2955e+002  7.9326e+000 55254 80330,80180,80258
 6.0000e+000 80356 -7.3642e+001 -1.1680e+002  2.0990e+001 55254 80232,80206,80330
 6.0000e+000 80379 -2.5580e+001 -9.5169e+001  3.1416e+001 55254 80232,80330,80258
 6.0000e+000 80428 -7.8726e+001 -1.1572e+002 -1.6837e+000 55254 80180,80330,80402
 6.0000e+000 80659 -2.7827e+001 -1.4251e+002 -1.0805e+001 54850 80558,80610,80584
 6.0000e+000 80636 -1.0117e+001 -1.3708e+002 -1.1428e+001 54850 80532,80610,80558
 6.0000e+000 80760 -8.9976e+000 -8.6303e+001 -5.1849e+000 54652 80682,80734,80708
 6.0000e+000 81164 -7.0047e+000 -9.1347e+001 -9.2601e-001 54248 81187,80942,80890
 6.0000e+000 81141 -9.9680e+000 -9.1990e+001  1.5446e-001 54248 81187,80890,81046
 6.0000e+000 81118 -1.0673e+001 -9.6039e+001  2.0211e+001 54248 80942,81020,80994
 6.0000e+000 81095 -5.6380e+000 -9.1015e+001  1.4452e+000 54248 80890,80942,80916
 6.0000e+000 81072 -1.6079e+001 -5.4277e+001  3.7519e+000 54248 80942,80994,80968
 6.0000e+000 81213 -1.0046e+001 -9.0506e+001 -9.5969e-001 54248 81020,80942,81187
 6.0000e+000 81236 -1.2612e+001 -9.0660e+001 -2.4239e-001 54248 81020,81187,81046
 6.0000e+000 81663 -6.3013e+001 -1.1234e+002  9.9231e+000 53594 81340,81444,81366
 6.0000e+000 81640 -6.0514e+001 -1.6633e+002  4.3350e+000 53594 81340,81470,81444
 6.0000e+000 81617 -3.5187e+001 -1.4633e+002 -1.7599e+001 53594 81340,81522,81470
 6.0000e+000 81594 -3.7348e+001 -8.0627e+001 -8.5817e+000 53594 81392,81444,81418
 6.0000e+000 81571 -4.7114e+001 -9.7254e+001 -1.3635e+001 53594 81366,81444,81392
 6.0000e+000 81548 -2.7884e+000 -1.9017e+002  1.3514e+001 53594 81470,81522,81496
 6.0000e+000 81943 -1.6729e+001 -7.4444e+001 -9.2649e+000 53104 81966,81845,81819
 6.0000e+000 81920 -2.4800e+001 -6.0362e+001 -1.1758e+001 53104 81966,81819,81767
 6.0000e+000 81897 -2.5478e+001 -6.1833e+001 -1.1953e+001 53104 81767,81819,81793
 6.0000e+000 81992 -1.1314e+001 -6.5606e+001 -1.1553e+001 53104 81871,81845,81966
 6.0000e+000 82015 -1.5461e+001 -4.5808e+001 -1.5957e+001 53104 81871,81966,81767
 6.0000e+000 82491 -1.9161e+001 -7.7539e+001 -9.8281e+000 52650 82145,82249,82171
 6.0000e+000 82468 -6.3170e+001 -9.2072e+001 -1.0833e+001 52650 82145,82301,82249
 6.0000e+000 82445 -6.6814e+001 -1.3849e+002 -2.2493e+001 52650 82249,82301,82275
 6.0000e+000 82422 -4.2152e+001 -1.7599e+002 -3.1675e+001 52650 82119,82301,82145
 6.0000e+000 82399 -2.3063e+001 -5.8379e+001  6.8002e+000 52650 82171,82249,82223
 6.0000e+000 82376 -3.2663e+000 -1.6107e+002 -1.6342e+001 52650 82119,82327,82301
 6.0000e+000 82353 -5.8292e+000 -2.9577e+001 -1.2258e+001 52650 82171,82223,82197
 6.0000e+000 82739 -2.5515e+001 -6.6746e+001 -8.2668e-001 52246 82762,82540,82514
 6.0000e+000 82716 -1.7412e+001 -3.1762e+001 -7.3255e+000 52246 82762,82514,82644
 6.0000e+000 82693 -3.6252e+001 -7.6496e+001  1.3796e+001 52246 82540,82618,82592
 6.0000e+000 82670 -3.9341e+001 -6.8350e+001  7.8028e+000 52246 82540,82592,82566
 6.0000e+000 82788 -1.7575e+001 -8.4760e+001  3.8695e+000 52246 82618,82540,82762
 6.0000e+000 82811 -2.3691e+001 -7.3146e+001 -6.1650e+000 52246 82618,82762,82644
 6.0000e+000 83059 -1.0555e+001 -9.7592e+001  8.8449e+000 51578 82860,82964,82938
 6.0000e+000 83036 -1.8134e+000 -7.0805e+001 -2.2151e+001 51578 82834,82964,82860
 6.0000e+000 83013 -5.5954e+000 -7.5608e+001  1.9277e+001 51578 82860,82938,82886
 6.0000e+000 82990 -4.7178e+000 -5.2802e+001  4.8820e+000 51578 82886,82938,82912
 6.0000e+000 83309 -1.9804e+001 -5.2296e+001  1.7557e+001 51138 83332,83162,83136
 6.0000e+000 83286 -7.7424e+000 -7.1653e+001  5.5064e+000 51138 83332,83136,83110
 6.0000e+000 83263 -2.6861e+001 -7.3652e+001 -2.7572e+000 51138 83404,83214,83188
 6.0000e+000 83240 -3.6624e-001 -4.1335e+001  4.1432e+000 51138 83084,83214,83110
 6.0000e+000 83358 -3.4266e+001 -7.7135e+001  2.5158e+001 51138 83188,83162,83332
 6.0000e+000 83381 -1.9104e+001 -8.2975e+001  5.7587e+000 51138 83404,83188,83332
 6.0000e+000 83430 -1.6269e+001 -4.9498e+001 -1.1548e+000 51138 83110,83214,83404
 6.0000e+000 83453 -1.1029e+001 -6.4256e+001  7.3109e+000 51138 83110,83404,83332
 6.0000e+000 83835 -2.1591e+001 -9.6426e+001 -1.0566e+000 50734 83613,83717,83691
 6.0000e+000 83812 -2.5167e+001 -1.0760e+002 -1.8578e+001 50734 83561,83717,83613
 6.0000e+000 83789 -1.5440e+001 -5.3307e+001 -2.8541e+001 50734 83561,83613,83587
 6.0000e+000 83766 -3.8066e+001 -6.7278e+001 -2.1769e-001 50734 83613,83691,83639
 6.0000e+000 83743 -4.0565e+001 -6.7697e+001  1.5089e+001 50734 83639,83691,83665
 6.0000e+000 84034 -2.5743e+001 -5.8221e+001  3.3217e+000 50230 84057,83884,83858
 6.0000e+000 84011 -2.5154e+001 -6.2036e+001 -5.2445e+000 50230 84129,84057,83858
 6.0000e+000 83988 -7.3161e+000 -6.6986e+001 -9.7167e+000 50230 84129,83858,83962
 6.0000e+000 84083 -1.8026e+001 -5.3469e+001 -8.4262e-001 50230 83910,83884,84057
 6.0000e+000 84106 -1.6887e+001 -5.0512e+001 -8.2335e-001 50230 83910,84057,83936
 6.0000e+000 84155 -1.8954e+000 -5.1410e+001 -3.3290e-002 50230 83936,84057,84129
 6.0000e+000 84178  4.9053e+000 -6.4246e+001 -7.0853e+000 50230 83936,84129,83962
 6.0000e+000 84558 -2.9782e+001 -7.9993e+001 -1.2362e+001 49768 84581,84388,84362
 6.0000e+000 84535 -5.9206e+001 -8.2226e+001 -5.1971e+000 49768 84581,84362,84310
 6.0000e+000 84512 -3.7828e-002 -8.9968e+001 -1.4286e+001 49768 84653,84440,84414
 6.0000e+000 84489 -4.7942e+001 -9.2127e+001  6.5501e+000 49768 84310,84362,84336
 6.0000e+000 84466 -2.5079e+000 -6.6646e+001  8.3529e+000 49768 84284,84440,84310
 6.0000e+000 84607 -9.9166e+000 -6.9749e+001 -2.1617e+001 49768 84414,84388,84581
 6.0000e+000 84630 -1.1784e+001 -8.3349e+001 -1.0078e+001 49768 84653,84414,84581
 6.0000e+000 84679 -1.5933e+001 -8.5519e+001 -1.9624e+001 49768 84310,84440,84653
 6.0000e+000 84702 -3.3161e+001 -8.5207e+001 -2.0129e+001 49768 84310,84653,84581
 6.0000e+000 85159 -4.8857e+001 -1.1065e+002 -2.8942e+001 49192 84885,84937,84911
 6.0000e+000 85136 -4.3636e+001 -7.7383e+001 -2.1948e+001 49192 84885,85041,84937
 6.0000e+000 85113 -2.9860e+001 -6.6645e+001 -1.0417e+001 49192 84963,85041,84989
 6.0000e+000 85090 -2.6485e+001 -6.0455e+001 -1.3978e+001 49192 84937,85041,84963
 6.0000e+000 85067 -2.5268e+001 -5.9072e+001 -1.6094e+001 49192 84989,85041,85015
 6.0000e+000 85714 -4.7150e+001 -7.2841e+001  6.9701e-001 48638 85368,85498,85394
 6.0000e+000 85691 -5.8898e+001 -8.5671e+001  5.8632e+000 48638 85368,85524,85498
 6.0000e+000 85668 -5.7451e+001 -7.2381e+001  2.3115e+001 48638 85737,85420,85394
 6.0000e+000 85645 -4.6251e+001 -8.0690e+001  1.1565e+001 48638 85737,85394,85498
 6.0000e+000 85622 -3.5176e+001 -8.0527e+001  1.7700e+001 48638 85446,85498,85472
 6.0000e+000 85599 -1.4962e+001 -6.8552e+001  8.8118e+000 48638 85342,85524,85368
 6.0000e+000 85576 -5.5202e+001 -7.8697e+001  9.1657e+000 48638 85342,85550,85524
 6.0000e+000 85763 -3.8843e+001 -6.3131e+001  2.8391e+001 48638 85446,85420,85737
 6.0000e+000 85786 -3.8804e+001 -7.3510e+001  1.5644e+001 48638 85446,85737,85498
 6.0000e+000 86371 -4.0415e+001 -5.2682e+001 -2.7521e+000 48084 86100,86230,86178
 6.0000e+000 86348 -5.1774e+001 -7.2579e+001 -8.5754e+000 48084 86048,86230,86100
 6.0000e+000 86325 -3.6033e+001 -4.6786e+001  1.4632e+001 48084 86100,86178,86126
 6.0000e+000 86302 -2.9370e+001 -1.9939e+001 -1.4647e+001 48084 86048,86100,86074
 6.0000e+000 86279 -5.0432e+001 -9.0456e+001 -1.6225e+000 48084 86178,86230,86204
 6.0000e+000 86256 -3.2127e+001 -4.6761e+001  1.5522e+001 48084 86126,86178,86152
 6.0000e+000 86619 -2.7215e+001 -5.8527e+001  5.6969e+000 47630 86642,86446,86420
 6.0000e+000 86596 -3.1296e+001 -6.5602e+001 -9.6195e+000 47630 86642,86420,86394
 6.0000e+000 86573 -4.3065e+001 -7.4219e+001 -1.2358e+001 47630 86394,86524,86498
 6.0000e+000 86550 -1.9152e+001 -6.8111e+001  6.7250e+000 47630 86446,86498,86472
 6.0000e+000 86668 -3.4952e+001 -7.6035e+001  2.0026e+000 47630 86498,86446,86642
 6.0000e+000 86691 -3.6234e+001 -7.7846e+001 -1.3060e+001 47630 86498,86642,86394
 6.0000e+000 87022 -4.8112e+000 -3.8345e+001 -2.4029e+001 47226 87045,86875,86849
 6.0000e+000 86999 -3.0779e+000 -4.4951e+001 -2.2732e+001 47226 87045,86849,86797
 6.0000e+000 86976  1.9342e-001 -1.8200e+001 -7.9336e+000 47226 86797,86849,86823
 6.0000e+000 86953 -4.5718e-001 -2.7900e+001 -1.4104e+001 47226 86875,86927,86901
 6.0000e+000 87071 -7.9932e+000 -4.3502e+001 -2.2600e+001 47226 86927,86875,87045
 6.0000e+000 87094 -4.5312e+000 -4.7975e+001 -2.1894e+001 47226 86927,87045,86797
 6.0000e+000 87244 -6.7726e+000 -8.6416e+001  2.5035e+001 46814 87267,87169,87143
 6.0000e+000 87221 -4.4256e+001 -7.8454e+001 -4.1572e+000 46814 87267,87143,87117
 6.0000e+000 87293 -4.6303e+000 -6.3446e+001  1.5295e+001 46814 87339,87267,87195
 6.0000e+000 87316 -3.3092e-001 -5.9611e+001  2.1909e-001 46814 87469,87267,87117
 6.0000e+000 87365 -5.6898e+000 -6.1841e+001  1.9779e+001 46814 87169,87267,87339
 6.0000e+000 87495 -4.3439e-001 -1.7886e+000 -1.7898e+000 46814 87195,87267,87469
 6.0000e+000 88001 -2.4720e+001 -5.4146e+001  1.6940e+001 46310 88024,87834,87808
 6.0000e+000 87978 -3.1225e+001 -5.5496e+001  9.1991e+000 46310 88024,87808,87756
 6.0000e+000 87955 -1.7337e+001 -7.5157e+001  4.4236e+000 46310 88096,87730,87860
 6.0000e+000 87932 -2.2114e+001 -7.3589e+001  9.8811e+000 46310 87756,87808,87782
 6.0000e+000 87909 -2.1823e+001 -8.6650e+001  3.2922e+000 46310 87678,87860,87730
 6.0000e+000 87886 -3.3633e+001 -1.4862e+002 -8.7098e+000 46310 87678,87730,87704
 6.0000e+000 88050 -2.2106e+001 -4.8917e+001  1.0295e+001 46310 87860,87834,88024
 6.0000e+000 88073 -1.7448e+001 -5.2187e+001  1.1357e+001 46310 88096,87860,88024
 6.0000e+000 88122 -2.1723e+001 -8.6099e+001 -3.5984e+000 46310 87756,87730,88096
 6.0000e+000 88145 -3.5877e+001 -7.7111e+001  3.0185e-001 46310 87756,88096,88024
 6.0000e+000 88572 -1.8504e+001 -7.8031e+001  6.4924e+000 45856 88249,88405,88275
 6.0000e+000 88549 -1.3640e+001 -2.4034e+001 -1.4271e+001 45856 88249,88431,88405
 6.0000e+000 88526 -4.3409e+001 -1.1310e+002 -1.5185e+001 45856 88327,88405,88353
 6.0000e+000 88503 -1.9201e+001 -9.6250e+001 -6.0827e+000 45856 88275,88405,88327
 6.0000e+000 88480 -3.6909e+001 -1.0347e+002 -2.1940e+001 45856 88353,88405,88379
 6.0000e+000 88457 -7.8141e+001 -2.1323e+002  1.7697e+001 45856 88275,88327,88301
 6.0000e+000 88950 -1.2150e+001 -4.5687e+001 -1.9960e+000 45658 88973,88754,88728
 6.0000e+000 88927 -9.4033e+000 -4.2503e+001 -8.2650e-001 45658 88973,88728,88676
 6.0000e+000 88904 -1.6108e+001 -5.1103e+001  1.9216e+001 45658 88676,88832,88806
 6.0000e+000 88881 -2.0616e+001 -6.4587e+001  6.0571e+000 45658 88676,88728,88702
 6.0000e+000 88858 -2.1685e+001 -4.3699e+001 -1.2500e+001 45658 88754,88806,88780
 6.0000e+000 88999 -1.3686e+001 -4.2059e+001 -9.5917e-001 45658 88806,88754,88973
 6.0000e+000 89022 -1.2171e+001 -4.0299e+001 -2.4810e-001 45658 88806,88973,88676
 6.0000e+000 89351 -2.4400e+001 -8.0179e+001 -3.5582e+000 45254 89152,89230,89204
 6.0000e+000 89328 -2.5285e+001 -8.0757e+001 -4.2655e+000 45254 89152,89256,89230
 6.0000e+000 89305 -1.0246e+001 -8.5602e+001 -1.1002e+001 45254 89126,89256,89152
 6.0000e+000 89282 -2.5491e+000 -7.8805e+001 -1.2949e+001 45254 89152,89204,89178
 6.0000e+000 89523 -6.5363e+000 -4.8813e+001  3.8099e-001 45006 89422,89474,89448
 6.0000e+000 89500 -5.8220e+000 -4.8539e+001  9.4000e-001 45006 89396,89474,89422
 6.0000e+000 89673 -6.4510e+001 -1.1303e+002  9.5183e+000 44495 89572,89624,89598
 6.0000e+000 89650 -6.7022e+001 -1.1627e+002  6.8233e+000 44495 89546,89624,89572
 6.0000e+000 90104 -7.6663e+000 -8.7468e+001 -5.4976e+000 44005 90199,90127,89937
 6.0000e+000 90081 -1.7749e+001 -8.4504e+001  9.3125e-001 44005 90271,90127,89859
 6.0000e+000 90058 -2.9376e+000 -8.9348e+001 -5.6176e+000 44005 90199,89937,89885
 6.0000e+000 90035 -2.4773e+001 -7.8493e+001  5.0100e+000 44005 90271,89859,89807
 6.0000e+000 90012 -1.3161e+001 -9.8325e+001 -1.1472e+001 44005 89885,89937,89911
 6.0000e+000 89989 -7.5619e+000 -8.2390e+001  1.3018e+001 44005 89807,89859,89833
 6.0000e+000 90153 -1.9079e+001 -9.1765e+001 -4.2338e+000 44005 89963,89937,90127
 6.0000e+000 90176 -2.0791e+001 -9.9697e+001  1.4959e+000 44005 89963,90127,89781
 6.0000e+000 90225 -2.0090e+001 -8.5947e+001 -2.6774e+000 44005 89859,90127,90199
 6.0000e+000 90248 -9.2910e+000 -8.3630e+001 -4.8146e-001 44005 89859,90199,89885
 6.0000e+000 90297 -2.6996e+001 -9.1459e+001 -2.5080e+000 44005 89781,90127,90271
 6.0000e+000 90320 -3.0979e+001 -8.3965e+001  2.3138e+000 44005 89781,90271,89807
 6.0000e+000 90470 -1.2165e+001 -8.5891e+001 -1.9588e+000 43601 90493,90369,90343
 6.0000e+000 90447 -2.2356e+001 -6.8850e+001  6.5606e+000 43601 90493,90343,90421
 6.0000e+000 90519 -2.7683e+001 -1.1695e+002 -1.2858e+001 43601 90395,90369,90493
 6.0000e+000 90542 -2.2208e+001 -8.1300e+001 -1.9484e+000 43601 90395,90493,90421
 6.0000e+000 90922 -2.6360e+001 -9.2901e+001  4.9851e+000 43154 90945,90700,90674
 6.0000e+000 90899 -2.2734e+001 -9.4928e+001 -1.2626e+001 43154 90945,90674,90648
 6.0000e+000 90876 -2.9649e+001 -7.2373e+001 -8.5340e+000 43154 90648,90778,90752
 6.0000e+000 90853 -1.5916e+001 -1.4816e+002  4.0974e+000 43154 90700,90752,90726
 6.0000e+000 90830 -1.8308e+001 -7.1631e+001 -5.8370e+000 43154 90648,90804,90778
 6.0000e+000 90971 -3.1405e+001 -1.0836e+002  7.9984e+000 43154 90752,90700,90945
 6.0000e+000 90994 -2.6562e+001 -1.0433e+002 -9.1360e+000 43154 90752,90945,90648
 6.0000e+000 91451 -1.0544e+001 -7.8587e+001 -1.5032e+001 42650 91203,91255,91229
 6.0000e+000 91428  5.1736e+000 -7.1785e+001 -6.7332e+000 42650 91203,91333,91255
 6.0000e+000 91405 -4.1682e+000 -1.1276e+002 -1.8931e+001 42650 91177,91333,91203
 6.0000e+000 91382 -3.7925e+001 -1.2398e+002  1.5693e+001 42650 91255,91333,91281
 6.0000e+000 91359 -7.3871e+000 -1.0289e+002  5.0059e+000 42650 91281,91333,91307
 6.0000e+000 91721 -5.3981e+001 -1.1534e+002  8.6749e+000 42288 91496,91600,91522
 6.0000e+000 91698 -3.0534e+001 -6.8004e+001 -3.2101e+000 42288 91496,91626,91600
 6.0000e+000 91675 -3.0958e+001 -1.0141e+002  9.3816e+000 42288 91522,91574,91548
 6.0000e+000 91652 -2.6443e+001 -1.0451e+002  9.2478e+000 42288 91522,91600,91574
 6.0000e+000 92199 -8.0023e+001 -1.2545e+002 -3.1500e+000 41898 92222,91983,91879
 6.0000e+000 92176 -8.2177e+001 -1.4002e+002 -8.9495e+000 41898 92294,92222,91879
 6.0000e+000 92153 -8.7359e+001 -1.3846e+002 -1.2661e+001 41898 92294,91879,91853
 6.0000e+000 92130 -6.9763e+001 -7.4391e+001  9.9234e+000 41898 91879,91957,91931
 6.0000e+000 92107 -7.0537e+001 -1.2179e+002 -6.8097e-002 41898 91879,91983,91957
 6.0000e+000 92084 -8.1401e+001 -7.3930e+001  2.0976e+001 41898 91879,91931,91905
 6.0000e+000 92061 -7.6996e+001 -1.2604e+002 -1.0194e+001 41898 91827,92035,91853
 6.0000e+000 92248 -7.9078e+001 -1.4367e+002  7.0689e-001 41898 92009,91983,92222
 6.0000e+000 92271 -7.6604e+001 -1.4663e+002 -1.1547e+001 41898 92009,92222,92035
 6.0000e+000 92320 -7.3678e+001 -1.3719e+002 -9.0091e+000 41898 92035,92222,92294
 6.0000e+000 92343 -7.7400e+001 -1.3464e+002 -1.2440e+001 41898 92035,92294,91853
 6.0000e+000 92770 -2.1621e+001 -1.0307e+002 -8.4128e+000 41437 92865,92793,92525
 6.0000e+000 92747 -2.9933e+001 -1.1685e+002 -1.1039e+001 41437 92793,92473,92629
 6.0000e+000 92724 -7.6216e+000 -1.0803e+002 -1.6021e+001 41437 92865,92525,92499
 6.0000e+000 92701 -3.8023e+001 -8.9095e+001 -1.8197e+001 41437 92525,92603,92577
 6.0000e+000 92678  2.7239e+000 -1.1497e+002 -1.0654e+001 41437 92447,92629,92473
 6.0000e+000 92655 -5.3370e+001 -7.9282e+001 -1.1624e+001 41437 92525,92577,92551
 6.0000e+000 92819 -2.4210e+001 -1.0901e+002 -1.7273e+001 41437 92603,92525,92793
 6.0000e+000 92842 -4.8688e+001 -1.1747e+002 -3.1289e+001 41437 92603,92793,92629
 6.0000e+000 92891  4.9529e+000 -1.1004e+002 -9.5564e+000 41437 92473,92793,92865
 6.0000e+000 92914  2.4432e+001 -1.0793e+002 -2.0288e+001 41437 92473,92865,92499
 6.0000e+000 93243 -2.0711e+001 -1.6293e+002  5.8581e+001 41097 93044,93096,93070
 6.0000e+000 93220 -3.5250e+001 -1.4734e+002  3.1589e+001 41097 93044,93122,93096
 6.0000e+000 93197  7.2330e+000 -9.6561e+001  1.1319e+001 41097 93044,93148,93122
 6.0000e+000 93174 -2.7663e+001 -7.1450e+001  3.0089e+001 41097 93018,93148,93044
 6.0000e+000 93393 -3.0245e+000 -1.2054e+002  8.1032e+000 40643 93416,93292,93344
 6.0000e+000 93370 -5.3703e+000 -1.1190e+002  9.1516e+000 40643 93266,93344,93292
 6.0000e+000 93442 -3.8674e+000 -1.1759e+002  1.3048e+001 40643 93318,93292,93416
 6.0000e+000 93901 -3.5453e+001 -1.0670e+002 -7.4804e+000 40132 93924,93731,93705
 6.0000e+000 93878 -3.6732e+001 -1.0803e+002 -8.0111e+000 40132 93996,93924,93705
 6.0000e+000 93855 -4.2628e+001 -1.2242e+002 -3.3132e+000 40132 93996,93705,93653
 6.0000e+000 93832 -1.8023e+001 -1.2122e+002 -6.3293e+000 40132 93653,93705,93679
 6.0000e+000 93809 -3.5336e+001 -1.0322e+002  5.0171e-002 40132 93627,93783,93757
 6.0000e+000 93950 -3.4148e+001 -1.1095e+002 -8.6214e+000 40132 93757,93731,93924
 6.0000e+000 93973 -3.7985e+001 -9.9087e+001 -2.4556e+000 40132 93757,93924,93627
 6.0000e+000 94022 -4.7545e+001 -1.1712e+002  2.2920e+000 40132 93627,93924,93996
 6.0000e+000 94045 -4.4420e+001 -1.2209e+002  5.7414e+000 40132 93627,93996,93653
 6.0000e+000 94423 -1.0836e+001 -1.3336e+002 -1.8290e+001 39514 94149,94227,94175
 6.0000e+000 94400 -1.5330e+001 -1.2324e+002  1.3194e+001 39514 94149,94305,94227
 6.0000e+000 94377  1.3575e+000 -1.5350e+002 -1.8377e+001 39514 94175,94227,94201
 6.0000e+000 94354 -3.8586e+001 -1.1579e+002  5.6308e+000 39514 94227,94305,94279
 6.0000e+000 94331 -1.7040e+001 -1.0573e+002  1.0851e+001 39514 94227,94279,94253
 6.0000e+000 94573 -1.1625e+001 -7.1924e+001 -1.2924e+001 38822 94596,94498,94472
 6.0000e+000 94550  1.2074e+001 -7.5327e+001  1.7493e+001 38822 94596,94472,94446
 6.0000e+000 94622 -3.8733e+001 -8.3341e+001 -1.5544e+001 38822 94524,94498,94596
 6.0000e+000 94645 -3.2416e+001 -9.3392e+001  1.7856e+001 38822 94524,94596,94446
 6.0000e+000 95025 -8.1545e+000 -9.0138e+001 -6.7628e+000 38418 95048,94829,94777
 6.0000e+000 95002 -9.0996e+000 -9.3966e+001 -1.0907e+001 38418 95120,95048,94777
 6.0000e+000 94979 -6.1977e+000 -9.4704e+001 -1.0191e+001 38418 95120,94777,94751
 6.0000e+000 94956 -4.7632e+000 -8.7037e+001 -1.1898e+001 38418 95192,94881,94855
 6.0000e+000 94933 -2.6623e+001 -7.4248e+001 -6.0746e+000 38418 94777,94829,94803
 6.0000e+000 95074 -1.6059e+001 -1.1527e+002 -2.2613e+000 38418 94855,94829,95048
 6.0000e+000 95097 -7.2125e+000 -9.3658e+001 -1.1745e+001 38418 95192,94855,95048
 6.0000e+000 95146 -1.6839e+001 -9.1794e+001 -8.4697e+000 38418 94907,95048,95120
 6.0000e+000 95169 -1.0321e+001 -8.9687e+001 -6.6389e+000 38418 94907,95120,94751
 6.0000e+000 95218 -8.3149e+000 -7.2669e+001 -1.1216e+001 38418 94907,94881,95192
 6.0000e+000 95241 -1.4338e+001 -8.4626e+001 -9.0165e+000 38418 94907,95192,95048
 6.0000e+000 95511 -2.8099e+001 -9.3758e+001  6.0855e+000 38049 95312,95390,95364
 6.0000e+000 95488 -1.6300e+001 -8.8092e+001  3.8438e+000 38049 95312,95416,95390
 6.0000e+000 95465 -7.9563e+000 -8.8821e+001 -4.3094e+000 38049 95312,95364,95338
 6.0000e+000 95442 -7.8583e+000 -7.7012e+001  7.7465e+000 38049 95286,95416,95312
 6.0000e+000 95808 -3.0981e+001 -1.1956e+002 -3.9113e+000 37437 95831,95586,95560
 6.0000e+000 95785  9.8417e+000 -1.2282e+002 -4.9933e+000 37437 95831,95560,95534
 6.0000e+000 95762 -5.9632e+001 -1.1083e+002  5.3272e+000 37437 95586,95664,95638
 6.0000e+000 95739 -1.0150e+001 -5.7710e+001 -2.8132e+001 37437 95534,95690,95664
 6.0000e+000 95716 -5.9582e+001 -7.8104e+001  2.5857e+000 37437 95586,95638,95612
 6.0000e+000 95857 -5.7750e+001 -1.1365e+002  1.2942e+001 37437 95664,95586,95831
 6.0000e+000 95880 -1.4757e+001 -1.1582e+002  1.2520e+001 37437 95664,95831,95534
 6.0000e+000 96390 -4.3994e+001 -9.0369e+001 -6.4498e+000 36883 96413,96145,96093
 6.0000e+000 96367 -3.7193e+001 -8.6606e+001 -2.9662e+000 36883 96413,96093,96067
 6.0000e+000 96344 -2.6497e+001 -1.0881e+002 -9.4381e-001 36883 96067,96249,96171
 6.0000e+000 96321 -3.7917e+001 -1.0359e+002 -3.3870e+000 36883 96093,96145,96119
 6.0000e+000 96298 -5.2800e+001 -1.7602e+002  1.5548e+001 36883 96171,96249,96197
 6.0000e+000 96275 -1.2179e+001 -1.4243e+002 -1.3211e+000 36883 96197,96249,96223
 6.0000e+000 96439 -4.1051e+001 -8.5429e+001 -7.0568e-001 36883 96171,96145,96413
 6.0000e+000 96462 -3.6044e+001 -8.5125e+001  2.2236e+000 36883 96171,96413,96067
 6.0000e+000 96781 -3.3162e+001 -1.0364e+002 -1.5733e+001 36215 96559,96663,96637
 6.0000e+000 96758 -4.2644e+001 -1.0990e+002 -1.8509e+001 36215 96507,96663,96559
 6.0000e+000 96735 -4.0667e+001 -7.1056e+001  7.9660e+000 36215 96585,96637,96611
 6.0000e+000 96712 -8.9366e+001 -1.2022e+002 -1.4114e+001 36215 96559,96637,96585
 6.0000e+000 96689 -1.6146e+001 -1.1839e+002 -3.7319e+000 36215 96507,96559,96533
 6.0000e+000 97161  2.1370e+000 -5.4274e+001 -1.8950e+000 35818 97184,96965,96939
 6.0000e+000 97138 -5.1943e+000 -6.0808e+001 -6.1316e+000 35818 97184,96939,96887
 6.0000e+000 97115 -4.3343e+000 -7.1331e+001  1.3258e+001 35818 96965,97043,97017
 6.0000e+000 97092 -3.0427e+000 -5.6866e+001 -6.9856e+000 35818 96887,96939,96913
 6.0000e+000 97069 -3.9021e+001 -7.2971e+001  8.2535e+000 35818 96965,97017,96991
 6.0000e+000 97210  1.0302e+001 -6.0180e+001  2.2457e+000 35818 97043,96965,97184
 6.0000e+000 97233  3.9890e+000 -6.4520e+001 -1.3291e+000 35818 97043,97184,96887
 6.0000e+000 97739 -3.4905e+001 -1.0293e+002 -2.7338e+001 35214 97416,97468,97442
 6.0000e+000 97716 -4.1377e+001 -7.2375e+001 -9.7982e+000 35214 97416,97598,97468
 6.0000e+000 97693 -3.3739e+001 -6.6683e+001 -4.9419e+000 35214 97762,97520,97468
 6.0000e+000 97670 -3.5376e+001 -6.8304e+001 -6.9751e+000 35214 97762,97468,97598
 6.0000e+000 97647 -2.6322e+001 -6.4021e+001 -1.1134e+001 35214 97546,97598,97572
 6.0000e+000 97624 -2.3262e+001 -6.8881e+001 -5.7390e+000 35214 97468,97520,97494
 6.0000e+000 97788 -3.4506e+001 -6.9304e+001 -6.4307e+000 35214 97546,97520,97762
 6.0000e+000 97811 -3.5259e+001 -7.0500e+001 -8.2964e+000 35214 97546,97762,97598
 6.0000e+000 98189 -1.3118e+000 -4.6431e+001 -6.4235e+000 34760 98356,98212,97967
 6.0000e+000 98166 -6.8707e+000 -5.5833e+001 -1.1652e+001 34760 98284,98212,97941
 6.0000e+000 98143 -1.7087e+001 -4.9539e+001 -6.7120e+000 34760 98284,97941,97915
 6.0000e+000 98120 -2.6786e+000 -6.4658e+001 -3.5110e+000 34760 98484,97993,97967
 6.0000e+000 98097 -1.9365e+000 -5.1212e+001 -2.0916e+000 34760 98556,98045,98019
 6.0000e+000 98238 -5.6312e+000 -6.0032e+001 -3.5374e+000 34760 98484,97967,98212
 6.0000e+000 98261  3.5895e+000 -5.4184e+001 -4.9542e+000 34760 98556,98019,98212
 6.0000e+000 98310  7.8939e-001 -4.3582e+001 -1.4906e+001 34760 98071,98212,98284
 6.0000e+000 98333 -4.8737e+000 -2.7684e+001 -1.1748e+001 34760 98071,98284,97915
 6.0000e+000 98382 -3.1081e+001 -6.4381e+001 -1.4800e+001 34760 97941,98212,98356
 6.0000e+000 98510  1.5473e+000 -6.0311e+001 -5.2275e+000 34760 98019,97993,98484
 6.0000e+000 98533 -3.0296e+000 -5.7039e+001 -4.6693e+000 34760 98019,98484,98212
 6.0000e+000 98582  4.8947e+000 -4.7261e+001 -4.3444e-001 34760 98071,98045,98556
 6.0000e+000 98605  7.1976e+000 -5.2123e+001 -3.9984e+000 34760 98071,98556,98212
 6.0000e+000 99032 -4.1005e+001 -8.9447e+001  1.4455e+001 34156 98735,98891,98839
 6.0000e+000 99009 -3.5612e+001 -9.3080e+001  6.7712e+000 34156 98709,98891,98735
 6.0000e+000 98986 -1.3058e+001 -8.1367e+001  1.3427e+001 34156 98735,98813,98787
 6.0000e+000 98963 -1.5282e+001 -8.8132e+001  1.1993e+001 34156 98735,98839,98813
 6.0000e+000 98940  5.0736e+000 -1.2170e+002  1.5515e+001 34156 98735,98787,98761
 6.0000e+000 98917 -3.8292e+001 -8.2499e+001  1.1386e+001 34156 98839,98891,98865
 6.0000e+000 99231 -9.1753e+000 -4.2969e+001  4.3920e+000 33766 99055,99133,99107
 6.0000e+000 99208 -1.9190e+001 -5.7186e+001  8.9497e+000 33766 99055,99159,99133
 6.0000e+000 99185 -5.4058e+000 -5.8652e+001  1.1314e+001 33766 99055,99107,99081
 6.0000e+000 99818 -1.9160e+001 -6.1282e+001  2.0350e+000 33248 99521,99651,99573
 6.0000e+000 99795 -1.6743e+001 -5.6865e+001  8.0343e+000 33248 99521,99677,99651
 6.0000e+000 99772 -3.1590e+001 -7.8288e+001 -3.8339e+000 33248 99573,99651,99599
 6.0000e+000 99749 -1.8521e+001 -7.2802e+001  8.2485e+000 33248 99495,99677,99521
 6.0000e+000 99726 -1.5631e+001 -6.6512e+001 -1.3917e+001 33248 99599,99651,99625
 6.0000e+000 99703 -2.3773e+001 -7.4869e+001  4.9721e+000 33248 99521,99573,99547
 6.0000e+000 100196 -2.5472e+001 -7.3368e+001 -1.4530e+001 32794 100219,99948,99922
 6.0000e+000 100173 -2.8561e+001 -7.9234e+001 -5.2919e+000 32794 100219,99922,100052
 6.0000e+000 100150 -3.5013e+001 -6.6179e+001  5.4304e+000 32794 99974,100052,100026
 6.0000e+000 100127 -3.4836e+001 -6.8199e+001 -8.1976e+000 32794 99922,100078,100052
 6.0000e+000 100104 -3.3540e+001 -8.1307e+001  1.8146e+001 32794 99974,100026,100000
 6.0000e+000 100245 -3.6012e+001 -7.4548e+001 -9.2918e+000 32794 99974,99948,100219
 6.0000e+000 100268 -3.5999e+001 -8.1405e+001  2.1085e-001 32794 99974,100219,100052
 6.0000e+000 100418 -5.9399e+000 -7.1178e+001 -8.6560e+000 32504 100571,100343,100317
 6.0000e+000 100395 -3.2184e+001 -8.3062e+001  7.4589e+000 32504 100571,100317,100441
 6.0000e+000 100467  2.0700e+001 -3.7897e+001 -2.4086e+001 32504 100291,100369,100441
 6.0000e+000 100597  5.6064e+000 -5.9034e+001 -2.9679e+001 32504 100369,100343,100571
 6.0000e+000 100620 -6.3843e+000 -5.5064e+001 -1.5746e+001 32504 100369,100571,100441
 6.0000e+000 101020 -4.7009e+000 -4.7849e+001  2.1328e+000 32142 100772,100902,100876
 6.0000e+000 100997 -3.2655e+000 -3.9688e+001  2.3679e+000 32142 100746,100902,100772
 6.0000e+000 100974  4.6227e+000 -5.3285e+001  9.8111e+000 32142 101043,100824,100798
 6.0000e+000 100951 -7.4924e+000 -6.0240e+001  6.8408e+000 32142 101043,100798,100772
 6.0000e+000 100928 -3.1512e+001 -7.2690e+001 -2.0243e+001 32142 101115,100876,100850
 6.0000e+000 101069  1.5920e+001 -6.2358e+001 -5.1371e+000 32142 100850,100824,101043
 6.0000e+000 101092 -1.3265e+001 -7.6009e+001 -8.8117e+000 32142 101115,100850,101043
 6.0000e+000 101141 -8.7477e+000 -5.7933e+001 -7.7982e+000 32142 100772,100876,101115
 6.0000e+000 101164  5.8611e+000 -5.9975e+001  4.5347e+000 32142 100772,101115,101043
 6.0000e+000 101719 -4.0401e+001 -9.4775e+001  1.2957e+001 31538 101742,101477,101399
 6.0000e+000 101696 -4.8862e+001 -1.1428e+002  3.6132e+000 31538 101814,101742,101399
 6.0000e+000 101673 -5.5401e+001 -9.7564e+001 -6.7700e+000 31538 101814,101399,101373
 6.0000e+000 101650 -4.1288e+001 -6.7746e+001  9.8573e+000 31538 101425,101477,101451
 6.0000e+000 101627 -3.8250e+001 -8.0649e+001  2.9053e+000 31538 101399,101477,101425
 6.0000e+000 101604 -2.3079e+001 -1.1868e+002  2.3628e+001 31538 101477,101529,101503
 6.0000e+000 101581 -1.4419e+001 -6.2636e+001 -4.4400e+000 31538 101347,101555,101373
 6.0000e+000 101768 -4.4937e+001 -1.1543e+002  1.2004e+001 31538 101529,101477,101742
 6.0000e+000 101791 -4.1030e+001 -1.1942e+002 -4.9143e+000 31538 101529,101742,101555
 6.0000e+000 101840 -3.2197e+001 -9.7202e+001 -4.3557e+000 31538 101555,101742,101814
 6.0000e+000 101863 -4.2019e+001 -8.3578e+001 -1.3901e+001 31538 101555,101814,101373
 6.0000e+000 102111 -6.4675e+001 -1.5777e+002  2.1514e+001 31112 101886,101990,101912
 6.0000e+000 102088 -2.4729e+001 -9.5793e+001  4.1568e-001 31112 101886,102016,101990
 6.0000e+000 102065 -2.9172e+001 -1.4793e+002  2.6488e+001 31112 101912,101990,101964
 6.0000e+000 102042 -4.1207e+001 -1.7311e+002  3.0840e+001 31112 101912,101964,101938
 6.0000e+000 102408 -1.7751e+001 -8.9835e+001  8.1361e+000 30658 102431,102186,102160
 6.0000e+000 102385 -3.2806e+001 -8.7852e+001  1.3003e-001 30658 102431,102160,102264
 6.0000e+000 102362 -3.1753e+001 -9.9028e+001  2.0571e+000 30658 102186,102238,102212
 6.0000e+000 102339 -3.5610e+001 -9.4582e+001 -7.0040e+000 30658 102134,102264,102160
 6.0000e+000 102316 -2.5689e+001 -7.9568e+001 -2.7693e+001 30658 102134,102290,102264
 6.0000e+000 102457 -2.9731e+001 -9.6070e+001  4.6339e+000 30658 102238,102186,102431
 6.0000e+000 102480 -4.5914e+001 -9.5723e+001 -4.0216e+000 30658 102238,102431,102264
 6.0000e+000 102681 -1.2232e+001 -1.0550e+002  1.4425e+001 30004 102704,102557,102505
 6.0000e+000 102658 -1.3063e+001 -1.1052e+002  1.6646e+001 30004 102704,102505,102609
 6.0000e+000 102635  2.4457e+000 -8.5213e+001  3.8022e+000 30004 102505,102557,102531
 6.0000e+000 102730 -1.4111e+001 -9.9573e+001  1.2762e+001 30004 102583,102557,102704
 6.0000e+000 102753 -1.7219e+001 -1.0476e+002  1.6592e+001 30004 102583,102704,102609
 6.0000e+000 103003 -1.2427e+001 -8.6784e+001 -6.8263e+000 29564 103026,102804,102778
 6.0000e+000 102980 -1.6322e+001 -1.0472e+002 -1.0539e+001 29564 103026,102778,102908
 6.0000e+000 102957 -1.7879e+001 -8.8961e+001 -5.2399e-001 29564 102856,102908,102882
 6.0000e+000 102934 -2.7075e+001 -7.9254e+001  7.3121e+000 29564 102804,102856,102830
 6.0000e+000 103052 -1.1425e+001 -7.8096e+001  5.2725e+000 29564 102856,102804,103026
 6.0000e+000 103075 -1.6583e+001 -9.2633e+001 -1.1515e-001 29564 102856,103026,102908
 6.0000e+000 103634 -3.9838e+001 -9.9884e+001 -1.3423e+001 29160 103657,103418,103392
 6.0000e+000 103611 -3.6461e+001 -9.3366e+001 -4.7220e+000 29160 103657,103392,103314
 6.0000e+000 103588 -2.7360e+001 -7.8424e+001 -9.1227e+000 29160 103314,103392,103366
 6.0000e+000 103565 -1.8596e+001 -8.2151e+001 -1.3007e+001 29160 103314,103366,103340
 6.0000e+000 103542 -4.2632e+001 -8.5661e+001 -1.1334e+001 29160 103262,103444,103314
 6.0000e+000 103519 -5.4002e+001 -1.0791e+002 -1.7531e+001 29160 103262,103314,103288
 6.0000e+000 103496 -3.2499e+001 -9.4645e+001 -4.8553e+000 29160 103262,103470,103444
 6.0000e+000 103683 -5.3563e+001 -1.1134e+002 -2.4910e+001 29160 103444,103418,103657
 6.0000e+000 103706 -4.1362e+001 -9.1969e+001 -1.4751e+001 29160 103444,103657,103314
 6.0000e+000 104035 -2.7512e+001 -9.5261e+001  9.3745e+000 28770 103836,103914,103862
 6.0000e+000 104012 -2.6089e+001 -9.0329e+001  1.2715e+001 28770 103810,103914,103836
 6.0000e+000 103989  3.9782e+000 -8.1401e+001  1.4499e+001 28770 103810,103940,103914
 6.0000e+000 103966 -5.8356e+000 -7.7428e+001  1.9122e+001 28770 103862,103914,103888
 6.0000e+000 104185 -7.3319e+000 -8.1431e+001  1.5507e+001 28366 104208,104110,104084
 6.0000e+000 104162 -7.6722e+000 -7.0541e+001  1.1212e+001 28366 104280,104208,104084
 6.0000e+000 104234  1.7454e+001 -8.1688e+001  8.5389e+000 28366 104610,104208,104136
 6.0000e+000 104257 -1.5015e+001 -7.6371e+001  9.4799e+000 28366 104538,104410,104208
 6.0000e+000 104306 -2.4913e+001 -7.8188e+001  9.7211e+000 28366 104538,104208,104280
 6.0000e+000 104436 -3.3107e+000 -7.6106e+001  7.5076e-001 28366 104136,104208,104410
 6.0000e+000 104564 -2.5440e+001 -7.4736e+001  4.0989e+000 28366 104058,104410,104538
 6.0000e+000 104587 -3.1293e+001 -7.4101e+001  3.5536e+000 28366 104058,104538,104280
 6.0000e+000 104636  1.2349e+001 -8.2927e+001  1.2761e+001 28366 104110,104208,104610
 6.0000e+000 105349 -2.1258e+001 -7.8252e+001 -7.4864e+000 27976 105516,105372,105107
 6.0000e+000 105326 -3.5476e+001 -8.0561e+001  2.6665e+000 27976 105588,105372,105055
 6.0000e+000 105303 -3.7823e+001 -7.7850e+001 -1.0022e+001 27976 105444,105159,105133
 6.0000e+000 105280 -1.2477e+001 -8.0769e+001 -4.6019e+000 27976 105516,105107,105081
 6.0000e+000 105257 -3.3640e+001 -8.8838e+001  7.4982e+000 27976 105588,105055,105029
 6.0000e+000 105234 -1.7755e+001 -6.6684e+001  3.1441e+000 27976 105003,105185,105159
 6.0000e+000 105211 -2.4241e+001 -5.2871e+001  1.2812e+001 27976 104977,105185,105003
 6.0000e+000 105398 -1.7479e+001 -8.1779e+001 -9.7425e+000 27976 105133,105107,105372
 6.0000e+000 105421 -2.9395e+001 -8.5610e+001 -5.5923e+000 27976 105444,105133,105372
 6.0000e+000 105470 -3.0384e+001 -6.5233e+001 -5.2017e+000 27976 105003,105159,105444
 6.0000e+000 105493 -2.3968e+001 -7.3601e+001 -3.1360e+000 27976 105003,105444,105372
 6.0000e+000 105542 -1.5405e+001 -7.8334e+001  2.4215e-001 27976 105055,105372,105516
 6.0000e+000 105565 -1.8670e+000 -7.8853e+001  2.1321e+000 27976 105055,105516,105081
 6.0000e+000 105614 -3.9629e+001 -8.8764e+001  6.6929e+000 27976 105003,105372,105588
 6.0000e+000 105637 -3.8868e+001 -9.6733e+001  1.2018e+001 27976 105003,105588,105029
 6.0000e+000 106143 -3.0856e+001 -1.1278e+002  7.1933e+000 27664 106166,105846,105820
 6.0000e+000 106120 -2.0052e+001 -8.0786e+001  3.6992e+000 27664 106310,106166,105820
 6.0000e+000 106097 -7.8927e+000 -1.0291e+002 -2.1832e+001 27664 106382,106238,105950
 6.0000e+000 106074 -1.3046e+001 -7.7285e+001  2.4149e+000 27664 106310,105820,106002
 6.0000e+000 106051  1.1137e+001 -9.2512e+001 -1.7663e+001 27664 106382,105950,105924
 6.0000e+000 106028  1.0186e+000 -1.7137e+002 -4.3508e+000 27664 105846,105898,105872
 6.0000e+000 106192 -2.7702e+001 -1.2715e+002 -1.8016e+001 27664 105898,105846,106166
 6.0000e+000 106215 -1.4921e+001 -1.0573e+002 -7.3712e+000 27664 106238,105898,106166
 6.0000e+000 106264 -5.4642e+001 -1.1434e+002 -2.9648e+001 27664 105976,105950,106238
 6.0000e+000 106287 -1.5507e+001 -1.0271e+002 -8.2407e+000 27664 105976,106238,106166
 6.0000e+000 106336 -1.2795e+001 -8.8606e+001  1.1193e+001 27664 105976,106166,106310
 6.0000e+000 106359 -4.4198e+000 -8.4292e+001  9.5632e+000 27664 105976,106310,106002
 6.0000e+000 106408 -1.6395e+001 -8.6436e+001 -3.6778e-001 27664 105898,106238,106382
 6.0000e+000 106431 -4.9273e+000 -8.0851e+001  2.1121e+000 27664 105898,106382,105924
 6.0000e+000 106728 -9.3564e+000 -6.0224e+001  1.2518e+001 27153 106751,106506,106454
 6.0000e+000 106705 -9.1157e+000 -6.2083e+001  9.9321e+000 27153 106751,106454,106610
 6.0000e+000 106682 -1.5262e+001 -4.8079e+001  4.1953e+000 27153 106454,106506,106480
 6.0000e+000 106659 -1.5036e+001 -5.8378e+001  6.8900e+000 27153 106532,106610,106584
 6.0000e+000 106636 -2.2669e+001 -3.1825e+001  1.4290e+001 27153 106532,106584,106558
 6.0000e+000 106777 -6.2436e+000 -5.7693e+001  1.3612e+001 27153 106532,106506,106751
 6.0000e+000 106800 -7.0602e+000 -6.0507e+001  1.0645e+001 27153 106532,106751,106610
 6.0000e+000 107180 -1.2662e+001 -7.6905e+001  4.6716e+000 26642 107203,106984,106958
 6.0000e+000 107157 -3.8223e+001 -8.8986e+001 -2.5518e-001 26642 107203,106958,106932
 6.0000e+000 107134 -4.6929e+001 -9.9308e+001 -1.4487e+001 26642 107275,107036,107010
 6.0000e+000 107111 -3.1144e+001 -9.6824e+001 -1.9719e+001 26642 106932,107062,107036
 6.0000e+000 107088 -9.9429e-001 -7.5138e+001  8.6673e+000 26642 106906,107062,106932
 6.0000e+000 107229 -1.1289e-001 -7.2816e+001 -2.3663e+001 26642 107010,106984,107203
 6.0000e+000 107252 -4.0668e+001 -9.0380e+001 -1.7712e+001 26642 107275,107010,107203
 6.0000e+000 107301 -3.9556e+001 -9.8256e+001 -1.9276e+001 26642 106932,107036,107275
 6.0000e+000 107324 -3.7657e+001 -9.8257e+001 -2.0221e+001 26642 106932,107275,107203
 6.0000e+000 107675 -2.4728e+001 -5.8631e+001  7.2187e+000 26045 107450,107554,107476
 6.0000e+000 107652 -1.9629e+001 -5.1921e+001  3.5992e+000 26045 107450,107580,107554
 6.0000e+000 107629 -1.2953e+001 -3.3104e+001 -1.1987e+000 26045 107476,107528,107502
 6.0000e+000 107606 -5.3513e+000 -5.2822e+001  5.5655e+000 26045 107476,107554,107528
 6.0000e+000 107874 -1.6028e+001 -8.5646e+001  2.2195e+001 25641 107750,107802,107776
 6.0000e+000 107851 -1.8679e+001 -6.0907e+001  1.3389e+001 25641 107724,107802,107750
 6.0000e+000 107828 -2.2315e+001 -6.2158e+001  1.3516e+001 25641 107698,107802,107724
 6.0000e+000 108431 -6.0988e+000 -9.3684e+001  1.8136e+001 25023 108526,108267,108241
 6.0000e+000 108408 -6.2751e-002 -8.6655e+001  3.0729e+000 25023 108059,108267,108085
 6.0000e+000 108385 -1.3229e+001 -9.8959e+001  1.7409e+001 25023 108454,108163,108111
 6.0000e+000 108362 -4.6379e+001 -9.8713e+001  3.1004e+001 25023 108454,108111,108085
 6.0000e+000 108339 -3.4566e+001 -1.2761e+002  2.9593e+001 25023 108111,108163,108137
 6.0000e+000 108316 -2.3964e+001 -7.1180e+001 -5.1030e+000 25023 108163,108241,108215
 6.0000e+000 108293  6.1652e+000 -5.7214e+001  9.4294e-001 25023 108163,108215,108189
 6.0000e+000 108480 -2.0940e+000 -8.7138e+001  1.4935e+000 25023 108241,108163,108454
 6.0000e+000 108503 -1.3061e+001 -9.2699e+001  1.8145e+001 25023 108526,108241,108454
 6.0000e+000 108552 -1.4880e+001 -9.1768e+001  1.3924e+001 25023 108085,108267,108526
 6.0000e+000 108575 -2.2166e+001 -9.1127e+001  1.3787e+001 25023 108085,108526,108454
 6.0000e+000 108823  7.0965e+000 -6.5687e+001  1.0050e+001 24461 108624,108728,108650
 6.0000e+000 108800 -6.4586e+000 -1.4388e+002 -1.1463e+001 24461 108598,108728,108624
 6.0000e+000 108777  1.2866e+000 -8.6178e+001  6.0766e+000 24461 108650,108728,108676
 6.0000e+000 108754 -3.6832e+001 -2.4952e+002  2.1778e+001 24461 108676,108728,108702
 6.0000e+000 109022 -2.5334e+001 -6.8113e+001  1.0788e+001 24121 108872,108924,108898
 6.0000e+000 108999 -1.6118e+001 -6.8683e+001  1.1883e+001 24121 108846,108924,108872
 6.0000e+000 108976 -2.9095e+001 -7.4227e+001  1.2339e+001 24121 108846,108950,108924
 6.0000e+000 109483 -3.0586e+001 -9.9012e+001 -1.0197e+001 23717 109209,109339,109235
 6.0000e+000 109460 -1.2425e+001 -1.1527e+002 -2.3938e+001 23717 109209,109365,109339
 6.0000e+000 109437 -1.0846e+000 -1.2455e+002 -7.7591e+000 23717 109287,109339,109313
 6.0000e+000 109414 -5.5968e+001 -1.2529e+002  6.3289e+000 23717 109235,109339,109287
 6.0000e+000 109391  4.0591e+000 -1.4938e+002  5.4294e+001 23717 109235,109287,109261
 6.0000e+000 109910 -3.9696e+001 -1.1816e+002 -1.2306e+001 23305 109613,109743,109717
 6.0000e+000 109887 -3.9786e+001 -1.1899e+002 -8.0501e+000 23305 109613,109769,109743
 6.0000e+000 109864 -4.7592e+001 -1.1192e+002 -1.0890e+001 23305 109613,109717,109639
 6.0000e+000 109841 -3.0490e+001 -1.0962e+002 -3.5247e+000 23305 109587,109769,109613
 6.0000e+000 109818  1.0491e+000 -9.1358e+001  8.0345e+000 23305 109639,109717,109691
 6.0000e+000 109795 -9.1440e+000 -7.2739e+001 -1.7607e+001 23305 109639,109691,109665
 6.0000e+000 110180 -3.8698e+000 -3.3430e+001 -7.1033e+000 22851 110007,110059,110033
 6.0000e+000 110157 -2.4888e+001 -9.1067e+001  4.9107e+000 22851 109981,110059,110007
 6.0000e+000 110134 -3.5056e+001 -1.0020e+002  2.6679e-001 22851 109955,110059,109981
 6.0000e+000 110111 -1.4356e+001 -1.1472e+002 -9.1442e+000 22851 109955,110085,110059
 6.0000e+000 110737 -8.5977e+000 -9.8417e+001 -2.8377e+001 22333 110760,110469,110391
 6.0000e+000 110714 -5.6517e-001 -1.1385e+002 -2.2294e+001 22333 110760,110391,110365
 6.0000e+000 110691 -7.3138e+000 -8.7050e+001 -2.2020e+001 22333 110832,110521,110469
 6.0000e+000 110668 -2.0961e+001 -1.7458e+002  1.3833e+001 22333 110417,110469,110443
 6.0000e+000 110645 -4.4234e+001 -1.5834e+002  9.5612e+000 22333 110391,110469,110417
 6.0000e+000 110622 -1.3398e+000 -8.8732e+001 -1.0696e+001 22333 110469,110521,110495
 6.0000e+000 110599 -8.7261e+000 -6.3277e+001  9.2860e+000 22333 110365,110573,110547
 6.0000e+000 110786 -3.0536e+000 -9.0308e+001 -2.5863e+001 22333 110832,110469,110760
 6.0000e+000 110809  9.1961e+000 -9.9111e+001 -1.7967e+001 22333 110547,110760,110365
 6.0000e+000 110858 -8.8359e+000 -9.4223e+001 -2.0831e+001 22333 110547,110521,110832
 6.0000e+000 110881 -6.8585e+000 -1.0076e+002 -2.5301e+001 22333 110547,110832,110760
 6.0000e+000 111308 -4.9222e+001 -1.2034e+002  9.5538e+000 21829 111331,111063,111011
 6.0000e+000 111285 -4.2817e+001 -1.0872e+002 -2.9476e+000 21829 111331,111011,111167
 6.0000e+000 111262 -5.1172e+001 -1.2172e+002  1.0086e+001 21829 111403,111089,111063
 6.0000e+000 111239 -6.4188e+001 -1.3139e+002  2.0119e+001 21829 111011,111063,111037
 6.0000e+000 111216 -2.7277e+001 -8.1157e+001  3.5439e+000 21829 110985,111167,111011
 6.0000e+000 111193 -6.7319e+001 -2.1934e+002  4.8025e+001 21829 111089,111141,111115
 6.0000e+000 111357 -4.9672e+001 -1.2308e+002  1.0036e+001 21829 111403,111063,111331
 6.0000e+000 111380 -5.1573e+001 -1.2631e+002 -2.6493e-002 21829 111141,111331,111167
 6.0000e+000 111429 -5.6533e+001 -1.2382e+002  1.0225e+001 21829 111141,111089,111403
 6.0000e+000 111452 -5.2272e+001 -1.2353e+002  1.0559e+001 21829 111141,111403,111331
 6.0000e+000 112056  4.3863e+001 -8.5750e+001  3.0963e+000 21489 111687,111765,111739
 6.0000e+000 112033  1.6310e+001 -9.9823e+001  1.1003e+001 21489 112151,112079,111687
 6.0000e+000 112010  3.5849e+000 -1.5724e+002  6.9150e+000 21489 111791,111843,111817
 6.0000e+000 111987 -2.2663e+001 -1.2794e+002 -1.1379e+001 21489 112079,111843,111791
 6.0000e+000 111964  3.2658e+001 -9.0479e+001  2.0493e+001 21489 112151,111687,111661
 6.0000e+000 111941 -1.2343e+000 -6.5258e+001  1.5030e+001 21489 111661,111869,111843
 6.0000e+000 111918  4.5551e+001 -9.2457e+001  1.4922e+001 21489 111687,111739,111713
 6.0000e+000 111895  1.5074e+001 -2.7451e+001  3.3062e+000 21489 111635,111869,111661
 6.0000e+000 112105 -9.4964e+000 -1.0869e+002  6.3836e+000 21489 111765,111687,112079
 6.0000e+000 112128 -8.8638e+000 -1.0375e+002  6.6259e+000 21489 111765,112079,111791
 6.0000e+000 112177 -1.0617e+001 -9.7052e+001 -4.0426e+000 21489 111843,112079,112151
 6.0000e+000 112200  3.9388e+000 -9.3089e+001  3.6144e+000 21489 111843,112151,111661
 6.0000e+000 112578 -1.5733e+001 -1.2679e+002  6.2739e+000 21177 112382,112434,112408
 6.0000e+000 112555 -2.1450e+001 -1.2364e+002  2.1807e-001 21177 112330,112434,112382
 6.0000e+000 112532 -1.1046e+001 -1.0150e+002  2.2277e+001 21177 112304,112434,112330
 6.0000e+000 112509 -2.1613e+001 -1.1683e+002  0.0000e+000 21177 112330,112382,112356
 6.0000e+000 112486 -2.3113e+000 -4.8182e+001  2.6415e+000 21177 112304,112460,112434
 6.0000e+000 112679  2.0517e-001 -5.5114e+001 -1.7840e+001 20666 112601,112653,112627
 6.0000e+000 112927 -3.9405e+001 -1.3351e+002  4.2525e+000 19762 112702,112754,112728
 6.0000e+000 112904 -1.4762e+001 -1.2721e+002 -1.7340e+000 19762 112702,112832,112754
 6.0000e+000 112881 -3.2987e+001 -1.3586e+002  2.1200e+001 19762 112754,112832,112806
 6.0000e+000 112858 -4.7832e+001 -1.7737e+002  2.2906e+001 19762 112754,112806,112780
 6.0000e+000 113297 -3.5641e+001 -1.6125e+002  1.0617e+001 19308 112974,113052,113026
 6.0000e+000 113274 -2.4402e+001 -1.3399e+002  3.7899e+000 19308 112974,113156,113052
 6.0000e+000 113251 -1.4420e+001 -1.7819e+002 -2.1372e+001 19308 113052,113130,113104
 6.0000e+000 113228 -2.6854e+001 -1.3403e+002 -6.2865e-004 19308 113052,113156,113130
 6.0000e+000 113205 -2.6367e+001 -1.5512e+002  0.0000e+000 19308 113052,113104,113078
 6.0000e+000 113182 -5.2230e+001 -1.6841e+002 -1.0113e+000 19308 112974,113026,113000
 6.0000e+000 113547 -5.3984e-001 -1.4413e+002 -1.0449e+001 18711 113570,113374,113348
 6.0000e+000 113524 -4.7763e+000 -1.3235e+002 -6.5594e+000 18711 113570,113348,113452
 6.0000e+000 113501  1.3502e+000 -9.6898e+001 -2.6563e+001 18711 113322,113452,113348
 6.0000e+000 113478 -1.3784e+001 -1.3185e+002 -4.7994e+001 18711 113374,113426,113400
 6.0000e+000 113596 -1.2114e-001 -1.3117e+002 -1.3383e+001 18711 113426,113374,113570
 6.0000e+000 113619 -5.1123e+000 -1.2114e+002 -7.0308e+000 18711 113426,113570,113452
 6.0000e+000 113771 -7.3196e+001 -1.8308e+002 -1.0336e+001 18307 113670,113722,113696
 6.0000e+000 113748 -5.7135e+001 -1.7140e+002 -4.9077e+000 18307 113644,113722,113670
 6.0000e+000 113972 -3.2702e+001 -1.5394e+002  3.2910e+000 17945 113822,113874,113848
 6.0000e+000 113949 -3.2329e+001 -1.5334e+002  3.6384e+000 17945 113822,113900,113874
 6.0000e+000 113926 -4.5859e+001 -1.2168e+002  6.5006e+001 17945 113796,113900,113822
 6.0000e+000 114075 -1.9449e+001 -2.2193e+002  2.5242e+001 17482 113997,114049,114023
 6.0000e+000 114479 -9.1671e+000 -1.2675e+002 -1.9913e+001 17042 114257,114361,114335
 6.0000e+000 114456 -2.9972e+001 -1.2025e+002 -3.4371e+000 17042 114205,114361,114257
 6.0000e+000 114433 -3.3109e+001 -1.3986e+002  5.2920e+000 17042 114205,114257,114231
 6.0000e+000 114410  2.4587e+001 -1.8875e+002 -1.0781e+001 17042 114283,114335,114309
 6.0000e+000 114387 -1.2311e+000 -1.6155e+002 -8.3860e+000 17042 114257,114335,114283
 6.0000e+000 114879 -6.6471e+001 -1.2280e+002 -5.4764e-001 16638 114631,114683,114657
 6.0000e+000 114856 -1.1678e+001 -9.9648e+001  2.2656e+000 16638 114605,114683,114631
 6.0000e+000 114833  2.0598e+001 -5.2023e+001 -1.4374e+001 16638 114605,114761,114683
 6.0000e+000 114810 -3.3387e+000 -1.3941e+002 -6.3773e+000 16638 114683,114735,114709
 6.0000e+000 114787 -7.0050e+000 -1.4443e+002 -9.2413e+000 16638 114683,114761,114735
 6.0000e+000 115078 -6.0884e+001 -1.3769e+002  3.8157e+000 16232 114954,115006,114980
 6.0000e+000 115055 -5.9962e+001 -1.5185e+002  6.7436e+000 16232 114928,115006,114954
 6.0000e+000 115032 -2.8724e+001 -1.8613e+002  1.3167e+001 16232 114902,115006,114928
 6.0000e+000 115228 -3.1280e+001 -1.3615e+002  4.6932e+000 15482 115101,115153,115127
 6.0000e+000 115205 -3.3130e+001 -1.3002e+002 -1.8084e+000 15482 115101,115179,115153
 6.0000e+000 115331 -2.2016e+001 -1.2073e+002 -1.5657e+001 15163 115253,115305,115279
 6.0000e+000 115434 -4.0616e+001 -1.3342e+002  2.4712e+001 421 115356,115408,115382
 6.1000e+000 68213 -6.8209e+000 -6.0186e+001 -6.8405e+000 67888 68112,68164,68138
 6.1000e+000 68190 -7.9361e+001 -7.9810e+001 -1.4353e+001 67888 68086,68164,68112
 6.1000e+000 68314 -1.1894e+001 -9.2643e+001  6.8953e+000 67576 68236,68288,68262
 6.1000e+000 68584 -4.1763e+001 -1.8402e+002  1.0176e+001 67378 68385,68489,68463
 6.1000e+000 68561 -1.2177e+001 -1.7006e+002  5.9463e+000 67378 68359,68489,68385
 6.1000e+000 68538 -3.0458e+001 -1.5197e+002  1.5009e+001 67378 68385,68463,68411
 6.1000e+000 68515 -1.5094e+001 -1.0230e+002  9.1341e+000 67378 68411,68463,68437
 6.1000e+000 68964 -4.7245e+001 -1.7197e+002  2.7009e+001 67130 68690,68820,68716
 6.1000e+000 68941  3.1021e+001 -1.8108e+002  4.9457e+001 67130 68690,68846,68820
 6.1000e+000 68918 -4.5026e+001 -1.1201e+002  5.4959e+000 67130 68742,68820,68794
 6.1000e+000 68895 -1.3726e+001 -1.0966e+002  1.1781e+001 67130 68716,68820,68742
 6.1000e+000 68872 -2.9991e+001 -8.9554e+001 -9.9084e+000 67130 68742,68794,68768
 6.1000e+000 69065 -4.0202e+001 -8.7281e+001  2.9355e+000 66926 68987,69039,69013
 6.1000e+000 69445 -2.5532e+001 -8.0689e+001 -4.8240e+000 66614 69223,69301,69275
 6.1000e+000 69422 -3.6926e+001 -8.6438e+001 -2.7608e+000 66614 69171,69301,69223
 6.1000e+000 69399 -4.0935e+001 -8.6229e+001 -7.8848e-001 66614 69171,69327,69301
 6.1000e+000 69376 -1.8131e+001 -4.8483e+001 -6.5069e-001 66614 69223,69275,69249
 6.1000e+000 69353 -3.0778e+001 -8.8842e+001 -1.5885e+000 66614 69171,69223,69197
 6.1000e+000 69546 -4.0124e+001 -1.5242e+002  9.8882e+000 66416 69468,69520,69494
 6.1000e+000 69997 -3.6457e+001 -1.5170e+002 -1.1282e+001 66104 69700,69830,69726
 6.1000e+000 69974 -4.8668e+001 -1.8401e+002 -2.3442e+001 66104 69700,69856,69830
 6.1000e+000 69951 -4.0252e+001 -1.1760e+002 -8.7728e+000 66104 69726,69804,69778
 6.1000e+000 69928 -3.2472e+001 -1.4161e+002 -1.1601e+001 66104 69726,69830,69804
 6.1000e+000 69905 -4.2317e+001 -1.1111e+002 -3.5993e+000 66104 69726,69778,69752
 6.1000e+000 69882 -1.5631e+001 -2.5332e+002 -4.8417e+001 66104 69674,69856,69700
 6.1000e+000 70326 -2.9145e+001 -6.7321e+001  5.2589e-001 65814 70349,70153,70127
 6.1000e+000 70303 -1.7175e+001 -6.6388e+001  2.9074e+000 65814 70349,70127,70101
 6.1000e+000 70280 -1.6592e+001 -6.5305e+001  2.7929e+001 65814 70101,70231,70205
 6.1000e+000 70257 -2.2272e+000 -7.1028e+001  1.0298e+001 65814 70153,70205,70179
 6.1000e+000 70375 -2.3515e+001 -7.0940e+001  9.8900e+000 65814 70205,70153,70349
 6.1000e+000 70398 -5.3706e+000 -6.7230e+001  1.0971e+001 65814 70205,70349,70101
 6.1000e+000 70904 -1.2529e+001 -3.2362e+001 -1.3134e+001 65502 70607,70737,70685
 6.1000e+000 70881 -1.7309e+001 -2.4675e+001 -1.6994e+001 65502 70581,70737,70607
 6.1000e+000 70858 -1.6523e+001  8.1238e-001 -3.3444e+000 65502 70581,70763,70737
 6.1000e+000 70835 -1.6947e+001 -3.5223e+001 -1.6971e+001 65502 70685,70737,70711
 6.1000e+000 70812 -7.1632e+001 -4.2105e+001  4.3364e-001 65502 70607,70659,70633
 6.1000e+000 70789 -2.0144e+001 -4.5616e+001  1.7387e+000 65502 70607,70685,70659
 6.1000e+000 71103 -1.7940e+001 -1.2921e+002 -4.3597e+000 65304 71126,70979,70953
 6.1000e+000 71080 -3.5308e+001 -1.2649e+002 -2.1608e+000 65304 71126,70953,70927
 6.1000e+000 71057 -5.1810e+001 -1.3148e+002  3.7736e+000 65304 70927,71031,71005
 6.1000e+000 71152 -3.4562e+001 -1.2494e+002 -9.4692e+000 65304 71005,70979,71126
 6.1000e+000 71175 -5.2781e+001 -1.2315e+002 -3.5973e+000 65304 71005,71126,70927
 6.1000e+000 71374 -3.0210e+001 -1.2052e+002  6.4450e+000 65106 71198,71276,71224
 6.1000e+000 71351 -3.7113e+001 -1.2666e+002  3.6852e+000 65106 71198,71302,71276
 6.1000e+000 71328 -2.5383e+001 -1.0609e+002  1.5248e+001 65106 71224,71276,71250
 6.1000e+000 71756 -1.5969e+001 -8.5191e+001 -6.0444e+000 64652 71508,71638,71534
 6.1000e+000 71733 -3.8848e-001 -7.8781e+001  1.0972e+000 64652 71482,71638,71508
 6.1000e+000 71710 -3.9679e+001 -9.1270e+001 -8.8009e+000 64652 71534,71586,71560
 6.1000e+000 71687 -3.3978e+001 -9.5215e+001 -1.6138e+001 64652 71534,71612,71586
 6.1000e+000 71664 -4.4002e+001 -9.8355e+001 -1.6445e+001 64652 71534,71638,71612
 6.1000e+000 72085 -4.3460e+001 -9.7943e+001 -1.4880e+001 64248 71886,71964,71912
 6.1000e+000 72062 -3.4739e+001 -9.6990e+001 -1.3126e+001 64248 71860,71964,71886
 6.1000e+000 72039 -1.5940e+001 -1.0457e+002 -9.8184e+000 64248 71912,71964,71938
 6.1000e+000 72016 -4.0605e+001 -9.2450e+001 -1.1573e+001 64248 71860,71990,71964
 6.1000e+000 72235 -4.6132e+000 -6.1596e+001 -7.6443e+000 63858 72588,72258,72134
 6.1000e+000 72212 -2.2088e+001 -5.6112e+001  1.9448e+000 63858 72330,72258,72108
 6.1000e+000 72284 -1.6063e+001 -3.9729e+001 -5.1101e+000 63858 72160,72134,72258
 6.1000e+000 72307 -4.2259e+001 -5.9521e+001 -1.0593e+001 63858 72460,72258,72186
 6.1000e+000 72356 -3.6108e+001 -5.7425e+001 -1.0618e+001 63858 72186,72258,72330
 6.1000e+000 72486 -2.3130e+001 -5.9519e+001 -7.5312e+000 63858 72160,72258,72460
 6.1000e+000 72614 -1.3685e+001 -6.8155e+001  1.5826e-002 63858 72108,72258,72588
 6.1000e+000 73248 -2.9545e+001 -1.1909e+002  2.3180e+001 63404 72902,72954,72928
 6.1000e+000 73225 -5.6605e+001 -1.1190e+002  1.0811e+001 63404 73271,72954,72902
 6.1000e+000 73202 -5.0935e+001 -8.8961e+001  9.5132e+000 63404 73271,72902,73032
 6.1000e+000 73179 -3.7235e+001 -7.7995e+001  2.8976e+000 63404 72902,73058,73032
 6.1000e+000 73156 -5.2106e+001 -1.0851e+002 -3.4461e+000 63404 72980,73032,73006
 6.1000e+000 73133 -3.6419e+001 -7.5936e+001  3.7694e+000 63404 72876,73058,72902
 6.1000e+000 73110 -8.9908e+000 -3.5409e+001 -1.7985e+001 63404 72876,73084,73058
 6.1000e+000 73297 -4.9109e+001 -1.1537e+002 -2.9478e+000 63404 72980,72954,73271
 6.1000e+000 73320 -4.9084e+001 -1.0279e+002 -2.2772e+000 63404 72980,73271,73032
 6.1000e+000 73470 -3.9803e+001 -2.6337e+002  2.8733e+001 63014 73343,73395,73369
 6.1000e+000 73447 -1.2508e+002 -3.2174e+002 -5.6193e+000 63014 73343,73421,73395
 6.1000e+000 73929 -1.1543e+001 -1.1204e+002  5.8580e+000 62702 73759,73811,73785
 6.1000e+000 73906 -6.1457e+000 -1.0861e+002  8.2020e+000 62702 73655,73811,73759
 6.1000e+000 73883 -2.3398e+001 -1.2118e+002  2.1121e-001 62702 73655,73759,73681
 6.1000e+000 73860 -9.7526e+000 -9.3218e+001 -1.5466e+001 62702 73681,73759,73707
 6.1000e+000 73837 -5.3923e+001 -1.0144e+002  2.2030e+000 62702 73707,73759,73733
 6.1000e+000 74209 -7.0933e+001 -1.0026e+002  1.1426e+000 62404 74059,74137,74085
 6.1000e+000 74186 -8.2590e+001 -1.3084e+002  1.5681e+001 62404 74033,74137,74059
 6.1000e+000 74163 -7.0930e+001 -9.3169e+001  1.9813e+000 62404 74085,74137,74111
 6.1000e+000 74408 -7.5768e+000 -8.9594e+001  4.6996e+000 62000 74258,74336,74284
 6.1000e+000 74385 -2.9596e+000 -8.6041e+001  9.6870e+000 62000 74232,74336,74258
 6.1000e+000 74362 -2.2818e+001 -9.1038e+001 -6.6856e-001 62000 74284,74336,74310
 6.1000e+000 74509 -9.4677e+000 -9.3758e+001  1.0401e+001 61802 74431,74483,74457
 6.1000e+000 74759 -3.9137e+001 -8.5420e+001  2.4369e+000 61554 74782,74586,74560
 6.1000e+000 74736 -2.7576e+001 -8.1113e+001  3.2674e+000 61554 74782,74560,74664
 6.1000e+000 74713 -3.5668e+001 -6.7502e+001  2.3864e+001 61554 74854,74612,74586
 6.1000e+000 74690 -3.2798e+001 -8.7752e+001  2.4544e-001 61554 74534,74664,74560
 6.1000e+000 74808 -4.5326e+001 -8.1363e+001  7.2309e+000 61554 74854,74586,74782
 6.1000e+000 74831 -3.0956e+001 -1.0417e+002  5.6180e+000 61554 74638,74782,74664
 6.1000e+000 74880 -1.4068e+001 -8.1894e+001  2.5482e+001 61554 74638,74612,74854
 6.1000e+000 74903 -1.4334e+001 -8.0152e+001  1.2915e+001 61554 74638,74854,74782
 6.1000e+000 75285 -1.7603e+001 -8.4954e+001 -7.4875e-002 61356 75063,75167,75115
 6.1000e+000 75262 -2.0776e+001 -8.9365e+001 -3.8320e+000 61356 75037,75167,75063
 6.1000e+000 75239 -7.4882e+000 -8.7175e+001 -7.0891e-001 61356 75115,75167,75141
 6.1000e+000 75216 -1.5699e+001 -8.3623e+001  5.4077e-001 61356 75063,75115,75089
 6.1000e+000 75193 -3.9507e+001 -7.3711e+001  5.2963e+000 61356 75011,75167,75037
 6.1000e+000 75631 -8.8023e+000 -6.8333e+001  3.6994e+000 60952 75654,75412,75360
 6.1000e+000 75608 -1.4573e+001 -7.8496e+001 -2.9327e-001 60952 75654,75360,75334
 6.1000e+000 75585 -1.6773e+001 -1.0232e+002  5.4062e+000 60952 75726,75438,75412
 6.1000e+000 75562 -9.0777e+000 -7.6922e+001 -1.1387e+001 60952 75308,75490,75334
 6.1000e+000 75539 -1.1602e+001 -6.8522e+001  1.1723e+000 60952 75360,75412,75386
 6.1000e+000 75516 -2.5454e+001 -1.2433e+002 -4.5964e+000 60952 75438,75490,75464
 6.1000e+000 75680 -8.5870e+000 -8.3745e+001  3.7773e+000 60952 75726,75412,75654
 6.1000e+000 75703 -9.1016e+000 -7.8472e+001 -1.3594e+000 60952 75490,75654,75334
 6.1000e+000 75752 -1.1607e+001 -8.1311e+001 -1.7359e-001 60952 75490,75438,75726
 6.1000e+000 75775 -1.1702e+001 -7.9906e+001 -2.2966e+000 60952 75490,75726,75654
 6.1000e+000 76155 -1.9502e+001 -8.6776e+001 -1.0581e+000 60754 75933,75985,75959
 6.1000e+000 76132 -3.0005e+001 -9.3100e+001  9.6806e+000 60754 75933,76037,75985
 6.1000e+000 76109 -2.3596e+000 -8.8284e+001  2.2937e+000 60754 75985,76037,76011
 6.1000e+000 76086 -4.3838e+001 -8.0571e+001  2.0540e+000 60754 75881,76037,75933
 6.1000e+000 76063 -5.5089e+001 -7.6608e+001  1.4764e+001 60754 75881,75933,75907
 6.1000e+000 76612 -1.8138e+001 -8.6511e+001  5.5874e+000 60350 76635,76442,76390
 6.1000e+000 76589 -2.4528e+000 -9.9708e+001  8.8529e+000 60350 76635,76390,76364
 6.1000e+000 76566 -7.3012e+000 -1.3081e+002 -7.9064e+000 60350 76364,76494,76468
 6.1000e+000 76543 -1.3727e+000 -7.8678e+001  8.2814e+000 60350 76390,76442,76416
 6.1000e+000 76520 -5.0960e+001 -8.1321e+001 -2.0646e+001 60350 76338,76494,76364
 6.1000e+000 76661 -2.6384e+001 -9.5719e+001  9.6868e+000 60350 76468,76442,76635
 6.1000e+000 76684 -1.4718e+001 -1.1004e+002  1.4325e+001 60350 76468,76635,76364
 6.1000e+000 76932 -3.9373e+001 -9.6381e+001 -8.3646e-001 59946 76955,76733,76707
 6.1000e+000 76909 -4.0414e+001 -9.8468e+001  6.7557e-001 59946 77027,76955,76707
 6.1000e+000 76886 -3.9088e+001 -9.9857e+001  2.9145e-001 59946 77027,76707,76837
 6.1000e+000 76863 -1.8495e+001 -1.0336e+002 -1.2464e+001 59946 76733,76785,76759
 6.1000e+000 76981 -4.4237e+001 -9.7505e+001 -1.9771e+000 59946 76785,76733,76955
 6.1000e+000 77004 -4.0688e+001 -9.2694e+001  1.8807e-001 59946 76785,76955,76811
 6.1000e+000 77053 -3.9003e+001 -9.6138e+001  2.1337e+000 59946 76811,76955,77027
 6.1000e+000 77076 -3.8763e+001 -9.8693e+001  1.6052e+000 59946 76811,77027,76837
 6.1000e+000 77226 -3.9974e+001 -1.0569e+002  2.8337e+000 59542 77099,77151,77125
 6.1000e+000 77203 -5.4789e+001 -1.3444e+002  8.3739e+000 59542 77099,77177,77151
 6.1000e+000 77427 -5.6096e+001 -1.1283e+002 -6.9167e+000 59030 77450,77277,77251
 6.1000e+000 77404 -3.7142e+001 -9.6536e+001 -3.1240e+001 59030 77450,77251,77355
 6.1000e+000 77381 -2.0332e+001 -1.3079e+002 -3.2880e+000 59030 77277,77329,77303
 6.1000e+000 77476 -3.1782e+001 -1.1603e+002 -1.8862e+001 59030 77329,77277,77450
 6.1000e+000 77499 -9.1300e+000 -1.0865e+002 -3.8255e+001 59030 77329,77450,77355
 6.1000e+000 77749 -4.5552e+001 -1.4235e+002  1.1753e+001 58426 77772,77628,77602
 6.1000e+000 77726 -2.8155e+001 -1.5880e+002  2.7236e+001 58426 77524,77654,77628
 6.1000e+000 77703 -3.8625e+001 -1.3958e+002  9.0925e+000 58426 77772,77602,77550
 6.1000e+000 77680 -2.6945e+001 -1.3255e+002 -5.1567e+000 58426 77550,77602,77576
 6.1000e+000 77798 -3.7358e+001 -1.4483e+002  1.0884e+001 58426 77524,77628,77772
 6.1000e+000 77821 -3.3244e+001 -1.4329e+002  7.6478e+000 58426 77524,77772,77550
 6.1000e+000 78071 -5.7351e+001 -1.2669e+002  1.4470e+001 57922 78094,77924,77898
 6.1000e+000 78048 -6.4499e+001 -1.1980e+002  1.3081e+000 57922 78094,77898,77872
 6.1000e+000 78025 -5.3203e+001 -1.0705e+002  1.2680e+001 57922 78166,77846,77950
 6.1000e+000 78002 -3.0521e+001 -1.0508e+002  1.4579e+001 57922 77846,77976,77950
 6.1000e+000 78120 -4.3779e+001 -1.1956e+002  8.6770e+000 57922 77950,77924,78094
 6.1000e+000 78143 -5.3657e+001 -1.0916e+002  8.8858e+000 57922 78166,77950,78094
 6.1000e+000 78192 -5.0670e+001 -1.1301e+002  9.3487e+000 57922 77872,77846,78166
 6.1000e+000 78215 -5.4316e+001 -1.1924e+002  5.3437e+000 57922 77872,78166,78094
 6.1000e+000 78416  7.7706e+000 -1.0579e+002 -4.9095e+000 57468 78439,78292,78240
 6.1000e+000 78393 -6.8733e+000 -1.0101e+002 -6.0944e-002 57468 78439,78240,78344
 6.1000e+000 78370  1.7080e+000 -1.4490e+002 -2.3039e+000 57468 78240,78292,78266
 6.1000e+000 78465 -6.5292e+000 -1.1288e+002 -7.6866e+000 57468 78318,78292,78439
 6.1000e+000 78488 -1.2489e+001 -1.0445e+002 -1.5437e+000 57468 78318,78439,78344
 6.1000e+000 78689 -1.5138e-001 -1.2258e+002 -1.1377e+001 57014 78712,78539,78513
 6.1000e+000 78666 -1.4495e+001 -1.2225e+002 -2.1380e+000 57014 78712,78513,78617
 6.1000e+000 78643 -2.7666e+001 -1.2134e+002  1.0610e+001 57014 78565,78617,78591
 6.1000e+000 78738 -1.8243e+001 -1.0654e+002 -1.1177e+001 57014 78565,78539,78712
 6.1000e+000 78761 -3.9331e+001 -1.1922e+002  3.8279e+000 57014 78565,78712,78617
 6.1000e+000 79241 -4.1777e+001 -1.1137e+002  8.4064e+000 56652 79264,78895,78869
 6.1000e+000 79218 -2.0299e+001 -1.4509e+002 -9.2448e+000 56652 79264,78869,79051
 6.1000e+000 79195 -3.1009e+001 -1.2750e+002 -2.9477e+001 56652 78869,79077,79051
 6.1000e+000 79172 -3.3390e+001 -7.5550e+001 -1.4617e+001 56652 78895,78973,78947
 6.1000e+000 79149 -5.4306e+001 -2.2362e+002 -1.8681e+001 56652 78973,79051,78999
 6.1000e+000 79126 -2.7192e+001 -7.1643e+001 -1.6907e+001 56652 78895,78947,78921
 6.1000e+000 79103 -3.8819e+001 -1.4266e+002  3.2149e+001 56652 78999,79051,79025
 6.1000e+000 79290 -2.5217e+001 -9.0297e+001  2.0027e+001 56652 78973,78895,79264
 6.1000e+000 79313 -2.3098e+000 -1.2660e+002  3.4341e+000 56652 78973,79264,79051
 6.1000e+000 79512 -1.2114e+001 -1.6562e+002  1.1996e+001 56062 79388,79440,79414
 6.1000e+000 79489 -5.8511e+001 -8.4495e+001  2.1785e+001 56062 79336,79440,79388
 6.1000e+000 79466 -1.6595e+001 -1.2852e+002  2.4164e+001 56062 79336,79388,79362
 6.1000e+000 79941 -1.4920e+001 -7.9232e+001  1.5519e+001 55658 79964,79670,79644
 6.1000e+000 79918 -2.4182e+001 -8.1831e+001  1.7581e+001 55658 79964,79644,79800
 6.1000e+000 79895 -2.2988e+001 -8.4969e+001  9.3238e+000 55658 80036,79696,79670
 6.1000e+000 79872 -2.6380e+001 -7.0719e+001  1.4285e+000 55658 80108,79722,79696
 6.1000e+000 79849 -3.6719e+001 -6.4402e+001  9.0233e+000 55658 79722,79774,79748
 6.1000e+000 79826 -1.4997e-001 -7.3974e+001  4.2182e+000 55658 79618,79800,79644
 6.1000e+000 79990 -2.5084e+001 -8.5288e+001  1.2300e+001 55658 80036,79670,79964
 6.1000e+000 80013 -2.1866e+001 -7.4251e+001  1.8304e+001 55658 79774,79964,79800
 6.1000e+000 80062 -1.9164e+001 -7.6433e+001  8.3911e+000 55658 80108,79696,80036
 6.1000e+000 80085 -2.4694e+001 -7.5114e+001  1.5936e+001 55658 79774,80036,79964
 6.1000e+000 80134 -4.0426e+001 -7.7236e+001  4.8040e+000 55658 79774,79722,80108
 6.1000e+000 80157 -3.6307e+001 -8.4606e+001  1.1778e+001 55658 79774,80108,80036
 6.1000e+000 80307 -5.9703e+001 -8.6639e+001  5.5533e+000 55254 80402,80330,80206
 6.1000e+000 80284 -5.6691e+001 -1.1520e+002  6.3142e+000 55254 80330,80180,80258
 6.1000e+000 80356 -6.8123e+001 -1.0550e+002  1.9033e+001 55254 80232,80206,80330
 6.1000e+000 80379 -2.4803e+001 -8.5988e+001  2.8478e+001 55254 80232,80330,80258
 6.1000e+000 80428 -7.5331e+001 -1.0433e+002 -1.6496e+000 55254 80180,80330,80402
 6.1000e+000 80659 -2.5171e+001 -1.3001e+002 -1.0160e+001 54850 80558,80610,80584
 6.1000e+000 80636 -1.1312e+001 -1.2491e+002 -9.7584e+000 54850 80532,80610,80558
 6.1000e+000 80760 -8.6854e+000 -7.6147e+001 -4.6417e+000 54652 80682,80734,80708
 6.1000e+000 81164 -8.1142e+000 -8.1477e+001 -6.6952e-001 54248 81187,80942,80890
 6.1000e+000 81141 -1.0102e+001 -8.1907e+001  5.5179e-002 54248 81187,80890,81046
 6.1000e+000 81118 -1.0489e+001 -8.5581e+001  1.7763e+001 54248 80942,81020,80994
 6.1000e+000 81095 -7.3395e+000 -8.1500e+001  8.9174e-001 54248 80890,80942,80916
 6.1000e+000 81072 -1.5460e+001 -4.9681e+001  3.6336e+000 54248 80942,80994,80968
 6.1000e+000 81213 -9.9800e+000 -8.0774e+001 -6.3233e-001 54248 81020,80942,81187
 6.1000e+000 81236 -1.1713e+001 -8.0871e+001 -1.4918e-001 54248 81020,81187,81046
 6.1000e+000 81663 -5.8339e+001 -1.0215e+002  8.8776e+000 53594 81340,81444,81366
 6.1000e+000 81640 -5.5961e+001 -1.5129e+002  3.7135e+000 53594 81340,81470,81444
 6.1000e+000 81617 -3.4317e+001 -1.3339e+002 -1.6806e+001 53594 81340,81522,81470
 6.1000e+000 81594 -3.5388e+001 -7.3516e+001 -7.9256e+000 53594 81392,81444,81418
 6.1000e+000 81571 -4.3220e+001 -8.8271e+001 -1.2213e+001 53594 81366,81444,81392
 6.1000e+000 81548 -3.1922e+000 -1.7243e+002  1.1104e+001 53594 81470,81522,81496
 6.1000e+000 81943 -1.6270e+001 -6.8058e+001 -9.3877e+000 53104 81966,81845,81819
 6.1000e+000 81920 -2.3717e+001 -5.3840e+001 -1.1640e+001 53104 81966,81819,81767
 6.1000e+000 81897 -2.4357e+001 -5.5480e+001 -1.1505e+001 53104 81767,81819,81793
 6.1000e+000 81992 -1.1275e+001 -5.8813e+001 -1.1322e+001 53104 81871,81845,81966
 6.1000e+000 82015 -1.4811e+001 -3.8869e+001 -1.5385e+001 53104 81871,81966,81767
 6.1000e+000 82491 -1.8655e+001 -7.0786e+001 -9.3462e+000 52650 82145,82249,82171
 6.1000e+000 82468 -5.7032e+001 -8.3595e+001 -1.0094e+001 52650 82145,82301,82249
 6.1000e+000 82445 -6.0896e+001 -1.2526e+002 -1.9928e+001 52650 82249,82301,82275
 6.1000e+000 82422 -4.1288e+001 -1.6020e+002 -2.9429e+001 52650 82119,82301,82145
 6.1000e+000 82399 -2.1572e+001 -5.3304e+001  5.6432e+000 52650 82171,82249,82223
 6.1000e+000 82376 -5.4877e+000 -1.4653e+002 -1.4015e+001 52650 82119,82327,82301
 6.1000e+000 82353 -5.3332e+000 -2.7771e+001 -1.1071e+001 52650 82171,82223,82197
 6.1000e+000 82739 -2.3248e+001 -6.1036e+001 -1.5379e+000 52246 82762,82540,82514
 6.1000e+000 82716 -1.6424e+001 -3.2906e+001 -6.8588e+000 52246 82762,82514,82644
 6.1000e+000 82693 -3.2671e+001 -6.7831e+001  1.1543e+001 52246 82540,82618,82592
 6.1000e+000 82670 -3.7660e+001 -6.2308e+001  6.9819e+000 52246 82540,82592,82566
 6.1000e+000 82788 -1.6613e+001 -7.5787e+001  2.3818e+000 52246 82618,82540,82762
 6.1000e+000 82811 -2.1145e+001 -6.6377e+001 -5.6811e+000 52246 82618,82762,82644
 6.1000e+000 83059 -1.0252e+001 -8.8637e+001  7.9660e+000 51578 82860,82964,82938
 6.1000e+000 83036 -2.6424e+000 -6.5381e+001 -1.9331e+001 51578 82834,82964,82860
 6.1000e+000 83013 -6.4000e+000 -6.8579e+001  1.7483e+001 51578 82860,82938,82886
 6.1000e+000 82990 -4.6973e+000 -4.7122e+001  5.4420e+000 51578 82886,82938,82912
 6.1000e+000 83309 -1.8604e+001 -4.7173e+001  1.6224e+001 51138 83332,83162,83136
 6.1000e+000 83286 -8.1415e+000 -6.4987e+001  5.1909e+000 51138 83332,83136,83110
 6.1000e+000 83263 -2.4125e+001 -6.6795e+001 -1.6848e+000 51138 83404,83214,83188
 6.1000e+000 83240 -2.8504e-002 -3.8050e+001  3.7919e+000 51138 83084,83214,83110
 6.1000e+000 83358 -3.1834e+001 -6.9874e+001  2.3192e+001 51138 83188,83162,83332
 6.1000e+000 83381 -1.7572e+001 -7.4913e+001  5.6978e+000 51138 83404,83188,83332
 6.1000e+000 83430 -1.5026e+001 -4.5610e+001 -7.1269e-001 51138 83110,83214,83404
 6.1000e+000 83453 -1.0817e+001 -5.8519e+001  6.6718e+000 51138 83110,83404,83332
 6.1000e+000 83835 -1.9525e+001 -8.6816e+001 -9.8608e-001 50734 83613,83717,83691
 6.1000e+000 83812 -2.3246e+001 -9.8011e+001 -1.6303e+001 50734 83561,83717,83613
 6.1000e+000 83789 -1.5128e+001 -4.8429e+001 -2.5211e+001 50734 83561,83613,83587
 6.1000e+000 83766 -3.4611e+001 -6.1250e+001 -4.1690e-001 50734 83613,83691,83639
 6.1000e+000 83743 -3.7250e+001 -6.2040e+001  1.4691e+001 50734 83639,83691,83665
 6.1000e+000 84034 -2.3193e+001 -5.1486e+001  2.4477e+000 50230 84057,83884,83858
 6.1000e+000 84011 -2.2963e+001 -5.5282e+001 -4.6743e+000 50230 84129,84057,83858
 6.1000e+000 83988 -7.0647e+000 -5.9854e+001 -8.6410e+000 50230 84129,83858,83962
 6.1000e+000 84083 -1.7279e+001 -4.7662e+001 -1.2406e+000 50230 83910,83884,84057
 6.1000e+000 84106 -1.5795e+001 -4.4698e+001 -7.3428e-001 50230 83910,84057,83936
 6.1000e+000 84155 -2.2815e+000 -4.5623e+001  3.4801e-002 50230 83936,84057,84129
 6.1000e+000 84178  3.7600e+000 -5.7240e+001 -6.2658e+000 50230 83936,84129,83962
 6.1000e+000 84558 -2.8045e+001 -7.2204e+001 -1.0903e+001 49768 84581,84388,84362
 6.1000e+000 84535 -5.4345e+001 -7.4464e+001 -4.7558e+000 49768 84581,84362,84310
 6.1000e+000 84512 -1.2455e+000 -8.1926e+001 -1.2780e+001 49768 84653,84440,84414
 6.1000e+000 84489 -4.4540e+001 -8.3807e+001  5.6482e+000 49768 84310,84362,84336
 6.1000e+000 84466 -3.7351e+000 -6.1802e+001  7.0421e+000 49768 84284,84440,84310
 6.1000e+000 84607 -1.0093e+001 -6.3340e+001 -1.9277e+001 49768 84414,84388,84581
 6.1000e+000 84630 -1.1736e+001 -7.5397e+001 -9.0455e+000 49768 84653,84414,84581
 6.1000e+000 84679 -1.5464e+001 -7.8340e+001 -1.7575e+001 49768 84310,84440,84653
 6.1000e+000 84702 -3.1122e+001 -7.7825e+001 -1.8137e+001 49768 84310,84653,84581
 6.1000e+000 85159 -4.3826e+001 -9.6783e+001 -2.6266e+001 49192 84885,84937,84911
 6.1000e+000 85136 -4.0606e+001 -6.9886e+001 -1.9521e+001 49192 84885,85041,84937
 6.1000e+000 85113 -2.8218e+001 -6.0431e+001 -8.8549e+000 49192 84963,85041,84989
 6.1000e+000 85090 -2.4895e+001 -5.4272e+001 -1.2223e+001 49192 84937,85041,84963
 6.1000e+000 85067 -2.5580e+001 -5.3260e+001 -1.4729e+001 49192 84989,85041,85015
 6.1000e+000 85714 -4.2976e+001 -6.5444e+001  7.9456e-001 48638 85368,85498,85394
 6.1000e+000 85691 -5.3766e+001 -7.7297e+001  5.5378e+000 48638 85368,85524,85498
 6.1000e+000 85668 -5.2801e+001 -6.4924e+001  2.1242e+001 48638 85737,85420,85394
 6.1000e+000 85645 -4.2305e+001 -7.2484e+001  1.0479e+001 48638 85737,85394,85498
 6.1000e+000 85622 -3.2287e+001 -7.2436e+001  1.5952e+001 48638 85446,85498,85472
 6.1000e+000 85599 -1.3648e+001 -6.1581e+001  8.0053e+000 48638 85342,85524,85368
 6.1000e+000 85576 -5.1906e+001 -7.1761e+001  8.7055e+000 48638 85342,85550,85524
 6.1000e+000 85763 -3.5411e+001 -5.6311e+001  2.6049e+001 48638 85446,85420,85737
 6.1000e+000 85786 -3.5343e+001 -6.5892e+001  1.4195e+001 48638 85446,85737,85498
 6.1000e+000 86371 -3.7675e+001 -4.7138e+001 -2.3277e+000 48084 86100,86230,86178
 6.1000e+000 86348 -4.7810e+001 -6.5860e+001 -7.6642e+000 48084 86048,86230,86100
 6.1000e+000 86325 -3.2438e+001 -4.1280e+001  1.3306e+001 48084 86100,86178,86126
 6.1000e+000 86302 -2.7909e+001 -1.9057e+001 -1.3984e+001 48084 86048,86100,86074
 6.1000e+000 86279 -4.6366e+001 -8.2068e+001 -1.6528e+000 48084 86178,86230,86204
 6.1000e+000 86256 -2.8103e+001 -4.0262e+001  1.4470e+001 48084 86126,86178,86152
 6.1000e+000 86619 -2.4592e+001 -5.3450e+001  5.0018e+000 47630 86642,86446,86420
 6.1000e+000 86596 -2.8256e+001 -5.9425e+001 -7.6608e+000 47630 86642,86420,86394
 6.1000e+000 86573 -3.8688e+001 -6.5251e+001 -1.0220e+001 47630 86394,86524,86498
 6.1000e+000 86550 -1.8237e+001 -6.1980e+001  5.4858e+000 47630 86446,86498,86472
 6.1000e+000 86668 -3.1016e+001 -6.7959e+001  1.7532e+000 47630 86498,86446,86642
 6.1000e+000 86691 -3.2328e+001 -6.9565e+001 -1.0689e+001 47630 86498,86642,86394
 6.1000e+000 87022 -4.7157e+000 -3.3538e+001 -2.1072e+001 47226 87045,86875,86849
 6.1000e+000 86999 -3.2085e+000 -4.0026e+001 -1.9906e+001 47226 87045,86849,86797
 6.1000e+000 86976  2.0816e-001 -1.5582e+001 -7.1827e+000 47226 86797,86849,86823
 6.1000e+000 86953 -1.0916e+000 -2.5191e+001 -1.2280e+001 47226 86875,86927,86901
 6.1000e+000 87071 -7.6019e+000 -3.8613e+001 -1.9759e+001 47226 86927,86875,87045
 6.1000e+000 87094 -4.4078e+000 -4.3008e+001 -1.9137e+001 47226 86927,87045,86797
 6.1000e+000 87244 -6.3844e+000 -7.8454e+001  2.3079e+001 46814 87267,87169,87143
 6.1000e+000 87221 -4.0975e+001 -7.2286e+001 -3.6891e+000 46814 87267,87143,87117
 6.1000e+000 87293 -4.0543e+000 -5.8122e+001  1.3924e+001 46814 87339,87267,87195
 6.1000e+000 87316  3.5059e-001 -5.4557e+001 -8.9044e-002 46814 87469,87267,87117
 6.1000e+000 87365 -6.9328e+000 -5.7080e+001  1.8779e+001 46814 87169,87267,87339
 6.1000e+000 87495 -1.4236e-001 -1.4005e+000 -1.8037e+000 46814 87195,87267,87469
 6.1000e+000 88001 -2.2846e+001 -4.8685e+001  1.5617e+001 46310 88024,87834,87808
 6.1000e+000 87978 -2.8441e+001 -4.9813e+001  8.7298e+000 46310 88024,87808,87756
 6.1000e+000 87955 -1.5977e+001 -6.7437e+001  4.7217e+000 46310 88096,87730,87860
 6.1000e+000 87932 -1.9113e+001 -6.4024e+001  9.9221e+000 46310 87756,87808,87782
 6.1000e+000 87909 -2.1547e+001 -7.8714e+001  2.7702e+000 46310 87678,87860,87730
 6.1000e+000 87886 -3.1928e+001 -1.3583e+002 -8.8795e+000 46310 87678,87730,87704
 6.1000e+000 88050 -2.0611e+001 -4.4209e+001  1.0057e+001 46310 87860,87834,88024
 6.1000e+000 88073 -1.6090e+001 -4.6936e+001  1.0919e+001 46310 88096,87860,88024
 6.1000e+000 88122 -2.0126e+001 -7.7246e+001 -2.4150e+000 46310 87756,87730,88096
 6.1000e+000 88145 -3.2742e+001 -6.9192e+001  1.0528e+000 46310 87756,88096,88024
 6.1000e+000 88572 -1.7396e+001 -6.9848e+001  6.0974e+000 45856 88249,88405,88275
 6.1000e+000 88549 -1.3786e+001 -2.2334e+001 -1.2150e+001 45856 88249,88431,88405
 6.1000e+000 88526 -3.9952e+001 -1.0246e+002 -1.4338e+001 45856 88327,88405,88353
 6.1000e+000 88503 -1.6993e+001 -8.6723e+001 -5.7317e+000 45856 88275,88405,88327
 6.1000e+000 88480 -3.4223e+001 -9.4744e+001 -2.1156e+001 45856 88353,88405,88379
 6.1000e+000 88457 -7.0648e+001 -1.9299e+002  1.5916e+001 45856 88275,88327,88301
 6.1000e+000 88950 -1.0443e+001 -3.8709e+001 -1.2957e+000 45658 88973,88754,88728
 6.1000e+000 88927 -7.8267e+000 -3.5907e+001 -2.1686e-001 45658 88973,88728,88676
 6.1000e+000 88904 -1.5524e+001 -4.3972e+001  1.7425e+001 45658 88676,88832,88806
 6.1000e+000 88881 -1.8976e+001 -5.7791e+001  6.7087e+000 45658 88676,88728,88702
 6.1000e+000 88858 -1.9642e+001 -3.8429e+001 -1.0529e+001 45658 88754,88806,88780
 6.1000e+000 88999 -1.1941e+001 -3.5365e+001 -2.9972e-001 45658 88806,88754,88973
 6.1000e+000 89022 -1.0443e+001 -3.3840e+001  3.2916e-001 45658 88806,88973,88676
 6.1000e+000 89351 -2.2224e+001 -7.2277e+001 -3.0589e+000 45254 89152,89230,89204
 6.1000e+000 89328 -2.4328e+001 -7.3389e+001 -3.8368e+000 45254 89152,89256,89230
 6.1000e+000 89305 -1.0570e+001 -7.7561e+001 -9.8026e+000 45254 89126,89256,89152
 6.1000e+000 89282 -4.2203e+000 -7.1027e+001 -1.0802e+001 45254 89152,89204,89178
 6.1000e+000 89523 -6.4535e+000 -4.4844e+001  8.8219e-001 45006 89422,89474,89448
 6.1000e+000 89500 -6.4724e+000 -4.4883e+001  8.5353e-001 45006 89396,89474,89422
 6.1000e+000 89673 -5.8273e+001 -1.0122e+002  8.5048e+000 44495 89572,89624,89598
 6.1000e+000 89650 -6.0647e+001 -1.0480e+002  6.4377e+000 44495 89546,89624,89572
 6.1000e+000 90104 -7.3406e+000 -7.9221e+001 -5.6009e+000 44005 90199,90127,89937
 6.1000e+000 90081 -1.5359e+001 -7.6085e+001  3.2111e-001 44005 90271,90127,89859
 6.1000e+000 90058 -3.6565e+000 -8.0423e+001 -5.6131e+000 44005 90199,89937,89885
 6.1000e+000 90035 -2.1932e+001 -7.0227e+001  4.1542e+000 44005 90271,89859,89807
 6.1000e+000 90012 -1.2232e+001 -8.8562e+001 -1.0398e+001 44005 89885,89937,89911
 6.1000e+000 89989 -6.2844e+000 -7.4305e+001  1.1897e+001 44005 89807,89859,89833
 6.1000e+000 90153 -1.7158e+001 -8.2955e+001 -4.6141e+000 44005 89963,89937,90127
 6.1000e+000 90176 -1.8784e+001 -9.0435e+001  7.3890e-001 44005 89963,90127,89781
 6.1000e+000 90225 -1.7655e+001 -7.7334e+001 -3.3553e+000 44005 89859,90127,90199
 6.1000e+000 90248 -8.6962e+000 -7.4739e+001 -1.3632e+000 44005 89859,90199,89885
 6.1000e+000 90297 -2.3981e+001 -8.2711e+001 -2.9980e+000 44005 89781,90127,90271
 6.1000e+000 90320 -2.7683e+001 -7.5460e+001  1.5494e+000 44005 89781,90271,89807
 6.1000e+000 90470 -1.1031e+001 -7.7464e+001 -1.2532e+000 43601 90493,90369,90343
 6.1000e+000 90447 -2.0506e+001 -6.2091e+001  6.6066e+000 43601 90493,90343,90421
 6.1000e+000 90519 -2.5409e+001 -1.0531e+002 -1.1076e+001 43601 90395,90369,90493
 6.1000e+000 90542 -2.0714e+001 -7.3261e+001 -9.6836e-001 43601 90395,90493,90421
 6.1000e+000 90922 -2.4295e+001 -8.4128e+001  4.9661e+000 43154 90945,90700,90674
 6.1000e+000 90899 -2.1285e+001 -8.5892e+001 -1.0035e+001 43154 90945,90674,90648
 6.1000e+000 90876 -2.6212e+001 -6.4975e+001 -7.0591e+000 43154 90648,90778,90752
 6.1000e+000 90853 -1.4767e+001 -1.3203e+002  4.1757e+000 43154 90700,90752,90726
 6.1000e+000 90830 -1.7426e+001 -6.5005e+001 -4.3999e+000 43154 90648,90804,90778
 6.1000e+000 90971 -2.8650e+001 -9.7376e+001  7.4750e+000 43154 90752,90700,90945
 6.1000e+000 90994 -2.4584e+001 -9.3975e+001 -7.1132e+000 43154 90752,90945,90648
 6.1000e+000 91451 -9.8455e+000 -7.1832e+001 -1.3761e+001 42650 91203,91255,91229
 6.1000e+000 91428  4.7208e+000 -6.5536e+001 -6.2355e+000 42650 91203,91333,91255
 6.1000e+000 91405 -3.3103e+000 -1.0346e+002 -1.7451e+001 42650 91177,91333,91203
 6.1000e+000 91382 -3.4533e+001 -1.1301e+002  1.4214e+001 42650 91255,91333,91281
 6.1000e+000 91359 -7.1681e+000 -9.3546e+001  4.0956e+000 42650 91281,91333,91307
 6.1000e+000 91721 -4.9118e+001 -1.0407e+002  8.2884e+000 42288 91496,91600,91522
 6.1000e+000 91698 -2.7818e+001 -6.1878e+001 -3.6286e+000 42288 91496,91626,91600
 6.1000e+000 91675 -2.7798e+001 -9.2267e+001  9.0849e+000 42288 91522,91574,91548
 6.1000e+000 91652 -2.4081e+001 -9.4203e+001  8.8403e+000 42288 91522,91600,91574
 6.1000e+000 92199 -7.3884e+001 -1.1376e+002 -2.9087e+000 41898 92222,91983,91879
 6.1000e+000 92176 -7.6102e+001 -1.2760e+002 -8.4244e+000 41898 92294,92222,91879
 6.1000e+000 92153 -8.1190e+001 -1.2603e+002 -1.2072e+001 41898 92294,91879,91853
 6.1000e+000 92130 -6.3970e+001 -6.6253e+001  8.9002e+000 41898 91879,91957,91931
 6.1000e+000 92107 -6.5170e+001 -1.1040e+002 -1.6028e-002 41898 91879,91983,91957
 6.1000e+000 92084 -7.4463e+001 -6.5443e+001  1.8988e+001 41898 91879,91931,91905
 6.1000e+000 92061 -7.1686e+001 -1.1523e+002 -1.0168e+001 41898 91827,92035,91853
 6.1000e+000 92248 -7.2714e+001 -1.3101e+002  6.9423e-001 41898 92009,91983,92222
 6.1000e+000 92271 -7.0633e+001 -1.3395e+002 -1.0972e+001 41898 92009,92222,92035
 6.1000e+000 92320 -6.7769e+001 -1.2475e+002 -8.5413e+000 41898 92035,92222,92294
 6.1000e+000 92343 -7.1436e+001 -1.2226e+002 -1.1919e+001 41898 92035,92294,91853
 6.1000e+000 92770 -1.8596e+001 -9.3358e+001 -7.6601e+000 41437 92865,92793,92525
 6.1000e+000 92747 -2.6549e+001 -1.0493e+002 -1.0126e+001 41437 92793,92473,92629
 6.1000e+000 92724 -6.2509e+000 -9.7876e+001 -1.4379e+001 41437 92865,92525,92499
 6.1000e+000 92701 -3.4049e+001 -8.0062e+001 -1.7319e+001 41437 92525,92603,92577
 6.1000e+000 92678  2.4557e+000 -1.0151e+002 -8.9712e+000 41437 92447,92629,92473
 6.1000e+000 92655 -4.7508e+001 -7.0602e+001 -1.1073e+001 41437 92525,92577,92551
 6.1000e+000 92819 -2.0603e+001 -9.7947e+001 -1.6216e+001 41437 92603,92525,92793
 6.1000e+000 92842 -4.4022e+001 -1.0616e+002 -2.8762e+001 41437 92603,92793,92629
 6.1000e+000 92891  4.7306e+000 -9.9163e+001 -8.5439e+000 41437 92473,92793,92865
 6.1000e+000 92914  2.1832e+001 -9.7574e+001 -1.7983e+001 41437 92473,92865,92499
 6.1000e+000 93243 -1.8819e+001 -1.4661e+002  5.2190e+001 41097 93044,93096,93070
 6.1000e+000 93220 -3.1741e+001 -1.3173e+002  2.7688e+001 41097 93044,93122,93096
 6.1000e+000 93197  5.8186e+000 -8.6745e+001  9.7359e+000 41097 93044,93148,93122
 6.1000e+000 93174 -2.5221e+001 -6.4375e+001  2.6468e+001 41097 93018,93148,93044
 6.1000e+000 93393 -2.8703e+000 -1.0936e+002  7.2634e+000 40643 93416,93292,93344
 6.1000e+000 93370 -4.8500e+000 -1.0121e+002  8.3020e+000 40643 93266,93344,93292
 6.1000e+000 93442 -4.0842e+000 -1.0679e+002  1.1851e+001 40643 93318,93292,93416
 6.1000e+000 93901 -3.1633e+001 -9.7179e+001 -7.5009e+000 40132 93924,93731,93705
 6.1000e+000 93878 -3.2054e+001 -9.7171e+001 -7.6350e+000 40132 93996,93924,93705
 6.1000e+000 93855 -3.7439e+001 -1.1035e+002 -3.0873e+000 40132 93996,93705,93653
 6.1000e+000 93832 -1.4362e+001 -1.0862e+002 -6.0956e+000 40132 93653,93705,93679
 6.1000e+000 93809 -2.9931e+001 -9.0939e+001 -2.5780e-001 40132 93627,93783,93757
 6.1000e+000 93950 -3.0998e+001 -9.9880e+001 -8.1144e+000 40132 93757,93731,93924
 6.1000e+000 93973 -3.3664e+001 -8.8183e+001 -2.0846e+000 40132 93757,93924,93627
 6.1000e+000 94022 -4.2515e+001 -1.0565e+002  1.6391e+000 40132 93627,93924,93996
 6.1000e+000 94045 -3.9397e+001 -1.1020e+002  4.9957e+000 40132 93627,93996,93653
 6.1000e+000 94423 -1.0903e+001 -1.2128e+002 -1.6157e+001 39514 94149,94227,94175
 6.1000e+000 94400 -1.4364e+001 -1.1099e+002  1.1829e+001 39514 94149,94305,94227
 6.1000e+000 94377  3.7319e-001 -1.3842e+002 -1.6463e+001 39514 94175,94227,94201
 6.1000e+000 94354 -3.4966e+001 -1.0494e+002  5.0834e+000 39514 94227,94305,94279
 6.1000e+000 94331 -1.6425e+001 -9.6228e+001  9.8837e+000 39514 94227,94279,94253
 6.1000e+000 94573 -9.7381e+000 -6.5471e+001 -1.1279e+001 38822 94596,94498,94472
 6.1000e+000 94550  1.1535e+001 -6.8013e+001  1.5816e+001 38822 94596,94472,94446
 6.1000e+000 94622 -3.4063e+001 -7.5675e+001 -1.4204e+001 38822 94524,94498,94596
 6.1000e+000 94645 -2.8108e+001 -8.3799e+001  1.5533e+001 38822 94524,94596,94446
 6.1000e+000 95025 -7.3860e+000 -7.9300e+001 -5.8672e+000 38418 95048,94829,94777
 6.1000e+000 95002 -8.2519e+000 -8.3046e+001 -9.9477e+000 38418 95120,95048,94777
 6.1000e+000 94979 -4.9309e+000 -8.5232e+001 -9.2988e+000 38418 95120,94777,94751
 6.1000e+000 94956 -3.8348e+000 -7.7720e+001 -1.0748e+001 38418 95192,94881,94855
 6.1000e+000 94933 -2.2784e+001 -6.3889e+001 -5.7197e+000 38418 94777,94829,94803
 6.1000e+000 95074 -1.4786e+001 -1.0249e+002 -1.9227e+000 38418 94855,94829,95048
 6.1000e+000 95097 -6.1220e+000 -8.3266e+001 -1.0360e+001 38418 95192,94855,95048
 6.1000e+000 95146 -1.5695e+001 -8.3142e+001 -7.4372e+000 38418 94907,95048,95120
 6.1000e+000 95169 -9.3303e+000 -8.3129e+001 -6.0108e+000 38418 94907,95120,94751
 6.1000e+000 95218 -7.3295e+000 -6.4974e+001 -1.0246e+001 38418 94907,94881,95192
 6.1000e+000 95241 -1.3008e+001 -7.5421e+001 -8.0376e+000 38418 94907,95192,95048
 6.1000e+000 95511 -2.6186e+001 -8.5237e+001  5.8050e+000 38049 95312,95390,95364
 6.1000e+000 95488 -1.4277e+001 -7.9566e+001  3.6899e+000 38049 95312,95416,95390
 6.1000e+000 95465 -7.9015e+000 -8.3177e+001 -3.7924e+000 38049 95312,95364,95338
 6.1000e+000 95442 -7.3314e+000 -6.8317e+001  7.3239e+000 38049 95286,95416,95312
 6.1000e+000 95808 -2.7920e+001 -1.0779e+002 -3.5182e+000 37437 95831,95586,95560
 6.1000e+000 95785  8.4689e+000 -1.1041e+002 -4.3458e+000 37437 95831,95560,95534
 6.1000e+000 95762 -5.3591e+001 -1.0022e+002  5.1004e+000 37437 95586,95664,95638
 6.1000e+000 95739 -8.7038e+000 -5.2310e+001 -2.4715e+001 37437 95534,95690,95664
 6.1000e+000 95716 -5.4041e+001 -6.9598e+001  2.2465e+000 37437 95586,95638,95612
 6.1000e+000 95857 -5.1831e+001 -1.0220e+002  1.1556e+001 37437 95664,95586,95831
 6.1000e+000 95880 -1.3521e+001 -1.0384e+002  1.1324e+001 37437 95664,95831,95534
 6.1000e+000 96390 -4.0604e+001 -8.1841e+001 -6.2280e+000 36883 96413,96145,96093
 6.1000e+000 96367 -3.4551e+001 -7.8407e+001 -2.7926e+000 36883 96413,96093,96067
 6.1000e+000 96344 -2.4882e+001 -9.9134e+001 -1.0581e+000 36883 96067,96249,96171
 6.1000e+000 96321 -3.4498e+001 -9.3343e+001 -3.6645e+000 36883 96093,96145,96119
 6.1000e+000 96298 -4.8351e+001 -1.5916e+002  1.3777e+001 36883 96171,96249,96197
 6.1000e+000 96275 -1.1639e+001 -1.2909e+002 -1.2577e+000 36883 96197,96249,96223
 6.1000e+000 96439 -3.7766e+001 -7.6914e+001 -1.1778e+000 36883 96171,96145,96413
 6.1000e+000 96462 -3.3447e+001 -7.6890e+001  1.7619e+000 36883 96171,96413,96067
 6.1000e+000 96781 -3.0080e+001 -9.3641e+001 -1.4257e+001 36215 96559,96663,96637
 6.1000e+000 96758 -3.8162e+001 -9.8637e+001 -1.6493e+001 36215 96507,96663,96559
 6.1000e+000 96735 -3.6968e+001 -6.3323e+001  7.2800e+000 36215 96585,96637,96611
 6.1000e+000 96712 -8.1426e+001 -1.0867e+002 -1.2859e+001 36215 96559,96637,96585
 6.1000e+000 96689 -1.5667e+001 -1.0690e+002 -3.8671e+000 36215 96507,96559,96533
 6.1000e+000 97161  1.6644e+000 -4.8190e+001 -1.5193e+000 35818 97184,96965,96939
 6.1000e+000 97138 -5.2097e+000 -5.4036e+001 -5.5508e+000 35818 97184,96939,96887
 6.1000e+000 97115 -4.6594e+000 -6.4221e+001  1.2726e+001 35818 96965,97043,97017
 6.1000e+000 97092 -3.1068e+000 -5.0197e+001 -6.3879e+000 35818 96887,96939,96913
 6.1000e+000 97069 -3.5972e+001 -6.5545e+001  8.2481e+000 35818 96965,97017,96991
 6.1000e+000 97210  9.3220e+000 -5.3498e+001  2.2343e+000 35818 97043,96965,97184
 6.1000e+000 97233  3.3580e+000 -5.7351e+001 -1.1815e+000 35818 97043,97184,96887
 6.1000e+000 97739 -3.0048e+001 -9.1576e+001 -2.6348e+001 35214 97416,97468,97442
 6.1000e+000 97716 -3.7047e+001 -6.4423e+001 -9.4687e+000 35214 97416,97598,97468
 6.1000e+000 97693 -2.9907e+001 -5.8123e+001 -4.7047e+000 35214 97762,97520,97468
 6.1000e+000 97670 -3.1471e+001 -5.9784e+001 -6.8845e+000 35214 97762,97468,97598
 6.1000e+000 97647 -2.4429e+001 -5.7788e+001 -1.0077e+001 35214 97546,97598,97572
 6.1000e+000 97624 -1.9812e+001 -5.8460e+001 -5.9566e+000 35214 97468,97520,97494
 6.1000e+000 97788 -3.0754e+001 -6.0927e+001 -6.1816e+000 35214 97546,97520,97762
 6.1000e+000 97811 -3.1436e+001 -6.2161e+001 -8.1858e+000 35214 97546,97762,97598
 6.1000e+000 98189 -5.8389e-001 -3.9189e+001 -5.9451e+000 34760 98356,98212,97967
 6.1000e+000 98166 -5.2944e+000 -4.8701e+001 -1.1375e+001 34760 98284,98212,97941
 6.1000e+000 98143 -1.4532e+001 -4.2668e+001 -6.6977e+000 34760 98284,97941,97915
 6.1000e+000 98120 -2.1060e+000 -5.4625e+001 -2.7276e+000 34760 98484,97993,97967
 6.1000e+000 98097 -6.6250e-001 -4.5256e+001 -2.0425e+000 34760 98556,98045,98019
 6.1000e+000 98238 -4.3962e+000 -5.1769e+001 -2.8602e+000 34760 98484,97967,98212
 6.1000e+000 98261  3.9173e+000 -4.7843e+001 -4.4211e+000 34760 98556,98019,98212
 6.1000e+000 98310  1.2388e+000 -3.6726e+001 -1.3984e+001 34760 98071,98212,98284
 6.1000e+000 98333 -3.3718e+000 -2.1426e+001 -1.0814e+001 34760 98071,98284,97915
 6.1000e+000 98382 -3.1816e+001 -5.8093e+001 -1.4756e+001 34760 97941,98212,98356
 6.1000e+000 98510  1.6401e+000 -5.2236e+001 -4.0147e+000 34760 98019,97993,98484
 6.1000e+000 98533 -2.0808e+000 -5.0540e+001 -3.8597e+000 34760 98019,98484,98212
 6.1000e+000 98582  4.9981e+000 -4.1935e+001 -6.4494e-001 34760 98071,98045,98556
 6.1000e+000 98605  6.8844e+000 -4.6105e+001 -3.6201e+000 34760 98071,98556,98212
 6.1000e+000 99032 -3.7049e+001 -7.9933e+001  1.3275e+001 34156 98735,98891,98839
 6.1000e+000 99009 -3.3673e+001 -8.3845e+001  6.2599e+000 34156 98709,98891,98735
 6.1000e+000 98986 -1.2162e+001 -7.2661e+001  1.2119e+001 34156 98735,98813,98787
 6.1000e+000 98963 -1.4533e+001 -7.9223e+001  1.1265e+001 34156 98735,98839,98813
 6.1000e+000 98940  3.8106e+000 -1.0864e+002  1.3920e+001 34156 98735,98787,98761
 6.1000e+000 98917 -3.4964e+001 -7.4637e+001  1.1179e+001 34156 98839,98891,98865
 6.1000e+000 99231 -8.2552e+000 -3.8601e+001  4.3444e+000 33766 99055,99133,99107
 6.1000e+000 99208 -1.6968e+001 -5.0781e+001  8.2879e+000 33766 99055,99159,99133
 6.1000e+000 99185 -5.2194e+000 -5.3355e+001  1.0445e+001 33766 99055,99107,99081
 6.1000e+000 99818 -1.6384e+001 -5.2374e+001  2.0102e+000 33248 99521,99651,99573
 6.1000e+000 99795 -1.4156e+001 -4.8786e+001  6.6996e+000 33248 99521,99677,99651
 6.1000e+000 99772 -2.7242e+001 -6.7734e+001 -3.0253e+000 33248 99573,99651,99599
 6.1000e+000 99749 -1.5949e+001 -6.3710e+001  6.8324e+000 33248 99495,99677,99521
 6.1000e+000 99726 -1.3276e+001 -5.8061e+001 -1.1990e+001 33248 99599,99651,99625
 6.1000e+000 99703 -1.9841e+001 -6.3973e+001  4.3814e+000 33248 99521,99573,99547
 6.1000e+000 100196 -2.2858e+001 -6.4953e+001 -1.3358e+001 32794 100219,99948,99922
 6.1000e+000 100173 -2.5514e+001 -6.9874e+001 -4.6700e+000 32794 100219,99922,100052
 6.1000e+000 100150 -3.1469e+001 -5.7731e+001  4.8100e+000 32794 99974,100052,100026
 6.1000e+000 100127 -3.1438e+001 -6.1090e+001 -6.9036e+000 32794 99922,100078,100052
 6.1000e+000 100104 -2.8377e+001 -7.0954e+001  1.6353e+001 32794 99974,100026,100000
 6.1000e+000 100245 -3.2751e+001 -6.6388e+001 -9.0205e+000 32794 99974,99948,100219
 6.1000e+000 100268 -3.2366e+001 -7.1953e+001 -6.1236e-002 32794 99974,100219,100052
 6.1000e+000 100418 -6.1948e+000 -6.4593e+001 -8.1546e+000 32504 100571,100343,100317
 6.1000e+000 100395 -3.0309e+001 -7.5511e+001  6.6486e+000 32504 100571,100317,100441
 6.1000e+000 100467  1.8178e+001 -3.4292e+001 -2.2096e+001 32504 100291,100369,100441
 6.1000e+000 100597  4.4200e+000 -5.3429e+001 -2.7488e+001 32504 100369,100343,100571
 6.1000e+000 100620 -6.6072e+000 -4.9794e+001 -1.4687e+001 32504 100369,100571,100441
 6.1000e+000 101020 -1.5225e+000 -3.9165e+001  2.7468e+000 32142 100772,100902,100876
 6.1000e+000 100997 -2.8245e+000 -3.1217e+001  1.5431e+000 32142 100746,100902,100772
 6.1000e+000 100974  3.4511e+000 -4.7086e+001  9.3393e+000 32142 101043,100824,100798
 6.1000e+000 100951 -5.6489e+000 -5.3523e+001  6.5279e+000 32142 101043,100798,100772
 6.1000e+000 100928 -3.0367e+001 -6.5363e+001 -1.9199e+001 32142 101115,100876,100850
 6.1000e+000 101069  1.2971e+001 -5.5816e+001 -3.6380e+000 32142 100850,100824,101043
 6.1000e+000 101092 -1.3079e+001 -6.8843e+001 -7.9892e+000 32142 101115,100850,101043
 6.1000e+000 101141 -8.8096e+000 -5.0679e+001 -7.5074e+000 32142 100772,100876,101115
 6.1000e+000 101164  5.2022e+000 -5.2773e+001  4.5289e+000 32142 100772,101115,101043
 6.1000e+000 101719 -3.6606e+001 -8.5272e+001  1.1858e+001 31538 101742,101477,101399
 6.1000e+000 101696 -4.3741e+001 -1.0242e+002  3.6286e+000 31538 101814,101742,101399
 6.1000e+000 101673 -4.9307e+001 -8.7342e+001 -5.4381e+000 31538 101814,101399,101373
 6.1000e+000 101650 -3.8086e+001 -6.0905e+001  8.9361e+000 31538 101425,101477,101451
 6.1000e+000 101627 -3.4607e+001 -7.2386e+001  2.6970e+000 31538 101399,101477,101425
 6.1000e+000 101604 -2.1051e+001 -1.0674e+002  2.1403e+001 31538 101477,101529,101503
 6.1000e+000 101581 -1.2719e+001 -5.5309e+001 -3.2609e+000 31538 101347,101555,101373
 6.1000e+000 101768 -4.0576e+001 -1.0345e+002  1.1001e+001 31538 101529,101477,101742
 6.1000e+000 101791 -3.7375e+001 -1.0719e+002 -4.3136e+000 31538 101529,101742,101555
 6.1000e+000 101840 -2.9360e+001 -8.6886e+001 -3.6701e+000 31538 101555,101742,101814
 6.1000e+000 101863 -3.7867e+001 -7.4623e+001 -1.2017e+001 31538 101555,101814,101373
 6.1000e+000 102111 -5.9500e+001 -1.4270e+002  1.9636e+001 31112 101886,101990,101912
 6.1000e+000 102088 -2.3401e+001 -8.7273e+001  3.1808e-001 31112 101886,102016,101990
 6.1000e+000 102065 -2.7968e+001 -1.3374e+002  2.3754e+001 31112 101912,101990,101964
 6.1000e+000 102042 -3.7089e+001 -1.5473e+002  2.6810e+001 31112 101912,101964,101938
 6.1000e+000 102408 -1.6546e+001 -7.9912e+001  7.3138e+000 30658 102431,102186,102160
 6.1000e+000 102385 -2.9961e+001 -7.8041e+001  5.7351e-002 30658 102431,102160,102264
 6.1000e+000 102362 -2.8516e+001 -8.7953e+001  2.0384e+000 30658 102186,102238,102212
 6.1000e+000 102339 -3.2555e+001 -8.4040e+001 -6.2502e+000 30658 102134,102264,102160
 6.1000e+000 102316 -2.2935e+001 -7.0227e+001 -2.4966e+001 30658 102134,102290,102264
 6.1000e+000 102457 -2.7116e+001 -8.5591e+001  4.1827e+000 30658 102238,102186,102431
 6.1000e+000 102480 -4.1549e+001 -8.5199e+001 -3.6557e+000 30658 102238,102431,102264
 6.1000e+000 102681 -1.0608e+001 -9.3467e+001  1.2814e+001 30004 102704,102557,102505
 6.1000e+000 102658 -1.1205e+001 -9.8754e+001  1.5156e+001 30004 102704,102505,102609
 6.1000e+000 102635  2.4182e+000 -7.5236e+001  3.5240e+000 30004 102505,102557,102531
 6.1000e+000 102730 -1.2336e+001 -8.7580e+001  1.1241e+001 30004 102583,102557,102704
 6.1000e+000 102753 -1.4940e+001 -9.2782e+001  1.5233e+001 30004 102583,102704,102609
 6.1000e+000 103003 -1.1226e+001 -7.7174e+001 -5.9701e+000 29564 103026,102804,102778
 6.1000e+000 102980 -1.4876e+001 -9.3214e+001 -9.0677e+000 29564 103026,102778,102908
 6.1000e+000 102957 -1.6539e+001 -7.9948e+001 -1.9782e-001 29564 102856,102908,102882
 6.1000e+000 102934 -2.4417e+001 -6.9885e+001  6.4519e+000 29564 102804,102856,102830
 6.1000e+000 103052 -1.0584e+001 -6.9505e+001  4.8422e+000 29564 102856,102804,103026
 6.1000e+000 103075 -1.5213e+001 -8.2439e+001  2.5548e-001 29564 102856,103026,102908
 6.1000e+000 103634 -3.5744e+001 -8.9186e+001 -1.1725e+001 29160 103657,103418,103392
 6.1000e+000 103611 -3.2600e+001 -8.3098e+001 -3.7369e+000 29160 103657,103392,103314
 6.1000e+000 103588 -2.3852e+001 -7.0061e+001 -7.8075e+000 29160 103314,103392,103366
 6.1000e+000 103565 -1.5774e+001 -7.2990e+001 -1.1383e+001 29160 103314,103366,103340
 6.1000e+000 103542 -3.7128e+001 -7.4751e+001 -9.3932e+000 29160 103262,103444,103314
 6.1000e+000 103519 -4.6314e+001 -9.2138e+001 -1.5136e+001 29160 103262,103314,103288
 6.1000e+000 103496 -2.6684e+001 -8.0886e+001 -4.5928e+000 29160 103262,103470,103444
 6.1000e+000 103683 -4.8348e+001 -9.9792e+001 -2.2427e+001 29160 103444,103418,103657
 6.1000e+000 103706 -3.7040e+001 -8.1743e+001 -1.3094e+001 29160 103444,103657,103314
 6.1000e+000 104035 -2.4996e+001 -8.5734e+001  8.6060e+000 28770 103836,103914,103862
 6.1000e+000 104012 -2.3710e+001 -8.1031e+001  1.1804e+001 28770 103810,103914,103836
 6.1000e+000 103989  2.7045e+000 -7.3118e+001  1.3293e+001 28770 103810,103940,103914
 6.1000e+000 103966 -5.4067e+000 -6.9599e+001  1.7415e+001 28770 103862,103914,103888
 6.1000e+000 104185 -6.1819e+000 -7.3404e+001  1.4631e+001 28366 104208,104110,104084
 6.1000e+000 104162 -6.2429e+000 -6.2821e+001  1.0732e+001 28366 104280,104208,104084
 6.1000e+000 104234  1.4752e+001 -7.3015e+001  8.2523e+000 28366 104610,104208,104136
 6.1000e+000 104257 -1.2705e+001 -6.8624e+001  9.0462e+000 28366 104538,104410,104208
 6.1000e+000 104306 -2.1410e+001 -6.9804e+001  9.0262e+000 28366 104538,104208,104280
 6.1000e+000 104436 -2.6933e+000 -6.7693e+001  1.7254e+000 28366 104136,104208,104410
 6.1000e+000 104564 -2.1855e+001 -6.7775e+001  4.3484e+000 28366 104058,104410,104538
 6.1000e+000 104587 -2.7095e+001 -6.6864e+001  3.6895e+000 28366 104058,104538,104280
 6.1000e+000 104636  1.1817e+001 -7.3476e+001  1.1812e+001 28366 104110,104208,104610
 6.1000e+000 105349 -1.9250e+001 -7.0333e+001 -6.5157e+000 27976 105516,105372,105107
 6.1000e+000 105326 -3.1941e+001 -7.2176e+001  2.4489e+000 27976 105588,105372,105055
 6.1000e+000 105303 -3.4477e+001 -6.9826e+001 -9.2215e+000 27976 105444,105159,105133
 6.1000e+000 105280 -1.1318e+001 -7.2778e+001 -3.7992e+000 27976 105516,105107,105081
 6.1000e+000 105257 -3.0272e+001 -7.9672e+001  6.8314e+000 27976 105588,105055,105029
 6.1000e+000 105234 -1.6141e+001 -5.9553e+001  3.1004e+000 27976 105003,105185,105159
 6.1000e+000 105211 -2.1834e+001 -4.7121e+001  1.1791e+001 27976 104977,105185,105003
 6.1000e+000 105398 -1.5703e+001 -7.3516e+001 -8.6248e+000 27976 105133,105107,105372
 6.1000e+000 105421 -2.6628e+001 -7.7102e+001 -5.0724e+000 27976 105444,105133,105372
 6.1000e+000 105470 -2.7586e+001 -5.8042e+001 -4.7230e+000 27976 105003,105159,105444
 6.1000e+000 105493 -2.1593e+001 -6.5872e+001 -2.7907e+000 27976 105003,105444,105372
 6.1000e+000 105542 -1.3922e+001 -7.0069e+001  3.5530e-001 27976 105055,105372,105516
 6.1000e+000 105565 -1.7965e+000 -7.0789e+001  2.2045e+000 27976 105055,105516,105081
 6.1000e+000 105614 -3.5735e+001 -7.9583e+001  6.0816e+000 27976 105003,105372,105588
 6.1000e+000 105637 -3.5044e+001 -8.6806e+001  1.0909e+001 27976 105003,105588,105029
 6.1000e+000 106143 -2.7599e+001 -1.0079e+002  6.1807e+000 27664 106166,105846,105820
 6.1000e+000 106120 -1.7719e+001 -7.1768e+001  2.9665e+000 27664 106310,106166,105820
 6.1000e+000 106097 -6.9237e+000 -9.1423e+001 -1.9750e+001 27664 106382,106238,105950
 6.1000e+000 106074 -1.1415e+001 -6.8231e+001  1.5503e+000 27664 106310,105820,106002
 6.1000e+000 106051  1.0248e+001 -8.2171e+001 -1.6138e+001 27664 106382,105950,105924
 6.1000e+000 106028  2.5115e-001 -1.5424e+002 -4.0470e+000 27664 105846,105898,105872
 6.1000e+000 106192 -2.5013e+001 -1.1388e+002 -1.6582e+001 27664 105898,105846,106166
 6.1000e+000 106215 -1.3249e+001 -9.4233e+001 -6.6789e+000 27664 106238,105898,106166
 6.1000e+000 106264 -4.8756e+001 -1.0185e+002 -2.6491e+001 27664 105976,105950,106238
 6.1000e+000 106287 -1.3784e+001 -9.2094e+001 -7.2849e+000 27664 105976,106238,106166
 6.1000e+000 106336 -1.1158e+001 -7.9518e+001  9.8972e+000 27664 105976,106166,106310
 6.1000e+000 106359 -3.5674e+000 -7.5205e+001  8.1554e+000 27664 105976,106310,106002
 6.1000e+000 106408 -1.4711e+001 -7.6813e+001 -3.6888e-001 27664 105898,106238,106382
 6.1000e+000 106431 -4.3141e+000 -7.1802e+001  1.7142e+000 27664 105898,106382,105924
 6.1000e+000 106728 -8.7892e+000 -5.3250e+001  1.1474e+001 27153 106751,106506,106454
 6.1000e+000 106705 -8.5326e+000 -5.4917e+001  9.0550e+000 27153 106751,106454,106610
 6.1000e+000 106682 -1.3644e+001 -4.2898e+001  4.5334e+000 27153 106454,106506,106480
 6.1000e+000 106659 -1.3392e+001 -5.1748e+001  6.4227e+000 27153 106532,106610,106584
 6.1000e+000 106636 -1.9951e+001 -2.7345e+001  1.3273e+001 27153 106532,106584,106558
 6.1000e+000 106777 -5.8373e+000 -5.1081e+001  1.2443e+001 27153 106532,106506,106751
 6.1000e+000 106800 -6.5265e+000 -5.3546e+001  9.6551e+000 27153 106532,106751,106610
 6.1000e+000 107180 -1.0763e+001 -6.8271e+001  4.6059e+000 26642 107203,106984,106958
 6.1000e+000 107157 -3.3887e+001 -7.9298e+001 -2.1774e-001 26642 107203,106958,106932
 6.1000e+000 107134 -4.2168e+001 -8.8393e+001 -1.2885e+001 26642 107275,107036,107010
 6.1000e+000 107111 -2.8167e+001 -8.5404e+001 -1.7843e+001 26642 106932,107062,107036
 6.1000e+000 107088 -9.5661e-001 -6.6087e+001  7.1028e+000 26642 106906,107062,106932
 6.1000e+000 107229  1.4250e-001 -6.5531e+001 -2.0923e+001 26642 107010,106984,107203
 6.1000e+000 107252 -3.6428e+001 -8.0667e+001 -1.5987e+001 26642 107275,107010,107203
 6.1000e+000 107301 -3.5278e+001 -8.7312e+001 -1.7134e+001 26642 106932,107036,107275
 6.1000e+000 107324 -3.3319e+001 -8.7452e+001 -1.8116e+001 26642 106932,107275,107203
 6.1000e+000 107675 -2.2436e+001 -5.2406e+001  6.6280e+000 26045 107450,107554,107476
 6.1000e+000 107652 -1.8538e+001 -4.6993e+001  3.6794e+000 26045 107450,107580,107554
 6.1000e+000 107629 -1.3124e+001 -2.6920e+001 -1.5076e+000 26045 107476,107528,107502
 6.1000e+000 107606 -5.0381e+000 -4.7012e+001  5.3665e+000 26045 107476,107554,107528
 6.1000e+000 107874 -1.4526e+001 -7.6447e+001  1.9926e+001 25641 107750,107802,107776
 6.1000e+000 107851 -1.6894e+001 -5.3962e+001  1.1955e+001 25641 107724,107802,107750
 6.1000e+000 107828 -2.1102e+001 -5.4671e+001  1.3048e+001 25641 107698,107802,107724
 6.1000e+000 108431 -5.0759e+000 -8.3971e+001  1.6330e+001 25023 108526,108267,108241
 6.1000e+000 108408  2.9952e-001 -7.7371e+001  2.0050e+000 25023 108059,108267,108085
 6.1000e+000 108385 -1.1750e+001 -8.8704e+001  1.5854e+001 25023 108454,108163,108111
 6.1000e+000 108362 -4.2085e+001 -8.8622e+001  2.8108e+001 25023 108454,108111,108085
 6.1000e+000 108339 -3.1387e+001 -1.1495e+002  2.7022e+001 25023 108111,108163,108137
 6.1000e+000 108316 -2.1450e+001 -6.3537e+001 -4.4584e+000 25023 108163,108241,108215
 6.1000e+000 108293  5.1607e+000 -5.1158e+001  1.1078e+000 25023 108163,108215,108189
 6.1000e+000 108480 -1.7867e+000 -7.8316e+001  1.4513e+000 25023 108241,108163,108454
 6.1000e+000 108503 -1.1479e+001 -8.3234e+001  1.6400e+001 25023 108526,108241,108454
 6.1000e+000 108552 -1.3201e+001 -8.1966e+001  1.2426e+001 25023 108085,108267,108526
 6.1000e+000 108575 -1.9894e+001 -8.1534e+001  1.2365e+001 25023 108085,108526,108454
 6.1000e+000 108823  7.4319e+000 -5.7824e+001  9.1725e+000 24461 108624,108728,108650
 6.1000e+000 108800 -6.2783e+000 -1.2904e+002 -1.0648e+001 24461 108598,108728,108624
 6.1000e+000 108777  1.5789e+000 -7.6600e+001  5.3695e+000 24461 108650,108728,108676
 6.1000e+000 108754 -3.2486e+001 -2.2279e+002  1.9459e+001 24461 108676,108728,108702
 6.1000e+000 109022 -2.2101e+001 -6.0313e+001  9.9976e+000 24121 108872,108924,108898
 6.1000e+000 108999 -1.3893e+001 -6.1280e+001  1.0850e+001 24121 108846,108924,108872
 6.1000e+000 108976 -2.6501e+001 -6.6664e+001  1.1288e+001 24121 108846,108950,108924
 6.1000e+000 109483 -2.7323e+001 -8.8513e+001 -9.4377e+000 23717 109209,109339,109235
 6.1000e+000 109460 -1.1225e+001 -1.0313e+002 -2.1662e+001 23717 109209,109365,109339
 6.1000e+000 109437 -5.0891e-001 -1.1183e+002 -6.2289e+000 23717 109287,109339,109313
 6.1000e+000 109414 -4.9912e+001 -1.1286e+002  6.1315e+000 23717 109235,109339,109287
 6.1000e+000 109391  4.4196e+000 -1.3369e+002  4.9380e+001 23717 109235,109287,109261
 6.1000e+000 109910 -3.5988e+001 -1.0599e+002 -1.0388e+001 23305 109613,109743,109717
 6.1000e+000 109887 -3.6239e+001 -1.0661e+002 -7.6826e+000 23305 109613,109769,109743
 6.1000e+000 109864 -4.3126e+001 -1.0038e+002 -9.1033e+000 23305 109613,109717,109639
 6.1000e+000 109841 -2.6993e+001 -9.8618e+001 -3.0453e+000 23305 109587,109769,109613
 6.1000e+000 109818  8.0376e-001 -8.1814e+001  7.2819e+000 23305 109639,109717,109691
 6.1000e+000 109795 -8.2365e+000 -6.5336e+001 -1.5414e+001 23305 109639,109691,109665
 6.1000e+000 110180 -3.8755e+000 -2.9860e+001 -6.3740e+000 22851 110007,110059,110033
 6.1000e+000 110157 -2.2772e+001 -8.1812e+001  4.6298e+000 22851 109981,110059,110007
 6.1000e+000 110134 -3.1957e+001 -9.0408e+001  1.9234e-001 22851 109955,110059,109981
 6.1000e+000 110111 -1.3170e+001 -1.0466e+002 -8.3590e+000 22851 109955,110085,110059
 6.1000e+000 110737 -7.6724e+000 -8.8243e+001 -2.5944e+001 22333 110760,110469,110391
 6.1000e+000 110714 -1.3447e-001 -1.0290e+002 -2.0175e+001 22333 110760,110391,110365
 6.1000e+000 110691 -6.4609e+000 -7.7154e+001 -1.9862e+001 22333 110832,110521,110469
 6.1000e+000 110668 -1.8756e+001 -1.5629e+002  1.2285e+001 22333 110417,110469,110443
 6.1000e+000 110645 -3.9744e+001 -1.4196e+002  8.5510e+000 22333 110391,110469,110417
 6.1000e+000 110622 -1.5313e+000 -7.8858e+001 -9.6900e+000 22333 110469,110521,110495
 6.1000e+000 110599 -8.3814e+000 -5.6978e+001  9.1391e+000 22333 110365,110573,110547
 6.1000e+000 110786 -2.4426e+000 -8.0288e+001 -2.3543e+001 22333 110832,110469,110760
 6.1000e+000 110809  8.7555e+000 -8.9093e+001 -1.6299e+001 22333 110547,110760,110365
 6.1000e+000 110858 -7.6258e+000 -8.4134e+001 -1.8804e+001 22333 110547,110521,110832
 6.1000e+000 110881 -5.9982e+000 -9.0532e+001 -2.3144e+001 22333 110547,110832,110760
 6.1000e+000 111308 -4.4305e+001 -1.0783e+002  9.1525e+000 21829 111331,111063,111011
 6.1000e+000 111285 -3.7667e+001 -9.6753e+001 -2.4845e+000 21829 111331,111011,111167
 6.1000e+000 111262 -4.5871e+001 -1.0880e+002  9.9052e+000 21829 111403,111089,111063
 6.1000e+000 111239 -5.7733e+001 -1.1748e+002  1.8711e+001 21829 111011,111063,111037
 6.1000e+000 111216 -2.3897e+001 -7.1943e+001  3.2460e+000 21829 110985,111167,111011
 6.1000e+000 111193 -6.0873e+001 -1.9835e+002  4.4764e+001 21829 111089,111141,111115
 6.1000e+000 111357 -4.4413e+001 -1.1017e+002  9.8460e+000 21829 111403,111063,111331
 6.1000e+000 111380 -4.6060e+001 -1.1320e+002  5.3730e-001 21829 111141,111331,111167
 6.1000e+000 111429 -5.0995e+001 -1.1086e+002  1.0102e+001 21829 111141,111089,111403
 6.1000e+000 111452 -4.6924e+001 -1.1070e+002  1.0376e+001 21829 111141,111403,111331
 6.1000e+000 112056  3.8303e+001 -7.6117e+001  3.0925e+000 21489 111687,111765,111739
 6.1000e+000 112033  1.4263e+001 -8.9187e+001  9.5664e+000 21489 112151,112079,111687
 6.1000e+000 112010  3.1564e+000 -1.4080e+002  5.9154e+000 21489 111791,111843,111817
 6.1000e+000 111987 -2.0292e+001 -1.1469e+002 -1.0391e+001 21489 112079,111843,111791
 6.1000e+000 111964  2.8667e+001 -8.0908e+001  1.7923e+001 21489 112151,111687,111661
 6.1000e+000 111941 -1.3947e+000 -5.8220e+001  1.3269e+001 21489 111661,111869,111843
 6.1000e+000 111918  3.9797e+001 -8.1963e+001  1.3484e+001 21489 111687,111739,111713
 6.1000e+000 111895  1.4065e+001 -2.2378e+001  2.6703e+000 21489 111635,111869,111661
 6.1000e+000 112105 -8.6323e+000 -9.6165e+001  5.7946e+000 21489 111765,111687,112079
 6.1000e+000 112128 -8.2811e+000 -9.2819e+001  6.0071e+000 21489 111765,112079,111791
 6.1000e+000 112177 -9.3980e+000 -8.6721e+001 -3.7031e+000 21489 111843,112079,112151
 6.1000e+000 112200  3.4125e+000 -8.3196e+001  3.0393e+000 21489 111843,112151,111661
 6.1000e+000 112578 -1.3064e+001 -1.1193e+002  5.4040e+000 21177 112382,112434,112408
 6.1000e+000 112555 -1.8499e+001 -1.0976e+002 -1.1743e-001 21177 112330,112434,112382
 6.1000e+000 112532 -9.6657e+000 -8.9715e+001  2.0128e+001 21177 112304,112434,112330
 6.1000e+000 112509 -1.9288e+001 -1.0530e+002  0.0000e+000 21177 112330,112382,112356
 6.1000e+000 112486 -1.9228e+000 -4.1727e+001  2.4704e+000 21177 112304,112460,112434
 6.1000e+000 112679 -1.0657e+000 -4.8419e+001 -1.6032e+001 20666 112601,112653,112627
 6.1000e+000 112927 -3.5626e+001 -1.2067e+002  4.2607e+000 19762 112702,112754,112728
 6.1000e+000 112904 -1.3189e+001 -1.1436e+002 -1.3129e+000 19762 112702,112832,112754
 6.1000e+000 112881 -2.9766e+001 -1.2269e+002  1.9264e+001 19762 112754,112832,112806
 6.1000e+000 112858 -4.3086e+001 -1.6055e+002  2.1154e+001 19762 112754,112806,112780
 6.1000e+000 113297 -3.1898e+001 -1.4574e+002  9.6857e+000 19308 112974,113052,113026
 6.1000e+000 113274 -2.2052e+001 -1.2098e+002  3.5793e+000 19308 112974,113156,113052
 6.1000e+000 113251 -1.3272e+001 -1.6091e+002 -1.9274e+001 19308 113052,113130,113104
 6.1000e+000 113228 -2.4321e+001 -1.2097e+002  4.3158e-002 19308 113052,113156,113130
 6.1000e+000 113205 -2.3999e+001 -1.4009e+002  0.0000e+000 19308 113052,113104,113078
 6.1000e+000 113182 -4.7085e+001 -1.5240e+002 -9.3256e-001 19308 112974,113026,113000
 6.1000e+000 113547  4.1179e-002 -1.2972e+002 -9.1818e+000 18711 113570,113374,113348
 6.1000e+000 113524 -3.5921e+000 -1.1901e+002 -5.6368e+000 18711 113570,113348,113452
 6.1000e+000 113501  1.4963e+000 -8.8437e+001 -2.3337e+001 18711 113322,113452,113348
 6.1000e+000 113478 -1.2283e+001 -1.1826e+002 -4.3191e+001 18711 113374,113426,113400
 6.1000e+000 113596  2.4787e-002 -1.1786e+002 -1.1798e+001 18711 113426,113374,113570
 6.1000e+000 113619 -4.1220e+000 -1.0862e+002 -5.9949e+000 18711 113426,113570,113452
 6.1000e+000 113771 -6.6098e+001 -1.6550e+002 -9.3804e+000 18307 113670,113722,113696
 6.1000e+000 113748 -5.1685e+001 -1.5483e+002 -4.4647e+000 18307 113644,113722,113670
 6.1000e+000 113972 -3.0288e+001 -1.4003e+002  2.9116e+000 17945 113822,113874,113848
 6.1000e+000 113949 -2.9490e+001 -1.3915e+002  3.3808e+000 17945 113822,113900,113874
 6.1000e+000 113926 -4.1673e+001 -1.1015e+002  5.8982e+001 17945 113796,113900,113822
 6.1000e+000 114075 -1.7356e+001 -1.9985e+002  2.2905e+001 17482 113997,114049,114023
 6.1000e+000 114479 -8.0495e+000 -1.1464e+002 -1.7918e+001 17042 114257,114361,114335
 6.1000e+000 114456 -2.6631e+001 -1.0842e+002 -3.1215e+000 17042 114205,114361,114257
 6.1000e+000 114433 -2.9138e+001 -1.2597e+002  4.6955e+000 17042 114205,114257,114231
 6.1000e+000 114410  2.1911e+001 -1.7085e+002 -9.5215e+000 17042 114283,114335,114309
 6.1000e+000 114387 -8.8704e-001 -1.4578e+002 -7.5611e+000 17042 114257,114335,114283
 6.1000e+000 114879 -5.9397e+001 -1.0980e+002 -8.1841e-001 16638 114631,114683,114657
 6.1000e+000 114856 -1.0245e+001 -8.9085e+001  2.2425e+000 16638 114605,114683,114631
 6.1000e+000 114833  1.8935e+001 -4.6324e+001 -1.2904e+001 16638 114605,114761,114683
 6.1000e+000 114810 -2.4354e+000 -1.2456e+002 -5.1782e+000 16638 114683,114735,114709
 6.1000e+000 114787 -5.7294e+000 -1.2953e+002 -8.0726e+000 16638 114683,114761,114735
 6.1000e+000 115078 -5.4360e+001 -1.2305e+002  3.6152e+000 16232 114954,115006,114980
 6.1000e+000 115055 -5.4168e+001 -1.3649e+002  6.5194e+000 16232 114928,115006,114954
 6.1000e+000 115032 -2.6232e+001 -1.6698e+002  1.2291e+001 16232 114902,115006,114928
 6.1000e+000 115228 -2.8179e+001 -1.2187e+002  4.4917e+000 15482 115101,115153,115127
 6.1000e+000 115205 -2.9717e+001 -1.1617e+002 -1.4939e+000 15482 115101,115179,115153
 6.1000e+000 115331 -1.9500e+001 -1.0643e+002 -1.3611e+001 15163 115253,115305,115279
 6.1000e+000 115434 -3.6722e+001 -1.1952e+002  2.1530e+001 421 115356,115408,115382
 6.2000e+000 68213 -1.7509e+000 -5.0423e+001 -6.3850e+000 67888 68112,68164,68138
 6.2000e+000 68190 -7.0529e+001 -7.1315e+001 -1.1082e+001 67888 68086,68164,68112
 6.2000e+000 68314 -7.5120e+000 -8.1103e+001  7.9334e+000 67576 68236,68288,68262
 6.2000e+000 68584 -3.7578e+001 -1.6559e+002  9.5459e+000 67378 68385,68489,68463
 6.2000e+000 68561 -1.2162e+001 -1.5335e+002  5.3712e+000 67378 68359,68489,68385
 6.2000e+000 68538 -2.6921e+001 -1.3587e+002  1.4106e+001 67378 68385,68463,68411
 6.2000e+000 68515 -1.2519e+001 -9.1165e+001  8.5417e+000 67378 68411,68463,68437
 6.2000e+000 68964 -4.2875e+001 -1.5542e+002  2.4789e+001 67130 68690,68820,68716
 6.2000e+000 68941  2.7812e+001 -1.6461e+002  4.4958e+001 67130 68690,68846,68820
 6.2000e+000 68918 -4.1355e+001 -1.0057e+002  5.2200e+000 67130 68742,68820,68794
 6.2000e+000 68895 -1.2571e+001 -9.8414e+001  1.1003e+001 67130 68716,68820,68742
 6.2000e+000 68872 -2.7466e+001 -8.0316e+001 -9.5719e+000 67130 68742,68794,68768
 6.2000e+000 69065 -3.8265e+001 -7.7565e+001  2.7401e+000 66926 68987,69039,69013
 6.2000e+000 69445 -2.4731e+001 -7.1436e+001 -2.9962e+000 66614 69223,69301,69275
 6.2000e+000 69422 -3.4853e+001 -7.5630e+001 -2.5786e+000 66614 69171,69301,69223
 6.2000e+000 69399 -3.9250e+001 -7.6442e+001 -4.5522e-001 66614 69171,69327,69301
 6.2000e+000 69376 -1.7439e+001 -4.4210e+001 -6.3100e-001 66614 69223,69275,69249
 6.2000e+000 69353 -2.9097e+001 -7.7767e+001 -1.4635e+000 66614 69171,69223,69197
 6.2000e+000 69546 -3.6616e+001 -1.3686e+002  9.2044e+000 66416 69468,69520,69494
 6.2000e+000 69997 -3.3585e+001 -1.3636e+002 -9.9918e+000 66104 69700,69830,69726
 6.2000e+000 69974 -4.5072e+001 -1.6605e+002 -2.1179e+001 66104 69700,69856,69830
 6.2000e+000 69951 -3.6574e+001 -1.0516e+002 -7.5699e+000 66104 69726,69804,69778
 6.2000e+000 69928 -3.0013e+001 -1.2742e+002 -1.0329e+001 66104 69726,69830,69804
 6.2000e+000 69905 -3.8866e+001 -9.9718e+001 -3.1234e+000 66104 69726,69778,69752
 6.2000e+000 69882 -1.4538e+001 -2.2824e+002 -4.4105e+001 66104 69674,69856,69700
 6.2000e+000 70326 -2.6147e+001 -6.0491e+001  6.9439e-001 65814 70349,70153,70127
 6.2000e+000 70303 -1.5647e+001 -5.9786e+001  2.8838e+000 65814 70349,70127,70101
 6.2000e+000 70280 -1.5245e+001 -5.7885e+001  2.5145e+001 65814 70101,70231,70205
 6.2000e+000 70257 -4.0804e+000 -6.3601e+001  9.0986e+000 65814 70153,70205,70179
 6.2000e+000 70375 -2.1222e+001 -6.3459e+001  8.7930e+000 65814 70205,70153,70349
 6.2000e+000 70398 -5.4021e+000 -6.0384e+001  9.8649e+000 65814 70205,70349,70101
 6.2000e+000 70904 -1.2281e+001 -2.8390e+001 -1.2102e+001 65502 70607,70737,70685
 6.2000e+000 70881 -1.5859e+001 -2.0921e+001 -1.5815e+001 65502 70581,70737,70607
 6.2000e+000 70858 -1.5299e+001  2.0029e+000 -3.3194e+000 65502 70581,70763,70737
 6.2000e+000 70835 -1.5542e+001 -3.0644e+001 -1.5486e+001 65502 70685,70737,70711
 6.2000e+000 70812 -6.6279e+001 -3.7110e+001  3.7343e-001 65502 70607,70659,70633
 6.2000e+000 70789 -1.8981e+001 -3.9835e+001  1.7421e+000 65502 70607,70685,70659
 6.2000e+000 71103 -1.5694e+001 -1.1435e+002 -3.9110e+000 65304 71126,70979,70953
 6.2000e+000 71080 -3.2160e+001 -1.1095e+002 -2.0226e+000 65304 71126,70953,70927
 6.2000e+000 71057 -4.7278e+001 -1.1574e+002  2.5034e+000 65304 70927,71031,71005
 6.2000e+000 71152 -3.1180e+001 -1.1180e+002 -8.7884e+000 65304 71005,70979,71126
 6.2000e+000 71175 -4.7942e+001 -1.0863e+002 -3.5077e+000 65304 71005,71126,70927
 6.2000e+000 71374 -2.9993e+001 -1.0658e+002  5.3177e+000 65106 71198,71276,71224
 6.2000e+000 71351 -3.1453e+001 -1.1014e+002  3.6055e+000 65106 71198,71302,71276
 6.2000e+000 71328 -2.6278e+001 -9.4359e+001  1.5778e+001 65106 71224,71276,71250
 6.2000e+000 71756 -1.4830e+001 -7.7879e+001 -5.3584e+000 64652 71508,71638,71534
 6.2000e+000 71733  1.2593e+000 -7.1294e+001  4.5452e-001 64652 71482,71638,71508
 6.2000e+000 71710 -3.8018e+001 -8.4303e+001 -8.0778e+000 64652 71534,71586,71560
 6.2000e+000 71687 -3.2314e+001 -8.6151e+001 -1.4676e+001 64652 71534,71612,71586
 6.2000e+000 71664 -4.0763e+001 -8.8846e+001 -1.4883e+001 64652 71534,71638,71612
 6.2000e+000 72085 -3.9673e+001 -8.7743e+001 -1.3336e+001 64248 71886,71964,71912
 6.2000e+000 72062 -3.1446e+001 -8.6418e+001 -1.2085e+001 64248 71860,71964,71886
 6.2000e+000 72039 -1.6134e+001 -9.4149e+001 -9.1327e+000 64248 71912,71964,71938
 6.2000e+000 72016 -3.8593e+001 -8.3599e+001 -9.9670e+000 64248 71860,71990,71964
 6.2000e+000 72235 -3.7547e+000 -5.4794e+001 -6.7853e+000 63858 72588,72258,72134
 6.2000e+000 72212 -2.0984e+001 -5.0008e+001  1.6058e+000 63858 72330,72258,72108
 6.2000e+000 72284 -1.5732e+001 -3.5277e+001 -4.8571e+000 63858 72160,72134,72258
 6.2000e+000 72307 -3.8888e+001 -5.2846e+001 -9.5483e+000 63858 72460,72258,72186
 6.2000e+000 72356 -3.3641e+001 -5.1212e+001 -9.7338e+000 63858 72186,72258,72330
 6.2000e+000 72486 -2.2927e+001 -5.4142e+001 -6.1062e+000 63858 72160,72258,72460
 6.2000e+000 72614 -1.3061e+001 -6.1043e+001 -2.3444e-001 63858 72108,72258,72588
 6.2000e+000 73248 -3.0613e+001 -1.0944e+002  2.0904e+001 63404 72902,72954,72928
 6.2000e+000 73225 -5.3282e+001 -1.0192e+002  1.0495e+001 63404 73271,72954,72902
 6.2000e+000 73202 -4.7503e+001 -8.0320e+001  9.0269e+000 63404 73271,72902,73032
 6.2000e+000 73179 -3.5700e+001 -7.0453e+001  2.8812e+000 63404 72902,73058,73032
 6.2000e+000 73156 -5.0196e+001 -9.9434e+001 -5.4130e+000 63404 72980,73032,73006
 6.2000e+000 73133 -3.5904e+001 -6.7824e+001  3.9730e+000 63404 72876,73058,72902
 6.2000e+000 73110 -7.7837e+000 -3.0660e+001 -1.5645e+001 63404 72876,73084,73058
 6.2000e+000 73297 -4.5803e+001 -1.0505e+002 -2.5208e+000 63404 72980,72954,73271
 6.2000e+000 73320 -4.5387e+001 -9.3276e+001 -2.0977e+000 63404 72980,73271,73032
 6.2000e+000 73470 -3.5763e+001 -2.3776e+002  2.5868e+001 63014 73343,73395,73369
 6.2000e+000 73447 -1.1275e+002 -2.9088e+002 -5.1759e+000 63014 73343,73421,73395
 6.2000e+000 73929 -1.1232e+001 -9.9622e+001  4.7936e+000 62702 73759,73811,73785
 6.2000e+000 73906 -7.2869e+000 -9.6586e+001  7.6491e+000 62702 73655,73811,73759
 6.2000e+000 73883 -2.2945e+001 -1.0846e+002  4.1341e-001 62702 73655,73759,73681
 6.2000e+000 73860 -9.3082e+000 -8.0176e+001 -1.3967e+001 62702 73681,73759,73707
 6.2000e+000 73837 -5.0257e+001 -9.0449e+001  2.4949e+000 62702 73707,73759,73733
 6.2000e+000 74209 -6.4819e+001 -9.0499e+001  1.2866e+000 62404 74059,74137,74085
 6.2000e+000 74186 -7.4391e+001 -1.1630e+002  1.3562e+001 62404 74033,74137,74059
 6.2000e+000 74163 -6.2932e+001 -8.2995e+001  2.7756e+000 62404 74085,74137,74111
 6.2000e+000 74408 -8.1882e+000 -7.9308e+001  4.0273e+000 62000 74258,74336,74284
 6.2000e+000 74385 -1.6515e+000 -7.5182e+001  8.4428e+000 62000 74232,74336,74258
 6.2000e+000 74362 -2.1032e+001 -8.0355e+001 -4.8594e-001 62000 74284,74336,74310
 6.2000e+000 74509 -5.7831e+000 -8.1150e+001  9.9777e+000 61802 74431,74483,74457
 6.2000e+000 74759 -3.5495e+001 -7.4768e+001  2.9637e+000 61554 74782,74586,74560
 6.2000e+000 74736 -2.6795e+001 -7.1555e+001  3.5669e+000 61554 74782,74560,74664
 6.2000e+000 74713 -3.2238e+001 -6.0192e+001  2.1124e+001 61554 74854,74612,74586
 6.2000e+000 74690 -3.2294e+001 -7.8762e+001  4.5834e-001 61554 74534,74664,74560
 6.2000e+000 74808 -4.0501e+001 -7.2006e+001  6.7602e+000 61554 74854,74586,74782
 6.2000e+000 74831 -2.8621e+001 -9.1364e+001  5.1836e+000 61554 74638,74782,74664
 6.2000e+000 74880 -1.3742e+001 -7.2416e+001  2.2489e+001 61554 74638,74612,74854
 6.2000e+000 74903 -1.3980e+001 -7.0927e+001  1.1591e+001 61554 74638,74854,74782
 6.2000e+000 75285 -1.5525e+001 -7.5377e+001 -4.2100e-002 61356 75063,75167,75115
 6.2000e+000 75262 -1.8108e+001 -7.8531e+001 -3.6138e+000 61356 75037,75167,75063
 6.2000e+000 75239 -7.5396e+000 -7.6811e+001 -6.3200e-001 61356 75115,75167,75141
 6.2000e+000 75216 -1.5614e+001 -7.3461e+001  1.3094e+000 61356 75063,75115,75089
 6.2000e+000 75193 -3.1973e+001 -6.4481e+001  4.4704e+000 61356 75011,75167,75037
 6.2000e+000 75631 -8.0220e+000 -5.8372e+001  3.6371e+000 60952 75654,75412,75360
 6.2000e+000 75608 -1.2445e+001 -6.8169e+001 -1.4567e-001 60952 75654,75360,75334
 6.2000e+000 75585 -1.7417e+001 -9.2573e+001  6.5420e+000 60952 75726,75438,75412
 6.2000e+000 75562 -5.3874e+000 -6.5184e+001 -9.8825e+000 60952 75308,75490,75334
 6.2000e+000 75539 -9.7948e+000 -5.7992e+001  7.4956e-001 60952 75360,75412,75386
 6.2000e+000 75516 -2.1529e+001 -1.0531e+002 -3.9570e+000 60952 75438,75490,75464
 6.2000e+000 75680 -8.7973e+000 -7.3252e+001  4.1259e+000 60952 75726,75412,75654
 6.2000e+000 75703 -8.1136e+000 -6.7693e+001 -1.0841e+000 60952 75490,75654,75334
 6.2000e+000 75752 -1.0941e+001 -7.0625e+001  5.2270e-001 60952 75490,75438,75726
 6.2000e+000 75775 -1.1104e+001 -6.8974e+001 -2.1235e+000 60952 75490,75726,75654
 6.2000e+000 76155 -1.6459e+001 -7.5610e+001 -2.6972e+000 60754 75933,75985,75959
 6.2000e+000 76132 -2.7015e+001 -8.2063e+001  8.6918e+000 60754 75933,76037,75985
 6.2000e+000 76109 -1.3635e+000 -7.7281e+001  1.7898e+000 60754 75985,76037,76011
 6.2000e+000 76086 -4.0675e+001 -7.1863e+001  1.2631e+000 60754 75881,76037,75933
 6.2000e+000 76063 -5.1443e+001 -6.7723e+001  1.3539e+001 60754 75881,75933,75907
 6.2000e+000 76612 -1.6355e+001 -7.8060e+001  5.1556e+000 60350 76635,76442,76390
 6.2000e+000 76589 -1.7433e+000 -8.9786e+001  8.2658e+000 60350 76635,76390,76364
 6.2000e+000 76566 -6.4977e+000 -1.1778e+002 -6.9640e+000 60350 76364,76494,76468
 6.2000e+000 76543 -1.6058e+000 -7.1252e+001  7.2464e+000 60350 76390,76442,76416
 6.2000e+000 76520 -4.6432e+001 -7.2620e+001 -1.8650e+001 60350 76338,76494,76364
 6.2000e+000 76661 -2.4170e+001 -8.6184e+001  8.7631e+000 60350 76468,76442,76635
 6.2000e+000 76684 -1.3365e+001 -9.9091e+001  1.3069e+001 60350 76468,76635,76364
 6.2000e+000 76932 -3.6004e+001 -8.5828e+001 -9.7514e-001 59946 76955,76733,76707
 6.2000e+000 76909 -3.6896e+001 -8.7520e+001  7.3439e-001 59946 77027,76955,76707
 6.2000e+000 76886 -3.6892e+001 -8.8638e+001  8.0206e-001 59946 77027,76707,76837
 6.2000e+000 76863 -1.7977e+001 -9.1589e+001 -1.1731e+001 59946 76733,76785,76759
 6.2000e+000 76981 -4.1210e+001 -8.6996e+001 -2.2474e+000 59946 76785,76733,76955
 6.2000e+000 77004 -3.7525e+001 -8.1379e+001 -2.6618e-001 59946 76785,76955,76811
 6.2000e+000 77053 -3.7274e+001 -8.5787e+001  2.0979e+000 59946 76811,76955,77027
 6.2000e+000 77076 -3.7927e+001 -8.7890e+001  2.2205e+000 59946 76811,77027,76837
 6.2000e+000 77226 -3.5681e+001 -9.4921e+001  2.7892e+000 59542 77099,77151,77125
 6.2000e+000 77203 -4.9324e+001 -1.2145e+002  7.8684e+000 59542 77099,77177,77151
 6.2000e+000 77427 -5.0029e+001 -1.0171e+002 -6.2950e+000 59030 77450,77277,77251
 6.2000e+000 77404 -3.3355e+001 -8.7647e+001 -2.7955e+001 59030 77450,77251,77355
 6.2000e+000 77381 -2.0794e+001 -1.1841e+002 -2.7461e+000 59030 77277,77329,77303
 6.2000e+000 77476 -2.8565e+001 -1.0441e+002 -1.6713e+001 59030 77329,77277,77450
 6.2000e+000 77499 -8.4312e+000 -9.8009e+001 -3.4009e+001 59030 77329,77450,77355
 6.2000e+000 77749 -4.0689e+001 -1.2804e+002  1.0631e+001 58426 77772,77628,77602
 6.2000e+000 77726 -2.5053e+001 -1.4355e+002  2.4973e+001 58426 77524,77654,77628
 6.2000e+000 77703 -3.5091e+001 -1.2536e+002  8.4567e+000 58426 77772,77602,77550
 6.2000e+000 77680 -2.4291e+001 -1.1888e+002 -4.6442e+000 58426 77550,77602,77576
 6.2000e+000 77798 -3.4068e+001 -1.3064e+002  9.6862e+000 58426 77524,77628,77772
 6.2000e+000 77821 -3.0601e+001 -1.2880e+002  7.1090e+000 58426 77524,77772,77550
 6.2000e+000 78071 -5.1349e+001 -1.1154e+002  1.3521e+001 57922 78094,77924,77898
 6.2000e+000 78048 -5.8266e+001 -1.0552e+002  1.1038e+000 57922 78094,77898,77872
 6.2000e+000 78025 -4.7507e+001 -9.4113e+001  1.1370e+001 57922 78166,77846,77950
 6.2000e+000 78002 -2.7635e+001 -9.2489e+001  1.3101e+001 57922 77846,77976,77950
 6.2000e+000 78120 -3.8405e+001 -1.0536e+002  8.0052e+000 57922 77950,77924,78094
 6.2000e+000 78143 -4.7913e+001 -9.5948e+001  8.0801e+000 57922 78166,77950,78094
 6.2000e+000 78192 -4.5259e+001 -9.9478e+001  8.3956e+000 57922 77872,77846,78166
 6.2000e+000 78215 -4.8483e+001 -1.0492e+002  4.9071e+000 57922 77872,78166,78094
 6.2000e+000 78416  7.5242e+000 -9.3441e+001 -4.7613e+000 57468 78439,78292,78240
 6.2000e+000 78393 -6.5419e+000 -9.0036e+001 -2.5091e-002 57468 78439,78240,78344
 6.2000e+000 78370  1.0505e+000 -1.3175e+002 -2.5900e+000 57468 78240,78292,78266
 6.2000e+000 78465 -6.2920e+000 -9.9924e+001 -6.6332e+000 57468 78318,78292,78439
 6.2000e+000 78488 -1.2037e+001 -9.2674e+001 -8.8578e-001 57468 78318,78439,78344
 6.2000e+000 78689 -3.9575e+000 -1.1001e+002 -8.7783e+000 57014 78712,78539,78513
 6.2000e+000 78666 -1.5812e+001 -1.0893e+002 -1.0328e+000 57014 78712,78513,78617
 6.2000e+000 78643 -2.2808e+001 -1.0419e+002  1.0340e+001 57014 78565,78617,78591
 6.2000e+000 78738 -1.9053e+001 -9.8741e+001 -9.0638e+000 57014 78565,78539,78712
 6.2000e+000 78761 -3.5776e+001 -1.0723e+002  3.2651e+000 57014 78565,78712,78617
 6.2000e+000 79241 -3.7631e+001 -1.0015e+002  7.5667e+000 56652 79264,78895,78869
 6.2000e+000 79218 -1.8312e+001 -1.3009e+002 -8.2803e+000 56652 79264,78869,79051
 6.2000e+000 79195 -2.8154e+001 -1.1416e+002 -2.6619e+001 56652 78869,79077,79051
 6.2000e+000 79172 -2.9537e+001 -6.8195e+001 -1.2842e+001 56652 78895,78973,78947
 6.2000e+000 79149 -4.8344e+001 -2.0135e+002 -1.6717e+001 56652 78973,79051,78999
 6.2000e+000 79126 -2.4381e+001 -6.4013e+001 -1.4847e+001 56652 78895,78947,78921
 6.2000e+000 79103 -3.3346e+001 -1.2595e+002  2.9057e+001 56652 78999,79051,79025
 6.2000e+000 79290 -2.2708e+001 -8.1427e+001  1.7859e+001 56652 78973,78895,79264
 6.2000e+000 79313 -2.0850e+000 -1.1364e+002  2.9359e+000 56652 78973,79264,79051
 6.2000e+000 79512 -1.1337e+001 -1.4906e+002  1.1208e+001 56062 79388,79440,79414
 6.2000e+000 79489 -5.3313e+001 -7.6765e+001  1.9851e+001 56062 79336,79440,79388
 6.2000e+000 79466 -1.4195e+001 -1.1811e+002  2.1991e+001 56062 79336,79388,79362
 6.2000e+000 79941 -1.5007e+001 -6.9872e+001  1.4701e+001 55658 79964,79670,79644
 6.2000e+000 79918 -2.2090e+001 -7.0681e+001  1.5983e+001 55658 79964,79644,79800
 6.2000e+000 79895 -2.1193e+001 -7.5416e+001  9.1153e+000 55658 80036,79696,79670
 6.2000e+000 79872 -2.3912e+001 -6.0409e+001  1.6261e+000 55658 80108,79722,79696
 6.2000e+000 79849 -3.2378e+001 -5.2774e+001  9.2497e+000 55658 79722,79774,79748
 6.2000e+000 79826  3.4683e-001 -6.3261e+001  4.0869e+000 55658 79618,79800,79644
 6.2000e+000 79990 -2.2587e+001 -7.5437e+001  1.2084e+001 55658 80036,79670,79964
 6.2000e+000 80013 -1.9714e+001 -6.6167e+001  1.6947e+001 55658 79774,79964,79800
 6.2000e+000 80062 -1.7303e+001 -6.6694e+001  8.2371e+000 55658 80108,79696,80036
 6.2000e+000 80085 -2.2683e+001 -6.7221e+001  1.5483e+001 55658 79774,80036,79964
 6.2000e+000 80134 -3.6967e+001 -6.7646e+001  5.1373e+000 55658 79774,79722,80108
 6.2000e+000 80157 -3.3182e+001 -7.5255e+001  1.1852e+001 55658 79774,80108,80036
 6.2000e+000 80307 -5.5108e+001 -7.5283e+001  4.1633e+000 55254 80402,80330,80206
 6.2000e+000 80284 -5.2581e+001 -1.0273e+002  4.0935e+000 55254 80330,80180,80258
 6.2000e+000 80356 -6.3521e+001 -9.4168e+001  1.6359e+001 55254 80232,80206,80330
 6.2000e+000 80379 -2.4620e+001 -7.6794e+001  2.3421e+001 55254 80232,80330,80258
 6.2000e+000 80428 -6.8245e+001 -9.3070e+001 -2.9018e+000 55254 80180,80330,80402
 6.2000e+000 80659 -2.2856e+001 -1.1736e+002 -9.1736e+000 54850 80558,80610,80584
 6.2000e+000 80636 -1.1744e+001 -1.1271e+002 -8.2731e+000 54850 80532,80610,80558
 6.2000e+000 80760 -8.0252e+000 -6.5104e+001 -3.9865e+000 54652 80682,80734,80708
 6.2000e+000 81164 -7.9198e+000 -7.0033e+001 -4.0636e-001 54248 81187,80942,80890
 6.2000e+000 81141 -9.3359e+000 -7.1525e+001  1.8706e-001 54248 81187,80890,81046
 6.2000e+000 81118 -1.1265e+001 -7.3438e+001  1.5804e+001 54248 80942,81020,80994
 6.2000e+000 81095 -7.5346e+000 -7.0009e+001  4.2075e-001 54248 80890,80942,80916
 6.2000e+000 81072 -1.4281e+001 -4.1091e+001  3.0358e+000 54248 80942,80994,80968
 6.2000e+000 81213 -9.7534e+000 -6.8797e+001 -1.9921e-001 54248 81020,80942,81187
 6.2000e+000 81236 -1.0697e+001 -6.9692e+001  1.7399e-001 54248 81020,81187,81046
 6.2000e+000 81663 -5.3278e+001 -9.1997e+001  7.5759e+000 53594 81340,81444,81366
 6.2000e+000 81640 -5.1320e+001 -1.3681e+002  2.9652e+000 53594 81340,81470,81444
 6.2000e+000 81617 -3.3415e+001 -1.2092e+002 -1.6406e+001 53594 81340,81522,81470
 6.2000e+000 81594 -3.3453e+001 -6.6345e+001 -7.2737e+000 53594 81392,81444,81418
 6.2000e+000 81571 -3.9794e+001 -7.9704e+001 -1.0979e+001 53594 81366,81444,81392
 6.2000e+000 81548 -3.4993e+000 -1.5550e+002  8.5428e+000 53594 81470,81522,81496
 6.2000e+000 81943 -1.4747e+001 -5.9183e+001 -7.0117e+000 53104 81966,81845,81819
 6.2000e+000 81920 -2.2539e+001 -4.8521e+001 -9.5476e+000 53104 81966,81819,81767
 6.2000e+000 81897 -2.3006e+001 -4.9731e+001 -9.4308e+000 53104 81767,81819,81793
 6.2000e+000 81992 -9.6570e+000 -5.3257e+001 -9.5436e+000 53104 81871,81845,81966
 6.2000e+000 82015 -1.4337e+001 -3.8145e+001 -1.3803e+001 53104 81871,81966,81767
 6.2000e+000 82491 -1.8042e+001 -6.4086e+001 -8.9786e+000 52650 82145,82249,82171
 6.2000e+000 82468 -5.1198e+001 -7.5902e+001 -8.8031e+000 52650 82145,82301,82249
 6.2000e+000 82445 -5.4956e+001 -1.1401e+002 -1.7540e+001 52650 82249,82301,82275
 6.2000e+000 82422 -3.9763e+001 -1.4460e+002 -2.6388e+001 52650 82119,82301,82145
 6.2000e+000 82399 -1.9128e+001 -4.7265e+001  5.0160e+000 52650 82171,82249,82223
 6.2000e+000 82376 -5.1192e+000 -1.3124e+002 -1.2242e+001 52650 82119,82327,82301
 6.2000e+000 82353 -4.4862e+000 -2.4553e+001 -9.8334e+000 52650 82171,82223,82197
 6.2000e+000 82739 -2.3823e+001 -5.2685e+001 -1.2313e+000 52246 82762,82540,82514
 6.2000e+000 82716 -1.6142e+001 -2.7259e+001 -6.4861e+000 52246 82762,82514,82644
 6.2000e+000 82693 -3.1356e+001 -6.1441e+001  1.0109e+001 52246 82540,82618,82592
 6.2000e+000 82670 -3.1513e+001 -5.2919e+001  4.2656e+000 52246 82540,82592,82566
 6.2000e+000 82788 -1.6432e+001 -6.6903e+001  3.0589e+000 52246 82618,82540,82762
 6.2000e+000 82811 -1.8578e+001 -5.7930e+001 -4.2058e+000 52246 82618,82762,82644
 6.2000e+000 83059 -9.2634e+000 -7.8719e+001  6.9272e+000 51578 82860,82964,82938
 6.2000e+000 83036 -2.3613e+000 -5.7767e+001 -1.7874e+001 51578 82834,82964,82860
 6.2000e+000 83013 -5.6326e+000 -6.2121e+001  1.4771e+001 51578 82860,82938,82886
 6.2000e+000 82990 -4.1591e+000 -4.4541e+001  5.0172e+000 51578 82886,82938,82912
 6.2000e+000 83309 -1.7117e+001 -4.1132e+001  1.4525e+001 51138 83332,83162,83136
 6.2000e+000 83286 -6.9765e+000 -5.7195e+001  4.5121e+000 51138 83332,83136,83110
 6.2000e+000 83263 -2.1619e+001 -5.8615e+001 -1.4841e+000 51138 83404,83214,83188
 6.2000e+000 83240  3.5730e-001 -3.2310e+001  2.8295e+000 51138 83084,83214,83110
 6.2000e+000 83358 -2.9452e+001 -6.1753e+001  2.1362e+001 51138 83188,83162,83332
 6.2000e+000 83381 -1.5771e+001 -6.6138e+001  5.3159e+000 51138 83404,83188,83332
 6.2000e+000 83430 -1.3325e+001 -3.9073e+001 -8.1351e-001 51138 83110,83214,83404
 6.2000e+000 83453 -9.7139e+000 -5.1038e+001  6.0127e+000 51138 83110,83404,83332
 6.2000e+000 83835 -1.9709e+001 -7.8329e+001 -1.0248e+000 50734 83613,83717,83691
 6.2000e+000 83812 -2.2941e+001 -8.8071e+001 -1.4243e+001 50734 83561,83717,83613
 6.2000e+000 83789 -1.4101e+001 -4.2647e+001 -2.2793e+001 50734 83561,83613,83587
 6.2000e+000 83766 -3.1252e+001 -5.5330e+001 -4.0401e-002 50734 83613,83691,83639
 6.2000e+000 83743 -3.3300e+001 -5.5479e+001  1.2901e+001 50734 83639,83691,83665
 6.2000e+000 84034 -2.0587e+001 -4.6901e+001  2.3481e+000 50230 84057,83884,83858
 6.2000e+000 84011 -1.9827e+001 -4.8860e+001 -3.8136e+000 50230 84129,84057,83858
 6.2000e+000 83988 -6.3052e+000 -5.2300e+001 -7.2422e+000 50230 84129,83858,83962
 6.2000e+000 84083 -1.6235e+001 -4.3422e+001 -2.1597e+000 50230 83910,83884,84057
 6.2000e+000 84106 -1.3994e+001 -3.9029e+001 -1.3513e+000 50230 83910,84057,83936
 6.2000e+000 84155 -2.0183e+000 -4.1249e+001 -8.4827e-003 50230 83936,84057,84129
 6.2000e+000 84178  3.1680e+000 -5.0659e+001 -5.3194e+000 50230 83936,84129,83962
 6.2000e+000 84558 -2.6171e+001 -6.4723e+001 -9.5030e+000 49768 84581,84388,84362
 6.2000e+000 84535 -4.9897e+001 -6.6955e+001 -4.1463e+000 49768 84581,84362,84310
 6.2000e+000 84512 -1.8216e+000 -7.3975e+001 -1.1304e+001 49768 84653,84440,84414
 6.2000e+000 84489 -4.1592e+001 -7.5760e+001  4.8864e+000 49768 84310,84362,84336
 6.2000e+000 84466 -3.9890e+000 -5.6430e+001  5.6393e+000 49768 84284,84440,84310
 6.2000e+000 84607 -1.0128e+001 -5.7150e+001 -1.6997e+001 49768 84414,84388,84581
 6.2000e+000 84630 -1.1326e+001 -6.7755e+001 -7.9308e+000 49768 84653,84414,84581
 6.2000e+000 84679 -1.4692e+001 -7.0933e+001 -1.5654e+001 49768 84310,84440,84653
 6.2000e+000 84702 -2.9018e+001 -7.0353e+001 -1.6214e+001 49768 84310,84653,84581
 6.2000e+000 85159 -4.0941e+001 -8.6622e+001 -2.3518e+001 49192 84885,84937,84911
 6.2000e+000 85136 -3.6832e+001 -5.9153e+001 -1.7530e+001 49192 84885,85041,84937
 6.2000e+000 85113 -2.4470e+001 -5.1392e+001 -8.5490e+000 49192 84963,85041,84989
 6.2000e+000 85090 -2.2343e+001 -4.7416e+001 -1.0634e+001 49192 84937,85041,84963
 6.2000e+000 85067 -1.7335e+001 -4.4466e+001 -1.2930e+001 49192 84989,85041,85015
 6.2000e+000 85714 -3.9080e+001 -5.7761e+001  7.8446e-001 48638 85368,85498,85394
 6.2000e+000 85691 -4.8181e+001 -6.8524e+001  4.7764e+000 48638 85368,85524,85498
 6.2000e+000 85668 -4.8723e+001 -5.7928e+001  1.9969e+001 48638 85737,85420,85394
 6.2000e+000 85645 -3.8567e+001 -6.4342e+001  9.7846e+000 48638 85737,85394,85498
 6.2000e+000 85622 -2.8861e+001 -6.3984e+001  1.4677e+001 48638 85446,85498,85472
 6.2000e+000 85599 -1.1745e+001 -5.4384e+001  7.3802e+000 48638 85342,85524,85368
 6.2000e+000 85576 -4.6233e+001 -6.3675e+001  8.0811e+000 48638 85342,85550,85524
 6.2000e+000 85763 -3.2156e+001 -4.9853e+001  2.4056e+001 48638 85446,85420,85737
 6.2000e+000 85786 -3.1972e+001 -5.8554e+001  1.2935e+001 48638 85446,85737,85498
 6.2000e+000 86371 -3.2861e+001 -4.0623e+001 -2.2586e+000 48084 86100,86230,86178
 6.2000e+000 86348 -4.3893e+001 -5.8636e+001 -7.7188e+000 48084 86048,86230,86100
 6.2000e+000 86325 -2.9118e+001 -3.5699e+001  1.2046e+001 48084 86100,86178,86126
 6.2000e+000 86302 -2.6197e+001 -1.7063e+001 -1.2767e+001 48084 86048,86100,86074
 6.2000e+000 86279 -4.1412e+001 -7.3017e+001 -1.3069e+000 48084 86178,86230,86204
 6.2000e+000 86256 -2.5188e+001 -3.4302e+001  1.3189e+001 48084 86126,86178,86152
 6.2000e+000 86619 -2.1225e+001 -4.5991e+001  3.6365e+000 47630 86642,86446,86420
 6.2000e+000 86596 -2.3639e+001 -5.1112e+001 -8.0722e+000 47630 86642,86420,86394
 6.2000e+000 86573 -3.3783e+001 -5.7060e+001 -9.4664e+000 47630 86394,86524,86498
 6.2000e+000 86550 -1.5357e+001 -5.4163e+001  4.8382e+000 47630 86446,86498,86472
 6.2000e+000 86668 -2.7117e+001 -5.9419e+001  1.4532e+000 47630 86498,86446,86642
 6.2000e+000 86691 -2.7500e+001 -6.0549e+001 -1.0078e+001 47630 86498,86642,86394
 6.2000e+000 87022 -4.6070e+000 -2.7798e+001 -1.8372e+001 47226 87045,86875,86849
 6.2000e+000 86999 -3.5859e+000 -3.4661e+001 -1.7443e+001 47226 87045,86849,86797
 6.2000e+000 86976 -2.8935e-001 -1.3345e+001 -6.9355e+000 47226 86797,86849,86823
 6.2000e+000 86953 -1.5632e+000 -2.2106e+001 -1.1295e+001 47226 86875,86927,86901
 6.2000e+000 87071 -7.0435e+000 -3.3483e+001 -1.7205e+001 47226 86927,86875,87045
 6.2000e+000 87094 -4.2442e+000 -3.8098e+001 -1.6733e+001 47226 86927,87045,86797
 6.2000e+000 87244 -6.2536e+000 -7.0053e+001  2.1379e+001 46814 87267,87169,87143
 6.2000e+000 87221 -3.7436e+001 -6.4388e+001 -2.8042e+000 46814 87267,87143,87117
 6.2000e+000 87293 -4.3326e+000 -5.2215e+001  1.2585e+001 46814 87339,87267,87195
 6.2000e+000 87316  1.9489e-001 -4.8247e+001 -1.4182e-001 46814 87469,87267,87117
 6.2000e+000 87365 -6.9357e+000 -5.0990e+001  1.7568e+001 46814 87169,87267,87339
 6.2000e+000 87495 -5.7151e-001 -6.0309e-001 -1.5641e+000 46814 87195,87267,87469
 6.2000e+000 88001 -1.9471e+001 -4.0919e+001  1.4227e+001 46310 88024,87834,87808
 6.2000e+000 87978 -2.5233e+001 -4.2222e+001  7.8868e+000 46310 88024,87808,87756
 6.2000e+000 87955 -1.2390e+001 -5.7995e+001  3.5718e+000 46310 88096,87730,87860
 6.2000e+000 87932 -1.6671e+001 -5.4548e+001  9.0710e+000 46310 87756,87808,87782
 6.2000e+000 87909 -1.5581e+001 -6.4029e+001  2.3805e+000 46310 87678,87860,87730
 6.2000e+000 87886 -2.7626e+001 -1.1766e+002 -5.9255e+000 46310 87678,87730,87704
 6.2000e+000 88050 -1.8006e+001 -3.8165e+001  9.2803e+000 46310 87860,87834,88024
 6.2000e+000 88073 -1.2896e+001 -3.9422e+001  9.5582e+000 46310 88096,87860,88024
 6.2000e+000 88122 -1.6830e+001 -6.6828e+001 -2.6812e+000 46310 87756,87730,88096
 6.2000e+000 88145 -2.8889e+001 -5.9520e+001  6.6150e-001 46310 87756,88096,88024
 6.2000e+000 88572 -1.6137e+001 -6.1345e+001  5.9841e+000 45856 88249,88405,88275
 6.2000e+000 88549 -1.2347e+001 -1.9204e+001 -1.0229e+001 45856 88249,88431,88405
 6.2000e+000 88526 -3.6385e+001 -9.1306e+001 -1.2761e+001 45856 88327,88405,88353
 6.2000e+000 88503 -1.5492e+001 -7.6816e+001 -4.9130e+000 45856 88275,88405,88327
 6.2000e+000 88480 -3.0925e+001 -8.4839e+001 -2.0260e+001 45856 88353,88405,88379
 6.2000e+000 88457 -6.3268e+001 -1.7426e+002  1.4185e+001 45856 88275,88327,88301
 6.2000e+000 88950 -9.0047e+000 -3.4102e+001 -1.2212e+000 45658 88973,88754,88728
 6.2000e+000 88927 -6.9866e+000 -3.0518e+001 -1.7399e-001 45658 88973,88728,88676
 6.2000e+000 88904 -1.3330e+001 -3.7102e+001  1.5536e+001 45658 88676,88832,88806
 6.2000e+000 88881 -1.6181e+001 -4.8226e+001  6.0161e+000 45658 88676,88728,88702
 6.2000e+000 88858 -1.7271e+001 -3.4464e+001 -9.4580e+000 45658 88754,88806,88780
 6.2000e+000 88999 -9.9239e+000 -3.0216e+001 -4.9814e-001 45658 88806,88754,88973
 6.2000e+000 89022 -9.2217e+000 -2.8224e+001  2.3228e-001 45658 88806,88973,88676
 6.2000e+000 89351 -1.9827e+001 -6.4395e+001 -2.5820e+000 45254 89152,89230,89204
 6.2000e+000 89328 -2.2448e+001 -6.5739e+001 -3.4166e+000 45254 89152,89256,89230
 6.2000e+000 89305 -9.7353e+000 -6.9483e+001 -8.8448e+000 45254 89126,89256,89152
 6.2000e+000 89282 -4.2669e+000 -6.2804e+001 -9.2793e+000 45254 89152,89204,89178
 6.2000e+000 89523 -9.3217e+000 -4.4660e+001 -2.8549e-001 45006 89422,89474,89448
 6.2000e+000 89500 -6.4327e+000 -4.3455e+001  2.0154e+000 45006 89396,89474,89422
 6.2000e+000 89673 -5.2155e+001 -8.9790e+001  7.6442e+000 44495 89572,89624,89598
 6.2000e+000 89650 -5.4285e+001 -9.3520e+001  6.2559e+000 44495 89546,89624,89572
 6.2000e+000 90104 -6.7624e+000 -7.1360e+001 -5.2663e+000 44005 90199,90127,89937
 6.2000e+000 90081 -1.3930e+001 -6.7749e+001  2.4894e-001 44005 90271,90127,89859
 6.2000e+000 90058 -3.7536e+000 -7.2021e+001 -5.1766e+000 44005 90199,89937,89885
 6.2000e+000 90035 -1.9674e+001 -6.1828e+001  3.6496e+000 44005 90271,89859,89807
 6.2000e+000 90012 -1.1215e+001 -7.9490e+001 -9.2592e+000 44005 89885,89937,89911
 6.2000e+000 89989 -6.5097e+000 -6.5187e+001  1.0093e+001 44005 89807,89859,89833
 6.2000e+000 90153 -1.5315e+001 -7.4627e+001 -4.4441e+000 44005 89963,89937,90127
 6.2000e+000 90176 -1.7330e+001 -8.2966e+001  8.0560e-001 44005 89963,90127,89781
 6.2000e+000 90225 -1.6153e+001 -6.8933e+001 -3.3304e+000 44005 89859,90127,90199
 6.2000e+000 90248 -8.0695e+000 -6.5778e+001 -1.3266e+000 44005 89859,90199,89885
 6.2000e+000 90297 -2.1407e+001 -7.4367e+001 -3.3138e+000 44005 89781,90127,90271
 6.2000e+000 90320 -2.4587e+001 -6.7269e+001  7.8773e-001 44005 89781,90271,89807
 6.2000e+000 90470 -1.1198e+001 -6.8195e+001 -5.0090e-001 43601 90493,90369,90343
 6.2000e+000 90447 -1.9366e+001 -5.4157e+001  6.3705e+000 43601 90493,90343,90421
 6.2000e+000 90519 -2.3602e+001 -9.3874e+001 -9.4649e+000 43601 90395,90369,90493
 6.2000e+000 90542 -1.8917e+001 -6.4454e+001 -7.0862e-001 43601 90395,90493,90421
 6.2000e+000 90922 -2.0929e+001 -7.3516e+001  4.1176e+000 43154 90945,90700,90674
 6.2000e+000 90899 -1.8429e+001 -7.5215e+001 -9.4591e+000 43154 90945,90674,90648
 6.2000e+000 90876 -2.3318e+001 -5.6214e+001 -6.7231e+000 43154 90648,90778,90752
 6.2000e+000 90853 -1.1758e+001 -1.1676e+002  3.4112e+000 43154 90700,90752,90726
 6.2000e+000 90830 -1.5061e+001 -5.6664e+001 -3.8221e+000 43154 90648,90804,90778
 6.2000e+000 90971 -2.4904e+001 -8.5439e+001  6.2509e+000 43154 90752,90700,90945
 6.2000e+000 90994 -2.1385e+001 -8.2439e+001 -6.9489e+000 43154 90752,90945,90648
 6.2000e+000 91451 -9.0079e+000 -6.4858e+001 -1.2209e+001 42650 91203,91255,91229
 6.2000e+000 91428  2.8372e+000 -5.9739e+001 -5.1393e+000 42650 91203,91333,91255
 6.2000e+000 91405 -4.8074e+000 -9.3281e+001 -1.5139e+001 42650 91177,91333,91203
 6.2000e+000 91382 -3.1841e+001 -1.0243e+002  1.2771e+001 42650 91255,91333,91281
 6.2000e+000 91359 -6.3599e+000 -8.4439e+001  3.4841e+000 42650 91281,91333,91307
 6.2000e+000 91721 -4.4862e+001 -9.3355e+001  7.4329e+000 42288 91496,91600,91522
 6.2000e+000 91698 -2.5936e+001 -5.5711e+001 -2.9476e+000 42288 91496,91626,91600
 6.2000e+000 91675 -2.5350e+001 -8.2671e+001  8.1523e+000 42288 91522,91574,91548
 6.2000e+000 91652 -2.2140e+001 -8.4389e+001  7.9522e+000 42288 91522,91600,91574
 6.2000e+000 92199 -6.7158e+001 -1.0249e+002 -2.6148e+000 41898 92222,91983,91879
 6.2000e+000 92176 -6.8853e+001 -1.1517e+002 -7.6613e+000 41898 92294,92222,91879
 6.2000e+000 92153 -7.3235e+001 -1.1375e+002 -1.0812e+001 41898 92294,91879,91853
 6.2000e+000 92130 -5.8287e+001 -6.0183e+001  7.9635e+000 41898 91879,91957,91931
 6.2000e+000 92107 -5.8934e+001 -9.9270e+001 -2.5216e-001 41898 91879,91983,91957
 6.2000e+000 92084 -6.8093e+001 -5.9482e+001  1.7380e+001 41898 91879,91931,91905
 6.2000e+000 92061 -6.4821e+001 -1.0511e+002 -9.3882e+000 41898 91827,92035,91853
 6.2000e+000 92248 -6.6379e+001 -1.1840e+002  7.5932e-001 41898 92009,91983,92222
 6.2000e+000 92271 -6.4269e+001 -1.2105e+002 -1.0101e+001 41898 92009,92222,92035
 6.2000e+000 92320 -6.1669e+001 -1.1265e+002 -7.8308e+000 41898 92035,92222,92294
 6.2000e+000 92343 -6.4841e+001 -1.1046e+002 -1.0756e+001 41898 92035,92294,91853
 6.2000e+000 92770 -1.6128e+001 -8.2793e+001 -7.1174e+000 41437 92865,92793,92525
 6.2000e+000 92747 -2.3375e+001 -9.3238e+001 -9.1421e+000 41437 92793,92473,92629
 6.2000e+000 92724 -4.8666e+000 -8.6966e+001 -1.3249e+001 41437 92865,92525,92499
 6.2000e+000 92701 -3.1453e+001 -7.0885e+001 -1.6409e+001 41437 92525,92603,92577
 6.2000e+000 92678  2.8235e+000 -9.0463e+001 -8.2323e+000 41437 92447,92629,92473
 6.2000e+000 92655 -4.1873e+001 -6.1765e+001 -1.0572e+001 41437 92525,92577,92551
 6.2000e+000 92819 -1.7818e+001 -8.6652e+001 -1.4966e+001 41437 92603,92525,92793
 6.2000e+000 92842 -3.9192e+001 -9.4202e+001 -2.6086e+001 41437 92603,92793,92629
 6.2000e+000 92891  5.0346e+000 -8.7819e+001 -7.8264e+000 41437 92473,92793,92865
 6.2000e+000 92914  2.0568e+001 -8.6533e+001 -1.6409e+001 41437 92473,92865,92499
 6.2000e+000 93243 -1.7562e+001 -1.2989e+002  4.5960e+001 41097 93044,93096,93070
 6.2000e+000 93220 -2.9621e+001 -1.1852e+002  2.4332e+001 41097 93044,93122,93096
 6.2000e+000 93197  4.7678e+000 -7.7945e+001  8.1015e+000 41097 93044,93148,93122
 6.2000e+000 93174 -2.2578e+001 -5.6798e+001  2.3717e+001 41097 93018,93148,93044
 6.2000e+000 93393 -2.4914e+000 -9.7735e+001  6.3456e+000 40643 93416,93292,93344
 6.2000e+000 93370 -3.7905e+000 -9.0927e+001  7.2919e+000 40643 93266,93344,93292
 6.2000e+000 93442 -3.3819e+000 -9.5298e+001  1.0540e+001 40643 93318,93292,93416
 6.2000e+000 93901 -2.8165e+001 -8.6312e+001 -6.7936e+000 40132 93924,93731,93705
 6.2000e+000 93878 -2.8461e+001 -8.6167e+001 -6.8757e+000 40132 93996,93924,93705
 6.2000e+000 93855 -3.3114e+001 -9.7572e+001 -2.7889e+000 40132 93996,93705,93653
 6.2000e+000 93832 -1.0594e+001 -9.5798e+001 -5.7487e+000 40132 93653,93705,93679
 6.2000e+000 93809 -2.7537e+001 -8.1412e+001 -4.4279e-001 40132 93627,93783,93757
 6.2000e+000 93950 -2.7436e+001 -8.8559e+001 -7.4188e+000 40132 93757,93731,93924
 6.2000e+000 93973 -3.0034e+001 -7.8532e+001 -2.2334e+000 40132 93757,93924,93627
 6.2000e+000 94022 -3.7742e+001 -9.3595e+001  1.1412e+000 40132 93627,93924,93996
 6.2000e+000 94045 -3.4844e+001 -9.7460e+001  4.1834e+000 40132 93627,93996,93653
 6.2000e+000 94423 -1.0670e+001 -1.0957e+002 -1.4429e+001 39514 94149,94227,94175
 6.2000e+000 94400 -1.3465e+001 -9.9681e+001  1.0522e+001 39514 94149,94305,94227
 6.2000e+000 94377 -3.8590e-001 -1.2414e+002 -1.4869e+001 39514 94175,94227,94201
 6.2000e+000 94354 -3.1773e+001 -9.4327e+001  4.5218e+000 39514 94227,94305,94279
 6.2000e+000 94331 -1.4507e+001 -8.6268e+001  8.6722e+000 39514 94227,94279,94253
 6.2000e+000 94573 -8.8522e+000 -5.7927e+001 -9.2990e+000 38822 94596,94498,94472
 6.2000e+000 94550  9.9011e+000 -6.0096e+001  1.4567e+001 38822 94596,94472,94446
 6.2000e+000 94622 -3.0335e+001 -6.6936e+001 -1.1913e+001 38822 94524,94498,94596
 6.2000e+000 94645 -2.5069e+001 -7.4002e+001  1.4273e+001 38822 94524,94596,94446
 6.2000e+000 95025 -7.2322e+000 -7.0335e+001 -5.8258e+000 38418 95048,94829,94777
 6.2000e+000 95002 -7.0104e+000 -7.2893e+001 -8.9602e+000 38418 95120,95048,94777
 6.2000e+000 94979 -3.8930e+000 -7.5199e+001 -8.3832e+000 38418 95120,94777,94751
 6.2000e+000 94956 -3.0626e+000 -6.8933e+001 -9.7276e+000 38418 95192,94881,94855
 6.2000e+000 94933 -2.2163e+001 -5.6931e+001 -5.3819e+000 38418 94777,94829,94803
 6.2000e+000 95074 -1.2932e+001 -8.9277e+001 -1.9154e+000 38418 94855,94829,95048
 6.2000e+000 95097 -5.2294e+000 -7.3187e+001 -8.9763e+000 38418 95192,94855,95048
 6.2000e+000 95146 -1.3980e+001 -7.3155e+001 -6.5961e+000 38418 94907,95048,95120
 6.2000e+000 95169 -8.0418e+000 -7.3435e+001 -5.3166e+000 38418 94907,95120,94751
 6.2000e+000 95218 -6.5150e+000 -5.8292e+001 -9.4640e+000 38418 94907,94881,95192
 6.2000e+000 95241 -1.1860e+001 -6.6891e+001 -7.1845e+000 38418 94907,95192,95048
 6.2000e+000 95511 -2.4941e+001 -7.5794e+001  5.4146e+000 38049 95312,95390,95364
 6.2000e+000 95488 -1.2802e+001 -7.0263e+001  4.0210e+000 38049 95312,95416,95390
 6.2000e+000 95465 -7.1354e+000 -7.6381e+001 -4.1035e+000 38049 95312,95364,95338
 6.2000e+000 95442 -7.5452e+000 -6.0451e+001  7.0293e+000 38049 95286,95416,95312
 6.2000e+000 95808 -2.5486e+001 -9.5180e+001 -3.3523e+000 37437 95831,95586,95560
 6.2000e+000 95785  6.5487e+000 -9.7506e+001 -4.0803e+000 37437 95831,95560,95534
 6.2000e+000 95762 -4.7608e+001 -8.7705e+001  4.4654e+000 37437 95586,95664,95638
 6.2000e+000 95739 -8.7131e+000 -4.7193e+001 -2.1575e+001 37437 95534,95690,95664
 6.2000e+000 95716 -4.8423e+001 -6.0486e+001  1.6890e+000 37437 95586,95638,95612
 6.2000e+000 95857 -4.6501e+001 -9.0248e+001  9.8847e+000 37437 95664,95586,95831
 6.2000e+000 95880 -1.2803e+001 -9.1732e+001  9.6845e+000 37437 95664,95831,95534
 6.2000e+000 96390 -3.6744e+001 -7.2906e+001 -6.0580e+000 36883 96413,96145,96093
 6.2000e+000 96367 -3.1235e+001 -6.9768e+001 -2.8787e+000 36883 96413,96093,96067
 6.2000e+000 96344 -2.2823e+001 -8.9379e+001 -1.1792e+000 36883 96067,96249,96171
 6.2000e+000 96321 -3.2174e+001 -8.3758e+001 -3.5009e+000 36883 96093,96145,96119
 6.2000e+000 96298 -4.3697e+001 -1.4283e+002  1.2168e+001 36883 96171,96249,96197
 6.2000e+000 96275 -1.0621e+001 -1.1617e+002 -1.0729e+000 36883 96197,96249,96223
 6.2000e+000 96439 -3.4140e+001 -6.8358e+001 -1.5115e+000 36883 96171,96145,96413
 6.2000e+000 96462 -3.0229e+001 -6.8375e+001  1.2163e+000 36883 96171,96413,96067
 6.2000e+000 96781 -2.6717e+001 -8.3782e+001 -1.2690e+001 36215 96559,96663,96637
 6.2000e+000 96758 -3.4215e+001 -8.7976e+001 -1.4596e+001 36215 96507,96663,96559
 6.2000e+000 96735 -3.2801e+001 -5.5927e+001  6.6811e+000 36215 96585,96637,96611
 6.2000e+000 96712 -7.2969e+001 -9.7219e+001 -1.1501e+001 36215 96559,96637,96585
 6.2000e+000 96689 -1.4587e+001 -9.5294e+001 -3.5642e+000 36215 96507,96559,96533
 6.2000e+000 97161  1.0498e+000 -4.2870e+001 -1.2091e+000 35818 97184,96965,96939
 6.2000e+000 97138 -5.2920e+000 -4.7502e+001 -5.0847e+000 35818 97184,96939,96887
 6.2000e+000 97115 -4.1946e+000 -5.6523e+001  1.1255e+001 35818 96965,97043,97017
 6.2000e+000 97092 -3.1423e+000 -4.3392e+001 -5.9144e+000 35818 96887,96939,96913
 6.2000e+000 97069 -3.2283e+001 -5.7953e+001  7.1730e+000 35818 96965,97017,96991
 6.2000e+000 97210  8.1940e+000 -4.7159e+001  1.9135e+000 35818 97043,96965,97184
 6.2000e+000 97233  2.5825e+000 -5.0115e+001 -1.4027e+000 35818 97043,97184,96887
 6.2000e+000 97739 -2.6042e+001 -8.0676e+001 -2.4516e+001 35214 97416,97468,97442
 6.2000e+000 97716 -3.3255e+001 -5.7009e+001 -8.6500e+000 35214 97416,97598,97468
 6.2000e+000 97693 -2.6202e+001 -5.0929e+001 -4.4759e+000 35214 97762,97520,97468
 6.2000e+000 97670 -2.7641e+001 -5.2256e+001 -6.0506e+000 35214 97762,97468,97598
 6.2000e+000 97647 -2.2301e+001 -4.9004e+001 -9.4658e+000 35214 97546,97598,97572
 6.2000e+000 97624 -1.9183e+001 -5.3557e+001 -4.6987e+000 35214 97468,97520,97494
 6.2000e+000 97788 -2.6775e+001 -5.3010e+001 -5.8115e+000 35214 97546,97520,97762
 6.2000e+000 97811 -2.7425e+001 -5.3960e+001 -7.2484e+000 35214 97546,97762,97598
 6.2000e+000 98189 -4.2717e-001 -3.1917e+001 -5.7515e+000 34760 98356,98212,97967
 6.2000e+000 98166 -3.8605e+000 -4.0777e+001 -1.0619e+001 34760 98284,98212,97941
 6.2000e+000 98143 -1.1478e+001 -3.5753e+001 -6.7288e+000 34760 98284,97941,97915
 6.2000e+000 98120 -1.3021e+000 -4.6612e+001 -2.5002e+000 34760 98484,97993,97967
 6.2000e+000 98097  4.7370e-001 -3.8276e+001 -1.6837e+000 34760 98556,98045,98019
 6.2000e+000 98238 -3.7736e+000 -4.3409e+001 -2.6240e+000 34760 98484,97967,98212
 6.2000e+000 98261  4.1519e+000 -3.9762e+001 -3.5688e+000 34760 98556,98019,98212
 6.2000e+000 98310  1.2653e+000 -3.0690e+001 -1.2590e+001 34760 98071,98212,98284
 6.2000e+000 98333 -2.3561e+000 -1.7868e+001 -9.8921e+000 34760 98071,98284,97915
 6.2000e+000 98382 -2.9442e+001 -4.9768e+001 -1.4031e+001 34760 97941,98212,98356
 6.2000e+000 98510  2.6753e+000 -4.3952e+001 -3.8867e+000 34760 98019,97993,98484
 6.2000e+000 98533 -1.3287e+000 -4.2001e+001 -3.6802e+000 34760 98019,98484,98212
 6.2000e+000 98582  5.0447e+000 -3.6049e+001 -7.9271e-001 34760 98071,98045,98556
 6.2000e+000 98605  6.6327e+000 -3.8800e+001 -3.0726e+000 34760 98071,98556,98212
 6.2000e+000 99032 -3.3361e+001 -7.0821e+001  1.2017e+001 34156 98735,98891,98839
 6.2000e+000 99009 -2.9557e+001 -7.4116e+001  5.6334e+000 34156 98709,98891,98735
 6.2000e+000 98986 -1.1308e+001 -6.4603e+001  1.0761e+001 34156 98735,98813,98787
 6.2000e+000 98963 -1.3447e+001 -7.0262e+001  1.0261e+001 34156 98735,98839,98813
 6.2000e+000 98940  3.5988e+000 -9.7339e+001  1.2517e+001 34156 98735,98787,98761
 6.2000e+000 98917 -3.1178e+001 -6.5325e+001  1.0072e+001 34156 98839,98891,98865
 6.2000e+000 99231 -7.4131e+000 -3.2880e+001  4.0417e+000 33766 99055,99133,99107
 6.2000e+000 99208 -1.5705e+001 -4.3901e+001  7.7276e+000 33766 99055,99159,99133
 6.2000e+000 99185 -5.2783e+000 -4.7510e+001  9.3747e+000 33766 99055,99107,99081
 6.2000e+000 99818 -1.4014e+001 -4.4864e+001  1.7955e+000 33248 99521,99651,99573
 6.2000e+000 99795 -1.1247e+001 -4.0873e+001  6.8109e+000 33248 99521,99677,99651
 6.2000e+000 99772 -2.3006e+001 -5.6969e+001 -2.4874e+000 33248 99573,99651,99599
 6.2000e+000 99749 -1.3640e+001 -5.4818e+001  6.5468e+000 33248 99495,99677,99521
 6.2000e+000 99726 -1.2263e+001 -5.1125e+001 -9.7448e+000 33248 99599,99651,99625
 6.2000e+000 99703 -1.6301e+001 -5.3558e+001  3.4859e+000 33248 99521,99573,99547
 6.2000e+000 100196 -2.1006e+001 -5.6880e+001 -1.1578e+001 32794 100219,99948,99922
 6.2000e+000 100173 -2.3299e+001 -6.1073e+001 -3.7824e+000 32794 100219,99922,100052
 6.2000e+000 100150 -2.7865e+001 -4.9526e+001  4.6955e+000 32794 99974,100052,100026
 6.2000e+000 100127 -2.8069e+001 -5.4626e+001 -5.3892e+000 32794 99922,100078,100052
 6.2000e+000 100104 -2.4449e+001 -6.1508e+001  1.5301e+001 32794 99974,100026,100000
 6.2000e+000 100245 -2.9879e+001 -5.8346e+001 -8.0016e+000 32794 99974,99948,100219
 6.2000e+000 100268 -2.9375e+001 -6.2961e+001  4.5329e-002 32794 99974,100219,100052
 6.2000e+000 100418 -5.2051e+000 -5.7349e+001 -7.2275e+000 32504 100571,100343,100317
 6.2000e+000 100395 -2.7071e+001 -6.7246e+001  6.1158e+000 32504 100571,100317,100441
 6.2000e+000 100467  1.6783e+001 -3.0147e+001 -1.9893e+001 32504 100291,100369,100441
 6.2000e+000 100597  4.4006e+000 -4.7319e+001 -2.4822e+001 32504 100369,100343,100571
 6.2000e+000 100620 -5.6119e+000 -4.4077e+001 -1.3283e+001 32504 100369,100571,100441
 6.2000e+000 101020 -1.6025e+000 -3.2579e+001  1.9838e+000 32142 100772,100902,100876
 6.2000e+000 100997 -1.3235e+000 -1.9503e+001  1.2859e+000 32142 100746,100902,100772
 6.2000e+000 100974  2.8938e+000 -4.1339e+001  8.1275e+000 32142 101043,100824,100798
 6.2000e+000 100951 -4.5230e+000 -4.6011e+001  6.1105e+000 32142 101043,100798,100772
 6.2000e+000 100928 -2.7565e+001 -5.6409e+001 -1.7376e+001 32142 101115,100876,100850
 6.2000e+000 101069  1.1405e+001 -4.8228e+001 -3.1554e+000 32142 100850,100824,101043
 6.2000e+000 101092 -1.2054e+001 -5.9858e+001 -6.9457e+000 32142 101115,100850,101043
 6.2000e+000 101141 -8.1002e+000 -4.2609e+001 -6.8886e+000 32142 100772,100876,101115
 6.2000e+000 101164  4.5846e+000 -4.4668e+001  4.2667e+000 32142 100772,101115,101043
 6.2000e+000 101719 -3.2942e+001 -7.6069e+001  1.0572e+001 31538 101742,101477,101399
 6.2000e+000 101696 -3.9010e+001 -9.1106e+001  3.3482e+000 31538 101814,101742,101399
 6.2000e+000 101673 -4.3767e+001 -7.7507e+001 -4.5904e+000 31538 101814,101399,101373
 6.2000e+000 101650 -3.3678e+001 -5.4354e+001  7.9952e+000 31538 101425,101477,101451
 6.2000e+000 101627 -3.0863e+001 -6.4568e+001  2.4538e+000 31538 101399,101477,101425
 6.2000e+000 101604 -1.8836e+001 -9.5462e+001  1.9124e+001 31538 101477,101529,101503
 6.2000e+000 101581 -1.1274e+001 -4.8485e+001 -2.6501e+000 31538 101347,101555,101373
 6.2000e+000 101768 -3.6356e+001 -9.2017e+001  9.7636e+000 31538 101529,101477,101742
 6.2000e+000 101791 -3.3839e+001 -9.5531e+001 -4.0074e+000 31538 101529,101742,101555
 6.2000e+000 101840 -2.6606e+001 -7.7055e+001 -3.2902e+000 31538 101555,101742,101814
 6.2000e+000 101863 -3.3994e+001 -6.6013e+001 -1.0608e+001 31538 101555,101814,101373
 6.2000e+000 102111 -5.3151e+001 -1.2770e+002  1.7882e+001 31112 101886,101990,101912
 6.2000e+000 102088 -2.0676e+001 -7.8401e+001  2.5922e-001 31112 101886,102016,101990
 6.2000e+000 102065 -2.4228e+001 -1.1900e+002  2.0994e+001 31112 101912,101990,101964
 6.2000e+000 102042 -3.2431e+001 -1.3724e+002  2.3813e+001 31112 101912,101964,101938
 6.2000e+000 102408 -1.4296e+001 -7.1059e+001  6.3627e+000 30658 102431,102186,102160
 6.2000e+000 102385 -2.6285e+001 -6.9530e+001  3.4407e-002 30658 102431,102160,102264
 6.2000e+000 102362 -2.6077e+001 -7.7959e+001  2.1896e+000 30658 102186,102238,102212
 6.2000e+000 102339 -2.9858e+001 -7.5111e+001 -5.2977e+000 30658 102134,102264,102160
 6.2000e+000 102316 -2.0250e+001 -6.2428e+001 -2.1928e+001 30658 102134,102290,102264
 6.2000e+000 102457 -2.3901e+001 -7.5984e+001  3.5710e+000 30658 102238,102186,102431
 6.2000e+000 102480 -3.6776e+001 -7.5745e+001 -3.2720e+000 30658 102238,102431,102264
 6.2000e+000 102681 -9.3380e+000 -8.1694e+001  1.1024e+001 30004 102704,102557,102505
 6.2000e+000 102658 -9.8198e+000 -8.5964e+001  1.2916e+001 30004 102704,102505,102609
 6.2000e+000 102635  1.7391e+000 -6.5943e+001  3.2758e+000 30004 102505,102557,102531
 6.2000e+000 102730 -1.0723e+001 -7.6893e+001  9.7550e+000 30004 102583,102557,102704
 6.2000e+000 102753 -1.2833e+001 -8.1102e+001  1.2985e+001 30004 102583,102704,102609
 6.2000e+000 103003 -1.1005e+001 -6.8278e+001 -4.6526e+000 29564 103026,102804,102778
 6.2000e+000 102980 -1.3943e+001 -8.2184e+001 -7.6375e+000 29564 103026,102778,102908
 6.2000e+000 102957 -1.5046e+001 -7.1050e+001  7.1578e-002 29564 102856,102908,102882
 6.2000e+000 102934 -2.2909e+001 -6.2430e+001  6.3742e+000 29564 102804,102856,102830
 6.2000e+000 103052 -1.0039e+001 -6.1488e+001  4.7002e+000 29564 102856,102804,103026
 6.2000e+000 103075 -1.4049e+001 -7.2826e+001  4.1295e-001 29564 102856,103026,102908
 6.2000e+000 103634 -3.1351e+001 -7.8512e+001 -1.0253e+001 29160 103657,103418,103392
 6.2000e+000 103611 -2.8337e+001 -7.2643e+001 -2.7876e+000 29160 103657,103392,103314
 6.2000e+000 103588 -2.0548e+001 -5.9570e+001 -6.5902e+000 29160 103314,103392,103366
 6.2000e+000 103565 -1.1378e+001 -6.2056e+001 -1.0646e+001 29160 103314,103366,103340
 6.2000e+000 103542 -3.0873e+001 -6.3546e+001 -7.7360e+000 29160 103262,103444,103314
 6.2000e+000 103519 -3.8540e+001 -7.8465e+001 -1.2008e+001 29160 103262,103314,103288
 6.2000e+000 103496 -2.3940e+001 -6.9350e+001 -3.5227e+000 29160 103262,103470,103444
 6.2000e+000 103683 -4.3190e+001 -8.8560e+001 -2.0469e+001 29160 103444,103418,103657
 6.2000e+000 103706 -3.2456e+001 -7.1299e+001 -1.1731e+001 29160 103444,103657,103314
 6.2000e+000 104035 -2.3059e+001 -7.5532e+001  7.8351e+000 28770 103836,103914,103862
 6.2000e+000 104012 -2.1417e+001 -7.1595e+001  1.0406e+001 28770 103810,103914,103836
 6.2000e+000 103989  1.5660e+000 -6.4775e+001  1.1772e+001 28770 103810,103940,103914
 6.2000e+000 103966 -5.5245e+000 -6.2296e+001  1.5748e+001 28770 103862,103914,103888
 6.2000e+000 104185 -5.3871e+000 -6.3598e+001  1.2943e+001 28366 104208,104110,104084
 6.2000e+000 104162 -5.6754e+000 -5.5232e+001  9.6044e+000 28366 104280,104208,104084
 6.2000e+000 104234  1.2200e+001 -6.3896e+001  7.4778e+000 28366 104610,104208,104136
 6.2000e+000 104257 -1.0690e+001 -5.9043e+001  8.0380e+000 28366 104538,104410,104208
 6.2000e+000 104306 -1.7938e+001 -6.0752e+001  8.4186e+000 28366 104538,104208,104280
 6.2000e+000 104436 -2.7667e+000 -6.0371e+001  1.8359e+000 28366 104136,104208,104410
 6.2000e+000 104564 -1.8483e+001 -5.7372e+001  3.9877e+000 28366 104058,104410,104538
 6.2000e+000 104587 -2.2639e+001 -5.7204e+001  3.7387e+000 28366 104058,104538,104280
 6.2000e+000 104636  1.0511e+001 -6.3939e+001  1.0525e+001 28366 104110,104208,104610
 6.2000e+000 105349 -1.7502e+001 -6.2883e+001 -5.5751e+000 27976 105516,105372,105107
 6.2000e+000 105326 -2.9312e+001 -6.4585e+001  2.5714e+000 27976 105588,105372,105055
 6.2000e+000 105303 -3.1385e+001 -6.2239e+001 -8.3512e+000 27976 105444,105159,105133
 6.2000e+000 105280 -1.0405e+001 -6.5038e+001 -3.1663e+000 27976 105516,105107,105081
 6.2000e+000 105257 -2.8051e+001 -7.0861e+001  6.1011e+000 27976 105588,105055,105029
 6.2000e+000 105234 -1.5210e+001 -5.2985e+001  3.2854e+000 27976 105003,105185,105159
 6.2000e+000 105211 -1.9689e+001 -4.1957e+001  1.0924e+001 27976 104977,105185,105003
 6.2000e+000 105398 -1.4257e+001 -6.5790e+001 -7.5044e+000 27976 105133,105107,105372
 6.2000e+000 105421 -2.4204e+001 -6.9106e+001 -4.4486e+000 27976 105444,105133,105372
 6.2000e+000 105470 -2.5151e+001 -5.1194e+001 -4.1516e+000 27976 105003,105159,105444
 6.2000e+000 105493 -1.9587e+001 -5.8490e+001 -2.3500e+000 27976 105003,105444,105372
 6.2000e+000 105542 -1.2748e+001 -6.2721e+001  5.9224e-001 27976 105055,105372,105516
 6.2000e+000 105565 -1.8779e+000 -6.3316e+001  2.2192e+000 27976 105055,105516,105081
 6.2000e+000 105614 -3.2307e+001 -7.0809e+001  5.6352e+000 27976 105003,105372,105588
 6.2000e+000 105637 -3.1811e+001 -7.6814e+001  9.5383e+000 27976 105003,105588,105029
 6.2000e+000 106143 -2.3374e+001 -8.8202e+001  4.5782e+000 27664 106166,105846,105820
 6.2000e+000 106120 -1.5191e+001 -6.3222e+001  1.9880e+000 27664 106310,106166,105820
 6.2000e+000 106097 -5.5183e+000 -8.1067e+001 -1.7841e+001 27664 106382,106238,105950
 6.2000e+000 106074 -9.4810e+000 -6.0486e+001  1.0194e+000 27664 106310,105820,106002
 6.2000e+000 106051  9.7340e+000 -7.2697e+001 -1.4459e+001 27664 106382,105950,105924
 6.2000e+000 106028  1.3601e+000 -1.3644e+002 -3.4280e+000 27664 105846,105898,105872
 6.2000e+000 106192 -2.1357e+001 -9.9499e+001 -1.4930e+001 27664 105898,105846,106166
 6.2000e+000 106215 -1.1411e+001 -8.3177e+001 -6.2082e+000 27664 106238,105898,106166
 6.2000e+000 106264 -4.3004e+001 -9.0171e+001 -2.4189e+001 27664 105976,105950,106238
 6.2000e+000 106287 -1.1609e+001 -8.0451e+001 -7.0303e+000 27664 105976,106238,106166
 6.2000e+000 106336 -9.2950e+000 -6.9405e+001  8.0429e+000 27664 105976,106166,106310
 6.2000e+000 106359 -2.4817e+000 -6.6019e+001  6.7970e+000 27664 105976,106310,106002
 6.2000e+000 106408 -1.2323e+001 -6.7750e+001 -6.0496e-001 27664 105898,106238,106382
 6.2000e+000 106431 -3.1602e+000 -6.3272e+001  1.4252e+000 27664 105898,106382,105924
 6.2000e+000 106728 -7.6045e+000 -4.6374e+001  1.0431e+001 27153 106751,106506,106454
 6.2000e+000 106705 -7.3800e+000 -4.8029e+001  8.1079e+000 27153 106751,106454,106610
 6.2000e+000 106682 -1.2137e+001 -3.7505e+001  4.1603e+000 27153 106454,106506,106480
 6.2000e+000 106659 -1.1937e+001 -4.4947e+001  5.7291e+000 27153 106532,106610,106584
 6.2000e+000 106636 -1.7597e+001 -2.3152e+001  1.1871e+001 27153 106532,106584,106558
 6.2000e+000 106777 -4.8065e+000 -4.4108e+001  1.1412e+001 27153 106532,106506,106751
 6.2000e+000 106800 -5.5292e+000 -4.6616e+001  8.7461e+000 27153 106532,106751,106610
 6.2000e+000 107180 -9.2466e+000 -6.0081e+001  4.3620e+000 26642 107203,106984,106958
 6.2000e+000 107157 -2.9666e+001 -6.9879e+001 -1.3101e-001 26642 107203,106958,106932
 6.2000e+000 107134 -3.7406e+001 -7.8436e+001 -1.1145e+001 26642 107275,107036,107010
 6.2000e+000 107111 -2.5275e+001 -7.5824e+001 -1.5797e+001 26642 106932,107062,107036
 6.2000e+000 107088 -7.1232e-001 -5.8420e+001  6.7020e+000 26642 106906,107062,106932
 6.2000e+000 107229  4.9259e-001 -5.7550e+001 -1.8379e+001 26642 107010,106984,107203
 6.2000e+000 107252 -3.2079e+001 -7.1061e+001 -1.3961e+001 26642 107275,107010,107203
 6.2000e+000 107301 -3.1076e+001 -7.7489e+001 -1.5166e+001 26642 106932,107036,107275
 6.2000e+000 107324 -2.9358e+001 -7.7573e+001 -1.6025e+001 26642 106932,107275,107203
 6.2000e+000 107675 -2.0768e+001 -4.6293e+001  6.0366e+000 26045 107450,107554,107476
 6.2000e+000 107652 -1.7265e+001 -4.1582e+001  3.4856e+000 26045 107450,107580,107554
 6.2000e+000 107629 -1.2905e+001 -2.0803e+001 -1.9042e+000 26045 107476,107528,107502
 6.2000e+000 107606 -4.6213e+000 -4.1141e+001  5.0493e+000 26045 107476,107554,107528
 6.2000e+000 107874 -1.3592e+001 -6.6726e+001  1.7522e+001 25641 107750,107802,107776
 6.2000e+000 107851 -1.5022e+001 -4.7881e+001  1.1316e+001 25641 107724,107802,107750
 6.2000e+000 107828 -1.9026e+001 -4.9009e+001  1.1776e+001 25641 107698,107802,107724
 6.2000e+000 108431 -4.1814e+000 -7.4335e+001  1.4841e+001 25023 108526,108267,108241
 6.2000e+000 108408 -4.4404e-003 -6.8206e+001  2.6087e+000 25023 108059,108267,108085
 6.2000e+000 108385 -1.0747e+001 -7.9167e+001  1.3976e+001 25023 108454,108163,108111
 6.2000e+000 108362 -3.7977e+001 -7.8786e+001  2.5299e+001 25023 108454,108111,108085
 6.2000e+000 108339 -2.7728e+001 -1.0218e+002  2.3772e+001 25023 108111,108163,108137
 6.2000e+000 108316 -1.9632e+001 -5.7215e+001 -4.1131e+000 25023 108163,108241,108215
 6.2000e+000 108293  3.6417e+000 -4.6298e+001  1.2205e+000 25023 108163,108215,108189
 6.2000e+000 108480 -1.7758e+000 -6.9539e+001  1.3322e+000 25023 108241,108163,108454
 6.2000e+000 108503 -1.0115e+001 -7.3800e+001  1.4959e+001 25023 108526,108241,108454
 6.2000e+000 108552 -1.1758e+001 -7.2245e+001  1.1193e+001 25023 108085,108267,108526
 6.2000e+000 108575 -1.7954e+001 -7.1982e+001  1.1192e+001 25023 108085,108526,108454
 6.2000e+000 108823  6.1941e+000 -5.1819e+001  8.0323e+000 24461 108624,108728,108650
 6.2000e+000 108800 -5.1660e+000 -1.1425e+002 -9.2631e+000 24461 108598,108728,108624
 6.2000e+000 108777  8.0176e-001 -6.7670e+001  4.6844e+000 24461 108650,108728,108676
 6.2000e+000 108754 -2.9296e+001 -1.9587e+002  1.6812e+001 24461 108676,108728,108702
 6.2000e+000 109022 -2.0213e+001 -5.3994e+001  9.0977e+000 24121 108872,108924,108898
 6.2000e+000 108999 -1.2538e+001 -5.4281e+001  1.0061e+001 24121 108846,108924,108872
 6.2000e+000 108976 -2.3324e+001 -5.8835e+001  1.0302e+001 24121 108846,108950,108924
 6.2000e+000 109483 -2.4268e+001 -7.8037e+001 -8.4388e+000 23717 109209,109339,109235
 6.2000e+000 109460 -9.9825e+000 -9.1610e+001 -1.9376e+001 23717 109209,109365,109339
 6.2000e+000 109437 -4.2269e-001 -9.8585e+001 -6.0904e+000 23717 109287,109339,109313
 6.2000e+000 109414 -4.3625e+001 -9.9097e+001  5.0719e+000 23717 109235,109339,109287
 6.2000e+000 109391  4.3695e+000 -1.1857e+002  4.3483e+001 23717 109235,109287,109261
 6.2000e+000 109910 -3.1857e+001 -9.4685e+001 -9.8546e+000 23305 109613,109743,109717
 6.2000e+000 109887 -3.2033e+001 -9.5277e+001 -7.0984e+000 23305 109613,109769,109743
 6.2000e+000 109864 -3.7459e+001 -8.8990e+001 -9.0071e+000 23305 109613,109717,109639
 6.2000e+000 109841 -2.3122e+001 -8.7383e+001 -2.6500e+000 23305 109587,109769,109613
 6.2000e+000 109818  6.6781e-001 -7.2899e+001  6.3249e+000 23305 109639,109717,109691
 6.2000e+000 109795 -6.6030e+000 -5.7217e+001 -1.4722e+001 23305 109639,109691,109665
 6.2000e+000 110180 -4.2627e+000 -2.6867e+001 -5.6600e+000 22851 110007,110059,110033
 6.2000e+000 110157 -2.1047e+001 -7.3092e+001  4.2362e+000 22851 109981,110059,110007
 6.2000e+000 110134 -2.9152e+001 -8.1118e+001  1.5654e-002 22851 109955,110059,109981
 6.2000e+000 110111 -1.2033e+001 -9.5001e+001 -7.7847e+000 22851 109955,110085,110059
 6.2000e+000 110737 -5.8726e+000 -7.7528e+001 -2.3765e+001 22333 110760,110469,110391
 6.2000e+000 110714  3.1174e-001 -9.0566e+001 -1.8627e+001 22333 110760,110391,110365
 6.2000e+000 110691 -5.4455e+000 -6.7926e+001 -1.8484e+001 22333 110832,110521,110469
 6.2000e+000 110668 -1.6285e+001 -1.3619e+002  1.0354e+001 22333 110417,110469,110443
 6.2000e+000 110645 -3.4375e+001 -1.2487e+002  7.5135e+000 22333 110391,110469,110417
 6.2000e+000 110622 -1.2192e+000 -6.9874e+001 -8.4680e+000 22333 110469,110521,110495
 6.2000e+000 110599 -7.7639e+000 -4.9607e+001  8.3674e+000 22333 110365,110573,110547
 6.2000e+000 110786 -1.6971e+000 -7.0712e+001 -2.1804e+001 22333 110832,110469,110760
 6.2000e+000 110809  8.4149e+000 -7.7987e+001 -1.5095e+001 22333 110547,110760,110365
 6.2000e+000 110858 -7.1026e+000 -7.3965e+001 -1.7370e+001 22333 110547,110521,110832
 6.2000e+000 110881 -5.0757e+000 -7.9417e+001 -2.1160e+001 22333 110547,110832,110760
 6.2000e+000 111308 -3.8976e+001 -9.6050e+001  7.3994e+000 21829 111331,111063,111011
 6.2000e+000 111285 -3.3178e+001 -8.6265e+001 -2.9060e+000 21829 111331,111011,111167
 6.2000e+000 111262 -4.0366e+001 -9.6940e+001  8.0217e+000 21829 111403,111089,111063
 6.2000e+000 111239 -5.1130e+001 -1.0561e+002  1.5811e+001 21829 111011,111063,111037
 6.2000e+000 111216 -2.0135e+001 -6.3435e+001  2.5606e+000 21829 110985,111167,111011
 6.2000e+000 111193 -5.3249e+001 -1.7566e+002  3.8994e+001 21829 111089,111141,111115
 6.2000e+000 111357 -3.9111e+001 -9.8114e+001  7.9713e+000 21829 111403,111063,111331
 6.2000e+000 111380 -4.0593e+001 -1.0092e+002 -3.0218e-001 21829 111141,111331,111167
 6.2000e+000 111429 -4.4737e+001 -9.8740e+001  8.2435e+000 21829 111141,111089,111403
 6.2000e+000 111452 -4.1283e+001 -9.8672e+001  8.4522e+000 21829 111141,111403,111331
 6.2000e+000 112056  3.5309e+001 -6.7481e+001  2.5820e+000 21489 111687,111765,111739
 6.2000e+000 112033  1.3401e+001 -7.8815e+001  8.7292e+000 21489 112151,112079,111687
 6.2000e+000 112010  2.9798e+000 -1.2453e+002  4.6683e+000 21489 111791,111843,111817
 6.2000e+000 111987 -1.7907e+001 -1.0181e+002 -9.5517e+000 21489 112079,111843,111791
 6.2000e+000 111964  2.6440e+001 -7.1021e+001  1.6251e+001 21489 112151,111687,111661
 6.2000e+000 111941 -4.3552e-001 -4.9989e+001  1.1807e+001 21489 111661,111869,111843
 6.2000e+000 111918  3.6185e+001 -7.3697e+001  1.3179e+001 21489 111687,111739,111713
 6.2000e+000 111895  1.2601e+001 -1.9779e+001  2.3388e+000 21489 111635,111869,111661
 6.2000e+000 112105 -7.3499e+000 -8.5691e+001  5.1088e+000 21489 111765,111687,112079
 6.2000e+000 112128 -6.8697e+000 -8.1966e+001  5.2890e+000 21489 111765,112079,111791
 6.2000e+000 112177 -7.9318e+000 -7.6269e+001 -3.6314e+000 21489 111843,112079,112151
 6.2000e+000 112200  3.5810e+000 -7.2915e+001  2.4182e+000 21489 111843,112151,111661
 6.2000e+000 112578 -1.1442e+001 -9.9616e+001  5.0514e+000 21177 112382,112434,112408
 6.2000e+000 112555 -1.6002e+001 -9.6893e+001  1.6272e-001 21177 112330,112434,112382
 6.2000e+000 112532 -7.8627e+000 -7.9402e+001  1.7651e+001 21177 112304,112434,112330
 6.2000e+000 112509 -1.6168e+001 -9.1405e+001  0.0000e+000 21177 112330,112382,112356
 6.2000e+000 112486 -2.0458e+000 -3.7476e+001  2.2864e+000 21177 112304,112460,112434
 6.2000e+000 112679  8.1987e-001 -3.9891e+001 -1.4221e+001 20666 112601,112653,112627
 6.2000e+000 112927 -3.1860e+001 -1.0766e+002  3.3510e+000 19762 112702,112754,112728
 6.2000e+000 112904 -1.2083e+001 -1.0254e+002 -1.4707e+000 19762 112702,112832,112754
 6.2000e+000 112881 -2.6767e+001 -1.0934e+002  1.7102e+001 19762 112754,112832,112806
 6.2000e+000 112858 -3.8685e+001 -1.4313e+002  1.8749e+001 19762 112754,112806,112780
 6.2000e+000 113297 -2.8548e+001 -1.2962e+002  8.5377e+000 19308 112974,113052,113026
 6.2000e+000 113274 -1.9981e+001 -1.0780e+002  3.1858e+000 19308 112974,113156,113052
 6.2000e+000 113251 -1.2418e+001 -1.4292e+002 -1.7034e+001 19308 113052,113130,113104
 6.2000e+000 113228 -2.1832e+001 -1.0746e+002  9.7306e-002 19308 113052,113156,113130
 6.2000e+000 113205 -2.1856e+001 -1.2448e+002  0.0000e+000 19308 113052,113104,113078
 6.2000e+000 113182 -4.2013e+001 -1.3596e+002 -7.7262e-001 19308 112974,113026,113000
 6.2000e+000 113547  1.2391e-001 -1.1487e+002 -8.3633e+000 18711 113570,113374,113348
 6.2000e+000 113524 -3.3326e+000 -1.0557e+002 -5.3052e+000 18711 113570,113348,113452
 6.2000e+000 113501  1.1830e+000 -7.8007e+001 -2.1417e+001 18711 113322,113452,113348
 6.2000e+000 113478 -1.0813e+001 -1.0612e+002 -3.8963e+001 18711 113374,113426,113400
 6.2000e+000 113596  6.9941e-001 -1.0470e+002 -1.0714e+001 18711 113426,113374,113570
 6.2000e+000 113619 -3.4504e+000 -9.6847e+001 -5.7259e+000 18711 113426,113570,113452
 6.2000e+000 113771 -5.8516e+001 -1.4706e+002 -8.1377e+000 18307 113670,113722,113696
 6.2000e+000 113748 -4.5844e+001 -1.3734e+002 -3.7368e+000 18307 113644,113722,113670
 6.2000e+000 113972 -2.6546e+001 -1.2288e+002  2.6240e+000 17945 113822,113874,113848
 6.2000e+000 113949 -2.6041e+001 -1.2241e+002  2.8628e+000 17945 113822,113900,113874
 6.2000e+000 113926 -3.7100e+001 -9.7137e+001  5.2226e+001 17945 113796,113900,113822
 6.2000e+000 114075 -1.5479e+001 -1.7687e+002  2.0315e+001 17482 113997,114049,114023
 6.2000e+000 114479 -7.5043e+000 -1.0242e+002 -1.6188e+001 17042 114257,114361,114335
 6.2000e+000 114456 -2.3806e+001 -9.6331e+001 -3.0838e+000 17042 114205,114361,114257
 6.2000e+000 114433 -2.6202e+001 -1.1234e+002  4.0411e+000 17042 114205,114257,114231
 6.2000e+000 114410  1.8519e+001 -1.5273e+002 -8.3858e+000 17042 114283,114335,114309
 6.2000e+000 114387 -9.8310e-001 -1.2983e+002 -6.9237e+000 17042 114257,114335,114283
 6.2000e+000 114879 -5.2576e+001 -9.7521e+001 -8.5554e-001 16638 114631,114683,114657
 6.2000e+000 114856 -8.8691e+000 -7.9000e+001  1.7323e+000 16638 114605,114683,114631
 6.2000e+000 114833  1.7604e+001 -4.1079e+001 -1.2316e+001 16638 114605,114761,114683
 6.2000e+000 114810 -2.0147e+000 -1.1192e+002 -5.1767e+000 16638 114683,114735,114709
 6.2000e+000 114787 -3.8713e+000 -1.1551e+002 -7.3529e+000 16638 114683,114761,114735
 6.2000e+000 115078 -4.7303e+001 -1.0904e+002  2.5821e+000 16232 114954,115006,114980
 6.2000e+000 115055 -4.7691e+001 -1.2109e+002  5.2888e+000 16232 114928,115006,114954
 6.2000e+000 115032 -2.2868e+001 -1.4834e+002  1.0405e+001 16232 114902,115006,114928
 6.2000e+000 115228 -2.5329e+001 -1.0839e+002  3.4397e+000 15482 115101,115153,115127
 6.2000e+000 115205 -2.5799e+001 -1.0326e+002 -1.6588e+000 15482 115101,115179,115153
 6.2000e+000 115331 -1.6720e+001 -9.4344e+001 -1.1935e+001 15163 115253,115305,115279
 6.2000e+000 115434 -3.2168e+001 -1.0638e+002  1.9316e+001 421 115356,115408,115382
 6.3000e+000 68213 -3.7177e+000 -4.4535e+001 -5.4519e+000 67888 68112,68164,68138
 6.3000e+000 68190 -6.2437e+001 -6.2481e+001 -9.5466e+000 67888 68086,68164,68112
 6.3000e+000 68314 -9.8042e+000 -7.0634e+001  6.6064e+000 67576 68236,68288,68262
 6.3000e+000 68584 -3.6024e+001 -1.4813e+002  8.6845e+000 67378 68385,68489,68463
 6.3000e+000 68561 -9.9690e+000 -1.3586e+002  5.0095e+000 67378 68359,68489,68385
 6.3000e+000 68538 -2.5806e+001 -1.1930e+002  1.3055e+001 67378 68385,68463,68411
 6.3000e+000 68515 -1.3551e+001 -8.2106e+001  8.2934e+000 67378 68411,68463,68437
 6.3000e+000 68964 -4.0456e+001 -1.4013e+002  2.2493e+001 67130 68690,68820,68716
 6.3000e+000 68941  2.3509e+001 -1.4936e+002  4.0643e+001 67130 68690,68846,68820
 6.3000e+000 68918 -3.8080e+001 -9.0613e+001  4.9476e+000 67130 68742,68820,68794
 6.3000e+000 68895 -1.2975e+001 -8.8753e+001  1.0004e+001 67130 68716,68820,68742
 6.3000e+000 68872 -2.4729e+001 -7.0688e+001 -8.7736e+000 67130 68742,68794,68768
 6.3000e+000 69065 -3.6439e+001 -6.5795e+001  3.4006e+000 66926 68987,69039,69013
 6.3000e+000 69445 -2.3181e+001 -6.0590e+001 -3.9620e+000 66614 69223,69301,69275
 6.3000e+000 69422 -3.4091e+001 -6.5761e+001 -2.5040e+000 66614 69171,69301,69223
 6.3000e+000 69399 -3.8082e+001 -6.5176e+001 -5.2579e-001 66614 69171,69327,69301
 6.3000e+000 69376 -1.9710e+001 -4.1066e+001 -3.5220e-001 66614 69223,69275,69249
 6.3000e+000 69353 -2.7152e+001 -6.6631e+001 -9.0031e-001 66614 69171,69223,69197
 6.3000e+000 69546 -3.5016e+001 -1.2356e+002  8.6823e+000 66416 69468,69520,69494
 6.3000e+000 69997 -3.1424e+001 -1.2129e+002 -9.0177e+000 66104 69700,69830,69726
 6.3000e+000 69974 -4.1506e+001 -1.4729e+002 -1.8814e+001 66104 69700,69856,69830
 6.3000e+000 69951 -3.5081e+001 -9.4015e+001 -7.0205e+000 66104 69726,69804,69778
 6.3000e+000 69928 -2.8431e+001 -1.1379e+002 -9.2947e+000 66104 69726,69830,69804
 6.3000e+000 69905 -3.6664e+001 -8.8369e+001 -2.5583e+000 66104 69726,69778,69752
 6.3000e+000 69882 -1.4191e+001 -2.0385e+002 -3.9415e+001 66104 69674,69856,69700
 6.3000e+000 70326 -2.3488e+001 -5.4027e+001  4.6724e-001 65814 70349,70153,70127
 6.3000e+000 70303 -1.3743e+001 -5.3403e+001  2.5268e+000 65814 70349,70127,70101
 6.3000e+000 70280 -1.3396e+001 -5.2333e+001  2.2974e+001 65814 70101,70231,70205
 6.3000e+000 70257 -3.0766e+000 -5.5156e+001  9.0307e+000 65814 70153,70205,70179
 6.3000e+000 70375 -1.8873e+001 -5.6765e+001  8.0369e+000 65814 70205,70153,70349
 6.3000e+000 70398 -4.1565e+000 -5.3929e+001  9.0552e+000 65814 70205,70349,70101
 6.3000e+000 70904 -1.1739e+001 -2.4795e+001 -1.0879e+001 65502 70607,70737,70685
 6.3000e+000 70881 -1.4972e+001 -1.7900e+001 -1.4301e+001 65502 70581,70737,70607
 6.3000e+000 70858 -1.4253e+001  1.9693e+000 -3.8310e+000 65502 70581,70763,70737
 6.3000e+000 70835 -1.3795e+001 -2.6430e+001 -1.3845e+001 65502 70685,70737,70711
 6.3000e+000 70812 -6.1619e+001 -3.0820e+001  1.9954e-001 65502 70607,70659,70633
 6.3000e+000 70789 -1.7390e+001 -3.4370e+001  1.1026e+000 65502 70607,70685,70659
 6.3000e+000 71103 -1.4294e+001 -1.0212e+002 -3.6497e+000 65304 71126,70979,70953
 6.3000e+000 71080 -2.9476e+001 -9.9125e+001 -1.8734e+000 65304 71126,70953,70927
 6.3000e+000 71057 -4.3997e+001 -1.0379e+002  1.9964e+000 65304 70927,71031,71005
 6.3000e+000 71152 -2.8664e+001 -9.9399e+001 -8.1441e+000 65304 71005,70979,71126
 6.3000e+000 71175 -4.4235e+001 -9.6773e+001 -3.2110e+000 65304 71005,71126,70927
 6.3000e+000 71374 -2.9701e+001 -9.4002e+001  5.0874e+000 65106 71198,71276,71224
 6.3000e+000 71351 -2.8974e+001 -9.7437e+001  3.3395e+000 65106 71198,71302,71276
 6.3000e+000 71328 -2.6353e+001 -8.3231e+001  1.2712e+001 65106 71224,71276,71250
 6.3000e+000 71756 -1.3651e+001 -6.9282e+001 -4.9224e+000 64652 71508,71638,71534
 6.3000e+000 71733  1.8824e+000 -6.2966e+001  1.3304e-003 64652 71482,71638,71508
 6.3000e+000 71710 -3.4713e+001 -7.3725e+001 -7.1350e+000 64652 71534,71586,71560
 6.3000e+000 71687 -2.9895e+001 -7.6455e+001 -1.3127e+001 64652 71534,71612,71586
 6.3000e+000 71664 -3.6557e+001 -7.8567e+001 -1.3303e+001 64652 71534,71638,71612
 6.3000e+000 72085 -3.6133e+001 -7.8744e+001 -1.2750e+001 64248 71886,71964,71912
 6.3000e+000 72062 -2.7500e+001 -7.7698e+001 -1.1114e+001 64248 71860,71964,71886
 6.3000e+000 72039 -1.2352e+001 -8.4981e+001 -8.4681e+000 64248 71912,71964,71938
 6.3000e+000 72016 -3.5343e+001 -7.4604e+001 -8.7876e+000 64248 71860,71990,71964
 6.3000e+000 72235 -3.5425e+000 -4.7923e+001 -5.9424e+000 63858 72588,72258,72134
 6.3000e+000 72212 -2.0748e+001 -4.4713e+001  1.0866e+000 63858 72330,72258,72108
 6.3000e+000 72284 -1.5637e+001 -3.0202e+001 -4.4236e+000 63858 72160,72134,72258
 6.3000e+000 72307 -3.6552e+001 -4.6105e+001 -8.9713e+000 63858 72460,72258,72186
 6.3000e+000 72356 -3.1820e+001 -4.4656e+001 -9.1645e+000 63858 72186,72258,72330
 6.3000e+000 72486 -2.2667e+001 -4.8251e+001 -5.2799e+000 63858 72160,72258,72460
 6.3000e+000 72614 -1.3723e+001 -5.4104e+001 -5.7317e-001 63858 72108,72258,72588
 6.3000e+000 73248 -3.0401e+001 -9.9646e+001  1.7716e+001 63404 72902,72954,72928
 6.3000e+000 73225 -4.8263e+001 -9.1047e+001  9.4502e+000 63404 73271,72954,72902
 6.3000e+000 73202 -4.3266e+001 -7.1128e+001  8.2798e+000 63404 73271,72902,73032
 6.3000e+000 73179 -3.3967e+001 -6.3021e+001  3.0839e+000 63404 72902,73058,73032
 6.3000e+000 73156 -4.7662e+001 -8.9772e+001 -6.7163e+000 63404 72980,73032,73006
 6.3000e+000 73133 -3.4267e+001 -6.1174e+001  3.8493e+000 63404 72876,73058,72902
 6.3000e+000 73110 -7.1145e+000 -2.6716e+001 -1.4224e+001 63404 72876,73084,73058
 6.3000e+000 73297 -4.1672e+001 -9.4041e+001 -2.5048e+000 63404 72980,72954,73271
 6.3000e+000 73320 -4.1590e+001 -8.3139e+001 -1.9596e+000 63404 72980,73271,73032
 6.3000e+000 73470 -3.2508e+001 -2.1439e+002  2.3174e+001 63014 73343,73395,73369
 6.3000e+000 73447 -1.0161e+002 -2.6234e+002 -4.7135e+000 63014 73343,73421,73395
 6.3000e+000 73929 -1.4956e+001 -9.1490e+001  8.6863e-001 62702 73759,73811,73785
 6.3000e+000 73906 -9.2121e+000 -8.6309e+001  7.3286e+000 62702 73655,73811,73759
 6.3000e+000 73883 -2.3736e+001 -9.5591e+001  5.5021e-001 62702 73655,73759,73681
 6.3000e+000 73860 -1.3079e+001 -7.3345e+001 -1.0199e+001 62702 73681,73759,73707
 6.3000e+000 73837 -4.5459e+001 -7.8680e+001  2.7377e+000 62702 73707,73759,73733
 6.3000e+000 74209 -5.9073e+001 -7.7232e+001  1.0967e+000 62404 74059,74137,74085
 6.3000e+000 74186 -6.7983e+001 -1.0053e+002  1.2165e+001 62404 74033,74137,74059
 6.3000e+000 74163 -5.6607e+001 -7.0630e+001  2.6972e+000 62404 74085,74137,74111
 6.3000e+000 74408 -6.5268e+000 -6.8606e+001  3.1854e+000 62000 74258,74336,74284
 6.3000e+000 74385  1.0886e+000 -6.3468e+001  9.1075e+000 62000 74232,74336,74258
 6.3000e+000 74362 -1.8572e+001 -6.9502e+001 -1.0391e+000 62000 74284,74336,74310
 6.3000e+000 74509 -1.1707e+001 -6.9979e+001  8.5761e+000 61802 74431,74483,74457
 6.3000e+000 74759 -3.3043e+001 -6.3906e+001  3.2182e+000 61554 74782,74586,74560
 6.3000e+000 74736 -2.6034e+001 -6.1588e+001  3.4892e+000 61554 74782,74560,74664
 6.3000e+000 74713 -2.9665e+001 -5.1489e+001  1.8438e+001 61554 74854,74612,74586
 6.3000e+000 74690 -3.1916e+001 -6.7107e+001 -6.0576e-001 61554 74534,74664,74560
 6.3000e+000 74808 -3.6922e+001 -6.2046e+001  6.1162e+000 61554 74854,74586,74782
 6.3000e+000 74831 -2.7029e+001 -7.9785e+001  4.7187e+000 61554 74638,74782,74664
 6.3000e+000 74880 -1.3713e+001 -6.2459e+001  1.9746e+001 61554 74638,74612,74854
 6.3000e+000 74903 -1.3960e+001 -6.1298e+001  1.0445e+001 61554 74638,74854,74782
 6.3000e+000 75285 -1.3715e+001 -6.2902e+001 -1.9666e-001 61356 75063,75167,75115
 6.3000e+000 75262 -1.5852e+001 -6.6246e+001 -2.2812e+000 61356 75037,75167,75063
 6.3000e+000 75239 -9.7356e+000 -6.4315e+001 -2.9491e-001 61356 75115,75167,75141
 6.3000e+000 75216 -1.5415e+001 -6.3345e+001 -2.1350e-001 61356 75063,75115,75089
 6.3000e+000 75193 -2.7899e+001 -5.5453e+001  4.0712e+000 61356 75011,75167,75037
 6.3000e+000 75631 -8.9582e+000 -5.0844e+001  3.9690e+000 60952 75654,75412,75360
 6.3000e+000 75608 -1.3074e+001 -5.8842e+001  8.5047e-001 60952 75654,75360,75334
 6.3000e+000 75585 -1.6143e+001 -7.8767e+001  5.9594e+000 60952 75726,75438,75412
 6.3000e+000 75562 -6.7476e+000 -5.6127e+001 -9.0010e+000 60952 75308,75490,75334
 6.3000e+000 75539 -1.4637e+001 -5.2327e+001  1.7017e+000 60952 75360,75412,75386
 6.3000e+000 75516 -2.0363e+001 -9.1594e+001 -3.3200e+000 60952 75438,75490,75464
 6.3000e+000 75680 -9.1953e+000 -6.3141e+001  4.1994e+000 60952 75726,75412,75654
 6.3000e+000 75703 -9.1933e+000 -5.8557e+001  3.8365e-002 60952 75490,75654,75334
 6.3000e+000 75752 -1.1487e+001 -6.1203e+001  1.2409e+000 60952 75490,75438,75726
 6.3000e+000 75775 -1.1606e+001 -5.9893e+001 -8.3164e-001 60952 75490,75726,75654
 6.3000e+000 76155 -1.7091e+001 -6.7408e+001 -2.2482e+000 60754 75933,75985,75959
 6.3000e+000 76132 -2.6270e+001 -7.2974e+001  7.4288e+000 60754 75933,76037,75985
 6.3000e+000 76109 -2.0646e+000 -6.6009e+001  5.1713e-001 60754 75985,76037,76011
 6.3000e+000 76086 -3.7650e+001 -6.2616e+001  1.1489e+000 60754 75881,76037,75933
 6.3000e+000 76063 -4.6530e+001 -6.3329e+001  9.8464e+000 60754 75881,75933,75907
 6.3000e+000 76612 -1.4655e+001 -6.9362e+001  5.0138e+000 60350 76635,76442,76390
 6.3000e+000 76589 -1.8213e+000 -7.9917e+001  7.7217e+000 60350 76635,76390,76364
 6.3000e+000 76566 -7.4018e+000 -1.0589e+002 -6.2418e+000 60350 76364,76494,76468
 6.3000e+000 76543 -1.5067e+000 -6.3487e+001  6.2216e+000 60350 76390,76442,76416
 6.3000e+000 76520 -4.4576e+001 -6.5439e+001 -1.7235e+001 60350 76338,76494,76364
 6.3000e+000 76661 -2.1444e+001 -7.6693e+001  8.2742e+000 60350 76468,76442,76635
 6.3000e+000 76684 -1.1924e+001 -8.8219e+001  1.2070e+001 60350 76468,76635,76364
 6.3000e+000 76932 -3.2332e+001 -7.3322e+001 -2.3788e+000 59946 76955,76733,76707
 6.3000e+000 76909 -3.3895e+001 -7.6549e+001 -5.1363e-001 59946 77027,76955,76707
 6.3000e+000 76886 -3.4445e+001 -7.7809e+001 -2.4046e-001 59946 77027,76707,76837
 6.3000e+000 76863 -1.6299e+001 -7.8748e+001 -1.1133e+001 59946 76733,76785,76759
 6.3000e+000 76981 -3.7491e+001 -7.5253e+001 -2.4673e+000 59946 76785,76733,76955
 6.3000e+000 77004 -3.4500e+001 -7.0904e+001 -7.6703e-001 59946 76785,76955,76811
 6.3000e+000 77053 -3.5059e+001 -7.4599e+001  1.1647e+000 59946 76811,76955,77027
 6.3000e+000 77076 -3.6243e+001 -7.7013e+001  1.5906e+000 59946 76811,77027,76837
 6.3000e+000 77226 -3.0960e+001 -8.4135e+001  2.4887e+000 59542 77099,77151,77125
 6.3000e+000 77203 -4.3950e+001 -1.0898e+002  7.5474e+000 59542 77099,77177,77151
 6.3000e+000 77427 -4.4905e+001 -9.0664e+001 -5.5907e+000 59030 77450,77277,77251
 6.3000e+000 77404 -3.0387e+001 -7.9243e+001 -2.5148e+001 59030 77450,77251,77355
 6.3000e+000 77381 -1.9523e+001 -1.0483e+002 -2.6547e+000 59030 77277,77329,77303
 6.3000e+000 77476 -2.5984e+001 -9.2831e+001 -1.4566e+001 59030 77329,77277,77450
 6.3000e+000 77499 -8.0118e+000 -8.7772e+001 -3.0216e+001 59030 77329,77450,77355
 6.3000e+000 77749 -3.6640e+001 -1.1455e+002  9.5740e+000 58426 77772,77628,77602
 6.3000e+000 77726 -2.2217e+001 -1.2913e+002  2.2587e+001 58426 77524,77654,77628
 6.3000e+000 77703 -3.1911e+001 -1.1178e+002  7.7085e+000 58426 77772,77602,77550
 6.3000e+000 77680 -2.2837e+001 -1.0634e+002 -3.3199e+000 58426 77550,77602,77576
 6.3000e+000 77798 -3.0964e+001 -1.1739e+002  8.5157e+000 58426 77524,77628,77772
 6.3000e+000 77821 -2.7872e+001 -1.1515e+002  6.3830e+000 58426 77524,77772,77550
 6.3000e+000 78071 -4.6065e+001 -1.0109e+002  1.2243e+001 57922 78094,77924,77898
 6.3000e+000 78048 -5.0748e+001 -9.1661e+001  1.1065e+000 57922 78094,77898,77872
 6.3000e+000 78025 -4.1471e+001 -8.0909e+001  1.0034e+001 57922 78166,77846,77950
 6.3000e+000 78002 -2.6200e+001 -8.0586e+001  1.1961e+001 57922 77846,77976,77950
 6.3000e+000 78120 -3.4109e+001 -9.1951e+001  7.1117e+000 57922 77950,77924,78094
 6.3000e+000 78143 -4.2631e+001 -8.2745e+001  7.3375e+000 57922 78166,77950,78094
 6.3000e+000 78192 -3.8716e+001 -8.5785e+001  6.7650e+000 57922 77872,77846,78166
 6.3000e+000 78215 -4.2516e+001 -9.0734e+001  3.7707e+000 57922 77872,78166,78094
 6.3000e+000 78416  5.9012e+000 -8.2989e+001 -4.1246e+000 57468 78439,78292,78240
 6.3000e+000 78393 -5.1625e+000 -7.9487e+001 -4.4790e-001 57468 78439,78240,78344
 6.3000e+000 78370 -1.2878e-002 -1.1638e+002 -2.4195e+000 57468 78240,78292,78266
 6.3000e+000 78465 -4.8916e+000 -8.8316e+001 -6.1790e+000 57468 78318,78292,78439
 6.3000e+000 78488 -9.4095e+000 -8.2059e+001 -1.5435e+000 57468 78318,78439,78344
 6.3000e+000 78689 -5.4849e+000 -9.6200e+001 -7.2230e+000 57014 78712,78539,78513
 6.3000e+000 78666 -1.5288e+001 -9.5726e+001 -8.7448e-001 57014 78712,78513,78617
 6.3000e+000 78643 -2.1975e+001 -9.3041e+001  8.4941e+000 57014 78565,78617,78591
 6.3000e+000 78738 -1.7924e+001 -8.6188e+001 -7.2948e+000 57014 78565,78539,78712
 6.3000e+000 78761 -3.2000e+001 -9.4051e+001  2.8968e+000 57014 78565,78712,78617
 6.3000e+000 79241 -3.2708e+001 -8.7419e+001  6.0113e+000 56652 79264,78895,78869
 6.3000e+000 79218 -1.6032e+001 -1.1402e+002 -7.7892e+000 56652 79264,78869,79051
 6.3000e+000 79195 -2.4548e+001 -1.0051e+002 -2.3372e+001 56652 78869,79077,79051
 6.3000e+000 79172 -2.6244e+001 -5.9878e+001 -1.0524e+001 56652 78895,78973,78947
 6.3000e+000 79149 -4.1998e+001 -1.7742e+002 -1.4558e+001 56652 78973,79051,78999
 6.3000e+000 79126 -2.0869e+001 -5.5739e+001 -1.2590e+001 56652 78895,78947,78921
 6.3000e+000 79103 -2.9183e+001 -1.1159e+002  2.6263e+001 56652 78999,79051,79025
 6.3000e+000 79290 -1.9936e+001 -7.0756e+001  1.5254e+001 56652 78973,78895,79264
 6.3000e+000 79313 -2.2143e+000 -9.9503e+001  2.2995e+000 56652 78973,79264,79051
 6.3000e+000 79512 -9.8949e+000 -1.3296e+002  9.5742e+000 56062 79388,79440,79414
 6.3000e+000 79489 -4.6197e+001 -6.7304e+001  1.7765e+001 56062 79336,79440,79388
 6.3000e+000 79466 -1.2274e+001 -1.0708e+002  1.8940e+001 56062 79336,79388,79362
 6.3000e+000 79941 -1.2681e+001 -5.8827e+001  1.2971e+001 55658 79964,79670,79644
 6.3000e+000 79918 -1.9174e+001 -6.1122e+001  1.4532e+001 55658 79964,79644,79800
 6.3000e+000 79895 -1.8642e+001 -6.3458e+001  8.3612e+000 55658 80036,79696,79670
 6.3000e+000 79872 -2.1378e+001 -5.1727e+001  2.0981e+000 55658 80108,79722,79696
 6.3000e+000 79849 -2.8498e+001 -4.2199e+001  1.0311e+001 55658 79722,79774,79748
 6.3000e+000 79826 -9.2586e-002 -5.5256e+001  1.9743e+000 55658 79618,79800,79644
 6.3000e+000 79990 -1.9813e+001 -6.3519e+001  1.0620e+001 55658 80036,79670,79964
 6.3000e+000 80013 -1.5925e+001 -5.4858e+001  1.5843e+001 55658 79774,79964,79800
 6.3000e+000 80062 -1.5577e+001 -5.6545e+001  7.7486e+000 55658 80108,79696,80036
 6.3000e+000 80085 -2.0082e+001 -5.6336e+001  1.3797e+001 55658 79774,80036,79964
 6.3000e+000 80134 -3.2693e+001 -5.7287e+001  4.9161e+000 55658 79774,79722,80108
 6.3000e+000 80157 -2.9375e+001 -6.3382e+001  1.0599e+001 55658 79774,80108,80036
 6.3000e+000 80307 -5.1907e+001 -6.6874e+001  2.0308e+000 55254 80402,80330,80206
 6.3000e+000 80284 -4.8708e+001 -8.8240e+001  2.0053e+000 55254 80330,80180,80258
 6.3000e+000 80356 -5.8969e+001 -8.2626e+001  1.3674e+001 55254 80232,80206,80330
 6.3000e+000 80379 -2.3918e+001 -6.7000e+001  1.9733e+001 55254 80232,80330,80258
 6.3000e+000 80428 -6.2811e+001 -8.0836e+001 -3.5543e+000 55254 80180,80330,80402
 6.3000e+000 80659 -2.1289e+001 -1.0453e+002 -7.9158e+000 54850 80558,80610,80584
 6.3000e+000 80636 -1.2388e+001 -1.0080e+002 -7.1815e+000 54850 80532,80610,80558
 6.3000e+000 80760 -6.1827e+000 -5.2958e+001 -2.6042e+000 54652 80682,80734,80708
 6.3000e+000 81164 -6.8395e+000 -5.9185e+001  3.8118e-001 54248 81187,80942,80890
 6.3000e+000 81141 -8.8936e+000 -6.0802e+001  1.2065e+000 54248 81187,80890,81046
 6.3000e+000 81118 -1.1389e+001 -6.1865e+001  1.3222e+001 54248 80942,81020,80994
 6.3000e+000 81095 -5.7766e+000 -5.5780e+001  3.2294e-003 54248 80890,80942,80916
 6.3000e+000 81072 -1.3223e+001 -3.5777e+001  2.9158e+000 54248 80942,80994,80968
 6.3000e+000 81213 -9.2950e+000 -5.7804e+001  5.7370e-001 54248 81020,80942,81187
 6.3000e+000 81236 -1.0803e+001 -5.8733e+001  1.1051e+000 54248 81020,81187,81046
 6.3000e+000 81663 -4.7955e+001 -8.1493e+001  6.7228e+000 53594 81340,81444,81366
 6.3000e+000 81640 -4.6032e+001 -1.2179e+002  2.4754e+000 53594 81340,81470,81444
 6.3000e+000 81617 -3.2108e+001 -1.0816e+002 -1.5434e+001 53594 81340,81522,81470
 6.3000e+000 81594 -2.8774e+001 -5.7570e+001 -6.0755e+000 53594 81392,81444,81418
 6.3000e+000 81571 -3.4834e+001 -7.0160e+001 -9.5874e+000 53594 81366,81444,81392
 6.3000e+000 81548 -3.3910e+000 -1.3801e+002  6.4141e+000 53594 81470,81522,81496
 6.3000e+000 81943 -1.2920e+001 -5.1436e+001 -6.0846e+000 53104 81966,81845,81819
 6.3000e+000 81920 -2.0248e+001 -4.2377e+001 -8.5109e+000 53104 81966,81819,81767
 6.3000e+000 81897 -2.0408e+001 -4.3101e+001 -8.0760e+000 53104 81767,81819,81793
 6.3000e+000 81992 -8.0176e+000 -4.6899e+001 -8.7099e+000 53104 81871,81845,81966
 6.3000e+000 82015 -1.2675e+001 -3.4040e+001 -1.2733e+001 53104 81871,81966,81767
 6.3000e+000 82491 -1.6823e+001 -5.6196e+001 -8.4343e+000 52650 82145,82249,82171
 6.3000e+000 82468 -4.5574e+001 -6.6970e+001 -7.7017e+000 52650 82145,82301,82249
 6.3000e+000 82445 -4.8885e+001 -9.9843e+001 -1.5141e+001 52650 82249,82301,82275
 6.3000e+000 82422 -3.7641e+001 -1.2774e+002 -2.3453e+001 52650 82119,82301,82145
 6.3000e+000 82399 -1.7341e+001 -4.0562e+001  4.4329e+000 52650 82171,82249,82223
 6.3000e+000 82376 -8.0107e+000 -1.1636e+002 -1.0438e+001 52650 82119,82327,82301
 6.3000e+000 82353 -4.1017e+000 -2.0608e+001 -8.5558e+000 52650 82171,82223,82197
 6.3000e+000 82739 -2.1396e+001 -4.4700e+001 -1.1642e+000 52246 82762,82540,82514
 6.3000e+000 82716 -1.4169e+001 -2.3083e+001 -5.8357e+000 52246 82762,82514,82644
 6.3000e+000 82693 -2.9046e+001 -5.3213e+001  8.7686e+000 52246 82540,82618,82592
 6.3000e+000 82670 -3.1316e+001 -4.7292e+001  4.3150e+000 52246 82540,82592,82566
 6.3000e+000 82788 -1.4490e+001 -5.7308e+001  2.8235e+000 52246 82618,82540,82762
 6.3000e+000 82811 -1.5429e+001 -4.9475e+001 -3.3370e+000 52246 82618,82762,82644
 6.3000e+000 83059 -8.3222e+000 -6.9687e+001  5.9237e+000 51578 82860,82964,82938
 6.3000e+000 83036 -2.5576e+000 -5.2210e+001 -1.5149e+001 51578 82834,82964,82860
 6.3000e+000 83013 -5.0006e+000 -5.4577e+001  1.3048e+001 51578 82860,82938,82886
 6.3000e+000 82990 -3.5850e+000 -3.9168e+001  4.6919e+000 51578 82886,82938,82912
 6.3000e+000 83309 -1.5659e+001 -3.4219e+001  1.3276e+001 51138 83332,83162,83136
 6.3000e+000 83286 -6.7757e+000 -4.9785e+001  3.6564e+000 51138 83332,83136,83110
 6.3000e+000 83263 -1.9216e+001 -5.1322e+001 -1.4593e+000 51138 83404,83214,83188
 6.3000e+000 83240 -2.7134e-001 -2.8223e+001  2.4269e+000 51138 83084,83214,83110
 6.3000e+000 83358 -2.7227e+001 -5.3923e+001  1.9461e+001 51138 83188,83162,83332
 6.3000e+000 83381 -1.4158e+001 -5.7902e+001  4.4824e+000 51138 83404,83188,83332
 6.3000e+000 83430 -1.2027e+001 -3.4145e+001 -1.1016e+000 51138 83110,83214,83404
 6.3000e+000 83453 -9.0128e+000 -4.4652e+001  4.8851e+000 51138 83110,83404,83332
 6.3000e+000 83835 -1.7207e+001 -6.8675e+001 -1.2348e+000 50734 83613,83717,83691
 6.3000e+000 83812 -2.0664e+001 -7.8536e+001 -1.1843e+001 50734 83561,83717,83613
 6.3000e+000 83789 -1.4058e+001 -3.7772e+001 -1.9171e+001 50734 83561,83613,83587
 6.3000e+000 83766 -2.7932e+001 -4.8699e+001 -5.5921e-001 50734 83613,83691,83639
 6.3000e+000 83743 -3.0038e+001 -4.9042e+001  1.2133e+001 50734 83639,83691,83665
 6.3000e+000 84034 -1.7567e+001 -4.0851e+001  1.7816e+000 50230 84057,83884,83858
 6.3000e+000 84011 -1.6647e+001 -4.1753e+001 -3.2618e+000 50230 84129,84057,83858
 6.3000e+000 83988 -4.8935e+000 -4.4554e+001 -6.2662e+000 50230 84129,83858,83962
 6.3000e+000 84083 -1.5406e+001 -3.7961e+001 -3.5894e+000 50230 83910,83884,84057
 6.3000e+000 84106 -1.1954e+001 -3.1551e+001 -2.1492e+000 50230 83910,84057,83936
 6.3000e+000 84155 -1.1357e+000 -3.5427e+001 -5.5333e-002 50230 83936,84057,84129
 6.3000e+000 84178  3.3946e+000 -4.3411e+001 -4.6548e+000 50230 83936,84129,83962
 6.3000e+000 84558 -2.3620e+001 -5.7133e+001 -8.5192e+000 49768 84581,84388,84362
 6.3000e+000 84535 -4.4447e+001 -5.9095e+001 -3.8233e+000 49768 84581,84362,84310
 6.3000e+000 84512 -2.1186e+000 -6.5299e+001 -1.0093e+001 49768 84653,84440,84414
 6.3000e+000 84489 -3.6505e+001 -6.6363e+001  4.5397e+000 49768 84310,84362,84336
 6.3000e+000 84466 -4.1170e+000 -4.9874e+001  4.9046e+000 49768 84284,84440,84310
 6.3000e+000 84607 -9.6427e+000 -5.0578e+001 -1.5048e+001 49768 84414,84388,84581
 6.3000e+000 84630 -1.0506e+001 -5.9798e+001 -7.1155e+000 49768 84653,84414,84581
 6.3000e+000 84679 -1.3473e+001 -6.2636e+001 -1.3929e+001 49768 84310,84440,84653
 6.3000e+000 84702 -2.6118e+001 -6.2119e+001 -1.4423e+001 49768 84310,84653,84581
 6.3000e+000 85159 -3.7600e+001 -7.6246e+001 -1.9724e+001 49192 84885,84937,84911
 6.3000e+000 85136 -3.2535e+001 -5.0504e+001 -1.5438e+001 49192 84885,85041,84937
 6.3000e+000 85113 -2.1442e+001 -4.2257e+001 -7.7191e+000 49192 84963,85041,84989
 6.3000e+000 85090 -2.0248e+001 -4.0381e+001 -9.6002e+000 49192 84937,85041,84963
 6.3000e+000 85067 -1.9117e+001 -3.8363e+001 -1.0725e+001 49192 84989,85041,85015
 6.3000e+000 85714 -3.5089e+001 -5.0984e+001  1.0664e+000 48638 85368,85498,85394
 6.3000e+000 85691 -4.3856e+001 -6.0585e+001  4.9194e+000 48638 85368,85524,85498
 6.3000e+000 85668 -4.4678e+001 -5.1056e+001  1.8078e+001 48638 85737,85420,85394
 6.3000e+000 85645 -3.5181e+001 -5.6715e+001  8.6420e+000 48638 85737,85394,85498
 6.3000e+000 85622 -2.6121e+001 -5.6045e+001  1.3049e+001 48638 85446,85498,85472
 6.3000e+000 85599 -1.1950e+001 -4.8104e+001  6.9358e+000 48638 85342,85524,85368
 6.3000e+000 85576 -4.3089e+001 -5.7529e+001  8.2784e+000 48638 85342,85550,85524
 6.3000e+000 85763 -2.9278e+001 -4.3597e+001  2.1695e+001 48638 85446,85420,85737
 6.3000e+000 85786 -2.9058e+001 -5.1515e+001  1.1428e+001 48638 85446,85737,85498
 6.3000e+000 86371 -3.0935e+001 -3.5991e+001 -1.6665e+000 48084 86100,86230,86178
 6.3000e+000 86348 -3.9069e+001 -5.2390e+001 -6.1464e+000 48084 86048,86230,86100
 6.3000e+000 86325 -2.6631e+001 -3.1324e+001  1.0491e+001 48084 86100,86178,86126
 6.3000e+000 86302 -2.3021e+001 -1.4701e+001 -1.0564e+001 48084 86048,86100,86074
 6.3000e+000 86279 -3.7360e+001 -6.4644e+001 -1.5639e+000 48084 86178,86230,86204
 6.3000e+000 86256 -2.2777e+001 -2.9329e+001  1.1725e+001 48084 86126,86178,86152
 6.3000e+000 86619 -1.8594e+001 -4.0268e+001  3.1857e+000 47630 86642,86446,86420
 6.3000e+000 86596 -2.0303e+001 -4.4757e+001 -7.5634e+000 47630 86642,86420,86394
 6.3000e+000 86573 -3.1654e+001 -4.9773e+001 -8.0539e+000 47630 86394,86524,86498
 6.3000e+000 86550 -1.4653e+001 -4.7916e+001  4.4475e+000 47630 86446,86498,86472
 6.3000e+000 86668 -2.3969e+001 -5.2587e+001  1.6621e+000 47630 86498,86446,86642
 6.3000e+000 86691 -2.3897e+001 -5.3442e+001 -8.9379e+000 47630 86498,86642,86394
 6.3000e+000 87022 -4.2424e+000 -2.3565e+001 -1.5851e+001 47226 87045,86875,86849
 6.3000e+000 86999 -3.4397e+000 -2.9953e+001 -1.5068e+001 47226 87045,86849,86797
 6.3000e+000 86976 -1.3740e-002 -1.0642e+001 -6.3918e+000 47226 86797,86849,86823
 6.3000e+000 86953 -1.6770e+000 -1.8989e+001 -1.0312e+001 47226 86875,86927,86901
 6.3000e+000 87071 -6.3850e+000 -2.8896e+001 -1.4812e+001 47226 86927,86875,87045
 6.3000e+000 87094 -3.9411e+000 -3.3193e+001 -1.4429e+001 47226 86927,87045,86797
 6.3000e+000 87244 -5.6640e+000 -6.0506e+001  1.9124e+001 46814 87267,87169,87143
 6.3000e+000 87221 -3.3462e+001 -5.6244e+001 -2.3166e+000 46814 87267,87143,87117
 6.3000e+000 87293 -3.4686e+000 -4.5491e+001  1.1187e+001 46814 87339,87267,87195
 6.3000e+000 87316  1.0495e+000 -4.1444e+001 -5.4439e-001 46814 87469,87267,87117
 6.3000e+000 87365 -7.5120e+000 -4.4817e+001  1.6224e+001 46814 87169,87267,87339
 6.3000e+000 87495 -3.9005e-001 -2.5332e-001 -1.4860e+000 46814 87195,87267,87469
 6.3000e+000 88001 -1.7698e+001 -3.4739e+001  1.3480e+001 46310 88024,87834,87808
 6.3000e+000 87978 -2.1991e+001 -3.5379e+001  6.8680e+000 46310 88024,87808,87756
 6.3000e+000 87955 -1.3392e+001 -4.9912e+001  4.4169e+000 46310 88096,87730,87860
 6.3000e+000 87932 -1.4131e+001 -4.6406e+001  7.9999e+000 46310 87756,87808,87782
 6.3000e+000 87909 -1.8257e+001 -5.4933e+001  1.8322e+000 46310 87678,87860,87730
 6.3000e+000 87886 -2.4869e+001 -9.4456e+001 -6.9295e+000 46310 87678,87730,87704
 6.3000e+000 88050 -1.6942e+001 -3.3555e+001  9.2708e+000 46310 87860,87834,88024
 6.3000e+000 88073 -1.3277e+001 -3.3606e+001  9.1475e+000 46310 88096,87860,88024
 6.3000e+000 88122 -1.6106e+001 -5.7618e+001 -1.3182e+000 46310 87756,87730,88096
 6.3000e+000 88145 -2.5842e+001 -5.1228e+001  1.3353e+000 46310 87756,88096,88024
 6.3000e+000 88572 -1.3916e+001 -5.4119e+001  5.1349e+000 45856 88249,88405,88275
 6.3000e+000 88549 -1.0153e+001 -1.6620e+001 -9.3116e+000 45856 88249,88431,88405
 6.3000e+000 88526 -3.2775e+001 -8.0675e+001 -1.1263e+001 45856 88327,88405,88353
 6.3000e+000 88503 -1.3488e+001 -6.7109e+001 -3.9981e+000 45856 88275,88405,88327
 6.3000e+000 88480 -2.7961e+001 -7.4970e+001 -1.7876e+001 45856 88353,88405,88379
 6.3000e+000 88457 -5.5608e+001 -1.5376e+002  1.2785e+001 45856 88275,88327,88301
 6.3000e+000 88950 -8.1287e+000 -3.1890e+001 -4.7015e-002 45658 88973,88754,88728
 6.3000e+000 88927 -6.2715e+000 -2.6608e+001  1.2158e+000 45658 88973,88728,88676
 6.3000e+000 88904 -1.2751e+001 -3.1256e+001  1.4159e+001 45658 88676,88832,88806
 6.3000e+000 88881 -1.4898e+001 -4.3851e+001  6.0530e+000 45658 88676,88728,88702
 6.3000e+000 88858 -1.5115e+001 -2.8482e+001 -8.6496e+000 45658 88754,88806,88780
 6.3000e+000 88999 -8.5667e+000 -2.6596e+001  5.0856e-001 45658 88806,88754,88973
 6.3000e+000 89022 -8.5042e+000 -2.3588e+001  1.5389e+000 45658 88806,88973,88676
 6.3000e+000 89351 -1.7575e+001 -5.6350e+001 -2.2732e+000 45254 89152,89230,89204
 6.3000e+000 89328 -2.0114e+001 -5.7653e+001 -3.0838e+000 45254 89152,89256,89230
 6.3000e+000 89305 -9.8659e+000 -6.1126e+001 -7.8039e+000 45254 89126,89256,89152
 6.3000e+000 89282 -5.3975e+000 -5.4780e+001 -7.5184e+000 45254 89152,89204,89178
 6.3000e+000 89523 -2.7653e+000 -2.5101e+001 -4.6967e-001 45006 89422,89474,89448
 6.3000e+000 89500 -1.5976e+000 -2.4633e+001  4.5196e-001 45006 89396,89474,89422
 6.3000e+000 89673 -4.5613e+001 -7.7720e+001  6.2192e+000 44495 89572,89624,89598
 6.3000e+000 89650 -4.7788e+001 -8.2235e+001  5.4481e+000 44495 89546,89624,89572
 6.3000e+000 90104 -5.8752e+000 -6.2105e+001 -4.9779e+000 44005 90199,90127,89937
 6.3000e+000 90081 -1.2441e+001 -5.8061e+001  5.8099e-002 44005 90271,90127,89859
 6.3000e+000 90058 -2.8730e+000 -6.2892e+001 -4.9284e+000 44005 90199,89937,89885
 6.3000e+000 90035 -1.7327e+001 -5.2053e+001  3.0108e+000 44005 90271,89859,89807
 6.3000e+000 90012 -9.3816e+000 -6.9604e+001 -8.4462e+000 44005 89885,89937,89911
 6.3000e+000 89989 -3.2641e+000 -5.4199e+001  8.6345e+000 44005 89807,89859,89833
 6.3000e+000 90153 -1.3573e+001 -6.5227e+001 -4.7485e+000 44005 89963,89937,90127
 6.3000e+000 90176 -1.5308e+001 -7.2670e+001  1.4678e-001 44005 89963,90127,89781
 6.3000e+000 90225 -1.4816e+001 -6.0150e+001 -3.0791e+000 44005 89859,90127,90199
 6.3000e+000 90248 -7.1137e+000 -5.7477e+001 -1.2544e+000 44005 89859,90199,89885
 6.3000e+000 90297 -1.8626e+001 -6.4585e+001 -3.7130e+000 44005 89781,90127,90271
 6.3000e+000 90320 -2.1262e+001 -5.7615e+001 -7.1280e-002 44005 89781,90271,89807
 6.3000e+000 90470 -9.4963e+000 -5.9307e+001 -5.6533e-001 43601 90493,90369,90343
 6.3000e+000 90447 -1.6916e+001 -4.7169e+001  5.6000e+000 43601 90493,90343,90421
 6.3000e+000 90519 -2.0726e+001 -8.1112e+001 -8.2542e+000 43601 90395,90369,90493
 6.3000e+000 90542 -1.7030e+001 -5.5905e+001 -3.2423e-001 43601 90395,90493,90421
 6.3000e+000 90922 -1.9598e+001 -6.5500e+001  4.2442e+000 43154 90945,90700,90674
 6.3000e+000 90899 -1.6975e+001 -6.6847e+001 -7.8365e+000 43154 90945,90674,90648
 6.3000e+000 90876 -2.1709e+001 -4.9853e+001 -5.0683e+000 43154 90648,90778,90752
 6.3000e+000 90853 -1.0714e+001 -1.0335e+002  4.1054e+000 43154 90700,90752,90726
 6.3000e+000 90830 -1.4181e+001 -5.0273e+001 -2.4121e+000 43154 90648,90804,90778
 6.3000e+000 90971 -2.3073e+001 -7.6176e+001  6.3531e+000 43154 90752,90700,90945
 6.3000e+000 90994 -1.9642e+001 -7.3382e+001 -5.3990e+000 43154 90752,90945,90648
 6.3000e+000 91451 -8.0946e+000 -5.7207e+001 -1.0770e+001 42650 91203,91255,91229
 6.3000e+000 91428  1.5915e+000 -5.3023e+001 -4.7496e+000 42650 91203,91333,91255
 6.3000e+000 91405 -4.2557e+000 -8.2626e+001 -1.3459e+001 42650 91177,91333,91203
 6.3000e+000 91382 -2.8676e+001 -9.0962e+001  1.0738e+001 42650 91255,91333,91281
 6.3000e+000 91359 -5.3258e+000 -7.5012e+001  2.7381e+000 42650 91281,91333,91307
 6.3000e+000 91721 -3.9649e+001 -8.1697e+001  6.6330e+000 42288 91496,91600,91522
 6.3000e+000 91698 -2.3330e+001 -4.9551e+001 -2.7563e+000 42288 91496,91626,91600
 6.3000e+000 91675 -2.2369e+001 -7.1995e+001  7.3344e+000 42288 91522,91574,91548
 6.3000e+000 91652 -1.9310e+001 -7.3637e+001  7.1454e+000 42288 91522,91600,91574
 6.3000e+000 92199 -5.9784e+001 -9.0238e+001 -2.1410e+000 41898 92222,91983,91879
 6.3000e+000 92176 -6.1301e+001 -1.0156e+002 -6.6449e+000 41898 92294,92222,91879
 6.3000e+000 92153 -6.5142e+001 -1.0037e+002 -9.3961e+000 41898 92294,91879,91853
 6.3000e+000 92130 -5.2129e+001 -5.1760e+001  7.4574e+000 41898 91879,91957,91931
 6.3000e+000 92107 -5.2590e+001 -8.7419e+001 -1.3494e-001 41898 91879,91983,91957
 6.3000e+000 92084 -6.1458e+001 -5.1670e+001  1.6251e+001 41898 91879,91931,91905
 6.3000e+000 92061 -5.8362e+001 -9.3512e+001 -8.3155e+000 41898 91827,92035,91853
 6.3000e+000 92248 -5.8844e+001 -1.0440e+002  8.1501e-001 41898 92009,91983,92222
 6.3000e+000 92271 -5.7324e+001 -1.0691e+002 -8.8469e+000 41898 92009,92222,92035
 6.3000e+000 92320 -5.5053e+001 -9.9438e+001 -6.7197e+000 41898 92035,92222,92294
 6.3000e+000 92343 -5.7823e+001 -9.7550e+001 -9.2683e+000 41898 92035,92294,91853
 6.3000e+000 92770 -1.4611e+001 -7.2848e+001 -5.8592e+000 41437 92865,92793,92525
 6.3000e+000 92747 -2.0804e+001 -8.1688e+001 -7.8800e+000 41437 92793,92473,92629
 6.3000e+000 92724 -4.6282e+000 -7.6584e+001 -1.1296e+001 41437 92865,92525,92499
 6.3000e+000 92701 -2.8887e+001 -6.0787e+001 -1.3780e+001 41437 92525,92603,92577
 6.3000e+000 92678  2.4361e+000 -7.9382e+001 -7.1344e+000 41437 92447,92629,92473
 6.3000e+000 92655 -3.7127e+001 -5.4050e+001 -9.4020e+000 41437 92525,92577,92551
 6.3000e+000 92819 -1.6172e+001 -7.6421e+001 -1.2564e+001 41437 92603,92525,92793
 6.3000e+000 92842 -3.4722e+001 -8.2912e+001 -2.2661e+001 41437 92603,92793,92629
 6.3000e+000 92891  4.0927e+000 -7.7275e+001 -6.4757e+000 41437 92473,92793,92865
 6.3000e+000 92914  1.7855e+001 -7.6189e+001 -1.4079e+001 41437 92473,92865,92499
 6.3000e+000 93243 -1.5982e+001 -1.1482e+002  4.0347e+001 41097 93044,93096,93070
 6.3000e+000 93220 -2.6538e+001 -1.0426e+002  2.1110e+001 41097 93044,93122,93096
 6.3000e+000 93197  3.3282e+000 -6.9097e+001  7.0368e+000 41097 93044,93148,93122
 6.3000e+000 93174 -2.0581e+001 -5.0167e+001  2.0964e+001 41097 93018,93148,93044
 6.3000e+000 93393 -2.3250e+000 -8.6634e+001  5.3998e+000 40643 93416,93292,93344
 6.3000e+000 93370 -3.3300e+000 -7.9972e+001  6.3839e+000 40643 93266,93344,93292
 6.3000e+000 93442 -3.1687e+000 -8.4544e+001  9.0435e+000 40643 93318,93292,93416
 6.3000e+000 93901 -2.4865e+001 -7.5537e+001 -6.3651e+000 40132 93924,93731,93705
 6.3000e+000 93878 -2.5206e+001 -7.5042e+001 -6.4293e+000 40132 93996,93924,93705
 6.3000e+000 93855 -2.9349e+001 -8.5190e+001 -2.8251e+000 40132 93996,93705,93653
 6.3000e+000 93832 -9.6917e+000 -8.5212e+001 -4.9353e+000 40132 93653,93705,93679
 6.3000e+000 93809 -2.3723e+001 -7.0187e+001 -8.5937e-001 40132 93627,93783,93757
 6.3000e+000 93950 -2.4072e+001 -7.7210e+001 -6.9731e+000 40132 93757,93731,93924
 6.3000e+000 93973 -2.6509e+001 -6.8072e+001 -2.2455e+000 40132 93757,93924,93627
 6.3000e+000 94022 -3.3406e+001 -8.1626e+001  7.0638e-001 40132 93627,93924,93996
 6.3000e+000 94045 -3.0870e+001 -8.5079e+001  3.3842e+000 40132 93627,93996,93653
 6.3000e+000 94423 -1.0309e+001 -9.6907e+001 -1.2273e+001 39514 94149,94227,94175
 6.3000e+000 94400 -1.2489e+001 -8.7883e+001  9.1482e+000 39514 94149,94305,94227
 6.3000e+000 94377 -2.0144e-001 -1.0835e+002 -1.3139e+001 39514 94175,94227,94201
 6.3000e+000 94354 -2.8300e+001 -8.3093e+001  3.9743e+000 39514 94227,94305,94279
 6.3000e+000 94331 -1.3351e+001 -7.6124e+001  7.5147e+000 39514 94227,94279,94253
 6.3000e+000 94573 -6.9586e+000 -5.1164e+001 -7.6930e+000 38822 94596,94498,94472
 6.3000e+000 94550  1.0036e+001 -5.1941e+001  1.3421e+001 38822 94596,94472,94446
 6.3000e+000 94622 -2.6252e+001 -5.9163e+001 -1.1318e+001 38822 94524,94498,94596
 6.3000e+000 94645 -2.0811e+001 -6.3516e+001  1.1821e+001 38822 94524,94596,94446
 6.3000e+000 95025 -6.6786e+000 -6.0264e+001 -5.3491e+000 38418 95048,94829,94777
 6.3000e+000 95002 -5.4323e+000 -6.2089e+001 -8.0497e+000 38418 95120,95048,94777
 6.3000e+000 94979 -2.8129e+000 -6.4288e+001 -7.5974e+000 38418 95120,94777,94751
 6.3000e+000 94956 -2.5749e+000 -5.9564e+001 -8.1593e+000 38418 95192,94881,94855
 6.3000e+000 94933 -1.7698e+001 -4.6821e+001 -5.7193e+000 38418 94777,94829,94803
 6.3000e+000 95074 -1.1022e+001 -7.5628e+001 -1.6137e+000 38418 94855,94829,95048
 6.3000e+000 95097 -4.3078e+000 -6.2496e+001 -7.3777e+000 38418 95192,94855,95048
 6.3000e+000 95146 -1.1371e+001 -6.2603e+001 -6.0137e+000 38418 94907,95048,95120
 6.3000e+000 95169 -6.4122e+000 -6.3151e+001 -4.9993e+000 38418 94907,95120,94751
 6.3000e+000 95218 -5.3775e+000 -5.1737e+001 -8.0431e+000 38418 94907,94881,95192
 6.3000e+000 95241 -9.6272e+000 -5.7994e+001 -6.1357e+000 38418 94907,95192,95048
 6.3000e+000 95511 -2.3624e+001 -6.6238e+001  5.0483e+000 38049 95312,95390,95364
 6.3000e+000 95488 -1.0282e+001 -6.0549e+001  4.6993e+000 38049 95312,95416,95390
 6.3000e+000 95465 -7.4518e+000 -7.1865e+001 -3.9362e+000 38049 95312,95364,95338
 6.3000e+000 95442 -6.4202e+000 -5.1993e+001  7.1772e+000 38049 95286,95416,95312
 6.3000e+000 95808 -2.2557e+001 -8.3825e+001 -3.1972e+000 37437 95831,95586,95560
 6.3000e+000 95785  5.1904e+000 -8.5144e+001 -3.5219e+000 37437 95831,95560,95534
 6.3000e+000 95762 -4.1360e+001 -7.6220e+001  4.3843e+000 37437 95586,95664,95638
 6.3000e+000 95739 -7.8011e+000 -3.9571e+001 -1.9533e+001 37437 95534,95690,95664
 6.3000e+000 95716 -4.2565e+001 -5.1913e+001  1.6307e+000 37437 95586,95638,95612
 6.3000e+000 95857 -4.0889e+001 -7.8948e+001  8.4011e+000 37437 95664,95586,95831
 6.3000e+000 95880 -1.1685e+001 -7.9515e+001  8.5456e+000 37437 95664,95831,95534
 6.3000e+000 96390 -3.3153e+001 -6.3855e+001 -5.4974e+000 36883 96413,96145,96093
 6.3000e+000 96367 -2.8376e+001 -6.1125e+001 -2.7024e+000 36883 96413,96093,96067
 6.3000e+000 96344 -2.1270e+001 -7.8835e+001 -1.1488e+000 36883 96067,96249,96171
 6.3000e+000 96321 -2.7807e+001 -7.3998e+001 -3.2381e+000 36883 96093,96145,96119
 6.3000e+000 96298 -3.9428e+001 -1.2535e+002  1.0443e+001 36883 96171,96249,96197
 6.3000e+000 96275 -1.0297e+001 -1.0238e+002 -8.4198e-001 36883 96197,96249,96223
 6.3000e+000 96439 -3.0868e+001 -5.9845e+001 -1.5691e+000 36883 96171,96145,96413
 6.3000e+000 96462 -2.7491e+001 -5.9888e+001  8.3410e-001 36883 96171,96413,96067
 6.3000e+000 96781 -2.4070e+001 -7.3501e+001 -1.1087e+001 36215 96559,96663,96637
 6.3000e+000 96758 -3.0536e+001 -7.7096e+001 -1.2722e+001 36215 96507,96663,96559
 6.3000e+000 96735 -2.9362e+001 -4.8209e+001  5.8973e+000 36215 96585,96637,96611
 6.3000e+000 96712 -6.4843e+001 -8.5199e+001 -1.0143e+001 36215 96559,96637,96585
 6.3000e+000 96689 -1.4252e+001 -8.3149e+001 -3.5606e+000 36215 96507,96559,96533
 6.3000e+000 97161  8.7911e-001 -3.6970e+001 -1.0754e+000 35818 97184,96965,96939
 6.3000e+000 97138 -4.7282e+000 -4.1051e+001 -4.5066e+000 35818 97184,96939,96887
 6.3000e+000 97115 -4.3968e+000 -4.9291e+001  1.0488e+001 35818 96965,97043,97017
 6.3000e+000 97092 -2.7361e+000 -3.6409e+001 -5.1602e+000 35818 96887,96939,96913
 6.3000e+000 97069 -2.8987e+001 -5.1227e+001  6.7271e+000 35818 96965,97017,96991
 6.3000e+000 97210  7.1789e+000 -4.0764e+001  1.6870e+000 35818 97043,96965,97184
 6.3000e+000 97233  2.2131e+000 -4.3367e+001 -1.2501e+000 35818 97043,97184,96887
 6.3000e+000 97739 -2.3284e+001 -7.0239e+001 -2.2123e+001 35214 97416,97468,97442
 6.3000e+000 97716 -2.9316e+001 -4.8803e+001 -8.2762e+000 35214 97416,97598,97468
 6.3000e+000 97693 -2.2963e+001 -4.3166e+001 -4.5698e+000 35214 97762,97520,97468
 6.3000e+000 97670 -2.4129e+001 -4.4259e+001 -5.8813e+000 35214 97762,97468,97598
 6.3000e+000 97647 -1.9837e+001 -4.1382e+001 -8.7953e+000 35214 97546,97598,97572
 6.3000e+000 97624 -1.7374e+001 -4.4007e+001 -5.0903e+000 35214 97468,97520,97494
 6.3000e+000 97788 -2.3464e+001 -4.4937e+001 -5.6474e+000 35214 97546,97520,97762
 6.3000e+000 97811 -2.3990e+001 -4.5723e+001 -6.8434e+000 35214 97546,97762,97598
 6.3000e+000 98189 -1.2694e+000 -2.4793e+001 -5.6072e+000 34760 98356,98212,97967
 6.3000e+000 98166 -2.5863e+000 -3.2103e+001 -9.5899e+000 34760 98284,98212,97941
 6.3000e+000 98143 -7.9350e+000 -2.8448e+001 -6.7770e+000 34760 98284,97941,97915
 6.3000e+000 98120 -5.8170e-001 -3.5726e+001 -2.1651e+000 34760 98484,97993,97967
 6.3000e+000 98097 -1.1055e+000 -3.1151e+001 -9.4143e-001 34760 98556,98045,98019
 6.3000e+000 98238 -3.3172e+000 -3.3151e+001 -2.4504e+000 34760 98484,97967,98212
 6.3000e+000 98261  2.6432e+000 -3.2159e+001 -2.8413e+000 34760 98556,98019,98212
 6.3000e+000 98310  7.1301e-001 -2.4645e+001 -1.0753e+001 34760 98071,98212,98284
 6.3000e+000 98333 -1.5641e+000 -1.5246e+001 -8.7138e+000 34760 98071,98284,97915
 6.3000e+000 98382 -2.7902e+001 -4.0928e+001 -1.3124e+001 34760 97941,98212,98356
 6.3000e+000 98510  4.3356e+000 -3.4111e+001 -3.6109e+000 34760 98019,97993,98484
 6.3000e+000 98533 -3.0079e-001 -3.3058e+001 -3.7448e+000 34760 98019,98484,98212
 6.3000e+000 98582  3.6410e+000 -2.9442e+001 -3.3109e-001 34760 98071,98045,98556
 6.3000e+000 98605  5.2853e+000 -3.1801e+001 -2.5473e+000 34760 98071,98556,98212
 6.3000e+000 99032 -2.9999e+001 -6.1826e+001  1.1023e+001 34156 98735,98891,98839
 6.3000e+000 99009 -2.7123e+001 -6.4532e+001  5.9417e+000 34156 98709,98891,98735
 6.3000e+000 98986 -1.0203e+001 -5.6649e+001  9.7749e+000 34156 98735,98813,98787
 6.3000e+000 98963 -1.1984e+001 -6.1296e+001  9.4243e+000 34156 98735,98839,98813
 6.3000e+000 98940  2.0236e+000 -8.4785e+001  1.1101e+001 34156 98735,98787,98761
 6.3000e+000 98917 -2.7877e+001 -5.6555e+001  9.4947e+000 34156 98839,98891,98865
 6.3000e+000 99231 -5.8139e+000 -2.7695e+001  3.8315e+000 33766 99055,99133,99107
 6.3000e+000 99208 -1.3204e+001 -3.7083e+001  7.0652e+000 33766 99055,99159,99133
 6.3000e+000 99185 -4.6568e+000 -4.2375e+001  8.3744e+000 33766 99055,99107,99081
 6.3000e+000 99818 -1.1569e+001 -3.6450e+001  1.4581e+000 33248 99521,99651,99573
 6.3000e+000 99795 -7.6591e+000 -3.2525e+001  5.5699e+000 33248 99521,99677,99651
 6.3000e+000 99772 -1.8725e+001 -4.7014e+001 -1.7801e+000 33248 99573,99651,99599
 6.3000e+000 99749 -8.9734e+000 -4.4997e+001  5.7855e+000 33248 99495,99677,99521
 6.3000e+000 99726 -9.8438e+000 -4.2707e+001 -7.8967e+000 33248 99599,99651,99625
 6.3000e+000 99703 -1.4166e+001 -4.2404e+001  2.9121e+000 33248 99521,99573,99547
 6.3000e+000 100196 -1.8680e+001 -4.9064e+001 -9.9238e+000 32794 100219,99948,99922
 6.3000e+000 100173 -2.0646e+001 -5.2637e+001 -3.1412e+000 32794 100219,99922,100052
 6.3000e+000 100150 -2.4396e+001 -4.1975e+001  4.4211e+000 32794 99974,100052,100026
 6.3000e+000 100127 -2.4555e+001 -4.7616e+001 -4.3801e+000 32794 99922,100078,100052
 6.3000e+000 100104 -2.0259e+001 -5.2073e+001  1.3656e+001 32794 99974,100026,100000
 6.3000e+000 100245 -2.6431e+001 -5.0377e+001 -6.8587e+000 32794 99974,99948,100219
 6.3000e+000 100268 -2.5954e+001 -5.4294e+001  1.4672e-001 32794 99974,100219,100052
 6.3000e+000 100418 -5.4890e+000 -4.9945e+001 -6.5821e+000 32504 100571,100343,100317
 6.3000e+000 100395 -2.4708e+001 -5.8646e+001  5.2134e+000 32504 100571,100317,100441
 6.3000e+000 100467  1.3891e+001 -2.6020e+001 -1.7518e+001 32504 100291,100369,100441
 6.3000e+000 100597  2.9926e+000 -4.1033e+001 -2.2042e+001 32504 100369,100343,100571
 6.3000e+000 100620 -5.8047e+000 -3.8150e+001 -1.1835e+001 32504 100369,100571,100441
 6.3000e+000 101020 -8.9938e-001 -2.4377e+001  1.7996e+000 32142 100772,100902,100876
 6.3000e+000 100997 -1.1504e+000 -7.7162e+000  5.8786e-001 32142 100746,100902,100772
 6.3000e+000 100974  2.3320e+000 -3.5409e+001  7.0159e+000 32142 101043,100824,100798
 6.3000e+000 100951 -2.7619e+000 -3.8107e+001  5.8735e+000 32142 101043,100798,100772
 6.3000e+000 100928 -2.5745e+001 -4.7365e+001 -1.6070e+001 32142 101115,100876,100850
 6.3000e+000 101069  9.9380e+000 -4.0288e+001 -2.6193e+000 32142 100850,100824,101043
 6.3000e+000 101092 -1.1406e+001 -5.0871e+001 -6.0690e+000 32142 101115,100850,101043
 6.3000e+000 101141 -7.6978e+000 -3.3949e+001 -6.4276e+000 32142 100772,100876,101115
 6.3000e+000 101164  4.1669e+000 -3.6013e+001  4.2213e+000 32142 100772,101115,101043
 6.3000e+000 101719 -2.9180e+001 -6.6036e+001  9.2006e+000 31538 101742,101477,101399
 6.3000e+000 101696 -3.4234e+001 -7.9083e+001  2.9234e+000 31538 101814,101742,101399
 6.3000e+000 101673 -3.8147e+001 -6.7185e+001 -3.7996e+000 31538 101814,101399,101373
 6.3000e+000 101650 -2.9801e+001 -4.7149e+001  6.9076e+000 31538 101425,101477,101451
 6.3000e+000 101627 -2.7618e+001 -5.6035e+001  2.0944e+000 31538 101399,101477,101425
 6.3000e+000 101604 -1.6719e+001 -8.3119e+001  1.6611e+001 31538 101477,101529,101503
 6.3000e+000 101581 -9.5079e+000 -4.1572e+001 -2.1247e+000 31538 101347,101555,101373
 6.3000e+000 101768 -3.2042e+001 -7.9899e+001  8.4132e+000 31538 101529,101477,101742
 6.3000e+000 101791 -3.0149e+001 -8.3144e+001 -3.7664e+000 31538 101529,101742,101555
 6.3000e+000 101840 -2.3819e+001 -6.6749e+001 -2.9341e+000 31538 101555,101742,101814
 6.3000e+000 101863 -3.0011e+001 -5.7096e+001 -9.1375e+000 31538 101555,101814,101373
 6.3000e+000 102111 -4.8091e+001 -1.1213e+002  1.6145e+001 31112 101886,101990,101912
 6.3000e+000 102088 -1.9320e+001 -6.9473e+001  9.0890e-002 31112 101886,102016,101990
 6.3000e+000 102065 -2.2687e+001 -1.0428e+002  1.8582e+001 31112 101912,101990,101964
 6.3000e+000 102042 -2.9443e+001 -1.1953e+002  2.0867e+001 31112 101912,101964,101938
 6.3000e+000 102408 -1.3146e+001 -6.1879e+001  5.8796e+000 30658 102431,102186,102160
 6.3000e+000 102385 -2.3454e+001 -6.0674e+001  5.5501e-001 30658 102431,102160,102264
 6.3000e+000 102362 -2.3025e+001 -6.7592e+001  2.2410e+000 30658 102186,102238,102212
 6.3000e+000 102339 -2.6711e+001 -6.5846e+001 -4.4062e+000 30658 102134,102264,102160
 6.3000e+000 102316 -1.8470e+001 -5.4531e+001 -1.9526e+001 30658 102134,102290,102264
 6.3000e+000 102457 -2.1460e+001 -6.5931e+001  3.5103e+000 30658 102238,102186,102431
 6.3000e+000 102480 -3.2511e+001 -6.5812e+001 -2.2532e+000 30658 102238,102431,102264
 6.3000e+000 102681 -8.4327e+000 -6.9757e+001  9.4430e+000 30004 102704,102557,102505
 6.3000e+000 102658 -8.6118e+000 -7.3910e+001  1.1286e+001 30004 102704,102505,102609
 6.3000e+000 102635  1.4350e+000 -5.5635e+001  2.5987e+000 30004 102505,102557,102531
 6.3000e+000 102730 -9.5502e+000 -6.5289e+001  8.3597e+000 30004 102583,102557,102704
 6.3000e+000 102753 -1.0990e+001 -6.9169e+001  1.1485e+001 30004 102583,102704,102609
 6.3000e+000 103003 -9.5290e+000 -5.9007e+001 -3.7508e+000 29564 103026,102804,102778
 6.3000e+000 102980 -1.2199e+001 -7.1322e+001 -6.3028e+000 29564 103026,102778,102908
 6.3000e+000 102957 -1.3365e+001 -6.1682e+001  5.0622e-001 29564 102856,102908,102882
 6.3000e+000 102934 -2.0753e+001 -5.3929e+001  6.1139e+000 29564 102804,102856,102830
 6.3000e+000 103052 -8.8330e+000 -5.3036e+001  4.5577e+000 29564 102856,102804,103026
 6.3000e+000 103075 -1.2383e+001 -6.3032e+001  8.5286e-001 29564 102856,103026,102908
 6.3000e+000 103634 -2.7226e+001 -6.8752e+001 -9.2013e+000 29160 103657,103418,103392
 6.3000e+000 103611 -2.4606e+001 -6.3705e+001 -2.3571e+000 29160 103657,103392,103314
 6.3000e+000 103588 -1.8138e+001 -5.2244e+001 -5.5893e+000 29160 103314,103392,103366
 6.3000e+000 103565 -8.2491e+000 -5.3669e+001 -9.9579e+000 29160 103314,103366,103340
 6.3000e+000 103542 -2.6307e+001 -5.4885e+001 -6.0667e+000 29160 103262,103444,103314
 6.3000e+000 103519 -3.2322e+001 -6.7111e+001 -8.7541e+000 29160 103262,103314,103288
 6.3000e+000 103496 -2.0028e+001 -5.9954e+001 -2.3668e+000 29160 103262,103470,103444
 6.3000e+000 103683 -3.7950e+001 -7.7634e+001 -1.8028e+001 29160 103444,103418,103657
 6.3000e+000 103706 -2.8491e+001 -6.2694e+001 -1.0051e+001 29160 103444,103657,103314
 6.3000e+000 104035 -2.0423e+001 -6.5867e+001  6.9444e+000 28770 103836,103914,103862
 6.3000e+000 104012 -1.9183e+001 -6.2422e+001  9.2306e+000 28770 103810,103914,103836
 6.3000e+000 103989  6.0842e-001 -5.6348e+001  1.0183e+001 28770 103810,103940,103914
 6.3000e+000 103966 -5.1909e+000 -5.4502e+001  1.3823e+001 28770 103862,103914,103888
 6.3000e+000 104185 -4.5876e+000 -5.5314e+001  1.1033e+001 28366 104208,104110,104084
 6.3000e+000 104162 -4.4620e+000 -4.7738e+001  8.4146e+000 28366 104280,104208,104084
 6.3000e+000 104234  9.5123e+000 -5.4945e+001  6.6282e+000 28366 104610,104208,104136
 6.3000e+000 104257 -9.4914e+000 -5.1164e+001  7.3203e+000 28366 104538,104410,104208
 6.3000e+000 104306 -1.5302e+001 -5.2472e+001  7.5896e+000 28366 104538,104208,104280
 6.3000e+000 104436 -2.6312e+000 -5.1786e+001  2.0582e+000 28366 104136,104208,104410
 6.3000e+000 104564 -1.5785e+001 -4.9919e+001  4.0532e+000 28366 104058,104410,104538
 6.3000e+000 104587 -1.9112e+001 -4.9722e+001  3.8227e+000 28366 104058,104538,104280
 6.3000e+000 104636  9.1494e+000 -5.4637e+001  8.7108e+000 28366 104110,104208,104610
 6.3000e+000 105349 -1.5531e+001 -5.4439e+001 -4.7750e+000 27976 105516,105372,105107
 6.3000e+000 105326 -2.6062e+001 -5.6009e+001  2.1865e+000 27976 105588,105372,105055
 6.3000e+000 105303 -2.8335e+001 -5.4212e+001 -7.7150e+000 27976 105444,105159,105133
 6.3000e+000 105280 -9.0754e+000 -5.6571e+001 -2.4716e+000 27976 105516,105107,105081
 6.3000e+000 105257 -2.5074e+001 -6.1570e+001  5.1792e+000 27976 105588,105055,105029
 6.3000e+000 105234 -1.3497e+001 -4.5981e+001  3.1361e+000 27976 105003,105185,105159
 6.3000e+000 105211 -1.7086e+001 -3.6156e+001  9.8932e+000 27976 104977,105185,105003
 6.3000e+000 105398 -1.2400e+001 -5.7267e+001 -6.6388e+000 27976 105133,105107,105372
 6.3000e+000 105421 -2.1565e+001 -6.0422e+001 -4.1719e+000 27976 105444,105133,105372
 6.3000e+000 105470 -2.2354e+001 -4.4114e+001 -3.8537e+000 27976 105003,105159,105444
 6.3000e+000 105493 -1.7211e+001 -5.0823e+001 -2.2005e+000 27976 105003,105444,105372
 6.3000e+000 105542 -1.1172e+001 -5.3938e+001  7.0958e-001 27976 105055,105372,105516
 6.3000e+000 105565 -1.3996e+000 -5.4738e+001  2.3356e+000 27976 105055,105516,105081
 6.3000e+000 105614 -2.8489e+001 -6.1559e+001  4.9327e+000 27976 105003,105372,105588
 6.3000e+000 105637 -2.8124e+001 -6.6831e+001  8.2602e+000 27976 105003,105588,105029
 6.3000e+000 106143 -2.0828e+001 -7.6826e+001  3.2507e+000 27664 106166,105846,105820
 6.3000e+000 106120 -1.3612e+001 -5.5781e+001  8.9318e-001 27664 106310,106166,105820
 6.3000e+000 106097 -5.0868e+000 -7.1495e+001 -1.5869e+001 27664 106382,106238,105950
 6.3000e+000 106074 -8.4360e+000 -5.3654e+001  2.5108e-001 27664 106310,105820,106002
 6.3000e+000 106051  8.3731e+000 -6.3430e+001 -1.2111e+001 27664 106382,105950,105924
 6.3000e+000 106028  1.9236e+000 -1.1922e+002 -3.2696e+000 27664 105846,105898,105872
 6.3000e+000 106192 -1.8954e+001 -8.6428e+001 -1.3428e+001 27664 105898,105846,106166
 6.3000e+000 106215 -1.0433e+001 -7.2493e+001 -5.8903e+000 27664 106238,105898,106166
 6.3000e+000 106264 -3.7835e+001 -7.9147e+001 -2.1811e+001 27664 105976,105950,106238
 6.3000e+000 106287 -1.0046e+001 -7.0155e+001 -6.6515e+000 27664 105976,106238,106166
 6.3000e+000 106336 -8.2811e+000 -6.0783e+001  6.2368e+000 27664 105976,106166,106310
 6.3000e+000 106359 -2.1482e+000 -5.8102e+001  5.3556e+000 27664 105976,106310,106002
 6.3000e+000 106408 -1.0478e+001 -5.7995e+001 -5.8564e-001 27664 105898,106238,106382
 6.3000e+000 106431 -2.7077e+000 -5.3922e+001  1.9934e+000 27664 105898,106382,105924
 6.3000e+000 106728 -6.4831e+000 -3.9528e+001  9.1606e+000 27153 106751,106506,106454
 6.3000e+000 106705 -6.4168e+000 -4.1506e+001  6.9021e+000 27153 106751,106454,106610
 6.3000e+000 106682 -1.0182e+001 -3.1990e+001  3.9636e+000 27153 106454,106506,106480
 6.3000e+000 106659 -9.8867e+000 -3.7826e+001  5.3339e+000 27153 106532,106610,106584
 6.3000e+000 106636 -1.4594e+001 -1.9164e+001  1.0612e+001 27153 106532,106584,106558
 6.3000e+000 106777 -3.8404e+000 -3.6700e+001  1.0293e+001 27153 106532,106506,106751
 6.3000e+000 106800 -4.8304e+000 -3.9805e+001  7.7288e+000 27153 106532,106751,106610
 6.3000e+000 107180 -7.8513e+000 -5.1944e+001  4.1091e+000 26642 107203,106984,106958
 6.3000e+000 107157 -2.5710e+001 -6.0698e+001 -5.1980e-001 26642 107203,106958,106932
 6.3000e+000 107134 -3.3113e+001 -6.8580e+001 -9.7773e+000 26642 107275,107036,107010
 6.3000e+000 107111 -2.2295e+001 -6.6175e+001 -1.4123e+001 26642 106932,107062,107036
 6.3000e+000 107088 -3.2545e-001 -5.0794e+001  5.4986e+000 26642 106906,107062,106932
 6.3000e+000 107229  2.7523e-001 -5.0672e+001 -1.5799e+001 26642 107010,106984,107203
 6.3000e+000 107252 -2.8148e+001 -6.1709e+001 -1.2405e+001 26642 107275,107010,107203
 6.3000e+000 107301 -2.7222e+001 -6.7700e+001 -1.3532e+001 26642 106932,107036,107275
 6.3000e+000 107324 -2.5620e+001 -6.7791e+001 -1.4335e+001 26642 106932,107275,107203
 6.3000e+000 107675 -1.8249e+001 -3.9853e+001  5.7638e+000 26045 107450,107554,107476
 6.3000e+000 107652 -1.5722e+001 -3.6072e+001  3.6779e+000 26045 107450,107580,107554
 6.3000e+000 107629 -1.1475e+001 -1.5523e+001 -1.9331e+000 26045 107476,107528,107502
 6.3000e+000 107606 -4.5156e+000 -3.5454e+001  4.9462e+000 26045 107476,107554,107528
 6.3000e+000 107874 -1.2142e+001 -5.7321e+001  1.5635e+001 25641 107750,107802,107776
 6.3000e+000 107851 -1.3444e+001 -4.1672e+001  1.0380e+001 25641 107724,107802,107750
 6.3000e+000 107828 -1.7447e+001 -4.2666e+001  1.1011e+001 25641 107698,107802,107724
 6.3000e+000 108431 -3.2818e+000 -6.4215e+001  1.2947e+001 25023 108526,108267,108241
 6.3000e+000 108408  8.7212e-002 -5.7949e+001  1.8284e+000 25023 108059,108267,108085
 6.3000e+000 108385 -9.3519e+000 -6.9053e+001  1.2227e+001 25023 108454,108163,108111
 6.3000e+000 108362 -3.3620e+001 -6.8638e+001  2.2381e+001 25023 108454,108111,108085
 6.3000e+000 108339 -2.3806e+001 -8.9385e+001  2.0877e+001 25023 108111,108163,108137
 6.3000e+000 108316 -1.7517e+001 -4.9950e+001 -3.4480e+000 25023 108163,108241,108215
 6.3000e+000 108293  2.6557e+000 -4.0468e+001  1.2711e+000 25023 108163,108215,108189
 6.3000e+000 108480 -1.6608e+000 -6.0819e+001  1.3989e+000 25023 108241,108163,108454
 6.3000e+000 108503 -8.5240e+000 -6.4352e+001  1.3274e+001 25023 108526,108241,108454
 6.3000e+000 108552 -1.0145e+001 -6.1420e+001  9.6178e+000 25023 108085,108267,108526
 6.3000e+000 108575 -1.5592e+001 -6.1754e+001  9.8495e+000 25023 108085,108526,108454
 6.3000e+000 108823  6.3381e+000 -4.5149e+001  6.9856e+000 24461 108624,108728,108650
 6.3000e+000 108800 -3.3400e+000 -9.8634e+001 -7.8411e+000 24461 108598,108728,108624
 6.3000e+000 108777  1.7574e+000 -5.8649e+001  4.1342e+000 24461 108650,108728,108676
 6.3000e+000 108754 -2.3985e+001 -1.6990e+002  1.5007e+001 24461 108676,108728,108702
 6.3000e+000 109022 -1.7341e+001 -4.6449e+001  8.1704e+000 24121 108872,108924,108898
 6.3000e+000 108999 -1.0373e+001 -4.6877e+001  9.0014e+000 24121 108846,108924,108872
 6.3000e+000 108976 -2.0313e+001 -5.0960e+001  8.9347e+000 24121 108846,108950,108924
 6.3000e+000 109483 -2.1255e+001 -6.8168e+001 -7.4406e+000 23717 109209,109339,109235
 6.3000e+000 109460 -8.5834e+000 -7.9567e+001 -1.7070e+001 23717 109209,109365,109339
 6.3000e+000 109437  3.8414e-002 -8.6852e+001 -4.7947e+000 23717 109287,109339,109313
 6.3000e+000 109414 -3.8618e+001 -8.7482e+001  5.0516e+000 23717 109235,109339,109287
 6.3000e+000 109391  3.6971e+000 -1.0402e+002  3.8810e+001 23717 109235,109287,109261
 6.3000e+000 109910 -2.8104e+001 -8.2564e+001 -8.1721e+000 23305 109613,109743,109717
 6.3000e+000 109887 -2.8569e+001 -8.3111e+001 -6.3169e+000 23305 109613,109769,109743
 6.3000e+000 109864 -3.3855e+001 -7.8038e+001 -7.1344e+000 23305 109613,109717,109639
 6.3000e+000 109841 -2.0978e+001 -7.7382e+001 -2.4262e+000 23305 109587,109769,109613
 6.3000e+000 109818  9.4912e-001 -6.3352e+001  6.3200e+000 23305 109639,109717,109691
 6.3000e+000 109795 -5.8802e+000 -5.0032e+001 -1.1819e+001 23305 109639,109691,109665
 6.3000e+000 110180 -3.9579e+000 -2.3257e+001 -4.8416e+000 22851 110007,110059,110033
 6.3000e+000 110157 -1.8642e+001 -6.3708e+001  3.8298e+000 22851 109981,110059,110007
 6.3000e+000 110134 -2.5855e+001 -7.1077e+001 -8.2980e-002 22851 109955,110059,109981
 6.3000e+000 110111 -1.0841e+001 -8.4205e+001 -6.9327e+000 22851 109955,110085,110059
 6.3000e+000 110737 -4.6295e+000 -6.7876e+001 -2.0893e+001 22333 110760,110469,110391
 6.3000e+000 110714  8.7425e-001 -7.8884e+001 -1.6568e+001 22333 110760,110391,110365
 6.3000e+000 110691 -4.3208e+000 -5.9427e+001 -1.6062e+001 22333 110832,110521,110469
 6.3000e+000 110668 -1.4050e+001 -1.1905e+002  9.3145e+000 22333 110417,110469,110443
 6.3000e+000 110645 -2.9879e+001 -1.0968e+002  7.0272e+000 22333 110391,110469,110417
 6.3000e+000 110622 -9.8898e-001 -6.1156e+001 -7.6723e+000 22333 110469,110521,110495
 6.3000e+000 110599 -7.0386e+000 -4.3954e+001  7.9351e+000 22333 110365,110573,110547
 6.3000e+000 110786 -8.0663e-001 -6.1983e+001 -1.9130e+001 22333 110832,110469,110760
 6.3000e+000 110809  8.0447e+000 -6.8344e+001 -1.3343e+001 22333 110547,110760,110365
 6.3000e+000 110858 -6.1733e+000 -6.4963e+001 -1.4939e+001 22333 110547,110521,110832
 6.3000e+000 110881 -4.0487e+000 -6.9864e+001 -1.8391e+001 22333 110547,110832,110760
 6.3000e+000 111308 -3.4207e+001 -8.3489e+001  7.0209e+000 21829 111331,111063,111011
 6.3000e+000 111285 -2.8043e+001 -7.4174e+001 -2.4605e+000 21829 111331,111011,111167
 6.3000e+000 111262 -3.5215e+001 -8.4294e+001  7.8904e+000 21829 111403,111089,111063
 6.3000e+000 111239 -4.5226e+001 -9.2462e+001  1.4559e+001 21829 111011,111063,111037
 6.3000e+000 111216 -1.7541e+001 -5.5342e+001  1.9167e+000 21829 110985,111167,111011
 6.3000e+000 111193 -4.6261e+001 -1.5350e+002  3.6094e+001 21829 111089,111141,111115
 6.3000e+000 111357 -3.4027e+001 -8.5369e+001  7.8504e+000 21829 111403,111063,111331
 6.3000e+000 111380 -3.5152e+001 -8.7610e+001  3.6039e-001 21829 111141,111331,111167
 6.3000e+000 111429 -3.9533e+001 -8.5986e+001  7.9953e+000 21829 111141,111089,111403
 6.3000e+000 111452 -3.6123e+001 -8.5727e+001  8.2709e+000 21829 111141,111403,111331
 6.3000e+000 112056  3.0316e+001 -5.7439e+001  1.5089e+000 21489 111687,111765,111739
 6.3000e+000 112033  1.2040e+001 -6.7899e+001  7.0926e+000 21489 112151,112079,111687
 6.3000e+000 112010  2.9160e+000 -1.0782e+002  4.1403e+000 21489 111791,111843,111817
 6.3000e+000 111987 -1.5103e+001 -8.7891e+001 -8.3074e+000 21489 112079,111843,111791
 6.3000e+000 111964  2.3444e+001 -6.1602e+001  1.3749e+001 21489 112151,111687,111661
 6.3000e+000 111941  2.6197e-001 -4.3019e+001  1.0717e+001 21489 111661,111869,111843
 6.3000e+000 111918  3.1349e+001 -6.2985e+001  1.1166e+001 21489 111687,111739,111713
 6.3000e+000 111895  1.1372e+001 -1.7312e+001  1.3386e+000 21489 111635,111869,111661
 6.3000e+000 112105 -5.9853e+000 -7.3106e+001  4.2283e+000 21489 111765,111687,112079
 6.3000e+000 112128 -5.9554e+000 -7.0880e+001  4.4991e+000 21489 111765,112079,111791
 6.3000e+000 112177 -6.6731e+000 -6.6220e+001 -3.0918e+000 21489 111843,112079,112151
 6.3000e+000 112200  3.5294e+000 -6.3577e+001  2.2993e+000 21489 111843,112151,111661
 6.3000e+000 112578 -9.2764e+000 -8.5577e+001  3.6819e+000 21177 112382,112434,112408
 6.3000e+000 112555 -1.2845e+001 -8.2847e+001 -3.1203e-001 21177 112330,112434,112382
 6.3000e+000 112532 -7.1742e+000 -6.7760e+001  1.5375e+001 21177 112304,112434,112330
 6.3000e+000 112509 -1.3830e+001 -8.1328e+001  0.0000e+000 21177 112330,112382,112356
 6.3000e+000 112486 -1.0796e+000 -3.1317e+001  1.9627e+000 21177 112304,112460,112434
 6.3000e+000 112679 -2.3991e-001 -3.1812e+001 -1.2179e+001 20666 112601,112653,112627
 6.3000e+000 112927 -2.7810e+001 -9.3964e+001  3.1538e+000 19762 112702,112754,112728
 6.3000e+000 112904 -1.0404e+001 -8.9744e+001 -1.0291e+000 19762 112702,112832,112754
 6.3000e+000 112881 -2.3529e+001 -9.6251e+001  1.5314e+001 19762 112754,112832,112806
 6.3000e+000 112858 -3.3873e+001 -1.2573e+002  1.6832e+001 19762 112754,112806,112780
 6.3000e+000 113297 -2.4962e+001 -1.1337e+002  7.4916e+000 19308 112974,113052,113026
 6.3000e+000 113274 -1.7502e+001 -9.4188e+001  2.8068e+000 19308 112974,113156,113052
 6.3000e+000 113251 -1.1063e+001 -1.2497e+002 -1.4909e+001 19308 113052,113130,113104
 6.3000e+000 113228 -1.9115e+001 -9.3867e+001  1.0747e-001 19308 113052,113156,113130
 6.3000e+000 113205 -1.9291e+001 -1.0882e+002  0.0000e+000 19308 113052,113104,113078
 6.3000e+000 113182 -3.7004e+001 -1.1915e+002 -8.0189e-001 19308 112974,113026,113000
 6.3000e+000 113547  2.9550e-001 -1.0108e+002 -7.4621e+000 18711 113570,113374,113348
 6.3000e+000 113524 -2.1104e+000 -9.3215e+001 -4.8427e+000 18711 113570,113348,113452
 6.3000e+000 113501  1.6252e+000 -7.0141e+001 -1.8408e+001 18711 113322,113452,113348
 6.3000e+000 113478 -9.6762e+000 -9.2190e+001 -3.3886e+001 18711 113374,113426,113400
 6.3000e+000 113596 -2.0898e-001 -9.2284e+001 -9.3156e+000 18711 113426,113374,113570
 6.3000e+000 113619 -2.7834e+000 -8.5344e+001 -5.0145e+000 18711 113426,113570,113452
 6.3000e+000 113771 -5.1299e+001 -1.2854e+002 -7.6620e+000 18307 113670,113722,113696
 6.3000e+000 113748 -3.9549e+001 -1.1930e+002 -3.5278e+000 18307 113644,113722,113670
 6.3000e+000 113972 -2.3787e+001 -1.0849e+002  2.4498e+000 17945 113822,113874,113848
 6.3000e+000 113949 -2.2845e+001 -1.0817e+002  2.5175e+000 17945 113822,113900,113874
 6.3000e+000 113926 -3.2760e+001 -8.6522e+001  4.5723e+001 17945 113796,113900,113822
 6.3000e+000 114075 -1.3101e+001 -1.5430e+002  1.7975e+001 17482 113997,114049,114023
 6.3000e+000 114479 -6.5933e+000 -8.9864e+001 -1.3969e+001 17042 114257,114361,114335
 6.3000e+000 114456 -2.0708e+001 -8.4485e+001 -2.6008e+000 17042 114205,114361,114257
 6.3000e+000 114433 -2.2542e+001 -9.8546e+001  3.6601e+000 17042 114205,114257,114231
 6.3000e+000 114410  1.5516e+001 -1.3405e+002 -7.1763e+000 17042 114283,114335,114309
 6.3000e+000 114387 -1.1207e+000 -1.1391e+002 -6.0181e+000 17042 114257,114335,114283
 6.3000e+000 114879 -4.4813e+001 -8.4429e+001 -1.3169e+000 16638 114631,114683,114657
 6.3000e+000 114856 -7.3536e+000 -6.8561e+001  1.3206e+000 16638 114605,114683,114631
 6.3000e+000 114833  1.5982e+001 -3.5315e+001 -1.1127e+001 16638 114605,114761,114683
 6.3000e+000 114810 -2.1553e+000 -9.8671e+001 -4.7579e+000 16638 114683,114735,114709
 6.3000e+000 114787 -3.1163e+000 -1.0165e+002 -6.6611e+000 16638 114683,114761,114735
 6.3000e+000 115078 -4.1811e+001 -9.4540e+001  2.2241e+000 16232 114954,115006,114980
 6.3000e+000 115055 -4.2005e+001 -1.0512e+002  4.5715e+000 16232 114928,115006,114954
 6.3000e+000 115032 -1.9932e+001 -1.2932e+002  9.1272e+000 16232 114902,115006,114928
 6.3000e+000 115228 -2.2171e+001 -9.5598e+001  3.1457e+000 15482 115101,115153,115127
 6.3000e+000 115205 -2.3000e+001 -9.0703e+001 -1.8442e+000 15482 115101,115179,115153
 6.3000e+000 115331 -1.4135e+001 -8.0575e+001 -1.0540e+001 15163 115253,115305,115279
 6.3000e+000 115434 -2.7162e+001 -9.0993e+001  1.5338e+001 421 115356,115408,115382
 6.4000e+000 68213 -7.2705e+000 -3.5196e+001 -4.0866e+000 67888 68112,68164,68138
 6.4000e+000 68190 -5.0824e+001 -4.7744e+001 -8.3086e+000 67888 68086,68164,68112
 6.4000e+000 68314 -1.2519e+001 -5.7554e+001  4.4972e+000 67576 68236,68288,68262
 6.4000e+000 68584 -3.1833e+001 -1.2821e+002  8.5934e+000 67378 68385,68489,68463
 6.4000e+000 68561 -8.7156e+000 -1.1700e+002  4.5985e+000 67378 68359,68489,68385
 6.4000e+000 68538 -2.2844e+001 -1.0284e+002  1.2439e+001 67378 68385,68463,68411
 6.4000e+000 68515 -9.7907e+000 -7.0487e+001  7.1483e+000 67378 68411,68463,68437
 6.4000e+000 68964 -3.8083e+001 -1.2490e+002  2.0367e+001 67130 68690,68820,68716
 6.4000e+000 68941  2.0382e+001 -1.3307e+002  3.6982e+001 67130 68690,68846,68820
 6.4000e+000 68918 -3.7631e+001 -8.0482e+001  5.0382e+000 67130 68742,68820,68794
 6.4000e+000 68895 -1.3585e+001 -7.7921e+001  9.1970e+000 67130 68716,68820,68742
 6.4000e+000 68872 -2.4763e+001 -6.1110e+001 -8.0124e+000 67130 68742,68794,68768
 6.4000e+000 69065 -3.5822e+001 -5.6858e+001  2.5723e+000 66926 68987,69039,69013
 6.4000e+000 69445 -2.1197e+001 -5.1406e+001 -4.4599e+000 66614 69223,69301,69275
 6.4000e+000 69422 -3.2063e+001 -5.6893e+001 -2.4848e+000 66614 69171,69301,69223
 6.4000e+000 69399 -3.3787e+001 -5.3860e+001 -1.5263e+000 66614 69171,69327,69301
 6.4000e+000 69376 -2.0014e+001 -3.5827e+001  1.5378e-001 66614 69223,69275,69249
 6.4000e+000 69353 -2.5327e+001 -5.5809e+001 -6.3436e-001 66614 69171,69223,69197
 6.4000e+000 69546 -3.2893e+001 -1.0848e+002  7.5685e+000 66416 69468,69520,69494
 6.4000e+000 69997 -2.9631e+001 -1.0633e+002 -7.3352e+000 66104 69700,69830,69726
 6.4000e+000 69974 -3.9336e+001 -1.2807e+002 -1.5600e+001 66104 69700,69856,69830
 6.4000e+000 69951 -3.2075e+001 -8.2149e+001 -5.8904e+000 66104 69726,69804,69778
 6.4000e+000 69928 -2.6593e+001 -9.9415e+001 -7.9449e+000 66104 69726,69830,69804
 6.4000e+000 69905 -3.3764e+001 -7.7352e+001 -2.0322e+000 66104 69726,69778,69752
 6.4000e+000 69882 -1.3509e+001 -1.7498e+002 -3.4494e+001 66104 69674,69856,69700
 6.4000e+000 70326 -2.1192e+001 -4.5772e+001  8.0350e-001 65814 70349,70153,70127
 6.4000e+000 70303 -1.2111e+001 -4.5038e+001  2.5903e+000 65814 70349,70127,70101
 6.4000e+000 70280 -1.1753e+001 -4.6033e+001  2.0594e+001 65814 70101,70231,70205
 6.4000e+000 70257 -4.2453e+000 -4.8837e+001  8.0426e+000 65814 70153,70205,70179
 6.4000e+000 70375 -1.6946e+001 -4.8529e+001  7.8933e+000 65814 70205,70153,70349
 6.4000e+000 70398 -3.1835e+000 -4.5687e+001  8.6972e+000 65814 70205,70349,70101
 6.4000e+000 70904 -1.0741e+001 -2.0264e+001 -9.6259e+000 65502 70607,70737,70685
 6.4000e+000 70881 -1.3782e+001 -1.4469e+001 -1.2509e+001 65502 70581,70737,70607
 6.4000e+000 70858 -1.2720e+001  3.2532e+000 -3.8123e+000 65502 70581,70763,70737
 6.4000e+000 70835 -1.1822e+001 -2.1272e+001 -1.1761e+001 65502 70685,70737,70711
 6.4000e+000 70812 -5.6641e+001 -2.6135e+001  8.6684e-001 65502 70607,70659,70633
 6.4000e+000 70789 -1.6063e+001 -2.9284e+001  1.7180e+000 65502 70607,70685,70659
 6.4000e+000 71103 -1.1968e+001 -8.7985e+001 -3.0869e+000 65304 71126,70979,70953
 6.4000e+000 71080 -2.6013e+001 -8.4614e+001 -1.5858e+000 65304 71126,70953,70927
 6.4000e+000 71057 -3.9373e+001 -9.0232e+001  1.2433e+000 65304 70927,71031,71005
 6.4000e+000 71152 -2.4966e+001 -8.6647e+001 -7.2442e+000 65304 71005,70979,71126
 6.4000e+000 71175 -3.8954e+001 -8.3103e+001 -2.9067e+000 65304 71005,71126,70927
 6.4000e+000 71374 -2.8675e+001 -7.9290e+001  4.4181e+000 65106 71198,71276,71224
 6.4000e+000 71351 -2.3722e+001 -8.2105e+001  2.7922e+000 65106 71198,71302,71276
 6.4000e+000 71328 -2.6577e+001 -7.1632e+001  1.1059e+001 65106 71224,71276,71250
 6.4000e+000 71756 -1.3885e+001 -5.8987e+001 -4.8678e+000 64652 71508,71638,71534
 6.4000e+000 71733 -1.1430e+000 -5.3858e+001  5.8354e-001 64652 71482,71638,71508
 6.4000e+000 71710 -3.2758e+001 -6.5515e+001 -6.3904e+000 64652 71534,71586,71560
 6.4000e+000 71687 -2.8082e+001 -6.6942e+001 -1.1771e+001 64652 71534,71612,71586
 6.4000e+000 71664 -3.2315e+001 -6.8392e+001 -1.1770e+001 64652 71534,71638,71612
 6.4000e+000 72085 -3.1962e+001 -6.7526e+001 -1.1111e+001 64248 71886,71964,71912
 6.4000e+000 72062 -2.4698e+001 -6.7119e+001 -9.2880e+000 64248 71860,71964,71886
 6.4000e+000 72039 -1.1548e+001 -7.3068e+001 -7.4642e+000 64248 71912,71964,71938
 6.4000e+000 72016 -3.4365e+001 -6.6647e+001 -6.1443e+000 64248 71860,71990,71964
 6.4000e+000 72235 -5.0570e+000 -4.1471e+001 -5.1826e+000 63858 72588,72258,72134
 6.4000e+000 72212 -1.9391e+001 -3.8390e+001  1.2812e+000 63858 72330,72258,72108
 6.4000e+000 72284 -1.4963e+001 -2.5919e+001 -3.7157e+000 63858 72160,72134,72258
 6.4000e+000 72307 -3.1802e+001 -3.9699e+001 -8.1371e+000 63858 72460,72258,72186
 6.4000e+000 72356 -2.9407e+001 -3.8653e+001 -7.9040e+000 63858 72186,72258,72330
 6.4000e+000 72486 -2.0989e+001 -4.1878e+001 -4.9167e+000 63858 72160,72258,72460
 6.4000e+000 72614 -1.4558e+001 -4.7424e+001  3.3616e-001 63858 72108,72258,72588
 6.4000e+000 73248 -2.7298e+001 -8.8124e+001  1.6929e+001 63404 72902,72954,72928
 6.4000e+000 73225 -4.4646e+001 -8.0972e+001  8.9080e+000 63404 73271,72954,72902
 6.4000e+000 73202 -3.9664e+001 -6.2879e+001  7.6004e+000 63404 73271,72902,73032
 6.4000e+000 73179 -3.0651e+001 -5.5462e+001  3.0299e+000 63404 72902,73058,73032
 6.4000e+000 73156 -4.4748e+001 -7.9727e+001 -8.0293e+000 63404 72980,73032,73006
 6.4000e+000 73133 -3.2323e+001 -5.2512e+001  4.2306e+000 63404 72876,73058,72902
 6.4000e+000 73110 -2.8034e+000 -2.0552e+001 -1.2029e+001 63404 72876,73084,73058
 6.4000e+000 73297 -3.8215e+001 -8.3548e+001 -2.0273e+000 63404 72980,72954,73271
 6.4000e+000 73320 -3.7753e+001 -7.3723e+001 -1.7362e+000 63404 72980,73271,73032
 6.4000e+000 73470 -2.9234e+001 -1.9189e+002  2.0739e+001 63014 73343,73395,73369
 6.4000e+000 73447 -9.0784e+001 -2.3417e+002 -4.0853e+000 63014 73343,73421,73395
 6.4000e+000 73929 -1.4199e+001 -7.7387e+001  1.3043e+000 62702 73759,73811,73785
 6.4000e+000 73906 -9.4492e+000 -7.3124e+001  6.4395e+000 62702 73655,73811,73759
 6.4000e+000 73883 -2.1276e+001 -8.0172e+001  8.9907e-001 62702 73655,73759,73681
 6.4000e+000 73860 -1.1996e+001 -6.1021e+001 -9.3423e+000 62702 73681,73759,73707
 6.4000e+000 73837 -4.2116e+001 -6.8832e+001  2.7766e+000 62702 73707,73759,73733
 6.4000e+000 74209 -5.1088e+001 -6.8241e+001  1.1491e+000 62404 74059,74137,74085
 6.4000e+000 74186 -5.7657e+001 -8.6906e+001  1.0036e+001 62404 74033,74137,74059
 6.4000e+000 74163 -4.7757e+001 -6.1098e+001  3.0804e+000 62404 74085,74137,74111
 6.4000e+000 74408 -5.9331e+000 -5.9183e+001  3.0636e+000 62000 74258,74336,74284
 6.4000e+000 74385  1.2660e+000 -5.4986e+001  6.9644e+000 62000 74232,74336,74258
 6.4000e+000 74362 -1.6124e+001 -6.1143e+001 -5.9694e-001 62000 74284,74336,74310
 6.4000e+000 74509 -1.5221e+001 -5.4819e+001  5.9317e+000 61802 74431,74483,74457
 6.4000e+000 74759 -2.9721e+001 -5.4960e+001  2.4527e+000 61554 74782,74586,74560
 6.4000e+000 74736 -2.4045e+001 -5.3535e+001  2.3116e+000 61554 74782,74560,74664
 6.4000e+000 74713 -2.6768e+001 -4.5617e+001  1.4108e+001 61554 74854,74612,74586
 6.4000e+000 74690 -2.7256e+001 -5.7754e+001  5.2210e-001 61554 74534,74664,74560
 6.4000e+000 74808 -3.2512e+001 -5.4056e+001  4.4703e+000 61554 74854,74586,74782
 6.4000e+000 74831 -2.4928e+001 -6.9198e+001  3.3780e+000 61554 74638,74782,74664
 6.4000e+000 74880 -1.4338e+001 -5.4452e+001  1.5217e+001 61554 74638,74612,74854
 6.4000e+000 74903 -1.4549e+001 -5.3591e+001  7.9512e+000 61554 74638,74854,74782
 6.4000e+000 75285 -1.6783e+001 -5.3338e+001  4.3207e-001 61356 75063,75167,75115
 6.4000e+000 75262 -1.7092e+001 -5.2403e+001 -1.5196e+000 61356 75037,75167,75063
 6.4000e+000 75239 -1.1812e+001 -5.3336e+001 -1.8663e-001 61356 75115,75167,75141
 6.4000e+000 75216 -1.6691e+001 -5.4709e+001 -5.2490e-001 61356 75063,75115,75089
 6.4000e+000 75193 -2.6905e+001 -4.6247e+001  2.3839e+000 61356 75011,75167,75037
 6.4000e+000 75631 -8.4458e+000 -4.2163e+001  3.7926e+000 60952 75654,75412,75360
 6.4000e+000 75608 -1.0030e+001 -4.8956e+001  1.2543e+000 60952 75654,75360,75334
 6.4000e+000 75585 -1.5782e+001 -6.6568e+001  5.5679e+000 60952 75726,75438,75412
 6.4000e+000 75562 -4.3390e+000 -4.5290e+001 -8.1620e+000 60952 75308,75490,75334
 6.4000e+000 75539 -9.8749e+000 -4.1293e+001  5.3787e-002 60952 75360,75412,75386
 6.4000e+000 75516 -1.9547e+001 -7.8786e+001 -3.8333e+000 60952 75438,75490,75464
 6.4000e+000 75680 -9.5460e+000 -5.2418e+001  4.3639e+000 60952 75726,75412,75654
 6.4000e+000 75703 -8.5410e+000 -4.8470e+001  8.6575e-001 60952 75490,75654,75334
 6.4000e+000 75752 -1.1879e+001 -5.0522e+001  1.3219e+000 60952 75490,75438,75726
 6.4000e+000 75775 -1.1959e+001 -4.9490e+001 -2.7480e-001 60952 75490,75726,75654
 6.4000e+000 76155 -1.4738e+001 -5.6328e+001 -1.5087e+000 60754 75933,75985,75959
 6.4000e+000 76132 -2.1554e+001 -6.0562e+001  6.3442e+000 60754 75933,76037,75985
 6.4000e+000 76109 -1.8770e+000 -5.5402e+001  8.1151e-001 60754 75985,76037,76011
 6.4000e+000 76086 -3.1952e+001 -5.2766e+001  6.8154e-001 60754 75881,76037,75933
 6.4000e+000 76063 -4.0233e+001 -5.3620e+001  8.7166e+000 60754 75881,75933,75907
 6.4000e+000 76612 -1.2971e+001 -6.0011e+001  4.7039e+000 60350 76635,76442,76390
 6.4000e+000 76589 -3.2567e-001 -6.9680e+001  7.4543e+000 60350 76635,76390,76364
 6.4000e+000 76566 -6.3070e+000 -9.3570e+001 -5.3505e+000 60350 76364,76494,76468
 6.4000e+000 76543 -1.2440e+000 -5.4802e+001  5.6782e+000 60350 76390,76442,76416
 6.4000e+000 76520 -3.9260e+001 -5.6209e+001 -1.5016e+001 60350 76338,76494,76364
 6.4000e+000 76661 -1.9799e+001 -6.6645e+001  7.6421e+000 60350 76468,76442,76635
 6.4000e+000 76684 -1.0494e+001 -7.7445e+001  1.1360e+001 60350 76468,76635,76364
 6.4000e+000 76932 -2.9620e+001 -6.2603e+001 -2.3448e+000 59946 76955,76733,76707
 6.4000e+000 76909 -3.1154e+001 -6.5858e+001 -9.0066e-001 59946 77027,76955,76707
 6.4000e+000 76886 -3.2372e+001 -6.7135e+001 -3.8925e-001 59946 77027,76707,76837
 6.4000e+000 76863 -1.5636e+001 -6.7627e+001 -9.6092e+000 59946 76733,76785,76759
 6.4000e+000 76981 -3.4068e+001 -6.4499e+001 -2.0688e+000 59946 76785,76733,76955
 6.4000e+000 77004 -3.1513e+001 -5.9816e+001 -1.0314e+000 59946 76785,76955,76811
 6.4000e+000 77053 -3.3244e+001 -6.3850e+001  1.0031e+000 59946 76811,76955,77027
 6.4000e+000 77076 -3.4991e+001 -6.6368e+001  1.7829e+000 59946 76811,77027,76837
 6.4000e+000 77226 -2.6628e+001 -7.3173e+001  2.1448e+000 59542 77099,77151,77125
 6.4000e+000 77203 -3.8813e+001 -9.6011e+001  7.1474e+000 59542 77099,77177,77151
 6.4000e+000 77427 -3.8414e+001 -7.9604e+001 -5.1225e+000 59030 77450,77277,77251
 6.4000e+000 77404 -2.6379e+001 -7.0247e+001 -2.1453e+001 59030 77450,77251,77355
 6.4000e+000 77381 -1.7491e+001 -9.1805e+001 -2.2906e+000 59030 77277,77329,77303
 6.4000e+000 77476 -2.2619e+001 -8.1340e+001 -1.2542e+001 59030 77329,77277,77450
 6.4000e+000 77499 -7.6370e+000 -7.7199e+001 -2.5615e+001 59030 77329,77450,77355
 6.4000e+000 77749 -3.2567e+001 -9.9810e+001  8.2883e+000 58426 77772,77628,77602
 6.4000e+000 77726 -1.8890e+001 -1.1156e+002  1.9530e+001 58426 77524,77654,77628
 6.4000e+000 77703 -2.7924e+001 -9.7675e+001  6.4908e+000 58426 77772,77602,77550
 6.4000e+000 77680 -2.1499e+001 -9.3600e+001 -2.9486e+000 58426 77550,77602,77576
 6.4000e+000 77798 -2.7038e+001 -1.0181e+002  7.5718e+000 58426 77524,77628,77772
 6.4000e+000 77821 -2.4190e+001 -1.0041e+002  5.4274e+000 58426 77524,77772,77550
 6.4000e+000 78071 -4.1600e+001 -8.9218e+001  1.0958e+001 57922 78094,77924,77898
 6.4000e+000 78048 -4.3692e+001 -7.7068e+001  1.9236e+000 57922 78094,77898,77872
 6.4000e+000 78025 -3.7320e+001 -6.8989e+001  8.0601e+000 57922 78166,77846,77950
 6.4000e+000 78002 -2.5620e+001 -6.7776e+001  8.9074e+000 57922 77846,77976,77950
 6.4000e+000 78120 -3.0556e+001 -7.8073e+001  6.1899e+000 57922 77950,77924,78094
 6.4000e+000 78143 -3.8386e+001 -7.0343e+001  6.2423e+000 57922 78166,77950,78094
 6.4000e+000 78192 -3.4886e+001 -7.2465e+001  5.3582e+000 57922 77872,77846,78166
 6.4000e+000 78215 -3.7938e+001 -7.6016e+001  3.2769e+000 57922 77872,78166,78094
 6.4000e+000 78416  5.8319e+000 -7.1292e+001 -3.6718e+000 57468 78439,78292,78240
 6.4000e+000 78393 -4.9504e+000 -6.9449e+001  1.1135e-002 57468 78439,78240,78344
 6.4000e+000 78370  1.0740e+000 -9.9524e+001 -2.0424e+000 57468 78240,78292,78266
 6.4000e+000 78465 -4.6981e+000 -7.6025e+001 -4.6388e+000 57468 78318,78292,78439
 6.4000e+000 78488 -9.1412e+000 -7.1058e+001 -3.1865e-001 57468 78318,78439,78344
 6.4000e+000 78689 -8.6564e+000 -8.3351e+001 -4.8307e+000 57014 78712,78539,78513
 6.4000e+000 78666 -1.5615e+001 -8.3048e+001 -3.3329e-001 57014 78712,78513,78617
 6.4000e+000 78643 -1.7484e+001 -7.9165e+001  7.9282e+000 57014 78565,78617,78591
 6.4000e+000 78738 -1.7433e+001 -7.5908e+001 -4.7978e+000 57014 78565,78539,78712
 6.4000e+000 78761 -2.7510e+001 -8.1696e+001  2.4549e+000 57014 78565,78712,78617
 6.4000e+000 79241 -2.8354e+001 -7.6062e+001  5.6966e+000 56652 79264,78895,78869
 6.4000e+000 79218 -1.3996e+001 -9.8402e+001 -6.1206e+000 56652 79264,78869,79051
 6.4000e+000 79195 -2.0788e+001 -8.6307e+001 -1.9803e+001 56652 78869,79077,79051
 6.4000e+000 79172 -2.3104e+001 -5.2965e+001 -8.8497e+000 56652 78895,78973,78947
 6.4000e+000 79149 -3.6782e+001 -1.5592e+002 -1.2539e+001 56652 78973,79051,78999
 6.4000e+000 79126 -1.8864e+001 -4.9423e+001 -1.0510e+001 56652 78895,78947,78921
 6.4000e+000 79103 -2.6168e+001 -9.9936e+001  2.2950e+001 56652 78999,79051,79025
 6.4000e+000 79290 -1.7235e+001 -6.2144e+001  1.3347e+001 56652 78973,78895,79264
 6.4000e+000 79313 -1.9162e+000 -8.6198e+001  2.2102e+000 56652 78973,79264,79051
 6.4000e+000 79512 -8.0851e+000 -1.1593e+002  8.3996e+000 56062 79388,79440,79414
 6.4000e+000 79489 -4.0284e+001 -5.8294e+001  1.5550e+001 56062 79336,79440,79388
 6.4000e+000 79466 -1.0253e+001 -9.5385e+001  1.6253e+001 56062 79336,79388,79362
 6.4000e+000 79941 -1.0254e+001 -4.8982e+001  1.1940e+001 55658 79964,79670,79644
 6.4000e+000 79918 -1.6797e+001 -5.1414e+001  1.3542e+001 55658 79964,79644,79800
 6.4000e+000 79895 -1.5830e+001 -5.2937e+001  8.0032e+000 55658 80036,79696,79670
 6.4000e+000 79872 -1.8518e+001 -4.4365e+001  2.6453e+000 55658 80108,79722,79696
 6.4000e+000 79849 -2.4693e+001 -3.4359e+001  1.0162e+001 55658 79722,79774,79748
 6.4000e+000 79826  2.5020e-001 -4.6084e+001  2.9139e+000 55658 79618,79800,79644
 6.4000e+000 79990 -1.7359e+001 -5.3261e+001  9.6791e+000 55658 80036,79670,79964
 6.4000e+000 80013 -1.4484e+001 -4.5150e+001  1.4352e+001 55658 79774,79964,79800
 6.4000e+000 80062 -1.3498e+001 -4.7768e+001  7.3653e+000 55658 80108,79696,80036
 6.4000e+000 80085 -1.7116e+001 -4.5980e+001  1.2314e+001 55658 79774,80036,79964
 6.4000e+000 80134 -2.8245e+001 -4.7964e+001  4.6935e+000 55658 79774,79722,80108
 6.4000e+000 80157 -2.5433e+001 -5.2697e+001  9.3545e+000 55658 79774,80108,80036
 6.4000e+000 80307 -4.7304e+001 -5.8743e+001  1.1010e+000 55254 80402,80330,80206
 6.4000e+000 80284 -4.5248e+001 -7.6750e+001  1.8590e+000 55254 80330,80180,80258
 6.4000e+000 80356 -5.2643e+001 -7.0642e+001  9.8729e+000 55254 80232,80206,80330
 6.4000e+000 80379 -2.4728e+001 -5.8037e+001  1.6163e+001 55254 80232,80330,80258
 6.4000e+000 80428 -5.7036e+001 -6.9616e+001 -3.3336e+000 55254 80180,80330,80402
 6.4000e+000 80659 -1.7723e+001 -9.1090e+001 -6.5370e+000 54850 80558,80610,80584
 6.4000e+000 80636 -1.1486e+001 -8.8251e+001 -5.7898e+000 54850 80532,80610,80558
 6.4000e+000 80760 -8.0064e+000 -4.5475e+001 -9.2317e-001 54652 80682,80734,80708
 6.4000e+000 81164 -6.8082e+000 -4.6790e+001  6.5859e-001 54248 81187,80942,80890
 6.4000e+000 81141 -7.9933e+000 -4.8019e+001  1.1538e+000 54248 81187,80890,81046
 6.4000e+000 81118 -1.0027e+001 -4.9071e+001  1.0716e+001 54248 80942,81020,80994
 6.4000e+000 81095 -6.5033e+000 -4.6810e+001  1.3768e+000 54248 80890,80942,80916
 6.4000e+000 81072 -1.1033e+001 -2.8461e+001  2.5665e+000 54248 80942,80994,80968
 6.4000e+000 81213 -8.1694e+000 -4.5796e+001  8.3605e-001 54248 81020,80942,81187
 6.4000e+000 81236 -8.9986e+000 -4.6562e+001  1.1611e+000 54248 81020,81187,81046
 6.4000e+000 81663 -4.3214e+001 -7.1274e+001  5.6703e+000 53594 81340,81444,81366
 6.4000e+000 81640 -4.1193e+001 -1.0714e+002  1.7055e+000 53594 81340,81470,81444
 6.4000e+000 81617 -3.1211e+001 -9.5842e+001 -1.4558e+001 53594 81340,81522,81470
 6.4000e+000 81594 -2.6695e+001 -5.0497e+001 -5.2944e+000 53594 81392,81444,81418
 6.4000e+000 81571 -3.1437e+001 -6.1372e+001 -8.2125e+000 53594 81366,81444,81392
 6.4000e+000 81548 -3.6859e+000 -1.2117e+002  4.3170e+000 53594 81470,81522,81496
 6.4000e+000 81943 -1.1097e+001 -4.2834e+001 -5.1292e+000 53104 81966,81845,81819
 6.4000e+000 81920 -1.8402e+001 -3.5073e+001 -7.6046e+000 53104 81966,81819,81767
 6.4000e+000 81897 -1.8980e+001 -3.6990e+001 -6.9198e+000 53104 81767,81819,81793
 6.4000e+000 81992 -6.2562e+000 -3.9325e+001 -7.8746e+000 53104 81871,81845,81966
 6.4000e+000 82015 -1.1185e+001 -2.8228e+001 -1.1886e+001 53104 81871,81966,81767
 6.4000e+000 82491 -1.5105e+001 -4.8813e+001 -7.8513e+000 52650 82145,82249,82171
 6.4000e+000 82468 -3.9354e+001 -5.8294e+001 -6.8012e+000 52650 82145,82301,82249
 6.4000e+000 82445 -4.2547e+001 -8.6772e+001 -1.2899e+001 52650 82249,82301,82275
 6.4000e+000 82422 -3.4821e+001 -1.1104e+002 -2.0702e+001 52650 82119,82301,82145
 6.4000e+000 82399 -1.5398e+001 -3.4801e+001  3.6180e+000 52650 82171,82249,82223
 6.4000e+000 82376 -8.0349e+000 -1.0073e+002 -8.7156e+000 52650 82119,82327,82301
 6.4000e+000 82353 -2.9882e+000 -1.7648e+001 -7.3427e+000 52650 82171,82223,82197
 6.4000e+000 82739 -2.0355e+001 -3.7442e+001 -1.7591e+000 52246 82762,82540,82514
 6.4000e+000 82716 -1.3679e+001 -2.0540e+001 -5.7098e+000 52246 82762,82514,82644
 6.4000e+000 82693 -2.5683e+001 -4.4935e+001  6.4057e+000 52246 82540,82618,82592
 6.4000e+000 82670 -2.6778e+001 -3.9703e+001  2.5608e+000 52246 82540,82592,82566
 6.4000e+000 82788 -1.4025e+001 -4.7936e+001  1.8623e+000 52246 82618,82540,82762
 6.4000e+000 82811 -1.3445e+001 -4.1500e+001 -2.9344e+000 52246 82618,82762,82644
 6.4000e+000 83059 -7.5828e+000 -5.9625e+001  4.8627e+000 51578 82860,82964,82938
 6.4000e+000 83036 -2.0199e+000 -4.3103e+001 -1.4238e+001 51578 82834,82964,82860
 6.4000e+000 83013 -5.0666e+000 -4.7101e+001  1.0760e+001 51578 82860,82938,82886
 6.4000e+000 82990 -3.4799e+000 -3.4119e+001  4.4071e+000 51578 82886,82938,82912
 6.4000e+000 83309 -1.3976e+001 -2.9819e+001  1.1335e+001 51138 83332,83162,83136
 6.4000e+000 83286 -5.3304e+000 -4.3157e+001  3.0039e+000 51138 83332,83136,83110
 6.4000e+000 83263 -1.6472e+001 -4.4349e+001 -1.0251e+000 51138 83404,83214,83188
 6.4000e+000 83240 -5.2109e-002 -2.4407e+001  1.4470e+000 51138 83084,83214,83110
 6.4000e+000 83358 -2.4364e+001 -4.6841e+001  1.7308e+001 51138 83188,83162,83332
 6.4000e+000 83381 -1.2182e+001 -5.0078e+001  4.1306e+000 51138 83404,83188,83332
 6.4000e+000 83430 -1.0262e+001 -2.9337e+001 -8.8210e-001 51138 83110,83214,83404
 6.4000e+000 83453 -7.8101e+000 -3.8503e+001  4.3326e+000 51138 83110,83404,83332
 6.4000e+000 83835 -1.6341e+001 -5.9888e+001 -1.1391e+000 50734 83613,83717,83691
 6.4000e+000 83812 -1.9316e+001 -6.8358e+001 -1.0020e+001 50734 83561,83717,83613
 6.4000e+000 83789 -1.3762e+001 -3.2620e+001 -1.6393e+001 50734 83561,83613,83587
 6.4000e+000 83766 -2.4769e+001 -4.2760e+001 -3.8489e-001 50734 83613,83691,83639
 6.4000e+000 83743 -2.6607e+001 -4.2925e+001  1.0989e+001 50734 83639,83691,83665
 6.4000e+000 84034 -1.5827e+001 -3.5101e+001  1.3363e+000 50230 84057,83884,83858
 6.4000e+000 84011 -1.4887e+001 -3.5162e+001 -2.3934e+000 50230 84129,84057,83858
 6.4000e+000 83988 -4.5193e+000 -3.6930e+001 -5.1266e+000 50230 84129,83858,83962
 6.4000e+000 84083 -1.4747e+001 -3.2784e+001 -3.7140e+000 50230 83910,83884,84057
 6.4000e+000 84106 -1.1281e+001 -2.7689e+001 -1.5395e+000 50230 83910,84057,83936
 6.4000e+000 84155 -1.0446e+000 -3.0596e+001  8.7179e-002 50230 83936,84057,84129
 6.4000e+000 84178  3.0369e+000 -3.6896e+001 -3.8988e+000 50230 83936,84129,83962
 6.4000e+000 84558 -2.2119e+001 -4.9847e+001 -7.2381e+000 49768 84581,84388,84362
 6.4000e+000 84535 -4.0304e+001 -5.1931e+001 -3.4982e+000 49768 84581,84362,84310
 6.4000e+000 84512 -3.0375e+000 -5.7903e+001 -8.8146e+000 49768 84653,84440,84414
 6.4000e+000 84489 -3.3283e+001 -5.8802e+001  4.0043e+000 49768 84310,84362,84336
 6.4000e+000 84466 -5.3375e+000 -4.5334e+001  3.5272e+000 49768 84284,84440,84310
 6.4000e+000 84607 -1.0197e+001 -4.4933e+001 -1.2827e+001 49768 84414,84388,84581
 6.4000e+000 84630 -1.0404e+001 -5.2452e+001 -6.2228e+000 49768 84653,84414,84581
 6.4000e+000 84679 -1.3024e+001 -5.5924e+001 -1.2209e+001 49768 84310,84440,84653
 6.4000e+000 84702 -2.4404e+001 -5.5233e+001 -1.2755e+001 49768 84310,84653,84581
 6.4000e+000 85159 -3.5044e+001 -6.5207e+001 -1.5966e+001 49192 84885,84937,84911
 6.4000e+000 85136 -2.9056e+001 -4.1190e+001 -1.3352e+001 49192 84885,85041,84937
 6.4000e+000 85113 -1.8878e+001 -3.4743e+001 -6.5827e+000 49192 84963,85041,84989
 6.4000e+000 85090 -1.7392e+001 -3.1845e+001 -7.7903e+000 49192 84937,85041,84963
 6.4000e+000 85067 -1.5396e+001 -3.1298e+001 -8.8574e+000 49192 84989,85041,85015
 6.4000e+000 85714 -3.1558e+001 -4.3703e+001  1.5064e+000 48638 85368,85498,85394
 6.4000e+000 85691 -3.8993e+001 -5.2323e+001  4.7685e+000 48638 85368,85524,85498
 6.4000e+000 85668 -4.0046e+001 -4.4307e+001  1.6426e+001 48638 85737,85420,85394
 6.4000e+000 85645 -3.1613e+001 -4.8754e+001  8.1961e+000 48638 85737,85394,85498
 6.4000e+000 85622 -2.3364e+001 -4.8027e+001  1.1930e+001 48638 85446,85498,85472
 6.4000e+000 85599 -1.0509e+001 -4.0950e+001  5.9458e+000 48638 85342,85524,85368
 6.4000e+000 85576 -3.7688e+001 -5.0201e+001  7.8212e+000 48638 85342,85550,85524
 6.4000e+000 85763 -2.6486e+001 -3.7829e+001  1.9275e+001 48638 85446,85420,85737
 6.4000e+000 85786 -2.6218e+001 -4.4497e+001  1.0388e+001 48638 85446,85737,85498
 6.4000e+000 86371 -2.7387e+001 -3.0276e+001 -1.4682e+000 48084 86100,86230,86178
 6.4000e+000 86348 -3.4695e+001 -4.5430e+001 -5.5522e+000 48084 86048,86230,86100
 6.4000e+000 86325 -2.3403e+001 -2.6142e+001  8.9665e+000 48084 86100,86178,86126
 6.4000e+000 86302 -2.0550e+001 -1.2201e+001 -9.7746e+000 48084 86048,86100,86074
 6.4000e+000 86279 -3.3490e+001 -5.5289e+001 -1.0503e+000 48084 86178,86230,86204
 6.4000e+000 86256 -1.9322e+001 -2.3659e+001  1.0339e+001 48084 86126,86178,86152
 6.4000e+000 86619 -1.5836e+001 -3.3253e+001  2.6543e+000 47630 86642,86446,86420
 6.4000e+000 86596 -1.6999e+001 -3.6985e+001 -6.5652e+000 47630 86642,86420,86394
 6.4000e+000 86573 -2.7074e+001 -4.1771e+001 -6.5333e+000 47630 86394,86524,86498
 6.4000e+000 86550 -1.2285e+001 -3.9924e+001  4.0113e+000 47630 86446,86498,86472
 6.4000e+000 86668 -2.0390e+001 -4.3734e+001  1.6384e+000 47630 86498,86446,86642
 6.4000e+000 86691 -2.0076e+001 -4.4366e+001 -7.4625e+000 47630 86498,86642,86394
 6.4000e+000 87022 -4.1469e+000 -1.9289e+001 -1.2852e+001 47226 87045,86875,86849
 6.4000e+000 86999 -4.0737e+000 -2.4997e+001 -1.2490e+001 47226 87045,86849,86797
 6.4000e+000 86976 -9.6122e-001 -8.9182e+000 -5.7629e+000 47226 86797,86849,86823
 6.4000e+000 86953 -1.7609e+000 -1.6544e+001 -9.4760e+000 47226 86875,86927,86901
 6.4000e+000 87071 -5.3963e+000 -2.4391e+001 -1.2163e+001 47226 86927,86875,87045
 6.4000e+000 87094 -3.8680e+000 -2.8197e+001 -1.2030e+001 47226 86927,87045,86797
 6.4000e+000 87244 -5.5686e+000 -5.1887e+001  1.6789e+001 46814 87267,87169,87143
 6.4000e+000 87221 -2.9255e+001 -4.8348e+001 -1.4973e+000 46814 87267,87143,87117
 6.4000e+000 87293 -2.8265e+000 -3.9315e+001  9.5404e+000 46814 87339,87267,87195
 6.4000e+000 87316  7.0971e-001 -3.5504e+001 -7.7029e-001 46814 87469,87267,87117
 6.4000e+000 87365 -8.6590e+000 -3.9274e+001  1.4753e+001 46814 87169,87267,87339
 6.4000e+000 87495 -2.8005e-001  1.2635e-001 -1.6974e+000 46814 87195,87267,87469
 6.4000e+000 88001 -1.4241e+001 -2.6737e+001  1.2334e+001 46310 88024,87834,87808
 6.4000e+000 87978 -1.9691e+001 -2.7988e+001  6.3518e+000 46310 88024,87808,87756
 6.4000e+000 87955 -1.0807e+001 -4.0391e+001  3.0583e+000 46310 88096,87730,87860
 6.4000e+000 87932 -1.2407e+001 -3.8483e+001  7.3792e+000 46310 87756,87808,87782
 6.4000e+000 87909 -1.3745e+001 -4.2930e+001  1.4113e+000 46310 87678,87860,87730
 6.4000e+000 87886 -1.9880e+001 -7.8050e+001 -6.0917e+000 46310 87678,87730,87704
 6.4000e+000 88050 -1.4177e+001 -2.7217e+001  7.8357e+000 46310 87860,87834,88024
 6.4000e+000 88073 -1.0982e+001 -2.6350e+001  7.3807e+000 46310 88096,87860,88024
 6.4000e+000 88122 -1.3727e+001 -4.7109e+001 -1.8038e+000 46310 87756,87730,88096
 6.4000e+000 88145 -2.2540e+001 -4.1628e+001  6.1803e-001 46310 87756,88096,88024
 6.4000e+000 88572 -1.3351e+001 -4.6477e+001  4.5634e+000 45856 88249,88405,88275
 6.4000e+000 88549 -8.7596e+000 -1.4650e+001 -7.7702e+000 45856 88249,88431,88405
 6.4000e+000 88526 -2.9266e+001 -6.9749e+001 -9.6388e+000 45856 88327,88405,88353
 6.4000e+000 88503 -1.2101e+001 -5.7193e+001 -3.1218e+000 45856 88275,88405,88327
 6.4000e+000 88480 -2.5028e+001 -6.4903e+001 -1.5661e+001 45856 88353,88405,88379
 6.4000e+000 88457 -4.9191e+001 -1.3508e+002  1.1556e+001 45856 88275,88327,88301
 6.4000e+000 88950 -7.3081e+000 -2.6685e+001  2.2885e-001 45658 88973,88754,88728
 6.4000e+000 88927 -5.5307e+000 -2.1680e+001  1.4285e+000 45658 88973,88728,88676
 6.4000e+000 88904 -1.2008e+001 -2.5984e+001  1.3297e+001 45658 88676,88832,88806
 6.4000e+000 88881 -1.2416e+001 -3.4892e+001  6.0904e+000 45658 88676,88728,88702
 6.4000e+000 88858 -1.4275e+001 -2.3800e+001 -8.2017e+000 45658 88754,88806,88780
 6.4000e+000 88999 -7.7502e+000 -2.1639e+001  7.6886e-001 45658 88806,88754,88973
 6.4000e+000 89022 -7.6843e+000 -1.8797e+001  1.7414e+000 45658 88806,88973,88676
 6.4000e+000 89351 -1.5388e+001 -4.8612e+001 -1.9423e+000 45254 89152,89230,89204
 6.4000e+000 89328 -1.9106e+001 -5.0470e+001 -2.9595e+000 45254 89152,89256,89230
 6.4000e+000 89305 -9.6623e+000 -5.3079e+001 -6.8607e+000 45254 89126,89256,89152
 6.4000e+000 89282 -6.7150e+000 -4.7044e+001 -5.6814e+000 45254 89152,89204,89178
 6.4000e+000 89523 -1.4985e+000 -2.0556e+001 -4.6730e-002 45006 89422,89474,89448
 6.4000e+000 89500  8.0273e-001 -1.9603e+001  1.7827e+000 45006 89396,89474,89422
 6.4000e+000 89673 -3.9034e+001 -6.6724e+001  5.7676e+000 44495 89572,89624,89598
 6.4000e+000 89650 -4.0934e+001 -7.0892e+001  5.2922e+000 44495 89546,89624,89572
 6.4000e+000 90104 -5.3404e+000 -5.4717e+001 -4.7371e+000 44005 90199,90127,89937
 6.4000e+000 90081 -1.1096e+001 -5.1518e+001 -1.7203e-001 44005 90271,90127,89859
 6.4000e+000 90058 -3.1998e+000 -5.4946e+001 -4.5980e+000 44005 90199,89937,89885
 6.4000e+000 90035 -1.5224e+001 -4.6502e+001  2.3187e+000 44005 90271,89859,89807
 6.4000e+000 90012 -8.0463e+000 -6.1085e+001 -6.9847e+000 44005 89885,89937,89911
 6.4000e+000 89989 -4.6705e+000 -4.9345e+001  7.6115e+000 44005 89807,89859,89833
 6.4000e+000 90153 -1.2225e+001 -5.7472e+001 -4.4246e+000 44005 89963,89937,90127
 6.4000e+000 90176 -1.3798e+001 -6.4416e+001  2.9918e-001 44005 89963,90127,89781
 6.4000e+000 90225 -1.2934e+001 -5.2377e+001 -3.2289e+000 44005 89859,90127,90199
 6.4000e+000 90248 -6.5344e+000 -4.9314e+001 -1.4991e+000 44005 89859,90199,89885
 6.4000e+000 90297 -1.6262e+001 -5.6903e+001 -3.2724e+000 44005 89781,90127,90271
 6.4000e+000 90320 -1.8493e+001 -5.1069e+001 -2.0564e-001 44005 89781,90271,89807
 6.4000e+000 90470 -7.3655e+000 -4.8669e+001 -9.5316e-001 43601 90493,90369,90343
 6.4000e+000 90447 -1.3591e+001 -3.8210e+001  4.2494e+000 43601 90493,90343,90421
 6.4000e+000 90519 -1.6882e+001 -6.7532e+001 -7.5806e+000 43601 90395,90369,90493
 6.4000e+000 90542 -1.3587e+001 -4.5795e+001 -9.0374e-001 43601 90395,90493,90421
 6.4000e+000 90922 -1.6538e+001 -5.5079e+001  3.2177e+000 43154 90945,90700,90674
 6.4000e+000 90899 -1.3658e+001 -5.5997e+001 -7.2435e+000 43154 90945,90674,90648
 6.4000e+000 90876 -1.7799e+001 -4.3040e+001 -4.4586e+000 43154 90648,90778,90752
 6.4000e+000 90853 -8.6253e+000 -8.7270e+001  3.6073e+000 43154 90700,90752,90726
 6.4000e+000 90830 -1.2650e+001 -4.3197e+001 -2.7664e+000 43154 90648,90804,90778
 6.4000e+000 90971 -1.9401e+001 -6.4351e+001  5.4129e+000 43154 90752,90700,90945
 6.4000e+000 90994 -1.5991e+001 -6.1752e+001 -4.7769e+000 43154 90752,90945,90648
 6.4000e+000 91451 -7.3344e+000 -5.0288e+001 -9.6687e+000 42650 91203,91255,91229
 6.4000e+000 91428  1.4882e-001 -4.7054e+001 -4.0293e+000 42650 91203,91333,91255
 6.4000e+000 91405 -4.8283e+000 -7.3300e+001 -1.1727e+001 42650 91177,91333,91203
 6.4000e+000 91382 -2.6045e+001 -8.0010e+001  9.3504e+000 42650 91255,91333,91281
 6.4000e+000 91359 -4.1362e+000 -6.6273e+001  3.0167e+000 42650 91281,91333,91307
 6.4000e+000 91721 -3.5496e+001 -7.0974e+001  5.8278e+000 42288 91496,91600,91522
 6.4000e+000 91698 -2.1562e+001 -4.3652e+001 -2.3742e+000 42288 91496,91626,91600
 6.4000e+000 91675 -1.9668e+001 -6.2808e+001  6.5116e+000 42288 91522,91574,91548
 6.4000e+000 91652 -1.7413e+001 -6.3782e+001  6.3211e+000 42288 91522,91600,91574
 6.4000e+000 92199 -5.2985e+001 -7.8295e+001 -1.7144e+000 41898 92222,91983,91879
 6.4000e+000 92176 -5.3946e+001 -8.8810e+001 -5.8855e+000 41898 92294,92222,91879
 6.4000e+000 92153 -5.7139e+001 -8.7836e+001 -8.1701e+000 41898 92294,91879,91853
 6.4000e+000 92130 -4.6403e+001 -4.5043e+001  6.5284e+000 41898 91879,91957,91931
 6.4000e+000 92107 -4.6930e+001 -7.5934e+001  7.0406e-002 41898 91879,91983,91957
 6.4000e+000 92084 -5.4578e+001 -4.5441e+001  1.4100e+001 41898 91879,91931,91905
 6.4000e+000 92061 -5.1318e+001 -8.2099e+001 -7.2430e+000 41898 91827,92035,91853
 6.4000e+000 92248 -5.2783e+001 -9.1647e+001  1.1929e+000 41898 92009,91983,92222
 6.4000e+000 92271 -5.0738e+001 -9.3740e+001 -7.8841e+000 41898 92009,92222,92035
 6.4000e+000 92320 -4.8711e+001 -8.7035e+001 -5.9484e+000 41898 92035,92222,92294
 6.4000e+000 92343 -5.1011e+001 -8.5471e+001 -8.0626e+000 41898 92035,92294,91853
 6.4000e+000 92770 -1.1417e+001 -6.1885e+001 -5.2232e+000 41437 92865,92793,92525
 6.4000e+000 92747 -1.6870e+001 -6.9311e+001 -6.9102e+000 41437 92793,92473,92629
 6.4000e+000 92724 -2.9473e+000 -6.5069e+001 -9.8341e+000 41437 92865,92525,92499
 6.4000e+000 92701 -2.3942e+001 -5.1573e+001 -1.2283e+001 41437 92525,92603,92577
 6.4000e+000 92678  1.4821e+000 -6.7404e+001 -6.2704e+000 41437 92447,92629,92473
 6.4000e+000 92655 -3.1741e+001 -4.5917e+001 -8.5261e+000 41437 92525,92577,92551
 6.4000e+000 92819 -1.2672e+001 -6.4759e+001 -1.1113e+001 41437 92603,92525,92793
 6.4000e+000 92842 -2.8879e+001 -7.0478e+001 -1.9642e+001 41437 92603,92793,92629
 6.4000e+000 92891  4.3864e+000 -6.5538e+001 -5.7057e+000 41437 92473,92793,92865
 6.4000e+000 92914  1.6039e+001 -6.4676e+001 -1.2143e+001 41437 92473,92865,92499
 6.4000e+000 93243 -1.4663e+001 -9.8009e+001  3.4403e+001 41097 93044,93096,93070
 6.4000e+000 93220 -2.4019e+001 -9.0892e+001  1.8455e+001 41097 93044,93122,93096
 6.4000e+000 93197  2.9980e+000 -5.9874e+001  5.9886e+000 41097 93044,93148,93122
 6.4000e+000 93174 -1.6103e+001 -4.3660e+001  1.7784e+001 41097 93018,93148,93044
 6.4000e+000 93393 -1.7854e+000 -7.4760e+001  4.2597e+000 40643 93416,93292,93344
 6.4000e+000 93370 -2.3423e+000 -6.8606e+001  5.2502e+000 40643 93266,93344,93292
 6.4000e+000 93442 -3.4832e+000 -7.2998e+001  7.9048e+000 40643 93318,93292,93416
 6.4000e+000 93901 -2.0979e+001 -6.4517e+001 -5.6843e+000 40132 93924,93731,93705
 6.4000e+000 93878 -2.1192e+001 -6.3573e+001 -5.6663e+000 40132 93996,93924,93705
 6.4000e+000 93855 -2.4604e+001 -7.1918e+001 -2.7660e+000 40132 93996,93705,93653
 6.4000e+000 93832 -6.2045e+000 -7.2135e+001 -4.6794e+000 40132 93653,93705,93679
 6.4000e+000 93809 -1.9734e+001 -5.7574e+001 -1.4914e+000 40132 93627,93783,93757
 6.4000e+000 93950 -2.0535e+001 -6.5423e+001 -6.0219e+000 40132 93757,93731,93924
 6.4000e+000 93973 -2.2084e+001 -5.7264e+001 -1.8305e+000 40132 93757,93924,93627
 6.4000e+000 94022 -2.7814e+001 -6.8958e+001  2.4563e-001 40132 93627,93924,93996
 6.4000e+000 94045 -2.5797e+001 -7.1793e+001  2.3949e+000 40132 93627,93996,93653
 6.4000e+000 94423 -1.0832e+001 -8.4839e+001 -1.0294e+001 39514 94149,94227,94175
 6.4000e+000 94400 -1.2426e+001 -7.6704e+001  7.6607e+000 39514 94149,94305,94227
 6.4000e+000 94377 -1.6441e+000 -9.4318e+001 -1.1221e+001 39514 94175,94227,94201
 6.4000e+000 94354 -2.4968e+001 -7.2384e+001  3.5879e+000 39514 94227,94305,94279
 6.4000e+000 94331 -1.1679e+001 -6.6223e+001  6.5306e+000 39514 94227,94279,94253
 6.4000e+000 94573 -6.7026e+000 -4.3841e+001 -6.2553e+000 38822 94596,94498,94472
 6.4000e+000 94550  7.9085e+000 -4.4328e+001  1.1838e+001 38822 94596,94472,94446
 6.4000e+000 94622 -2.3271e+001 -5.0693e+001 -9.6333e+000 38822 94524,94498,94596
 6.4000e+000 94645 -1.8494e+001 -5.4096e+001  1.0186e+001 38822 94524,94596,94446
 6.4000e+000 95025 -6.9443e+000 -5.1601e+001 -4.7575e+000 38418 95048,94829,94777
 6.4000e+000 95002 -5.3988e+000 -5.2749e+001 -6.7824e+000 38418 95120,95048,94777
 6.4000e+000 94979 -2.6413e+000 -5.5495e+001 -6.3604e+000 38418 95120,94777,94751
 6.4000e+000 94956 -2.6183e+000 -5.1246e+001 -6.8632e+000 38418 95192,94881,94855
 6.4000e+000 94933 -1.5854e+001 -3.9331e+001 -5.3332e+000 38418 94777,94829,94803
 6.4000e+000 95074 -1.0276e+001 -6.4002e+001 -1.3925e+000 38418 94855,94829,95048
 6.4000e+000 95097 -4.1784e+000 -5.3487e+001 -6.0066e+000 38418 95192,94855,95048
 6.4000e+000 95146 -1.0840e+001 -5.4266e+001 -4.8371e+000 38418 94907,95048,95120
 6.4000e+000 95169 -6.1402e+000 -5.5750e+001 -4.0454e+000 38418 94907,95120,94751
 6.4000e+000 95218 -5.2672e+000 -4.4507e+001 -6.8328e+000 38418 94907,94881,95192
 6.4000e+000 95241 -9.1541e+000 -4.9733e+001 -5.0076e+000 38418 94907,95192,95048
 6.4000e+000 95511 -2.0500e+001 -5.6042e+001  4.2505e+000 38049 95312,95390,95364
 6.4000e+000 95488 -9.2388e+000 -5.1376e+001  4.3694e+000 38049 95312,95416,95390
 6.4000e+000 95465 -7.0151e+000 -6.2557e+001 -3.3618e+000 38049 95312,95364,95338
 6.4000e+000 95442 -5.8216e+000 -4.4313e+001  6.4617e+000 38049 95286,95416,95312
 6.4000e+000 95808 -1.9667e+001 -7.0860e+001 -2.8125e+000 37437 95831,95586,95560
 6.4000e+000 95785  3.9611e+000 -7.2104e+001 -3.1319e+000 37437 95831,95560,95534
 6.4000e+000 95762 -3.5632e+001 -6.4390e+001  3.5309e+000 37437 95586,95664,95638
 6.4000e+000 95739 -6.9903e+000 -3.5373e+001 -1.5455e+001 37437 95534,95690,95664
 6.4000e+000 95716 -3.6411e+001 -4.3313e+001  1.2850e+000 37437 95586,95638,95612
 6.4000e+000 95857 -3.5245e+001 -6.6803e+001  7.0214e+000 37437 95664,95586,95831
 6.4000e+000 95880 -1.0402e+001 -6.7424e+001  7.1019e+000 37437 95664,95831,95534
 6.4000e+000 96390 -2.9248e+001 -5.5333e+001 -5.0071e+000 36883 96413,96145,96093
 6.4000e+000 96367 -2.5194e+001 -5.2895e+001 -2.1512e+000 36883 96413,96093,96067
 6.4000e+000 96344 -1.8367e+001 -6.8465e+001 -1.1942e+000 36883 96067,96249,96171
 6.4000e+000 96321 -2.4862e+001 -6.4305e+001 -2.9718e+000 36883 96093,96145,96119
 6.4000e+000 96298 -3.4011e+001 -1.0863e+002  9.0325e+000 36883 96171,96249,96197
 6.4000e+000 96275 -8.3237e+000 -8.8597e+001 -7.5811e-001 36883 96197,96249,96223
 6.4000e+000 96439 -2.6987e+001 -5.1142e+001 -1.7811e+000 36883 96171,96145,96413
 6.4000e+000 96462 -2.4320e+001 -5.1534e+001  7.3856e-001 36883 96171,96413,96067
 6.4000e+000 96781 -2.0417e+001 -6.3396e+001 -9.7238e+000 36215 96559,96663,96637
 6.4000e+000 96758 -2.5760e+001 -6.6411e+001 -1.1091e+001 36215 96507,96663,96559
 6.4000e+000 96735 -2.4902e+001 -4.1030e+001  5.1668e+000 36215 96585,96637,96611
 6.4000e+000 96712 -5.6074e+001 -7.3589e+001 -8.9235e+000 36215 96559,96637,96585
 6.4000e+000 96689 -1.1609e+001 -7.1089e+001 -3.1623e+000 36215 96507,96559,96533
 6.4000e+000 97161  4.2717e-001 -3.0870e+001 -9.5650e-001 35818 97184,96965,96939
 6.4000e+000 97138 -4.1323e+000 -3.4841e+001 -3.6138e+000 35818 97184,96939,96887
 6.4000e+000 97115 -4.6914e+000 -4.2201e+001  9.1930e+000 35818 96965,97043,97017
 6.4000e+000 97092 -2.5322e+000 -3.1740e+001 -4.2278e+000 35818 96887,96939,96913
 6.4000e+000 97069 -2.5884e+001 -4.3926e+001  5.9341e+000 35818 96965,97017,96991
 6.4000e+000 97210  5.4745e+000 -3.4437e+001  1.5606e+000 35818 97043,96965,97184
 6.4000e+000 97233  1.5219e+000 -3.7078e+001 -6.9018e-001 35818 97043,97184,96887
 6.4000e+000 97739 -1.9825e+001 -6.0145e+001 -2.0067e+001 35214 97416,97468,97442
 6.4000e+000 97716 -2.4935e+001 -4.0346e+001 -7.7661e+000 35214 97416,97598,97468
 6.4000e+000 97693 -1.9499e+001 -3.5410e+001 -4.1944e+000 35214 97762,97520,97468
 6.4000e+000 97670 -1.9975e+001 -3.6204e+001 -5.4657e+000 35214 97762,97468,97598
 6.4000e+000 97647 -1.6697e+001 -3.2916e+001 -8.0425e+000 35214 97546,97598,97572
 6.4000e+000 97624 -1.5026e+001 -3.6574e+001 -4.4787e+000 35214 97468,97520,97494
 6.4000e+000 97788 -2.0022e+001 -3.6943e+001 -4.7417e+000 35214 97546,97520,97762
 6.4000e+000 97811 -2.0159e+001 -3.7565e+001 -5.9247e+000 35214 97546,97762,97598
 6.4000e+000 98189 -2.8647e-001 -1.9148e+001 -4.9999e+000 34760 98356,98212,97967
 6.4000e+000 98166 -1.3586e+000 -2.5587e+001 -8.7314e+000 34760 98284,98212,97941
 6.4000e+000 98143 -5.6016e+000 -2.2583e+001 -6.4355e+000 34760 98284,97941,97915
 6.4000e+000 98120  4.6451e-002 -2.7997e+001 -1.8080e+000 34760 98484,97993,97967
 6.4000e+000 98097  3.9875e-001 -2.5204e+001 -1.1022e+000 34760 98556,98045,98019
 6.4000e+000 98238 -2.0387e+000 -2.6509e+001 -2.0996e+000 34760 98484,97967,98212
 6.4000e+000 98261  3.3605e+000 -2.6150e+001 -2.6087e+000 34760 98556,98019,98212
 6.4000e+000 98310  1.2619e+000 -1.9482e+001 -9.6352e+000 34760 98071,98212,98284
 6.4000e+000 98333 -4.6127e-001 -1.1794e+001 -7.9452e+000 34760 98071,98284,97915
 6.4000e+000 98382 -2.4581e+001 -3.3751e+001 -1.1819e+001 34760 97941,98212,98356
 6.4000e+000 98510  4.1531e+000 -2.7386e+001 -2.8968e+000 34760 98019,97993,98484
 6.4000e+000 98533  4.9667e-001 -2.7134e+001 -3.1832e+000 34760 98019,98484,98212
 6.4000e+000 98582  4.1178e+000 -2.3680e+001 -5.2738e-001 34760 98071,98045,98556
 6.4000e+000 98605  5.4124e+000 -2.5671e+001 -2.3099e+000 34760 98071,98556,98212
 6.4000e+000 99032 -2.5907e+001 -5.1936e+001  9.2204e+000 34156 98735,98891,98839
 6.4000e+000 99009 -2.3262e+001 -5.4125e+001  4.9765e+000 34156 98709,98891,98735
 6.4000e+000 98986 -9.7776e+000 -4.8654e+001  8.4351e+000 34156 98735,98813,98787
 6.4000e+000 98963 -1.1186e+001 -5.2306e+001  8.1812e+000 34156 98735,98839,98813
 6.4000e+000 98940  6.9199e-001 -7.2846e+001  9.5636e+000 34156 98735,98787,98761
 6.4000e+000 98917 -2.4460e+001 -4.8480e+001  8.9124e+000 34156 98839,98891,98865
 6.4000e+000 99231 -5.4886e+000 -2.3774e+001  3.4587e+000 33766 99055,99133,99107
 6.4000e+000 99208 -1.0959e+001 -3.0190e+001  5.7890e+000 33766 99055,99159,99133
 6.4000e+000 99185 -4.6189e+000 -3.7250e+001  7.4781e+000 33766 99055,99107,99081
 6.4000e+000 99818 -9.8884e+000 -2.9616e+001  1.6393e+000 33248 99521,99651,99573
 6.4000e+000 99795 -6.2102e+000 -2.6234e+001  4.9685e+000 33248 99521,99677,99651
 6.4000e+000 99772 -1.5221e+001 -3.7735e+001 -7.2964e-001 33248 99573,99651,99599
 6.4000e+000 99749 -8.1187e+000 -3.8475e+001  4.8460e+000 33248 99495,99677,99521
 6.4000e+000 99726 -8.2713e+000 -3.4410e+001 -5.5259e+000 33248 99599,99651,99625
 6.4000e+000 99703 -1.2016e+001 -3.4792e+001  2.8669e+000 33248 99521,99573,99547
 6.4000e+000 100196 -1.6163e+001 -4.1398e+001 -7.9369e+000 32794 100219,99948,99922
 6.4000e+000 100173 -1.7671e+001 -4.4040e+001 -2.1463e+000 32794 100219,99922,100052
 6.4000e+000 100150 -2.0521e+001 -3.4685e+001  4.0418e+000 32794 99974,100052,100026
 6.4000e+000 100127 -2.0887e+001 -4.0637e+001 -2.9395e+000 32794 99922,100078,100052
 6.4000e+000 100104 -1.7419e+001 -4.4303e+001  1.2640e+001 32794 99974,100026,100000
 6.4000e+000 100245 -2.2796e+001 -4.2755e+001 -5.7225e+000 32794 99974,99948,100219
 6.4000e+000 100268 -2.2133e+001 -4.5493e+001  2.7493e-001 32794 99974,100219,100052
 6.4000e+000 100418 -4.8038e+000 -4.2861e+001 -5.4400e+000 32504 100571,100343,100317
 6.4000e+000 100395 -2.2007e+001 -5.0640e+001  4.8651e+000 32504 100571,100317,100441
 6.4000e+000 100467  1.2238e+001 -2.2116e+001 -1.5453e+001 32504 100291,100369,100441
 6.4000e+000 100597  2.6973e+000 -3.5204e+001 -1.9416e+001 32504 100369,100343,100571
 6.4000e+000 100620 -5.2106e+000 -3.2780e+001 -1.0506e+001 32504 100369,100571,100441
 6.4000e+000 101020 -1.9508e-001 -1.8515e+001  1.5064e+000 32142 100772,100902,100876
 6.4000e+000 100997 -3.2208e-001 -2.4853e+000  4.0075e-001 32142 100746,100902,100772
 6.4000e+000 100974  2.2964e+000 -2.7966e+001  6.4130e+000 32142 101043,100824,100798
 6.4000e+000 100951 -1.7035e+000 -3.0692e+001  5.2253e+000 32142 101043,100798,100772
 6.4000e+000 100928 -2.1530e+001 -3.8693e+001 -1.3710e+001 32142 101115,100876,100850
 6.4000e+000 101069  8.2475e+000 -3.2758e+001 -1.4687e+000 32142 100850,100824,101043
 6.4000e+000 101092 -9.3444e+000 -4.1942e+001 -4.8999e+000 32142 101115,100850,101043
 6.4000e+000 101141 -6.1560e+000 -2.6780e+001 -5.5564e+000 32142 100772,100876,101115
 6.4000e+000 101164  4.0426e+000 -2.8670e+001  3.7888e+000 32142 100772,101115,101043
 6.4000e+000 101719 -2.5657e+001 -5.6761e+001  8.0603e+000 31538 101742,101477,101399
 6.4000e+000 101696 -2.9505e+001 -6.7753e+001  2.7524e+000 31538 101814,101742,101399
 6.4000e+000 101673 -3.2531e+001 -5.7505e+001 -2.7298e+000 31538 101814,101399,101373
 6.4000e+000 101650 -2.6844e+001 -3.9833e+001  6.5979e+000 31538 101425,101477,101451
 6.4000e+000 101627 -2.3897e+001 -4.8161e+001  2.0311e+000 31538 101399,101477,101425
 6.4000e+000 101604 -1.5323e+001 -7.1676e+001  1.4208e+001 31538 101477,101529,101503
 6.4000e+000 101581 -8.2989e+000 -3.4909e+001 -1.1593e+000 31538 101347,101555,101373
 6.4000e+000 101768 -2.8058e+001 -6.8526e+001  7.3680e+000 31538 101529,101477,101742
 6.4000e+000 101791 -2.6789e+001 -7.1536e+001 -3.3229e+000 31538 101529,101742,101555
 6.4000e+000 101840 -2.1290e+001 -5.7054e+001 -2.3812e+000 31538 101555,101742,101814
 6.4000e+000 101863 -2.6256e+001 -4.8766e+001 -7.4530e+000 31538 101555,101814,101373
 6.4000e+000 102111 -4.1593e+001 -9.6844e+001  1.4034e+001 31112 101886,101990,101912
 6.4000e+000 102088 -1.6776e+001 -6.0269e+001  9.2381e-002 31112 101886,102016,101990
 6.4000e+000 102065 -1.9685e+001 -8.9878e+001  1.5865e+001 31112 101912,101990,101964
 6.4000e+000 102042 -2.4996e+001 -1.0205e+002  1.7627e+001 31112 101912,101964,101938
 6.4000e+000 102408 -1.1971e+001 -5.2506e+001  4.8690e+000 30658 102431,102186,102160
 6.4000e+000 102385 -2.0535e+001 -5.1485e+001  4.1947e-001 30658 102431,102160,102264
 6.4000e+000 102362 -1.9563e+001 -5.6869e+001  2.1954e+000 30658 102186,102238,102212
 6.4000e+000 102339 -2.2736e+001 -5.6044e+001 -4.2536e+000 30658 102134,102264,102160
 6.4000e+000 102316 -1.5520e+001 -4.6353e+001 -1.7112e+001 30658 102134,102290,102264
 6.4000e+000 102457 -1.8754e+001 -5.5968e+001  2.9005e+000 30658 102238,102186,102431
 6.4000e+000 102480 -2.7940e+001 -5.5855e+001 -1.9126e+000 30658 102238,102431,102264
 6.4000e+000 102681 -7.6260e+000 -5.8963e+001  7.7551e+000 30004 102704,102557,102505
 6.4000e+000 102658 -7.2026e+000 -6.3052e+001  9.5748e+000 30004 102704,102505,102609
 6.4000e+000 102635  1.0994e+000 -4.5626e+001  2.2177e+000 30004 102505,102557,102531
 6.4000e+000 102730 -8.2385e+000 -5.5063e+001  7.0199e+000 30004 102583,102557,102704
 6.4000e+000 102753 -8.3457e+000 -5.8418e+001  1.0051e+001 30004 102583,102704,102609
 6.4000e+000 103003 -8.4808e+000 -5.0086e+001 -3.1621e+000 29564 103026,102804,102778
 6.4000e+000 102980 -1.0806e+001 -6.0505e+001 -5.2314e+000 29564 103026,102778,102908
 6.4000e+000 102957 -1.1861e+001 -5.2249e+001  5.3289e-001 29564 102856,102908,102882
 6.4000e+000 102934 -1.8754e+001 -4.5509e+001  5.1353e+000 29564 102804,102856,102830
 6.4000e+000 103052 -8.0437e+000 -4.5099e+001  3.8549e+000 29564 102856,102804,103026
 6.4000e+000 103075 -1.1055e+001 -5.3532e+001  8.1162e-001 29564 102856,103026,102908
 6.4000e+000 103634 -2.2984e+001 -5.8073e+001 -7.5971e+000 29160 103657,103418,103392
 6.4000e+000 103611 -2.0725e+001 -5.3736e+001 -1.5889e+000 29160 103657,103392,103314
 6.4000e+000 103588 -1.5588e+001 -4.4402e+001 -4.1857e+000 29160 103314,103392,103366
 6.4000e+000 103565 -6.7165e+000 -4.6235e+001 -8.1053e+000 29160 103314,103366,103340
 6.4000e+000 103542 -2.1351e+001 -4.5478e+001 -4.5817e+000 29160 103262,103444,103314
 6.4000e+000 103519 -2.6021e+001 -5.4873e+001 -6.7829e+000 29160 103262,103314,103288
 6.4000e+000 103496 -1.6048e+001 -4.8729e+001 -2.0838e+000 29160 103262,103470,103444
 6.4000e+000 103683 -3.2343e+001 -6.5821e+001 -1.5293e+001 29160 103444,103418,103657
 6.4000e+000 103706 -2.4106e+001 -5.2854e+001 -8.3004e+000 29160 103444,103657,103314
 6.4000e+000 104035 -1.7836e+001 -5.6305e+001  6.0509e+000 28770 103836,103914,103862
 6.4000e+000 104012 -1.6538e+001 -5.3284e+001  8.0155e+000 28770 103810,103914,103836
 6.4000e+000 103989  3.5441e-001 -4.7829e+001  8.5274e+000 28770 103810,103940,103914
 6.4000e+000 103966 -4.2902e+000 -4.6542e+001  1.2177e+001 28770 103862,103914,103888
 6.4000e+000 104185 -3.3692e+000 -4.5345e+001  9.4825e+000 28366 104208,104110,104084
 6.4000e+000 104162 -3.5100e+000 -3.9127e+001  7.0718e+000 28366 104280,104208,104084
 6.4000e+000 104234  8.1666e+000 -4.5499e+001  5.7375e+000 28366 104610,104208,104136
 6.4000e+000 104257 -7.2569e+000 -4.2914e+001  6.3357e+000 28366 104538,104410,104208
 6.4000e+000 104306 -1.2498e+001 -4.3235e+001  6.1057e+000 28366 104538,104208,104280
 6.4000e+000 104436 -1.4514e+000 -4.2116e+001  2.1477e+000 28366 104136,104208,104410
 6.4000e+000 104564 -1.2736e+001 -4.2947e+001  3.5462e+000 28366 104058,104410,104538
 6.4000e+000 104587 -1.5977e+001 -4.2068e+001  2.9814e+000 28366 104058,104538,104280
 6.4000e+000 104636  8.1211e+000 -4.5098e+001  7.6223e+000 28366 104110,104208,104610
 6.4000e+000 105349 -1.3796e+001 -4.6480e+001 -4.0210e+000 27976 105516,105372,105107
 6.4000e+000 105326 -2.2955e+001 -4.8052e+001  2.0336e+000 27976 105588,105372,105055
 6.4000e+000 105303 -2.6103e+001 -4.6656e+001 -6.9165e+000 27976 105444,105159,105133
 6.4000e+000 105280 -8.0612e+000 -4.8371e+001 -1.9759e+000 27976 105516,105107,105081
 6.4000e+000 105257 -2.2163e+001 -5.2796e+001  4.5364e+000 27976 105588,105055,105029
 6.4000e+000 105234 -1.2589e+001 -3.9435e+001  2.9232e+000 27976 105003,105185,105159
 6.4000e+000 105211 -1.5375e+001 -3.0832e+001  8.7963e+000 27976 104977,105185,105003
 6.4000e+000 105398 -1.0823e+001 -4.9010e+001 -5.7790e+000 27976 105133,105107,105372
 6.4000e+000 105421 -1.9450e+001 -5.2072e+001 -3.7860e+000 27976 105444,105133,105372
 6.4000e+000 105470 -1.9990e+001 -3.7533e+001 -3.3745e+000 27976 105003,105159,105444
 6.4000e+000 105493 -1.5181e+001 -4.3668e+001 -1.8729e+000 27976 105003,105444,105372
 6.4000e+000 105542 -9.9253e+000 -4.6073e+001  8.6938e-001 27976 105055,105372,105516
 6.4000e+000 105565 -1.2288e+000 -4.6771e+001  2.3088e+000 27976 105055,105516,105081
 6.4000e+000 105614 -2.4959e+001 -5.2768e+001  4.3703e+000 27976 105003,105372,105588
 6.4000e+000 105637 -2.4681e+001 -5.7254e+001  7.1582e+000 27976 105003,105588,105029
 6.4000e+000 106143 -1.6855e+001 -6.4383e+001  2.3420e+000 27664 106166,105846,105820
 6.4000e+000 106120 -1.0768e+001 -4.5486e+001  4.3946e-001 27664 106310,106166,105820
 6.4000e+000 106097 -3.7831e+000 -6.0090e+001 -1.3815e+001 27664 106382,106238,105950
 6.4000e+000 106074 -6.6237e+000 -4.2936e+001 -6.4524e-001 27664 106310,105820,106002
 6.4000e+000 106051  7.9593e+000 -5.2903e+001 -1.0363e+001 27664 106382,105950,105924
 6.4000e+000 106028  1.5356e+000 -1.0302e+002 -2.8492e+000 27664 105846,105898,105872
 6.4000e+000 106192 -1.5916e+001 -7.3055e+001 -1.2237e+001 27664 105898,105846,106166
 6.4000e+000 106215 -8.2753e+000 -6.0825e+001 -5.1595e+000 27664 106238,105898,106166
 6.4000e+000 106264 -3.2296e+001 -6.6713e+001 -1.9042e+001 27664 105976,105950,106238
 6.4000e+000 106287 -7.9841e+000 -5.8977e+001 -5.7603e+000 27664 105976,106238,106166
 6.4000e+000 106336 -6.4004e+000 -5.1011e+001  5.1372e+000 27664 105976,106166,106310
 6.4000e+000 106359 -1.3715e+000 -4.7922e+001  3.8295e+000 27664 105976,106310,106002
 6.4000e+000 106408 -8.3710e+000 -4.7955e+001 -4.5737e-001 27664 105898,106238,106382
 6.4000e+000 106431 -1.6642e+000 -4.4376e+001  1.9708e+000 27664 105898,106382,105924
 6.4000e+000 106728 -5.9890e+000 -3.3215e+001  8.1712e+000 27153 106751,106506,106454
 6.4000e+000 106705 -5.7871e+000 -3.4811e+001  5.9734e+000 27153 106751,106454,106610
 6.4000e+000 106682 -9.1990e+000 -2.8098e+001  4.0358e+000 27153 106454,106506,106480
 6.4000e+000 106659 -8.6355e+000 -3.1666e+001  4.3719e+000 27153 106532,106610,106584
 6.4000e+000 106636 -1.1576e+001 -1.5137e+001  9.1752e+000 27153 106532,106584,106558
 6.4000e+000 106777 -3.3208e+000 -3.1106e+001  9.0918e+000 27153 106532,106506,106751
 6.4000e+000 106800 -4.0076e+000 -3.3492e+001  6.5646e+000 27153 106532,106751,106610
 6.4000e+000 107180 -6.2932e+000 -4.3682e+001  3.6249e+000 26642 107203,106984,106958
 6.4000e+000 107157 -2.1457e+001 -5.1195e+001 -6.0957e-001 26642 107203,106958,106932
 6.4000e+000 107134 -2.8302e+001 -5.8346e+001 -8.2651e+000 26642 107275,107036,107010
 6.4000e+000 107111 -1.9970e+001 -5.6213e+001 -1.2193e+001 26642 106932,107062,107036
 6.4000e+000 107088 -2.9055e-001 -4.2630e+001  4.8538e+000 26642 106906,107062,106932
 6.4000e+000 107229  5.5647e-001 -4.2833e+001 -1.3427e+001 26642 107010,106984,107203
 6.4000e+000 107252 -2.3819e+001 -5.2110e+001 -1.0629e+001 26642 107275,107010,107203
 6.4000e+000 107301 -2.2982e+001 -5.7542e+001 -1.1642e+001 26642 106932,107036,107275
 6.4000e+000 107324 -2.1533e+001 -5.7578e+001 -1.2367e+001 26642 106932,107275,107203
 6.4000e+000 107675 -1.5813e+001 -3.3823e+001  5.0965e+000 26045 107450,107554,107476
 6.4000e+000 107652 -1.3116e+001 -3.0496e+001  3.3253e+000 26045 107450,107580,107554
 6.4000e+000 107629 -8.0145e+000 -1.1938e+001 -1.4758e+000 26045 107476,107528,107502
 6.4000e+000 107606 -2.6955e+000 -2.9398e+001  4.5975e+000 26045 107476,107554,107528
 6.4000e+000 107874 -1.0702e+001 -4.8607e+001  1.3231e+001 25641 107750,107802,107776
 6.4000e+000 107851 -1.1685e+001 -3.5407e+001  8.8943e+000 25641 107724,107802,107750
 6.4000e+000 107828 -1.6049e+001 -3.6366e+001  9.7403e+000 25641 107698,107802,107724
 6.4000e+000 108431 -2.4151e+000 -5.4680e+001  1.1320e+001 25023 108526,108267,108241
 6.4000e+000 108408 -1.2051e-002 -4.9217e+001  1.8502e+000 25023 108059,108267,108085
 6.4000e+000 108385 -8.0988e+000 -5.8850e+001  1.0658e+001 25023 108454,108163,108111
 6.4000e+000 108362 -2.9433e+001 -5.8547e+001  1.9498e+001 25023 108454,108111,108085
 6.4000e+000 108339 -2.0579e+001 -7.6068e+001  1.7990e+001 25023 108111,108163,108137
 6.4000e+000 108316 -1.5467e+001 -4.2396e+001 -2.9690e+000 25023 108163,108241,108215
 6.4000e+000 108293  1.8736e+000 -3.4237e+001  1.1301e+000 25023 108163,108215,108189
 6.4000e+000 108480 -1.5012e+000 -5.1866e+001  1.3122e+000 25023 108241,108163,108454
 6.4000e+000 108503 -7.1685e+000 -5.4802e+001  1.1615e+001 25023 108526,108241,108454
 6.4000e+000 108552 -8.6530e+000 -5.2151e+001  8.2936e+000 25023 108085,108267,108526
 6.4000e+000 108575 -1.3592e+001 -5.2451e+001  8.5022e+000 25023 108085,108526,108454
 6.4000e+000 108823  7.0898e+000 -3.7407e+001  5.7573e+000 24461 108624,108728,108650
 6.4000e+000 108800 -2.1533e+000 -8.4022e+001 -7.2991e+000 24461 108598,108728,108624
 6.4000e+000 108777  1.5583e+000 -4.9267e+001  2.8056e+000 24461 108650,108728,108676
 6.4000e+000 108754 -2.0250e+001 -1.4418e+002  1.2236e+001 24461 108676,108728,108702
 6.4000e+000 109022 -1.4884e+001 -3.8460e+001  7.0895e+000 24121 108872,108924,108898
 6.4000e+000 108999 -8.6276e+000 -3.9412e+001  7.6841e+000 24121 108846,108924,108872
 6.4000e+000 108976 -1.7517e+001 -4.3056e+001  7.6036e+000 24121 108846,108950,108924
 6.4000e+000 109483 -1.8474e+001 -5.8824e+001 -6.6376e+000 23717 109209,109339,109235
 6.4000e+000 109460 -7.7103e+000 -6.9724e+001 -1.4991e+001 23717 109209,109365,109339
 6.4000e+000 109437 -3.5157e-001 -7.4485e+001 -3.9677e+000 23717 109287,109339,109313
 6.4000e+000 109414 -3.2825e+001 -7.5256e+001  4.1008e+000 23717 109235,109339,109287
 6.4000e+000 109391  3.9285e+000 -8.8295e+001  3.3177e+001 23717 109235,109287,109261
 6.4000e+000 109910 -2.4049e+001 -7.0622e+001 -7.0200e+000 23305 109613,109743,109717
 6.4000e+000 109887 -2.4654e+001 -7.1156e+001 -5.5523e+000 23305 109613,109769,109743
 6.4000e+000 109864 -2.9521e+001 -6.7069e+001 -5.9361e+000 23305 109613,109717,109639
 6.4000e+000 109841 -1.7982e+001 -6.7084e+001 -2.0342e+000 23305 109587,109769,109613
 6.4000e+000 109818  5.8288e-001 -5.4362e+001  4.7312e+000 23305 109639,109717,109691
 6.4000e+000 109795 -5.6074e+000 -4.3470e+001 -1.0341e+001 23305 109639,109691,109665
 6.4000e+000 110180 -3.3861e+000 -1.9533e+001 -4.1615e+000 22851 110007,110059,110033
 6.4000e+000 110157 -1.6082e+001 -5.4526e+001  3.3677e+000 22851 109981,110059,110007
 6.4000e+000 110134 -2.2277e+001 -6.1000e+001 -9.2155e-002 22851 109955,110059,109981
 6.4000e+000 110111 -9.3325e+000 -7.2767e+001 -6.0017e+000 22851 109955,110085,110059
 6.4000e+000 110737 -3.3187e+000 -5.7789e+001 -1.8649e+001 22333 110760,110469,110391
 6.4000e+000 110714  1.4303e+000 -6.7047e+001 -1.5020e+001 22333 110760,110391,110365
 6.4000e+000 110691 -3.2602e+000 -5.0540e+001 -1.4319e+001 22333 110832,110521,110469
 6.4000e+000 110668 -1.2255e+001 -1.0176e+002  8.0064e+000 22333 110417,110469,110443
 6.4000e+000 110645 -2.5525e+001 -9.4341e+001  6.2548e+000 22333 110391,110469,110417
 6.4000e+000 110622 -1.0648e+000 -5.2437e+001 -6.7732e+000 22333 110469,110521,110495
 6.4000e+000 110599 -6.1979e+000 -3.6609e+001  7.3692e+000 22333 110365,110573,110547
 6.4000e+000 110786  3.4840e-002 -5.2846e+001 -1.7123e+001 22333 110832,110469,110760
 6.4000e+000 110809  7.7772e+000 -5.8233e+001 -1.2079e+001 22333 110547,110760,110365
 6.4000e+000 110858 -5.3316e+000 -5.5500e+001 -1.3187e+001 22333 110547,110521,110832
 6.4000e+000 110881 -3.0550e+000 -5.9796e+001 -1.6273e+001 22333 110547,110832,110760
 6.4000e+000 111308 -2.9051e+001 -7.1332e+001  6.0982e+000 21829 111331,111063,111011
 6.4000e+000 111285 -2.3065e+001 -6.2547e+001 -2.7516e+000 21829 111331,111011,111167
 6.4000e+000 111262 -2.9889e+001 -7.2029e+001  6.9956e+000 21829 111403,111089,111063
 6.4000e+000 111239 -3.8501e+001 -7.8700e+001  1.2661e+001 21829 111011,111063,111037
 6.4000e+000 111216 -1.4403e+001 -4.8510e+001  9.4515e-001 21829 110985,111167,111011
 6.4000e+000 111193 -4.0077e+001 -1.3357e+002  3.1715e+001 21829 111089,111141,111115
 6.4000e+000 111357 -2.8788e+001 -7.3043e+001  6.9538e+000 21829 111403,111063,111331
 6.4000e+000 111380 -2.9780e+001 -7.5131e+001 -3.1965e-002 21829 111141,111331,111167
 6.4000e+000 111429 -3.3842e+001 -7.3588e+001  7.1052e+000 21829 111141,111089,111403
 6.4000e+000 111452 -3.0709e+001 -7.3388e+001  7.3437e+000 21829 111141,111403,111331
 6.4000e+000 112056  2.5941e+001 -4.9005e+001  3.2377e+000 21489 111687,111765,111739
 6.4000e+000 112033  1.0763e+001 -5.6935e+001  6.2251e+000 21489 112151,112079,111687
 6.4000e+000 112010  3.1257e+000 -9.1317e+001  2.9831e+000 21489 111791,111843,111817
 6.4000e+000 111987 -1.2820e+001 -7.4645e+001 -7.4952e+000 21489 112079,111843,111791
 6.4000e+000 111964  2.0542e+001 -5.0813e+001  1.1827e+001 21489 112151,111687,111661
 6.4000e+000 111941  5.6045e-001 -3.5338e+001  8.3390e+000 21489 111661,111869,111843
 6.4000e+000 111918  2.7486e+001 -5.1986e+001  9.2619e+000 21489 111687,111739,111713
 6.4000e+000 111895  9.7816e+000 -1.3992e+001  8.3134e-001 21489 111635,111869,111661
 6.4000e+000 112105 -4.9185e+000 -6.1501e+001  3.7199e+000 21489 111765,111687,112079
 6.4000e+000 112128 -4.9240e+000 -5.9487e+001  3.9857e+000 21489 111765,112079,111791
 6.4000e+000 112177 -5.1266e+000 -5.4980e+001 -3.0672e+000 21489 111843,112079,112151
 6.4000e+000 112200  3.4717e+000 -5.2215e+001  1.4389e+000 21489 111843,112151,111661
 6.4000e+000 112578 -6.5988e+000 -7.1463e+001  3.5246e+000 21177 112382,112434,112408
 6.4000e+000 112555 -1.0028e+001 -6.9312e+001 -1.8129e-001 21177 112330,112434,112382
 6.4000e+000 112532 -4.0510e+000 -5.5867e+001  1.3400e+001 21177 112304,112434,112330
 6.4000e+000 112509 -1.0800e+001 -6.6581e+001  0.0000e+000 21177 112330,112382,112356
 6.4000e+000 112486  2.3662e-001 -2.1857e+001  9.7326e-001 21177 112304,112460,112434
 6.4000e+000 112679 -3.8547e-001 -2.5601e+001 -1.0837e+001 20666 112601,112653,112627
 6.4000e+000 112927 -2.4140e+001 -8.0614e+001  2.5395e+000 19762 112702,112754,112728
 6.4000e+000 112904 -9.0031e+000 -7.7160e+001 -1.0537e+000 19762 112702,112832,112754
 6.4000e+000 112881 -2.0234e+001 -8.2636e+001  1.2985e+001 19762 112754,112832,112806
 6.4000e+000 112858 -2.8999e+001 -1.0808e+002  1.4543e+001 19762 112754,112806,112780
 6.4000e+000 113297 -2.1381e+001 -9.7255e+001  6.4104e+000 19308 112974,113052,113026
 6.4000e+000 113274 -1.4995e+001 -8.0770e+001  2.3911e+000 19308 112974,113156,113052
 6.4000e+000 113251 -9.5789e+000 -1.0741e+002 -1.2879e+001 19308 113052,113130,113104
 6.4000e+000 113228 -1.6407e+001 -8.0561e+001  7.2276e-002 19308 113052,113156,113130
 6.4000e+000 113205 -1.6650e+001 -9.3434e+001  0.0000e+000 19308 113052,113104,113078
 6.4000e+000 113182 -3.1718e+001 -1.0234e+002 -6.7652e-001 19308 112974,113026,113000
 6.4000e+000 113547  8.0859e-001 -8.7297e+001 -6.4464e+000 18711 113570,113374,113348
 6.4000e+000 113524 -1.0720e+000 -8.0363e+001 -4.1223e+000 18711 113570,113348,113452
 6.4000e+000 113501  2.7449e+000 -5.9275e+001 -1.5556e+001 18711 113322,113452,113348
 6.4000e+000 113478 -8.4619e+000 -8.0208e+001 -2.9089e+001 18711 113374,113426,113400
 6.4000e+000 113596 -3.1075e-002 -7.9552e+001 -8.0087e+000 18711 113426,113374,113570
 6.4000e+000 113619 -1.9015e+000 -7.3323e+001 -4.1931e+000 18711 113426,113570,113452
 6.4000e+000 113771 -4.4422e+001 -1.1104e+002 -6.4658e+000 18307 113670,113722,113696
 6.4000e+000 113748 -3.4679e+001 -1.0428e+002 -3.2453e+000 18307 113644,113722,113670
 6.4000e+000 113972 -2.0808e+001 -9.2539e+001  2.3563e+000 17945 113822,113874,113848
 6.4000e+000 113949 -1.9601e+001 -9.2496e+001  2.2004e+000 17945 113822,113900,113874
 6.4000e+000 113926 -2.8097e+001 -7.3588e+001  3.9471e+001 17945 113796,113900,113822
 6.4000e+000 114075 -1.1538e+001 -1.3275e+002  1.5511e+001 17482 113997,114049,114023
 6.4000e+000 114479 -5.7448e+000 -7.7431e+001 -1.2028e+001 17042 114257,114361,114335
 6.4000e+000 114456 -1.7590e+001 -7.2272e+001 -2.3626e+000 17042 114205,114361,114257
 6.4000e+000 114433 -1.8908e+001 -8.4733e+001  3.1885e+000 17042 114205,114257,114231
 6.4000e+000 114410  1.2852e+001 -1.1550e+002 -6.1311e+000 17042 114283,114335,114309
 6.4000e+000 114387 -1.0914e+000 -9.7814e+001 -5.2798e+000 17042 114257,114335,114283
 6.4000e+000 114879 -3.7707e+001 -7.2369e+001  9.7996e-001 16638 114631,114683,114657
 6.4000e+000 114856 -5.8575e+000 -5.8278e+001  9.4319e-001 16638 114605,114683,114631
 6.4000e+000 114833  1.4970e+001 -2.9169e+001 -1.0366e+001 16638 114605,114761,114683
 6.4000e+000 114810 -1.6408e+000 -8.5313e+001 -4.2950e+000 16638 114683,114735,114709
 6.4000e+000 114787 -1.4446e+000 -8.7675e+001 -5.9591e+000 16638 114683,114761,114735
 6.4000e+000 115078 -3.6358e+001 -8.1937e+001  2.1181e+000 16232 114954,115006,114980
 6.4000e+000 115055 -3.6199e+001 -9.0211e+001  3.8988e+000 16232 114928,115006,114954
 6.4000e+000 115032 -1.7220e+001 -1.1159e+002  7.7657e+000 16232 114902,115006,114928
 6.4000e+000 115228 -1.7686e+001 -8.1531e+001  2.9754e+000 15482 115101,115153,115127
 6.4000e+000 115205 -1.9342e+001 -7.7509e+001 -1.4314e+000 15482 115101,115179,115153
 6.4000e+000 115331 -1.1311e+001 -6.7690e+001 -8.6994e+000 15163 115253,115305,115279
 6.4000e+000 115434 -2.2672e+001 -7.7557e+001  1.5020e+001 421 115356,115408,115382
 6.5000e+000 68213 -1.1647e+001 -2.9069e+001 -3.0130e+000 67888 68112,68164,68138
 6.5000e+000 68190 -4.3446e+001 -3.7750e+001 -6.9884e+000 67888 68086,68164,68112
 6.5000e+000 68314 -1.8658e+001 -4.8116e+001  2.7429e+000 67576 68236,68288,68262
 6.5000e+000 68584 -2.8801e+001 -1.1039e+002  7.4146e+000 67378 68385,68489,68463
 6.5000e+000 68561 -7.1100e+000 -1.0031e+002  4.6291e+000 67378 68359,68489,68385
 6.5000e+000 68538 -2.0462e+001 -8.6766e+001  1.0983e+001 67378 68385,68463,68411
 6.5000e+000 68515 -9.9738e+000 -6.1219e+001  6.7171e+000 67378 68411,68463,68437
 6.5000e+000 68964 -3.4039e+001 -1.0839e+002  1.8017e+001 67130 68690,68820,68716
 6.5000e+000 68941  1.6661e+001 -1.1692e+002  3.2269e+001 67130 68690,68846,68820
 6.5000e+000 68918 -3.4550e+001 -6.9502e+001  5.2951e+000 67130 68742,68820,68794
 6.5000e+000 68895 -1.3811e+001 -6.7103e+001  8.7123e+000 67130 68716,68820,68742
 6.5000e+000 68872 -2.2848e+001 -5.2262e+001 -7.0133e+000 67130 68742,68794,68768
 6.5000e+000 69065 -3.4793e+001 -4.7563e+001  3.1513e+000 66926 68987,69039,69013
 6.5000e+000 69445 -1.8775e+001 -4.0368e+001 -4.1901e+000 66614 69223,69301,69275
 6.5000e+000 69422 -2.8520e+001 -4.5322e+001 -2.3672e+000 66614 69171,69301,69223
 6.5000e+000 69399 -2.9296e+001 -4.2893e+001 -1.9002e+000 66614 69171,69327,69301
 6.5000e+000 69376 -1.7040e+001 -2.6983e+001 -1.0324e+000 66614 69223,69275,69249
 6.5000e+000 69353 -2.1875e+001 -4.3746e+001 -4.6437e-001 66614 69171,69223,69197
 6.5000e+000 69546 -3.1653e+001 -9.4162e+001  6.2830e+000 66416 69468,69520,69494
 6.5000e+000 69997 -2.7477e+001 -9.2704e+001 -6.0716e+000 66104 69700,69830,69726
 6.5000e+000 69974 -3.7144e+001 -1.1014e+002 -1.2820e+001 66104 69700,69856,69830
 6.5000e+000 69951 -2.9149e+001 -7.0751e+001 -5.1972e+000 66104 69726,69804,69778
 6.5000e+000 69928 -2.4349e+001 -8.6422e+001 -7.0988e+000 66104 69726,69830,69804
 6.5000e+000 69905 -3.0906e+001 -6.6339e+001 -1.6089e+000 66104 69726,69778,69752
 6.5000e+000 69882 -1.2533e+001 -1.5036e+002 -3.0421e+001 66104 69674,69856,69700
 6.5000e+000 70326 -1.8867e+001 -3.8877e+001  1.8317e-001 65814 70349,70153,70127
 6.5000e+000 70303 -1.1229e+001 -3.8349e+001  1.7650e+000 65814 70349,70127,70101
 6.5000e+000 70280 -1.1055e+001 -3.7701e+001  1.7969e+001 65814 70101,70231,70205
 6.5000e+000 70257 -6.2137e+000 -4.0707e+001  6.5580e+000 65814 70153,70205,70179
 6.5000e+000 70375 -1.5245e+001 -4.1133e+001  6.1861e+000 65814 70205,70153,70349
 6.5000e+000 70398 -3.6508e+000 -3.8834e+001  6.9404e+000 65814 70205,70349,70101
 6.5000e+000 70904 -1.1017e+001 -1.7288e+001 -8.3250e+000 65502 70607,70737,70685
 6.5000e+000 70881 -1.2513e+001 -1.1805e+001 -1.1007e+001 65502 70581,70737,70607
 6.5000e+000 70858 -1.2136e+001  3.4605e+000 -2.7015e+000 65502 70581,70763,70737
 6.5000e+000 70835 -9.7018e+000 -1.7199e+001 -1.0131e+001 65502 70685,70737,70711
 6.5000e+000 70812 -5.0482e+001 -2.2893e+001  7.0776e-001 65502 70607,70659,70633
 6.5000e+000 70789 -1.5312e+001 -2.4246e+001  1.9388e+000 65502 70607,70685,70659
 6.5000e+000 71103 -1.1234e+001 -7.3092e+001 -2.9837e+000 65304 71126,70979,70953
 6.5000e+000 71080 -2.3415e+001 -6.9962e+001 -1.7295e+000 65304 71126,70953,70927
 6.5000e+000 71057 -3.5633e+001 -7.4102e+001 -1.0600e+000 65304 70927,71031,71005
 6.5000e+000 71152 -2.2631e+001 -7.2337e+001 -6.6613e+000 65304 71005,70979,71126
 6.5000e+000 71175 -3.4677e+001 -6.8922e+001 -2.9523e+000 65304 71005,71126,70927
 6.5000e+000 71374 -2.7798e+001 -6.6163e+001  4.0674e+000 65106 71198,71276,71224
 6.5000e+000 71351 -2.2601e+001 -6.8147e+001  2.8456e+000 65106 71198,71302,71276
 6.5000e+000 71328 -2.6618e+001 -6.0901e+001  9.4663e+000 65106 71224,71276,71250
 6.5000e+000 71756 -1.1241e+001 -5.1101e+001 -3.4167e+000 64652 71508,71638,71534
 6.5000e+000 71733  1.0446e+000 -4.6248e+001 -7.5533e-001 64652 71482,71638,71508
 6.5000e+000 71710 -3.1007e+001 -5.8112e+001 -5.5925e+000 64652 71534,71586,71560
 6.5000e+000 71687 -2.7234e+001 -5.7848e+001 -9.4321e+000 64652 71534,71612,71586
 6.5000e+000 71664 -2.9173e+001 -5.8017e+001 -9.9513e+000 64652 71534,71638,71612
 6.5000e+000 72085 -2.8176e+001 -5.7795e+001 -1.0119e+001 64248 71886,71964,71912
 6.5000e+000 72062 -2.0730e+001 -5.6335e+001 -9.2349e+000 64248 71860,71964,71886
 6.5000e+000 72039 -1.0980e+001 -6.3036e+001 -7.1431e+000 64248 71912,71964,71938
 6.5000e+000 72016 -3.2091e+001 -5.6943e+001 -5.4425e+000 64248 71860,71990,71964
 6.5000e+000 72235 -3.3939e+000 -3.4495e+001 -3.9747e+000 63858 72588,72258,72134
 6.5000e+000 72212 -1.8002e+001 -3.3677e+001  9.1362e-001 63858 72330,72258,72108
 6.5000e+000 72284 -1.3627e+001 -2.2173e+001 -3.2595e+000 63858 72160,72134,72258
 6.5000e+000 72307 -2.7842e+001 -3.3069e+001 -7.8266e+000 63858 72460,72258,72186
 6.5000e+000 72356 -2.6663e+001 -3.2345e+001 -7.4906e+000 63858 72186,72258,72330
 6.5000e+000 72486 -1.8411e+001 -3.5389e+001 -4.7312e+000 63858 72160,72258,72460
 6.5000e+000 72614 -1.3998e+001 -4.0369e+001  7.0761e-002 63858 72108,72258,72588
 6.5000e+000 73248 -2.6567e+001 -8.0531e+001  1.5340e+001 63404 72902,72954,72928
 6.5000e+000 73225 -4.0902e+001 -7.1268e+001  8.6492e+000 63404 73271,72954,72902
 6.5000e+000 73202 -3.5850e+001 -5.4578e+001  7.1888e+000 63404 73271,72902,73032
 6.5000e+000 73179 -2.9351e+001 -4.8587e+001  3.2117e+000 63404 72902,73058,73032
 6.5000e+000 73156 -4.2516e+001 -7.0768e+001 -1.0183e+001 63404 72980,73032,73006
 6.5000e+000 73133 -3.2169e+001 -4.4987e+001  4.6616e+000 63404 72876,73058,72902
 6.5000e+000 73110 -7.5860e+000 -2.1737e+001 -6.8236e+000 63404 72876,73084,73058
 6.5000e+000 73297 -3.4457e+001 -7.3501e+001 -1.5714e+000 63404 72980,72954,73271
 6.5000e+000 73320 -3.3654e+001 -6.4561e+001 -1.5044e+000 63404 72980,73271,73032
 6.5000e+000 73470 -2.5648e+001 -1.6774e+002  1.8273e+001 63014 73343,73395,73369
 6.5000e+000 73447 -7.9911e+001 -2.0511e+002 -3.6240e+000 63014 73343,73421,73395
 6.5000e+000 73929 -1.3780e+001 -6.6292e+001  9.9568e-002 62702 73759,73811,73785
 6.5000e+000 73906 -9.2540e+000 -6.2041e+001  5.4235e+000 62702 73655,73811,73759
 6.5000e+000 73883 -1.9643e+001 -6.8422e+001  5.6351e-001 62702 73655,73759,73681
 6.5000e+000 73860 -1.2047e+001 -5.2542e+001 -7.0815e+000 62702 73681,73759,73707
 6.5000e+000 73837 -3.8266e+001 -5.9170e+001  3.4685e+000 62702 73707,73759,73733
 6.5000e+000 74209 -4.5216e+001 -5.5366e+001  1.4200e+000 62404 74059,74137,74085
 6.5000e+000 74186 -4.9210e+001 -7.0502e+001  8.6752e+000 62404 74033,74137,74059
 6.5000e+000 74163 -4.4077e+001 -4.9690e+001  2.5185e+000 62404 74085,74137,74111
 6.5000e+000 74408 -7.4941e+000 -4.9493e+001  2.1073e+000 62000 74258,74336,74284
 6.5000e+000 74385  7.9520e-001 -4.5742e+001  3.6593e+000 62000 74232,74336,74258
 6.5000e+000 74362 -1.4072e+001 -5.1751e+001 -3.2643e-001 62000 74284,74336,74310
 6.5000e+000 74509 -1.3888e+001 -4.2360e+001  4.2618e+000 61802 74431,74483,74457
 6.5000e+000 74759 -2.6300e+001 -4.3742e+001  3.1975e+000 61554 74782,74586,74560
 6.5000e+000 74736 -2.2193e+001 -4.3810e+001  2.2198e+000 61554 74782,74560,74664
 6.5000e+000 74713 -2.4672e+001 -3.9753e+001  1.2500e+001 61554 74854,74612,74586
 6.5000e+000 74690 -2.5026e+001 -4.8111e+001  8.5052e-001 61554 74534,74664,74560
 6.5000e+000 74808 -2.8632e+001 -4.4922e+001  4.5845e+000 61554 74854,74586,74782
 6.5000e+000 74831 -2.2693e+001 -5.6947e+001  3.0247e+000 61554 74638,74782,74664
 6.5000e+000 74880 -1.4531e+001 -4.4871e+001  1.2806e+001 61554 74638,74612,74854
 6.5000e+000 74903 -1.4518e+001 -4.3696e+001  6.6539e+000 61554 74638,74854,74782
 6.5000e+000 75285 -1.6025e+001 -4.2494e+001  5.6480e-001 61356 75063,75167,75115
 6.5000e+000 75262 -1.5856e+001 -4.1164e+001 -4.9707e-001 61356 75037,75167,75063
 6.5000e+000 75239 -1.1439e+001 -4.2139e+001 -1.0532e-001 61356 75115,75167,75141
 6.5000e+000 75216 -1.5889e+001 -4.3986e+001 -4.8308e-001 61356 75063,75115,75089
 6.5000e+000 75193 -2.5566e+001 -3.9646e+001  1.0596e+000 61356 75011,75167,75037
 6.5000e+000 75631 -8.7272e+000 -3.3268e+001  3.6310e+000 60952 75654,75412,75360
 6.5000e+000 75608 -1.0804e+001 -3.8379e+001  1.6698e+000 60952 75654,75360,75334
 6.5000e+000 75585 -1.1727e+001 -4.8278e+001  3.6896e+000 60952 75726,75438,75412
 6.5000e+000 75562 -6.2820e+000 -3.7068e+001 -6.0251e+000 60952 75308,75490,75334
 6.5000e+000 75539 -1.0996e+001 -3.3472e+001  1.6662e+000 60952 75360,75412,75386
 6.5000e+000 75516 -1.6083e+001 -6.1371e+001 -2.7816e+000 60952 75438,75490,75464
 6.5000e+000 75680 -8.3484e+000 -4.0467e+001  3.5441e+000 60952 75726,75412,75654
 6.5000e+000 75703 -8.6737e+000 -3.9224e+001  1.4303e+000 60952 75490,75654,75334
 6.5000e+000 75752 -1.0337e+001 -3.9518e+001  1.5094e+000 60952 75490,75438,75726
 6.5000e+000 75775 -1.0314e+001 -3.9053e+001  9.5268e-001 60952 75490,75726,75654
 6.5000e+000 76155 -1.4865e+001 -4.5975e+001 -8.6253e-001 60754 75933,75985,75959
 6.5000e+000 76132 -2.1329e+001 -4.9826e+001  5.6510e+000 60754 75933,76037,75985
 6.5000e+000 76109 -3.5221e+000 -4.6548e+001  8.7264e-001 60754 75985,76037,76011
 6.5000e+000 76086 -2.9626e+001 -4.4671e+001  1.1855e+000 60754 75881,76037,75933
 6.5000e+000 76063 -3.4846e+001 -4.6003e+001  5.9526e+000 60754 75881,75933,75907
 6.5000e+000 76612 -1.1649e+001 -5.2037e+001  4.5943e+000 60350 76635,76442,76390
 6.5000e+000 76589 -6.3941e-001 -6.0424e+001  6.9960e+000 60350 76635,76390,76364
 6.5000e+000 76566 -7.5140e+000 -8.1903e+001 -4.3039e+000 60350 76364,76494,76468
 6.5000e+000 76543 -1.0644e+000 -4.7542e+001  4.7796e+000 60350 76390,76442,76416
 6.5000e+000 76520 -3.6178e+001 -4.9086e+001 -1.2710e+001 60350 76338,76494,76364
 6.5000e+000 76661 -1.7592e+001 -5.7786e+001  7.1398e+000 60350 76468,76442,76635
 6.5000e+000 76684 -9.4920e+000 -6.7162e+001  1.0380e+001 60350 76468,76635,76364
 6.5000e+000 76932 -2.6219e+001 -5.0325e+001 -2.5974e+000 59946 76955,76733,76707
 6.5000e+000 76909 -2.7700e+001 -5.3487e+001 -1.2681e+000 59946 77027,76955,76707
 6.5000e+000 76886 -2.8802e+001 -5.4422e+001 -8.1907e-001 59946 77027,76707,76837
 6.5000e+000 76863 -1.3318e+001 -5.5202e+001 -8.2025e+000 59946 76733,76785,76759
 6.5000e+000 76981 -2.9375e+001 -5.2174e+001 -1.6377e+000 59946 76785,76733,76955
 6.5000e+000 77004 -2.7877e+001 -4.9842e+001 -8.4867e-001 59946 76785,76955,76811
 6.5000e+000 77053 -2.9454e+001 -5.1988e+001  1.9089e-001 59946 76811,76955,77027
 6.5000e+000 77076 -3.0902e+001 -5.3851e+001  8.6892e-001 59946 76811,77027,76837
 6.5000e+000 77226 -2.2428e+001 -6.2856e+001  1.9737e+000 59542 77099,77151,77125
 6.5000e+000 77203 -3.3951e+001 -8.4039e+001  6.9304e+000 59542 77099,77177,77151
 6.5000e+000 77427 -3.3827e+001 -6.8716e+001 -4.0727e+000 59030 77450,77277,77251
 6.5000e+000 77404 -2.3774e+001 -6.1328e+001 -1.8087e+001 59030 77450,77251,77355
 6.5000e+000 77381 -1.8213e+001 -7.9337e+001 -1.6926e+000 59030 77277,77329,77303
 6.5000e+000 77476 -2.0513e+001 -7.0052e+001 -1.0200e+001 59030 77329,77277,77450
 6.5000e+000 77499 -7.7522e+000 -6.6834e+001 -2.1441e+001 59030 77329,77450,77355
 6.5000e+000 77749 -2.9785e+001 -8.5628e+001  7.2953e+000 58426 77772,77628,77602
 6.5000e+000 77726 -1.6301e+001 -9.6058e+001  1.6777e+001 58426 77524,77654,77628
 6.5000e+000 77703 -2.5044e+001 -8.3287e+001  5.4515e+000 58426 77772,77602,77550
 6.5000e+000 77680 -1.9503e+001 -7.9814e+001 -2.4508e+000 58426 77550,77602,77576
 6.5000e+000 77798 -2.4072e+001 -8.7898e+001  6.4743e+000 58426 77524,77628,77772
 6.5000e+000 77821 -2.1111e+001 -8.6246e+001  4.2992e+000 58426 77524,77772,77550
 6.5000e+000 78071 -3.4035e+001 -7.3751e+001  8.8884e+000 57922 78094,77924,77898
 6.5000e+000 78048 -3.5892e+001 -6.2644e+001  7.0469e-001 57922 78094,77898,77872
 6.5000e+000 78025 -3.0023e+001 -5.4768e+001  6.6778e+000 57922 78166,77846,77950
 6.5000e+000 78002 -2.3459e+001 -5.5147e+001  7.8373e+000 57922 77846,77976,77950
 6.5000e+000 78120 -2.4245e+001 -6.3500e+001  4.6575e+000 57922 77950,77924,78094
 6.5000e+000 78143 -3.1123e+001 -5.6156e+001  4.8176e+000 57922 78166,77950,78094
 6.5000e+000 78192 -2.7758e+001 -5.8208e+001  4.1161e+000 57922 77872,77846,78166
 6.5000e+000 78215 -3.0791e+001 -6.1791e+001  2.0052e+000 57922 77872,78166,78094
 6.5000e+000 78416  3.1002e+000 -6.0370e+001 -2.8898e+000 57468 78439,78292,78240
 6.5000e+000 78393 -4.6954e+000 -5.8558e+001 -2.5608e-001 57468 78439,78240,78344
 6.5000e+000 78370  1.2534e-001 -8.6180e+001 -4.2914e-001 57468 78240,78292,78266
 6.5000e+000 78465 -4.4655e+000 -6.3916e+001 -3.9100e+000 57468 78318,78292,78439
 6.5000e+000 78488 -7.6729e+000 -5.9988e+001 -7.2206e-001 57468 78318,78439,78344
 6.5000e+000 78689 -9.8094e+000 -6.9376e+001 -4.5442e+000 57014 78712,78539,78513
 6.5000e+000 78666 -1.4806e+001 -6.9725e+001 -1.3913e+000 57014 78712,78513,78617
 6.5000e+000 78643 -1.5133e+001 -6.4429e+001  5.4090e+000 57014 78565,78617,78591
 6.5000e+000 78738 -1.6200e+001 -6.3265e+001 -4.3660e+000 57014 78565,78539,78712
 6.5000e+000 78761 -2.3768e+001 -6.8509e+001  8.4411e-001 57014 78565,78712,78617
 6.5000e+000 79241 -2.4080e+001 -6.3857e+001  4.2333e+000 56652 79264,78895,78869
 6.5000e+000 79218 -1.1940e+001 -8.2977e+001 -5.8038e+000 56652 79264,78869,79051
 6.5000e+000 79195 -1.9632e+001 -7.4429e+001 -1.6359e+001 56652 78869,79077,79051
 6.5000e+000 79172 -1.9304e+001 -4.4565e+001 -6.7153e+000 56652 78895,78973,78947
 6.5000e+000 79149 -3.1671e+001 -1.3400e+002 -1.1161e+001 56652 78973,79051,78999
 6.5000e+000 79126 -1.4910e+001 -4.1230e+001 -8.3993e+000 56652 78895,78947,78921
 6.5000e+000 79103 -2.1691e+001 -8.3867e+001  1.9296e+001 56652 78999,79051,79025
 6.5000e+000 79290 -1.4759e+001 -5.1872e+001  1.0863e+001 56652 78973,78895,79264
 6.5000e+000 79313 -1.8514e+000 -7.2535e+001  1.4215e+000 56652 78973,79264,79051
 6.5000e+000 79512 -7.2493e+000 -1.0018e+002  7.1641e+000 56062 79388,79440,79414
 6.5000e+000 79489 -3.4648e+001 -5.0129e+001  1.3491e+001 56062 79336,79440,79388
 6.5000e+000 79466 -8.4885e+000 -8.4404e+001  1.3752e+001 56062 79336,79388,79362
 6.5000e+000 79941 -8.3261e+000 -3.9133e+001  9.7480e+000 55658 79964,79670,79644
 6.5000e+000 79918 -1.3494e+001 -4.2041e+001  1.1258e+001 55658 79964,79644,79800
 6.5000e+000 79895 -1.3047e+001 -4.1058e+001  7.4318e+000 55658 80036,79696,79670
 6.5000e+000 79872 -1.5430e+001 -3.3722e+001  2.5415e+000 55658 80108,79722,79696
 6.5000e+000 79849 -1.9947e+001 -2.4426e+001  7.8772e+000 55658 79722,79774,79748
 6.5000e+000 79826 -4.5517e-001 -3.8280e+001  1.4506e+000 55658 79618,79800,79644
 6.5000e+000 79990 -1.3900e+001 -4.1266e+001  8.2255e+000 55658 80036,79670,79964
 6.5000e+000 80013 -1.1171e+001 -3.6204e+001  1.2102e+001 55658 79774,79964,79800
 6.5000e+000 80062 -1.1133e+001 -3.6951e+001  6.6542e+000 55658 80108,79696,80036
 6.5000e+000 80085 -1.4660e+001 -3.7477e+001  1.0597e+001 55658 79774,80036,79964
 6.5000e+000 80134 -2.3902e+001 -3.7179e+001  4.4281e+000 55658 79774,79722,80108
 6.5000e+000 80157 -2.1504e+001 -4.1504e+001  8.5122e+000 55658 79774,80108,80036
 6.5000e+000 80307 -4.1981e+001 -4.5805e+001 -3.9327e-001 55254 80402,80330,80206
 6.5000e+000 80284 -3.9853e+001 -6.2376e+001 -1.3493e+000 55254 80330,80180,80258
 6.5000e+000 80356 -4.7937e+001 -5.9122e+001  8.4452e+000 55254 80232,80206,80330
 6.5000e+000 80379 -2.1904e+001 -4.7644e+001  1.1707e+001 55254 80232,80330,80258
 6.5000e+000 80428 -5.0225e+001 -5.7616e+001 -5.0483e+000 55254 80180,80330,80402
 6.5000e+000 80659 -1.5446e+001 -7.8809e+001 -5.2540e+000 54850 80558,80610,80584
 6.5000e+000 80636 -1.3073e+001 -7.6965e+001 -4.1710e+000 54850 80532,80610,80558
 6.5000e+000 80760 -4.1918e+000 -3.2886e+001 -7.4792e-001 54652 80682,80734,80708
 6.5000e+000 81164 -4.6245e+000 -3.8435e+001  5.8772e-001 54248 81187,80942,80890
 6.5000e+000 81141 -6.6240e+000 -3.8774e+001  1.3108e+000 54248 81187,80890,81046
 6.5000e+000 81118 -8.3483e+000 -4.0737e+001  9.1125e+000 54248 80942,81020,80994
 6.5000e+000 81095 -2.3805e+000 -3.3645e+001  1.3508e+000 54248 80890,80942,80916
 6.5000e+000 81072 -8.7598e+000 -2.3149e+001  2.1466e+000 54248 80942,80994,80968
 6.5000e+000 81213 -6.7090e+000 -3.7884e+001  5.5685e-001 54248 81020,80942,81187
 6.5000e+000 81236 -8.4442e+000 -3.7901e+001  1.0305e+000 54248 81020,81187,81046
 6.5000e+000 81663 -3.8803e+001 -6.1400e+001  4.4795e+000 53594 81340,81444,81366
 6.5000e+000 81640 -3.7001e+001 -9.3052e+001  9.5717e-001 53594 81340,81470,81444
 6.5000e+000 81617 -3.0676e+001 -8.3716e+001 -1.4214e+001 53594 81340,81522,81470
 6.5000e+000 81594 -2.5257e+001 -4.3283e+001 -4.1520e+000 53594 81392,81444,81418
 6.5000e+000 81571 -2.8290e+001 -5.3073e+001 -6.4869e+000 53594 81366,81444,81392
 6.5000e+000 81548 -3.3015e+000 -1.0570e+002  2.5505e+000 53594 81470,81522,81496
 6.5000e+000 81943 -1.1304e+001 -3.5096e+001 -4.1240e+000 53104 81966,81845,81819
 6.5000e+000 81920 -1.7693e+001 -2.9678e+001 -6.3480e+000 53104 81966,81819,81767
 6.5000e+000 81897 -1.7294e+001 -2.9227e+001 -5.7033e+000 53104 81767,81819,81793
 6.5000e+000 81992 -7.0850e+000 -3.3415e+001 -6.7343e+000 53104 81871,81845,81966
 6.5000e+000 82015 -1.1734e+001 -2.5603e+001 -1.0254e+001 53104 81871,81966,81767
 6.5000e+000 82491 -1.4775e+001 -4.1605e+001 -6.6513e+000 52650 82145,82249,82171
 6.5000e+000 82468 -3.4063e+001 -4.9295e+001 -5.6549e+000 52650 82145,82301,82249
 6.5000e+000 82445 -3.7184e+001 -7.4694e+001 -1.0802e+001 52650 82249,82301,82275
 6.5000e+000 82422 -3.2325e+001 -9.5475e+001 -1.8058e+001 52650 82119,82301,82145
 6.5000e+000 82399 -1.3470e+001 -2.9055e+001  3.2369e+000 52650 82171,82249,82223
 6.5000e+000 82376 -7.9433e+000 -8.6077e+001 -6.8407e+000 52650 82119,82327,82301
 6.5000e+000 82353 -3.7078e+000 -1.4566e+001 -6.2073e+000 52650 82171,82223,82197
 6.5000e+000 82739 -2.0347e+001 -3.0040e+001 -2.2326e+000 52246 82762,82540,82514
 6.5000e+000 82716 -1.3231e+001 -1.6827e+001 -5.8637e+000 52246 82762,82514,82644
 6.5000e+000 82693 -2.2212e+001 -3.6694e+001  5.1015e+000 52246 82540,82618,82592
 6.5000e+000 82670 -2.2365e+001 -3.1033e+001  1.1023e+000 52246 82540,82592,82566
 6.5000e+000 82788 -1.3763e+001 -3.9323e+001  1.4743e+000 52246 82618,82540,82762
 6.5000e+000 82811 -1.0848e+001 -3.3686e+001 -2.2384e+000 52246 82618,82762,82644
 6.5000e+000 83059 -5.7845e+000 -4.8476e+001  3.7888e+000 51578 82860,82964,82938
 6.5000e+000 83036 -2.1533e+000 -3.7038e+001 -1.2733e+001 51578 82834,82964,82860
 6.5000e+000 83013 -4.0937e+000 -3.8518e+001  8.4757e+000 51578 82860,82938,82886
 6.5000e+000 82990 -3.4742e+000 -3.0274e+001  3.7499e+000 51578 82886,82938,82912
 6.5000e+000 83309 -1.1913e+001 -2.4877e+001  9.7580e+000 51138 83332,83162,83136
 6.5000e+000 83286 -5.6871e+000 -3.5785e+001  3.0219e+000 51138 83332,83136,83110
 6.5000e+000 83263 -1.3044e+001 -3.6312e+001 -5.4244e-003 51138 83404,83214,83188
 6.5000e+000 83240  4.2412e-001 -1.8411e+001  2.0075e+000 51138 83084,83214,83110
 6.5000e+000 83358 -2.0886e+001 -3.9177e+001  1.5169e+001 51138 83188,83162,83332
 6.5000e+000 83381 -9.8827e+000 -4.1390e+001  4.4427e+000 51138 83404,83188,83332
 6.5000e+000 83430 -7.8947e+000 -2.2729e+001 -9.4911e-001 51138 83110,83214,83404
 6.5000e+000 83453 -6.7315e+000 -3.0969e+001  3.6660e+000 51138 83110,83404,83332
 6.5000e+000 83835 -1.4982e+001 -5.0769e+001 -1.0805e+000 50734 83613,83717,83691
 6.5000e+000 83812 -1.8220e+001 -5.9429e+001 -7.3662e+000 50734 83561,83717,83613
 6.5000e+000 83789 -1.2867e+001 -2.7515e+001 -1.3171e+001 50734 83561,83613,83587
 6.5000e+000 83766 -2.1311e+001 -3.6634e+001 -3.1584e-001 50734 83613,83691,83639
 6.5000e+000 83743 -2.2879e+001 -3.6770e+001  9.3185e+000 50734 83639,83691,83665
 6.5000e+000 84034 -1.2896e+001 -2.8832e+001  1.1938e+000 50230 84057,83884,83858
 6.5000e+000 84011 -1.2017e+001 -2.8819e+001 -2.1691e+000 50230 84129,84057,83858
 6.5000e+000 83988 -4.4924e+000 -3.0168e+001 -4.1430e+000 50230 84129,83858,83962
 6.5000e+000 84083 -1.0733e+001 -2.6693e+001 -2.1746e+000 50230 83910,83884,84057
 6.5000e+000 84106 -9.0260e+000 -2.3722e+001 -1.3530e+000 50230 83910,84057,83936
 6.5000e+000 84155 -1.9690e+000 -2.5461e+001 -3.5158e-001 50230 83936,84057,84129
 6.5000e+000 84178  9.7993e-001 -3.0116e+001 -3.2462e+000 50230 83936,84129,83962
 6.5000e+000 84558 -1.9868e+001 -4.2663e+001 -5.5752e+000 49768 84581,84388,84362
 6.5000e+000 84535 -3.5410e+001 -4.4618e+001 -2.5482e+000 49768 84581,84362,84310
 6.5000e+000 84512 -3.6748e+000 -4.9996e+001 -7.0999e+000 49768 84653,84440,84414
 6.5000e+000 84489 -2.9546e+001 -4.9945e+001  3.6212e+000 49768 84310,84362,84336
 6.5000e+000 84466 -5.8327e+000 -4.0059e+001  2.5007e+000 49768 84284,84440,84310
 6.5000e+000 84607 -9.3598e+000 -3.8659e+001 -1.0512e+001 49768 84414,84388,84581
 6.5000e+000 84630 -9.8747e+000 -4.5120e+001 -4.9287e+000 49768 84653,84414,84581
 6.5000e+000 84679 -1.2127e+001 -4.8522e+001 -9.9826e+000 49768 84310,84440,84653
 6.5000e+000 84702 -2.1826e+001 -4.7829e+001 -1.0495e+001 49768 84310,84653,84581
 6.5000e+000 85159 -2.9870e+001 -5.4768e+001 -1.4204e+001 49192 84885,84937,84911
 6.5000e+000 85136 -2.5004e+001 -3.3429e+001 -1.1391e+001 49192 84885,85041,84937
 6.5000e+000 85113 -1.6499e+001 -2.8192e+001 -5.7232e+000 49192 84963,85041,84989
 6.5000e+000 85090 -1.5142e+001 -2.5477e+001 -6.6889e+000 49192 84937,85041,84963
 6.5000e+000 85067 -1.2360e+001 -2.4408e+001 -8.1231e+000 49192 84989,85041,85015
 6.5000e+000 85714 -2.7176e+001 -3.6463e+001  1.1479e+000 48638 85368,85498,85394
 6.5000e+000 85691 -3.4077e+001 -4.4276e+001  4.1776e+000 48638 85368,85524,85498
 6.5000e+000 85668 -3.5321e+001 -3.6923e+001  1.4429e+001 48638 85737,85420,85394
 6.5000e+000 85645 -2.7326e+001 -4.0718e+001  6.7356e+000 48638 85737,85394,85498
 6.5000e+000 85622 -1.9721e+001 -3.9877e+001  9.9851e+000 48638 85446,85498,85472
 6.5000e+000 85599 -9.2289e+000 -3.4412e+001  5.3624e+000 48638 85342,85524,85368
 6.5000e+000 85576 -3.3037e+001 -4.2406e+001  6.9222e+000 48638 85342,85550,85524
 6.5000e+000 85763 -2.2603e+001 -3.0909e+001  1.6868e+001 48638 85446,85420,85737
 6.5000e+000 85786 -2.2290e+001 -3.6961e+001  8.6061e+000 48638 85446,85737,85498
 6.5000e+000 86371 -2.3792e+001 -2.4637e+001 -1.0245e+000 48084 86100,86230,86178
 6.5000e+000 86348 -3.0114e+001 -3.8630e+001 -4.6843e+000 48084 86048,86230,86100
 6.5000e+000 86325 -1.9184e+001 -2.0660e+001  7.5961e+000 48084 86100,86178,86126
 6.5000e+000 86302 -1.8438e+001 -1.1211e+001 -8.0698e+000 48084 86048,86100,86074
 6.5000e+000 86279 -2.8616e+001 -4.6886e+001 -1.0443e+000 48084 86178,86230,86204
 6.5000e+000 86256 -1.5714e+001 -1.7119e+001  9.0235e+000 48084 86126,86178,86152
 6.5000e+000 86619 -1.3119e+001 -2.6886e+001  2.4139e+000 47630 86642,86446,86420
 6.5000e+000 86596 -1.4489e+001 -3.0419e+001 -5.9710e+000 47630 86642,86420,86394
 6.5000e+000 86573 -2.3994e+001 -3.3417e+001 -6.4778e+000 47630 86394,86524,86498
 6.5000e+000 86550 -1.0426e+001 -3.3415e+001  3.0892e+000 47630 86446,86498,86472
 6.5000e+000 86668 -1.7280e+001 -3.6411e+001  1.1261e+000 47630 86498,86446,86642
 6.5000e+000 86691 -1.7240e+001 -3.7099e+001 -7.1422e+000 47630 86498,86642,86394
 6.5000e+000 87022 -4.4266e+000 -1.5340e+001 -1.0648e+001 47226 87045,86875,86849
 6.5000e+000 86999 -4.1663e+000 -2.0635e+001 -1.0216e+001 47226 87045,86849,86797
 6.5000e+000 86976 -1.3228e+000 -6.9185e+000 -4.8358e+000 47226 86797,86849,86823
 6.5000e+000 86953 -2.9398e+000 -1.3683e+001 -8.0252e+000 47226 86875,86927,86901
 6.5000e+000 87071 -5.8323e+000 -1.9988e+001 -9.9205e+000 47226 86927,86875,87045
 6.5000e+000 87094 -4.2261e+000 -2.3532e+001 -9.7414e+000 47226 86927,87045,86797
 6.5000e+000 87244 -5.2661e+000 -4.3356e+001  1.4567e+001 46814 87267,87169,87143
 6.5000e+000 87221 -2.4964e+001 -4.0550e+001 -6.4640e-001 46814 87267,87143,87117
 6.5000e+000 87293 -2.8675e+000 -3.2940e+001  8.1453e+000 46814 87339,87267,87195
 6.5000e+000 87316  1.4706e+000 -2.9228e+001 -9.0599e-001 46814 87469,87267,87117
 6.5000e+000 87365 -9.8103e+000 -3.3344e+001  1.3339e+001 46814 87169,87267,87339
 6.5000e+000 87495 -5.2719e-001  5.1169e-001 -1.2402e+000 46814 87195,87267,87469
 6.5000e+000 88001 -1.2189e+001 -2.0721e+001  1.1236e+001 46310 88024,87834,87808
 6.5000e+000 87978 -1.7109e+001 -2.1787e+001  5.4273e+000 46310 88024,87808,87756
 6.5000e+000 87955 -8.7904e+000 -3.2684e+001  2.6846e+000 46310 88096,87730,87860
 6.5000e+000 87932 -1.1955e+001 -2.9646e+001  6.1205e+000 46310 87756,87808,87782
 6.5000e+000 87909 -1.1598e+001 -3.4815e+001  1.0569e+000 46310 87678,87860,87730
 6.5000e+000 87886 -1.7449e+001 -6.3407e+001 -4.0926e+000 46310 87678,87730,87704
 6.5000e+000 88050 -1.3314e+001 -2.3807e+001  8.0195e+000 46310 87860,87834,88024
 6.5000e+000 88073 -9.2136e+000 -2.0630e+001  6.6436e+000 46310 88096,87860,88024
 6.5000e+000 88122 -1.1825e+001 -3.8386e+001 -1.3040e+000 46310 87756,87730,88096
 6.5000e+000 88145 -1.9788e+001 -3.3635e+001  8.9679e-001 46310 87756,88096,88024
 6.5000e+000 88572 -1.1138e+001 -3.8490e+001  4.2201e+000 45856 88249,88405,88275
 6.5000e+000 88549 -6.4515e+000 -1.2769e+001 -5.7974e+000 45856 88249,88431,88405
 6.5000e+000 88526 -2.5245e+001 -5.8963e+001 -8.3473e+000 45856 88327,88405,88353
 6.5000e+000 88503 -1.0693e+001 -4.8501e+001 -2.8421e+000 45856 88275,88405,88327
 6.5000e+000 88480 -2.1251e+001 -5.4979e+001 -1.4684e+001 45856 88353,88405,88379
 6.5000e+000 88457 -4.2436e+001 -1.1370e+002  9.7871e+000 45856 88275,88327,88301
 6.5000e+000 88950 -6.0187e+000 -2.0938e+001  6.2531e-001 45658 88973,88754,88728
 6.5000e+000 88927 -4.4197e+000 -1.6102e+001  1.7530e+000 45658 88973,88728,88676
 6.5000e+000 88904 -9.4557e+000 -1.9261e+001  1.1936e+001 45658 88676,88832,88806
 6.5000e+000 88881 -1.1076e+001 -2.8930e+001  6.1524e+000 45658 88676,88728,88702
 6.5000e+000 88858 -1.2016e+001 -1.7966e+001 -6.7518e+000 45658 88754,88806,88780
 6.5000e+000 88999 -6.3426e+000 -1.6121e+001  1.0864e+000 45658 88806,88754,88973
 6.5000e+000 89022 -6.3757e+000 -1.3363e+001  2.0213e+000 45658 88806,88973,88676
 6.5000e+000 89351 -1.3344e+001 -4.0611e+001 -1.0862e+000 45254 89152,89230,89204
 6.5000e+000 89328 -1.7503e+001 -4.2658e+001 -2.1133e+000 45254 89152,89256,89230
 6.5000e+000 89305 -9.1108e+000 -4.4547e+001 -5.2545e+000 45254 89126,89256,89152
 6.5000e+000 89282 -6.3638e+000 -3.8712e+001 -4.0993e+000 45254 89152,89204,89178
 6.5000e+000 89523 -2.3168e+000 -1.9434e+001  5.4219e-002 45006 89422,89474,89448
 6.5000e+000 89500 -7.6480e-001 -1.8803e+001  1.2828e+000 45006 89396,89474,89422
 6.5000e+000 89673 -3.1805e+001 -5.4617e+001  4.8867e+000 44495 89572,89624,89598
 6.5000e+000 89650 -3.3560e+001 -5.8859e+001  4.8047e+000 44495 89546,89624,89572
 6.5000e+000 90104 -5.9313e+000 -4.6527e+001 -3.2716e+000 44005 90199,90127,89937
 6.5000e+000 90081 -9.6298e+000 -4.3983e+001  3.7831e-001 44005 90271,90127,89859
 6.5000e+000 90058 -4.3038e+000 -4.6655e+001 -3.1515e+000 44005 90199,89937,89885
 6.5000e+000 90035 -1.2599e+001 -4.0172e+001  2.1815e+000 44005 90271,89859,89807
 6.5000e+000 90012 -8.8557e+000 -5.1326e+001 -5.6071e+000 44005 89885,89937,89911
 6.5000e+000 89989 -4.8036e+000 -4.2466e+001  6.2565e+000 44005 89807,89859,89833
 6.5000e+000 90153 -1.1385e+001 -4.8877e+001 -3.4960e+000 44005 89963,89937,90127
 6.5000e+000 90176 -1.2063e+001 -5.3146e+001  4.1052e-001 44005 89963,90127,89781
 6.5000e+000 90225 -1.1258e+001 -4.4882e+001 -2.2140e+000 44005 89859,90127,90199
 6.5000e+000 90248 -6.6476e+000 -4.2704e+001 -9.7467e-001 44005 89859,90199,89885
 6.5000e+000 90297 -1.3340e+001 -4.8048e+001 -2.0032e+000 44005 89781,90127,90271
 6.5000e+000 90320 -1.4931e+001 -4.3658e+001  2.3258e-001 44005 89781,90271,89807
 6.5000e+000 90470 -6.2022e+000 -3.9159e+001 -8.8729e-001 43601 90493,90369,90343
 6.5000e+000 90447 -1.1839e+001 -3.0063e+001  3.7737e+000 43601 90493,90343,90421
 6.5000e+000 90519 -1.4655e+001 -5.5348e+001 -6.6055e+000 43601 90395,90369,90493
 6.5000e+000 90542 -1.1979e+001 -3.6539e+001 -5.9894e-001 43601 90395,90493,90421
 6.5000e+000 90922 -1.3547e+001 -4.5705e+001  3.0370e+000 43154 90945,90700,90674
 6.5000e+000 90899 -1.1694e+001 -4.6739e+001 -5.8392e+000 43154 90945,90674,90648
 6.5000e+000 90876 -1.5338e+001 -3.5458e+001 -3.7623e+000 43154 90648,90778,90752
 6.5000e+000 90853 -7.2802e+000 -7.2103e+001  3.1177e+000 43154 90700,90752,90726
 6.5000e+000 90830 -1.1225e+001 -3.6256e+001 -1.7769e+000 43154 90648,90804,90778
 6.5000e+000 90971 -1.6110e+001 -5.3533e+001  4.5491e+000 43154 90752,90700,90945
 6.5000e+000 90994 -1.3649e+001 -5.1519e+001 -4.0838e+000 43154 90752,90945,90648
 6.5000e+000 91451 -6.0013e+000 -4.2615e+001 -7.9584e+000 42650 91203,91255,91229
 6.5000e+000 91428  3.0126e-001 -3.9896e+001 -3.1444e+000 42650 91203,91333,91255
 6.5000e+000 91405 -3.4968e+000 -6.1876e+001 -9.5457e+000 42650 91177,91333,91203
 6.5000e+000 91382 -2.2371e+001 -6.8163e+001  8.4977e+000 42650 91255,91333,91281
 6.5000e+000 91359 -3.9569e+000 -5.5588e+001  2.1943e+000 42650 91281,91333,91307
 6.5000e+000 91721 -3.1169e+001 -5.9653e+001  5.3419e+000 42288 91496,91600,91522
 6.5000e+000 91698 -1.9624e+001 -3.7625e+001 -2.3048e+000 42288 91496,91626,91600
 6.5000e+000 91675 -1.6086e+001 -5.2863e+001  5.8977e+000 42288 91522,91574,91548
 6.5000e+000 91652 -1.5247e+001 -5.3275e+001  5.8389e+000 42288 91522,91600,91574
 6.5000e+000 92199 -4.6321e+001 -6.6497e+001 -1.5480e+000 41898 92222,91983,91879
 6.5000e+000 92176 -4.7134e+001 -7.5610e+001 -5.1633e+000 41898 92294,92222,91879
 6.5000e+000 92153 -4.9932e+001 -7.4500e+001 -7.2040e+000 41898 92294,91879,91853
 6.5000e+000 92130 -4.0758e+001 -3.8365e+001  5.5668e+000 41898 91879,91957,91931
 6.5000e+000 92107 -4.0987e+001 -6.4411e+001 -3.1912e-002 41898 91879,91983,91957
 6.5000e+000 92084 -4.8154e+001 -3.8808e+001  1.2401e+001 41898 91879,91931,91905
 6.5000e+000 92061 -4.4815e+001 -7.0922e+001 -7.0607e+000 41898 91827,92035,91853
 6.5000e+000 92248 -4.6331e+001 -7.8081e+001  1.0055e+000 41898 92009,91983,92222
 6.5000e+000 92271 -4.4375e+001 -7.9879e+001 -7.0615e+000 41898 92009,92222,92035
 6.5000e+000 92320 -4.2472e+001 -7.3785e+001 -5.4563e+000 41898 92035,92222,92294
 6.5000e+000 92343 -4.4524e+001 -7.2264e+001 -7.3688e+000 41898 92035,92294,91853
 6.5000e+000 92770 -9.2479e+000 -5.0696e+001 -4.1106e+000 41437 92865,92793,92525
 6.5000e+000 92747 -1.3924e+001 -5.6732e+001 -6.2100e+000 41437 92793,92473,92629
 6.5000e+000 92724 -2.1840e+000 -5.3198e+001 -7.9453e+000 41437 92865,92525,92499
 6.5000e+000 92701 -2.1423e+001 -4.2357e+001 -1.0279e+001 41437 92525,92603,92577
 6.5000e+000 92678  2.0874e+000 -5.4634e+001 -5.4479e+000 41437 92447,92629,92473
 6.5000e+000 92655 -2.5204e+001 -3.6809e+001 -6.8829e+000 41437 92525,92577,92551
 6.5000e+000 92819 -1.0592e+001 -5.3794e+001 -8.9844e+000 41437 92603,92525,92793
 6.5000e+000 92842 -2.4432e+001 -5.8571e+001 -1.7051e+001 41437 92603,92793,92629
 6.5000e+000 92891  4.1288e+000 -5.4224e+001 -4.6725e+000 41437 92473,92793,92865
 6.5000e+000 92914  1.3989e+001 -5.3139e+001 -1.0085e+001 41437 92473,92865,92499
 6.5000e+000 93243 -1.2040e+001 -8.2231e+001  2.8887e+001 41097 93044,93096,93070
 6.5000e+000 93220 -2.0143e+001 -7.6220e+001  1.5147e+001 41097 93044,93122,93096
 6.5000e+000 93197  2.3510e+000 -5.0124e+001  4.6784e+000 41097 93044,93148,93122
 6.5000e+000 93174 -1.2594e+001 -3.7151e+001  1.4094e+001 41097 93018,93148,93044
 6.5000e+000 93393 -1.9616e+000 -6.3404e+001  3.5873e+000 40643 93416,93292,93344
 6.5000e+000 93370 -1.5562e+000 -5.8849e+001  4.4998e+000 40643 93266,93344,93292
 6.5000e+000 93442 -2.9694e+000 -6.1685e+001  6.7657e+000 40643 93318,93292,93416
 6.5000e+000 93901 -1.7685e+001 -5.4700e+001 -5.0830e+000 40132 93924,93731,93705
 6.5000e+000 93878 -1.7755e+001 -5.2472e+001 -4.9020e+000 40132 93996,93924,93705
 6.5000e+000 93855 -2.0230e+001 -5.8537e+001 -2.6779e+000 40132 93996,93705,93653
 6.5000e+000 93832 -4.7969e+000 -6.0165e+001 -3.8453e+000 40132 93653,93705,93679
 6.5000e+000 93809 -1.5508e+001 -4.7076e+001 -1.6352e+000 40132 93627,93783,93757
 6.5000e+000 93950 -1.7138e+001 -5.3902e+001 -5.3219e+000 40132 93757,93731,93924
 6.5000e+000 93973 -1.8464e+001 -4.7111e+001 -1.8313e+000 40132 93757,93924,93627
 6.5000e+000 94022 -2.2815e+001 -5.6458e+001 -6.6391e-001 40132 93627,93924,93996
 6.5000e+000 94045 -2.1221e+001 -5.8507e+001  9.9422e-001 40132 93627,93996,93653
 6.5000e+000 94423 -9.8361e+000 -7.2830e+001 -8.3266e+000 39514 94149,94227,94175
 6.5000e+000 94400 -1.0723e+001 -6.5265e+001  6.2262e+000 39514 94149,94305,94227
 6.5000e+000 94377 -2.0676e+000 -7.9506e+001 -9.3122e+000 39514 94175,94227,94201
 6.5000e+000 94354 -2.1498e+001 -6.1397e+001  2.7346e+000 39514 94227,94305,94279
 6.5000e+000 94331 -1.0625e+001 -5.6361e+001  5.1135e+000 39514 94227,94279,94253
 6.5000e+000 94573 -5.7476e+000 -3.5476e+001 -5.6391e+000 38822 94596,94498,94472
 6.5000e+000 94550  6.7528e+000 -3.6236e+001  1.0009e+001 38822 94596,94472,94446
 6.5000e+000 94622 -1.9948e+001 -4.1375e+001 -8.1710e+000 38822 94524,94498,94596
 6.5000e+000 94645 -1.6073e+001 -4.4886e+001  8.9710e+000 38822 94524,94596,94446
 6.5000e+000 95025 -5.6131e+000 -4.2286e+001 -4.0899e+000 38418 95048,94829,94777
 6.5000e+000 95002 -4.1967e+000 -4.3279e+001 -5.8748e+000 38418 95120,95048,94777
 6.5000e+000 94979 -1.8860e+000 -4.5717e+001 -5.5380e+000 38418 95120,94777,94751
 6.5000e+000 94956 -1.5435e+000 -4.2566e+001 -5.7445e+000 38418 95192,94881,94855
 6.5000e+000 94933 -1.2175e+001 -3.0512e+001 -5.0516e+000 38418 94777,94829,94803
 6.5000e+000 95074 -8.2699e+000 -5.2564e+001 -1.0889e+000 38418 94855,94829,95048
 6.5000e+000 95097 -2.8572e+000 -4.3995e+001 -4.8483e+000 38418 95192,94855,95048
 6.5000e+000 95146 -8.6203e+000 -4.4940e+001 -4.2606e+000 38418 94907,95048,95120
 6.5000e+000 95169 -4.8239e+000 -4.6468e+001 -3.6780e+000 38418 94907,95120,94751
 6.5000e+000 95218 -3.8788e+000 -3.7497e+001 -5.8215e+000 38418 94907,94881,95192
 6.5000e+000 95241 -7.1554e+000 -4.1329e+001 -4.1895e+000 38418 94907,95192,95048
 6.5000e+000 95511 -1.6731e+001 -4.5224e+001  3.9421e+000 38049 95312,95390,95364
 6.5000e+000 95488 -6.2591e+000 -4.0799e+001  3.7922e+000 38049 95312,95416,95390
 6.5000e+000 95465 -5.7360e+000 -5.1885e+001 -2.3555e+000 38049 95312,95364,95338
 6.5000e+000 95442 -4.5478e+000 -3.4138e+001  5.4600e+000 38049 95286,95416,95312
 6.5000e+000 95808 -1.6224e+001 -5.9296e+001 -2.5849e+000 37437 95831,95586,95560
 6.5000e+000 95785  3.7314e+000 -6.0120e+001 -2.7526e+000 37437 95831,95560,95534
 6.5000e+000 95762 -2.9883e+001 -5.4357e+001  3.1741e+000 37437 95586,95664,95638
 6.5000e+000 95739 -6.3518e+000 -2.9255e+001 -1.3082e+001 37437 95534,95690,95664
 6.5000e+000 95716 -3.0630e+001 -3.5408e+001  1.1240e+000 37437 95586,95638,95612
 6.5000e+000 95857 -2.9414e+001 -5.5698e+001  5.7523e+000 37437 95664,95586,95831
 6.5000e+000 95880 -8.4359e+000 -5.5992e+001  5.9264e+000 37437 95664,95831,95534
 6.5000e+000 96390 -2.5301e+001 -4.6577e+001 -4.6821e+000 36883 96413,96145,96093
 6.5000e+000 96367 -2.1708e+001 -4.4406e+001 -2.1096e+000 36883 96413,96093,96067
 6.5000e+000 96344 -1.6579e+001 -5.8882e+001 -8.9522e-001 36883 96067,96249,96171
 6.5000e+000 96321 -2.2078e+001 -5.4298e+001 -2.8682e+000 36883 96093,96145,96119
 6.5000e+000 96298 -2.9520e+001 -9.1901e+001  6.9398e+000 36883 96171,96249,96197
 6.5000e+000 96275 -7.4064e+000 -7.5363e+001 -9.7948e-001 36883 96197,96249,96223
 6.5000e+000 96439 -2.3284e+001 -4.2828e+001 -1.8373e+000 36883 96171,96145,96413
 6.5000e+000 96462 -2.0936e+001 -4.3206e+001  4.3706e-001 36883 96171,96413,96067
 6.5000e+000 96781 -1.6935e+001 -5.3382e+001 -8.3773e+000 36215 96559,96663,96637
 6.5000e+000 96758 -2.2372e+001 -5.5971e+001 -9.5857e+000 36215 96507,96663,96559
 6.5000e+000 96735 -2.1030e+001 -3.3257e+001  4.3053e+000 36215 96585,96637,96611
 6.5000e+000 96712 -4.7883e+001 -6.2062e+001 -7.8016e+000 36215 96559,96637,96585
 6.5000e+000 96689 -1.0545e+001 -5.9798e+001 -2.9537e+000 36215 96507,96559,96533
 6.5000e+000 97161  8.4048e-002 -2.4853e+001 -7.0786e-001 35818 97184,96965,96939
 6.5000e+000 97138 -3.9001e+000 -2.8165e+001 -3.0630e+000 35818 97184,96939,96887
 6.5000e+000 97115 -4.7569e+000 -3.5418e+001  8.2547e+000 35818 96965,97043,97017
 6.5000e+000 97092 -2.7649e+000 -2.5084e+001 -3.3788e+000 35818 96887,96939,96913
 6.5000e+000 97069 -2.1871e+001 -3.6388e+001  5.7376e+000 35818 96965,97017,96991
 6.5000e+000 97210  4.5502e+000 -2.7845e+001  1.4262e+000 35818 97043,96965,97184
 6.5000e+000 97233  1.0766e+000 -3.0024e+001 -5.7361e-001 35818 97043,97184,96887
 6.5000e+000 97739 -1.6889e+001 -5.0215e+001 -1.7959e+001 35214 97416,97468,97442
 6.5000e+000 97716 -2.1167e+001 -3.2382e+001 -7.2249e+000 35214 97416,97598,97468
 6.5000e+000 97693 -1.5867e+001 -2.8397e+001 -4.1809e+000 35214 97762,97520,97468
 6.5000e+000 97670 -1.6171e+001 -2.8850e+001 -4.8774e+000 35214 97762,97468,97598
 6.5000e+000 97647 -1.3256e+001 -2.4220e+001 -7.6417e+000 35214 97546,97598,97572
 6.5000e+000 97624 -1.2951e+001 -2.9420e+001 -4.2987e+000 35214 97468,97520,97494
 6.5000e+000 97788 -1.6150e+001 -2.9249e+001 -4.5180e+000 35214 97546,97520,97762
 6.5000e+000 97811 -1.6247e+001 -2.9598e+001 -5.1644e+000 35214 97546,97762,97598
 6.5000e+000 98189 -9.3291e-001 -1.4154e+001 -5.1276e+000 34760 98356,98212,97967
 6.5000e+000 98166 -4.2677e-001 -1.8362e+001 -7.3590e+000 34760 98284,98212,97941
 6.5000e+000 98143 -3.4075e+000 -1.6166e+001 -5.6937e+000 34760 98284,97941,97915
 6.5000e+000 98120  1.2291e+000 -1.9804e+001 -1.9338e+000 34760 98484,97993,97967
 6.5000e+000 98097 -1.3758e-001 -1.8430e+001 -4.6325e-001 34760 98556,98045,98019
 6.5000e+000 98238 -1.2750e+000 -1.8014e+001 -2.2831e+000 34760 98484,97967,98212
 6.5000e+000 98261  2.6249e+000 -1.9113e+001 -1.8591e+000 34760 98556,98019,98212
 6.5000e+000 98310  1.1161e+000 -1.3658e+001 -7.7699e+000 34760 98071,98212,98284
 6.5000e+000 98333  1.6588e-001 -7.9278e+000 -6.4591e+000 34760 98071,98284,97915
 6.5000e+000 98382 -2.2101e+001 -2.5778e+001 -1.0707e+001 34760 97941,98212,98356
 6.5000e+000 98510  6.0916e+000 -1.9181e+001 -3.2065e+000 34760 98019,97993,98484
 6.5000e+000 98533  1.6991e+000 -1.8888e+001 -3.5532e+000 34760 98019,98484,98212
 6.5000e+000 98582  3.3572e+000 -1.7180e+001 -1.7593e-002 34760 98071,98045,98556
 6.5000e+000 98605  4.5845e+000 -1.8844e+001 -1.6401e+000 34760 98071,98556,98212
 6.5000e+000 99032 -2.2165e+001 -4.2875e+001  7.8916e+000 34156 98735,98891,98839
 6.5000e+000 99009 -2.0275e+001 -4.4678e+001  4.5769e+000 34156 98709,98891,98735
 6.5000e+000 98986 -8.3708e+000 -4.0592e+001  7.1087e+000 34156 98735,98813,98787
 6.5000e+000 98963 -9.4943e+000 -4.3365e+001  7.0525e+000 34156 98735,98839,98813
 6.5000e+000 98940  7.7917e-001 -6.0611e+001  8.1977e+000 34156 98735,98787,98761
 6.5000e+000 98917 -2.0945e+001 -4.0030e+001  8.0115e+000 34156 98839,98891,98865
 6.5000e+000 99231 -4.0901e+000 -1.8491e+001  2.7776e+000 33766 99055,99133,99107
 6.5000e+000 99208 -8.9378e+000 -2.4215e+001  4.8472e+000 33766 99055,99159,99133
 6.5000e+000 99185 -4.0847e+000 -3.0326e+001  5.6814e+000 33766 99055,99107,99081
 6.5000e+000 99818 -7.2529e+000 -2.2012e+001  9.8950e-001 33248 99521,99651,99573
 6.5000e+000 99795 -3.2083e+000 -1.8533e+001  4.2309e+000 33248 99521,99677,99651
 6.5000e+000 99772 -1.1767e+001 -2.9805e+001 -8.4674e-001 33248 99573,99651,99599
 6.5000e+000 99749 -3.9517e+000 -2.8222e+001  4.5559e+000 33248 99495,99677,99521
 6.5000e+000 99726 -6.5069e+000 -2.6738e+001 -4.3535e+000 33248 99599,99651,99625
 6.5000e+000 99703 -9.6987e+000 -2.4892e+001  2.0343e+000 33248 99521,99573,99547
 6.5000e+000 100196 -1.3165e+001 -3.3187e+001 -6.2609e+000 32794 100219,99948,99922
 6.5000e+000 100173 -1.4353e+001 -3.5236e+001 -1.5523e+000 32794 100219,99922,100052
 6.5000e+000 100150 -1.6458e+001 -2.6599e+001  3.7089e+000 32794 99974,100052,100026
 6.5000e+000 100127 -1.7517e+001 -3.3612e+001 -1.7875e+000 32794 99922,100078,100052
 6.5000e+000 100104 -1.2606e+001 -3.3420e+001  1.0195e+001 32794 99974,100026,100000
 6.5000e+000 100245 -1.8525e+001 -3.4349e+001 -4.5883e+000 32794 99974,99948,100219
 6.5000e+000 100268 -1.7919e+001 -3.6413e+001  2.9107e-001 32794 99974,100219,100052
 6.5000e+000 100418 -4.3564e+000 -3.5316e+001 -4.5861e+000 32504 100571,100343,100317
 6.5000e+000 100395 -1.9477e+001 -4.2137e+001  4.0966e+000 32504 100571,100317,100441
 6.5000e+000 100467  1.0538e+001 -1.7889e+001 -1.3625e+001 32504 100291,100369,100441
 6.5000e+000 100597  2.0788e+000 -2.9025e+001 -1.6955e+001 32504 100369,100343,100571
 6.5000e+000 100620 -4.9613e+000 -2.7144e+001 -9.4627e+000 32504 100369,100571,100441
 6.5000e+000 101020  1.9744e+000 -1.0987e+001  1.5944e+000 32142 100772,100902,100876
 6.5000e+000 100997  3.7238e-001  2.7216e+000 -1.4395e-001 32142 100746,100902,100772
 6.5000e+000 100974  3.2347e+000 -1.9913e+001  6.1156e+000 32142 101043,100824,100798
 6.5000e+000 100951 -1.9439e-001 -2.2781e+001  4.8432e+000 32142 101043,100798,100772
 6.5000e+000 100928 -1.7009e+001 -2.9785e+001 -1.1772e+001 32142 101115,100876,100850
 6.5000e+000 101069  7.6992e+000 -2.4924e+001 -2.9707e-001 32142 100850,100824,101043
 6.5000e+000 101092 -6.6729e+000 -3.2975e+001 -3.7991e+000 32142 101115,100850,101043
 6.5000e+000 101141 -3.8978e+000 -1.8753e+001 -4.9288e+000 32142 100772,100876,101115
 6.5000e+000 101164  4.9454e+000 -2.0573e+001  3.4653e+000 32142 100772,101115,101043
 6.5000e+000 101719 -2.1875e+001 -4.7049e+001  6.7426e+000 31538 101742,101477,101399
 6.5000e+000 101696 -2.4495e+001 -5.5950e+001  2.4234e+000 31538 101814,101742,101399
 6.5000e+000 101673 -2.6617e+001 -4.7199e+001 -1.8465e+000 31538 101814,101399,101373
 6.5000e+000 101650 -2.2097e+001 -3.3739e+001  5.2564e+000 31538 101425,101477,101451
 6.5000e+000 101627 -2.0053e+001 -3.9957e+001  1.8417e+000 31538 101399,101477,101425
 6.5000e+000 101604 -1.3100e+001 -5.9458e+001  1.1942e+001 31538 101477,101529,101503
 6.5000e+000 101581 -6.6002e+000 -2.7862e+001 -7.0997e-001 31538 101347,101555,101373
 6.5000e+000 101768 -2.3821e+001 -5.6616e+001  6.1740e+000 31538 101529,101477,101742
 6.5000e+000 101791 -2.3097e+001 -5.9373e+001 -3.0716e+000 31538 101529,101742,101555
 6.5000e+000 101840 -1.8359e+001 -4.6697e+001 -2.0783e+000 31538 101555,101742,101814
 6.5000e+000 101863 -2.2101e+001 -3.9650e+001 -6.0437e+000 31538 101555,101814,101373
 6.5000e+000 102111 -3.5507e+001 -8.1694e+001  1.2150e+001 31112 101886,101990,101912
 6.5000e+000 102088 -1.4101e+001 -5.1100e+001 -2.8793e-001 31112 101886,102016,101990
 6.5000e+000 102065 -1.7125e+001 -7.5713e+001  1.3499e+001 31112 101912,101990,101964
 6.5000e+000 102042 -2.0132e+001 -8.4971e+001  1.4190e+001 31112 101912,101964,101938
 6.5000e+000 102408 -9.9544e+000 -4.2981e+001  4.2683e+000 30658 102431,102186,102160
 6.5000e+000 102385 -1.7184e+001 -4.2044e+001  4.2552e-001 30658 102431,102160,102264
 6.5000e+000 102362 -1.6536e+001 -4.6867e+001  1.9677e+000 30658 102186,102238,102212
 6.5000e+000 102339 -1.9848e+001 -4.6244e+001 -3.5856e+000 30658 102134,102264,102160
 6.5000e+000 102316 -1.3749e+001 -3.8262e+001 -1.4081e+001 30658 102134,102290,102264
 6.5000e+000 102457 -1.5662e+001 -4.6021e+001  2.5832e+000 30658 102238,102186,102431
 6.5000e+000 102480 -2.3426e+001 -4.5864e+001 -1.5691e+000 30658 102238,102431,102264
 6.5000e+000 102681 -6.1724e+000 -4.7756e+001  6.6215e+000 30004 102704,102557,102505
 6.5000e+000 102658 -5.8941e+000 -5.1256e+001  8.1793e+000 30004 102704,102505,102609
 6.5000e+000 102635  1.2030e+000 -3.6345e+001  2.0244e+000 30004 102505,102557,102531
 6.5000e+000 102730 -6.7497e+000 -4.4367e+001  5.9558e+000 30004 102583,102557,102704
 6.5000e+000 102753 -7.0069e+000 -4.7293e+001  8.5532e+000 30004 102583,102704,102609
 6.5000e+000 103003 -7.0195e+000 -4.1052e+001 -2.6136e+000 29564 103026,102804,102778
 6.5000e+000 102980 -9.2251e+000 -5.0325e+001 -4.2751e+000 29564 103026,102778,102908
 6.5000e+000 102957 -1.0169e+001 -4.3357e+001  8.6714e-001 29564 102856,102908,102882
 6.5000e+000 102934 -1.5815e+001 -3.6233e+001  4.4565e+000 29564 102804,102856,102830
 6.5000e+000 103052 -6.8158e+000 -3.6691e+001  3.6210e+000 29564 102856,102804,103026
 6.5000e+000 103075 -9.5079e+000 -4.4141e+001  1.1017e+000 29564 102856,103026,102908
 6.5000e+000 103634 -1.8758e+001 -4.7401e+001 -6.3420e+000 29160 103657,103418,103392
 6.5000e+000 103611 -1.6599e+001 -4.3199e+001 -9.5457e-001 29160 103657,103392,103314
 6.5000e+000 103588 -1.2579e+001 -3.4714e+001 -3.1320e+000 29160 103314,103392,103366
 6.5000e+000 103565 -3.3461e+000 -3.5570e+001 -7.2059e+000 29160 103314,103366,103340
 6.5000e+000 103542 -1.6363e+001 -3.5900e+001 -4.3414e+000 29160 103262,103444,103314
 6.5000e+000 103519 -2.0818e+001 -4.5654e+001 -5.4413e+000 29160 103262,103314,103288
 6.5000e+000 103496 -1.3996e+001 -3.9799e+001 -1.7788e+000 29160 103262,103470,103444
 6.5000e+000 103683 -2.7315e+001 -5.4692e+001 -1.3775e+001 29160 103444,103418,103657
 6.5000e+000 103706 -1.9567e+001 -4.2214e+001 -7.4706e+000 29160 103444,103657,103314
 6.5000e+000 104035 -1.5252e+001 -4.6368e+001  5.3698e+000 28770 103836,103914,103862
 6.5000e+000 104012 -1.4154e+001 -4.4006e+001  6.8893e+000 28770 103810,103914,103836
 6.5000e+000 103989 -4.8000e-001 -3.9358e+001  7.0464e+000 28770 103810,103940,103914
 6.5000e+000 103966 -3.8502e+000 -3.8646e+001  1.0539e+001 28770 103862,103914,103888
 6.5000e+000 104185 -2.0424e+000 -3.6219e+001  7.6652e+000 28366 104208,104110,104084
 6.5000e+000 104162 -2.6870e+000 -3.2124e+001  5.4907e+000 28366 104280,104208,104084
 6.5000e+000 104234  6.6746e+000 -3.7080e+001  3.8111e+000 28366 104610,104208,104136
 6.5000e+000 104257 -5.9576e+000 -3.3575e+001  4.8522e+000 28366 104538,104410,104208
 6.5000e+000 104306 -9.2691e+000 -3.4812e+001  5.2738e+000 28366 104538,104208,104280
 6.5000e+000 104436 -6.5461e-001 -3.2180e+001  1.1601e+000 28366 104136,104208,104410
 6.5000e+000 104564 -9.5218e+000 -3.2069e+001  2.9590e+000 28366 104058,104410,104538
 6.5000e+000 104587 -1.1296e+001 -3.2357e+001  3.0295e+000 28366 104058,104538,104280
 6.5000e+000 104636  6.5726e+000 -3.6545e+001  6.3990e+000 28366 104110,104208,104610
 6.5000e+000 105349 -1.1894e+001 -3.8615e+001 -3.3455e+000 27976 105516,105372,105107
 6.5000e+000 105326 -1.9944e+001 -4.0010e+001  1.8192e+000 27976 105588,105372,105055
 6.5000e+000 105303 -2.3512e+001 -3.8887e+001 -6.3768e+000 27976 105444,105159,105133
 6.5000e+000 105280 -7.0244e+000 -4.0211e+001 -1.6148e+000 27976 105516,105107,105081
 6.5000e+000 105257 -1.9431e+001 -4.3846e+001  3.7121e+000 27976 105588,105055,105029
 6.5000e+000 105234 -1.1587e+001 -3.2382e+001  2.5302e+000 27976 105003,105185,105159
 6.5000e+000 105211 -1.3541e+001 -2.4703e+001  7.7046e+000 27976 104977,105185,105003
 6.5000e+000 105398 -8.9008e+000 -4.0814e+001 -5.0922e+000 27976 105133,105107,105372
 6.5000e+000 105421 -1.7108e+001 -4.3816e+001 -3.5085e+000 27976 105444,105133,105372
 6.5000e+000 105470 -1.7484e+001 -3.0435e+001 -3.0677e+000 27976 105003,105159,105444
 6.5000e+000 105493 -1.2978e+001 -3.6165e+001 -1.6665e+000 27976 105003,105444,105372
 6.5000e+000 105542 -8.6067e+000 -3.8278e+001  8.1454e-001 27976 105055,105372,105516
 6.5000e+000 105565 -1.2155e+000 -3.8858e+001  2.0301e+000 27976 105055,105516,105081
 6.5000e+000 105614 -2.1385e+001 -4.3859e+001  3.7383e+000 27976 105003,105372,105588
 6.5000e+000 105637 -2.1236e+001 -4.7444e+001  5.8639e+000 27976 105003,105588,105029
 6.5000e+000 106143 -1.3034e+001 -5.2243e+001  2.0002e+000 27664 106166,105846,105820
 6.5000e+000 106120 -7.8710e+000 -3.6045e+001  3.9877e-001 27664 106310,106166,105820
 6.5000e+000 106097 -1.8499e+000 -4.9010e+001 -1.1665e+001 27664 106382,106238,105950
 6.5000e+000 106074 -4.4733e+000 -3.3902e+001 -5.2710e-001 27664 106310,105820,106002
 6.5000e+000 106051  7.7949e+000 -4.3173e+001 -8.9037e+000 27664 106382,105950,105924
 6.5000e+000 106028  2.9705e+000 -8.5646e+001 -2.1277e+000 27664 105846,105898,105872
 6.5000e+000 106192 -1.2028e+001 -5.9500e+001 -1.0330e+001 27664 105898,105846,106166
 6.5000e+000 106215 -5.7759e+000 -4.9543e+001 -4.4661e+000 27664 106238,105898,106166
 6.5000e+000 106264 -2.5575e+001 -5.4450e+001 -1.6107e+001 27664 105976,105950,106238
 6.5000e+000 106287 -5.4224e+000 -4.7464e+001 -5.1455e+000 27664 105976,106238,106166
 6.5000e+000 106336 -4.3202e+000 -4.0686e+001  4.2536e+000 27664 105976,106166,106310
 6.5000e+000 106359 -1.9214e-001 -3.8096e+001  3.1435e+000 27664 105976,106310,106002
 6.5000e+000 106408 -5.6871e+000 -3.9188e+001 -6.7714e-001 27664 105898,106238,106382
 6.5000e+000 106431 -1.5752e-001 -3.6263e+001  1.2426e+000 27664 105898,106382,105924
 6.5000e+000 106728 -4.4975e+000 -2.6377e+001  7.0154e+000 27153 106751,106506,106454
 6.5000e+000 106705 -4.3932e+000 -2.8129e+001  4.9032e+000 27153 106751,106454,106610
 6.5000e+000 106682 -7.2280e+000 -2.2110e+001  3.5197e+000 27153 106454,106506,106480
 6.5000e+000 106659 -6.6749e+000 -2.5213e+001  3.7965e+000 27153 106532,106610,106584
 6.5000e+000 106636 -8.1354e+000 -1.1152e+001  7.9929e+000 27153 106532,106584,106558
 6.5000e+000 106777 -1.9901e+000 -2.3917e+001  8.0231e+000 27153 106532,106506,106751
 6.5000e+000 106800 -2.8327e+000 -2.6633e+001  5.6150e+000 27153 106532,106751,106610
 6.5000e+000 107180 -5.2669e+000 -3.5559e+001  3.2867e+000 26642 107203,106984,106958
 6.5000e+000 107157 -1.7455e+001 -4.1752e+001 -6.9901e-001 26642 107203,106958,106932
 6.5000e+000 107134 -2.3587e+001 -4.8203e+001 -6.5220e+000 26642 107275,107036,107010
 6.5000e+000 107111 -1.7020e+001 -4.6192e+001 -1.0199e+001 26642 106932,107062,107036
 6.5000e+000 107088 -4.6257e-002 -3.4794e+001  3.5618e+000 26642 106906,107062,106932
 6.5000e+000 107229  1.1258e-001 -3.5311e+001 -1.0575e+001 26642 107010,106984,107203
 6.5000e+000 107252 -1.9622e+001 -4.2447e+001 -8.5370e+000 26642 107275,107010,107203
 6.5000e+000 107301 -1.8946e+001 -4.7555e+001 -9.6024e+000 26642 106932,107036,107275
 6.5000e+000 107324 -1.7791e+001 -4.7543e+001 -1.0179e+001 26642 106932,107275,107203
 6.5000e+000 107675 -1.2654e+001 -2.7255e+001  4.6425e+000 26045 107450,107554,107476
 6.5000e+000 107652 -1.0746e+001 -2.4543e+001  3.1596e+000 26045 107450,107580,107554
 6.5000e+000 107629 -5.0638e+000 -7.5278e+000 -1.4747e+000 26045 107476,107528,107502
 6.5000e+000 107606 -1.5809e+000 -2.3553e+001  4.1790e+000 26045 107476,107554,107528
 6.5000e+000 107874 -9.8876e+000 -3.9703e+001  1.1149e+001 25641 107750,107802,107776
 6.5000e+000 107851 -9.9363e+000 -2.8847e+001  8.2380e+000 25641 107724,107802,107750
 6.5000e+000 107828 -1.4761e+001 -2.9922e+001  9.1537e+000 25641 107698,107802,107724
 6.5000e+000 108431 -1.5260e+000 -4.5366e+001  9.8615e+000 25023 108526,108267,108241
 6.5000e+000 108408  4.9446e-002 -4.0255e+001  1.0974e+000 25023 108059,108267,108085
 6.5000e+000 108385 -7.0904e+000 -4.9735e+001  8.8153e+000 25023 108454,108163,108111
 6.5000e+000 108362 -2.5426e+001 -4.9114e+001  1.6801e+001 25023 108454,108111,108085
 6.5000e+000 108339 -1.7597e+001 -6.3853e+001  1.4835e+001 25023 108111,108163,108137
 6.5000e+000 108316 -1.3478e+001 -3.5657e+001 -2.5172e+000 25023 108163,108241,108215
 6.5000e+000 108293  6.9256e-001 -2.8891e+001  1.3399e+000 25023 108163,108215,108189
 6.5000e+000 108480 -1.4573e+000 -4.3447e+001  1.1963e+000 25023 108241,108163,108454
 6.5000e+000 108503 -5.8118e+000 -4.5750e+001  1.0228e+001 25023 108526,108241,108454
 6.5000e+000 108552 -7.2104e+000 -4.2644e+001  7.0908e+000 25023 108085,108267,108526
 6.5000e+000 108575 -1.1651e+001 -4.3169e+001  7.3836e+000 25023 108085,108526,108454
 6.5000e+000 108823  7.1692e+000 -3.1009e+001  4.7860e+000 24461 108624,108728,108650
 6.5000e+000 108800 -1.5297e+000 -7.0681e+001 -6.4625e+000 24461 108598,108728,108624
 6.5000e+000 108777  1.9008e+000 -4.0606e+001  2.1632e+000 24461 108650,108728,108676
 6.5000e+000 108754 -1.5419e+001 -1.1879e+002  1.0564e+001 24461 108676,108728,108702
 6.5000e+000 109022 -1.2717e+001 -3.2075e+001  6.3434e+000 24121 108872,108924,108898
 6.5000e+000 108999 -6.9697e+000 -3.2779e+001  6.9364e+000 24121 108846,108924,108872
 6.5000e+000 108976 -1.5171e+001 -3.6102e+001  6.7625e+000 24121 108846,108950,108924
 6.5000e+000 109483 -1.5299e+001 -4.8005e+001 -5.4884e+000 23717 109209,109339,109235
 6.5000e+000 109460 -6.6688e+000 -5.8370e+001 -1.2410e+001 23717 109209,109365,109339
 6.5000e+000 109437  1.8505e-001 -6.1066e+001 -3.5278e+000 23717 109287,109339,109313
 6.5000e+000 109414 -2.6851e+001 -6.1490e+001  3.3840e+000 23717 109235,109339,109287
 6.5000e+000 109391  3.7187e+000 -7.2429e+001  2.7594e+001 23717 109235,109287,109261
 6.5000e+000 109910 -2.0090e+001 -5.9255e+001 -5.9595e+000 23305 109613,109743,109717
 6.5000e+000 109887 -2.0886e+001 -5.9835e+001 -4.6816e+000 23305 109613,109769,109743
 6.5000e+000 109864 -2.4469e+001 -5.5175e+001 -5.2460e+000 23305 109613,109717,109639
 6.5000e+000 109841 -1.4667e+001 -5.5917e+001 -1.4158e+000 23305 109587,109769,109613
 6.5000e+000 109818  5.6628e-001 -4.4633e+001  4.7805e+000 23305 109639,109717,109691
 6.5000e+000 109795 -3.5004e+000 -3.4839e+001 -8.1655e+000 23305 109639,109691,109665
 6.5000e+000 110180 -3.2000e+000 -1.6404e+001 -3.4423e+000 22851 110007,110059,110033
 6.5000e+000 110157 -1.3856e+001 -4.5788e+001  2.8972e+000 22851 109981,110059,110007
 6.5000e+000 110134 -1.8973e+001 -5.1380e+001 -1.3018e-001 22851 109955,110059,109981
 6.5000e+000 110111 -8.0407e+000 -6.1883e+001 -5.1263e+000 22851 109955,110085,110059
 6.5000e+000 110737 -1.2557e+000 -4.6096e+001 -1.5889e+001 22333 110760,110469,110391
 6.5000e+000 110714  2.1958e+000 -5.4609e+001 -1.2535e+001 22333 110760,110391,110365
 6.5000e+000 110691 -1.8382e+000 -3.9468e+001 -1.2245e+001 22333 110832,110521,110469
 6.5000e+000 110668 -9.3747e+000 -8.4320e+001  7.4723e+000 22333 110417,110469,110443
 6.5000e+000 110645 -2.0477e+001 -7.7633e+001  5.8495e+000 22333 110391,110469,110417
 6.5000e+000 110622 -5.3319e-001 -4.1515e+001 -5.3126e+000 22333 110469,110521,110495
 6.5000e+000 110599 -5.7364e+000 -3.0201e+001  6.8312e+000 22333 110365,110573,110547
 6.5000e+000 110786  1.0759e+000 -4.1495e+001 -1.4717e+001 22333 110832,110469,110760
 6.5000e+000 110809  7.4274e+000 -4.6430e+001 -1.0266e+001 22333 110547,110760,110365
 6.5000e+000 110858 -3.7025e+000 -4.3860e+001 -1.1234e+001 22333 110547,110521,110832
 6.5000e+000 110881 -1.6702e+000 -4.7634e+001 -1.3953e+001 22333 110547,110832,110760
 6.5000e+000 111308 -2.4008e+001 -5.8610e+001  4.9910e+000 21829 111331,111063,111011
 6.5000e+000 111285 -1.8256e+001 -5.0953e+001 -2.4500e+000 21829 111331,111011,111167
 6.5000e+000 111262 -2.4307e+001 -5.9505e+001  5.9885e+000 21829 111403,111089,111063
 6.5000e+000 111239 -3.2511e+001 -6.5080e+001  1.0944e+001 21829 111011,111063,111037
 6.5000e+000 111216 -1.0425e+001 -3.8405e+001  9.0056e-001 21829 110985,111167,111011
 6.5000e+000 111193 -3.2852e+001 -1.1044e+002  2.5948e+001 21829 111089,111141,111115
 6.5000e+000 111357 -2.3569e+001 -6.0153e+001  5.9674e+000 21829 111403,111063,111331
 6.5000e+000 111380 -2.4126e+001 -6.1546e+001  1.4332e-001 21829 111141,111331,111167
 6.5000e+000 111429 -2.7367e+001 -6.0593e+001  5.9152e+000 21829 111141,111089,111403
 6.5000e+000 111452 -2.4998e+001 -6.0162e+001  6.1977e+000 21829 111141,111403,111331
 6.5000e+000 112056  2.1993e+001 -3.9500e+001  6.3853e-001 21489 111687,111765,111739
 6.5000e+000 112033  1.0475e+001 -4.6184e+001  5.2470e+000 21489 112151,112079,111687
 6.5000e+000 112010  3.8915e+000 -7.7121e+001  2.7116e+000 21489 111791,111843,111817
 6.5000e+000 111987 -9.8744e+000 -6.1691e+001 -6.9049e+000 21489 112079,111843,111791
 6.5000e+000 111964  1.8799e+001 -4.0508e+001  9.9459e+000 21489 112151,111687,111661
 6.5000e+000 111941  2.1174e+000 -2.7032e+001  6.4082e+000 21489 111661,111869,111843
 6.5000e+000 111918  2.4140e+001 -4.2578e+001  7.1754e+000 21489 111687,111739,111713
 6.5000e+000 111895  9.5422e+000 -9.8530e+000 -3.9148e-002 21489 111635,111869,111661
 6.5000e+000 112105 -3.0389e+000 -5.0362e+001  2.9995e+000 21489 111765,111687,112079
 6.5000e+000 112128 -3.0144e+000 -4.8322e+001  3.2496e+000 21489 111765,112079,111791
 6.5000e+000 112177 -2.9143e+000 -4.4014e+001 -3.2186e+000 21489 111843,112079,112151
 6.5000e+000 112200  4.2769e+000 -4.1405e+001  5.2995e-001 21489 111843,112151,111661
 6.5000e+000 112578 -4.2453e+000 -5.9060e+001  3.0625e+000 21177 112382,112434,112408
 6.5000e+000 112555 -7.6477e+000 -5.8323e+001 -2.1901e-001 21177 112330,112434,112382
 6.5000e+000 112532 -2.2848e+000 -4.6484e+001  1.1703e+001 21177 112304,112434,112330
 6.5000e+000 112509 -8.4740e+000 -5.6008e+001  0.0000e+000 21177 112330,112382,112356
 6.5000e+000 112486 -1.0464e-002 -1.5346e+001  4.2867e-001 21177 112304,112460,112434
 6.5000e+000 112679  6.8074e-001 -1.6314e+001 -9.2751e+000 20666 112601,112653,112627
 6.5000e+000 112927 -2.0430e+001 -6.8484e+001  1.9914e+000 19762 112702,112754,112728
 6.5000e+000 112904 -7.7053e+000 -6.5441e+001 -1.0596e+000 19762 112702,112832,112754
 6.5000e+000 112881 -1.7502e+001 -7.0427e+001  1.1061e+001 19762 112754,112832,112806
 6.5000e+000 112858 -2.4902e+001 -9.1612e+001  1.2208e+001 19762 112754,112806,112780
 6.5000e+000 113297 -1.7996e+001 -8.1659e+001  5.3957e+000 19308 112974,113052,113026
 6.5000e+000 113274 -1.2720e+001 -6.7783e+001  2.0388e+000 19308 112974,113156,113052
 6.5000e+000 113251 -8.3284e+000 -9.0003e+001 -1.0759e+001 19308 113052,113130,113104
 6.5000e+000 113228 -1.3849e+001 -6.7474e+001  1.0006e-001 19308 113052,113156,113130
 6.5000e+000 113205 -1.4226e+001 -7.8320e+001  0.0000e+000 19308 113052,113104,113078
 6.5000e+000 113182 -2.6763e+001 -8.6371e+001 -5.2181e-001 19308 112974,113026,113000
 6.5000e+000 113547  1.2152e+000 -7.2657e+001 -5.3683e+000 18711 113570,113374,113348
 6.5000e+000 113524 -3.8105e-001 -6.6903e+001 -3.4427e+000 18711 113570,113348,113452
 6.5000e+000 113501  3.4251e+000 -4.7878e+001 -1.2893e+001 18711 113322,113452,113348
 6.5000e+000 113478 -6.3609e+000 -6.6340e+001 -2.4733e+001 18711 113374,113426,113400
 6.5000e+000 113596  6.3487e-001 -6.6330e+001 -6.6647e+000 18711 113426,113374,113570
 6.5000e+000 113619 -1.0099e+000 -6.1204e+001 -3.5162e+000 18711 113426,113570,113452
 6.5000e+000 113771 -3.6800e+001 -9.2806e+001 -5.4373e+000 18307 113670,113722,113696
 6.5000e+000 113748 -2.8623e+001 -8.6324e+001 -2.5473e+000 18307 113644,113722,113670
 6.5000e+000 113972 -1.8048e+001 -7.8234e+001  1.7687e+000 17945 113822,113874,113848
 6.5000e+000 113949 -1.6639e+001 -7.7866e+001  1.8000e+000 17945 113822,113900,113874
 6.5000e+000 113926 -2.3507e+001 -6.1288e+001  3.3070e+001 17945 113796,113900,113822
 6.5000e+000 114075 -9.5322e+000 -1.1086e+002  1.3063e+001 17482 113997,114049,114023
 6.5000e+000 114479 -5.2590e+000 -6.5271e+001 -1.0027e+001 17042 114257,114361,114335
 6.5000e+000 114456 -1.4863e+001 -6.0523e+001 -2.0833e+000 17042 114205,114361,114257
 6.5000e+000 114433 -1.6106e+001 -7.0876e+001  2.5275e+000 17042 114205,114257,114231
 6.5000e+000 114410  9.9608e+000 -9.6893e+001 -4.9428e+000 17042 114283,114335,114309
 6.5000e+000 114387 -1.2478e+000 -8.1886e+001 -4.3753e+000 17042 114257,114335,114283
 6.5000e+000 114879 -3.0195e+001 -5.7684e+001 -5.1708e-001 16638 114631,114683,114657
 6.5000e+000 114856 -4.2447e+000 -4.6399e+001  9.0032e-001 16638 114605,114683,114631
 6.5000e+000 114833  1.3416e+001 -2.2826e+001 -9.0769e+000 16638 114605,114761,114683
 6.5000e+000 114810 -4.5940e-001 -6.8974e+001 -3.0949e+000 16638 114683,114735,114709
 6.5000e+000 114787  7.6838e-001 -7.0813e+001 -4.5663e+000 16638 114683,114761,114735
 6.5000e+000 115078 -3.1117e+001 -6.7929e+001  2.0812e+000 16232 114954,115006,114980
 6.5000e+000 115055 -3.0164e+001 -7.4694e+001  3.3879e+000 16232 114928,115006,114954
 6.5000e+000 115032 -1.4434e+001 -9.1271e+001  6.7088e+000 16232 114902,115006,114928
 6.5000e+000 115228 -1.3677e+001 -6.7638e+001  2.7438e+000 15482 115101,115153,115127
 6.5000e+000 115205 -1.6067e+001 -6.4520e+001 -1.0207e+000 15482 115101,115179,115153
 6.5000e+000 115331 -8.3719e+000 -5.6361e+001 -7.3640e+000 15163 115253,115305,115279
 6.5000e+000 115434 -1.7672e+001 -6.1584e+001  1.0734e+001 421 115356,115408,115382
 6.6000e+000 68213 -1.5086e+001 -2.3052e+001 -2.0448e+000 67888 68112,68164,68138
 6.6000e+000 68190 -3.6975e+001 -2.9856e+001 -4.2985e+000 67888 68086,68164,68112
 6.6000e+000 68314 -2.0713e+001 -3.4993e+001  1.3610e+000 67576 68236,68288,68262
 6.6000e+000 68584 -2.8401e+001 -9.2790e+001  6.6493e+000 67378 68385,68489,68463
 6.6000e+000 68561 -4.3883e+000 -8.1733e+001  3.8131e+000 67378 68359,68489,68385
 6.6000e+000 68538 -2.1000e+001 -7.0903e+001  9.8123e+000 67378 68385,68463,68411
 6.6000e+000 68515 -9.3271e+000 -5.0636e+001  4.8201e+000 67378 68411,68463,68437
 6.6000e+000 68964 -3.0029e+001 -9.1478e+001  1.5491e+001 67130 68690,68820,68716
 6.6000e+000 68941  1.3206e+001 -9.8931e+001  2.7625e+001 67130 68690,68846,68820
 6.6000e+000 68918 -3.0949e+001 -5.8270e+001  4.6913e+000 67130 68742,68820,68794
 6.6000e+000 68895 -1.2758e+001 -5.6000e+001  7.5410e+000 67130 68716,68820,68742
 6.6000e+000 68872 -2.0613e+001 -4.2474e+001 -5.5696e+000 67130 68742,68794,68768
 6.6000e+000 69065 -2.9270e+001 -3.5273e+001  2.0541e+000 66926 68987,69039,69013
 6.6000e+000 69445 -1.8583e+001 -3.2101e+001 -3.4842e+000 66614 69223,69301,69275
 6.6000e+000 69422 -2.6650e+001 -3.6410e+001 -1.6527e+000 66614 69171,69301,69223
 6.6000e+000 69399 -2.6198e+001 -3.2332e+001 -1.7256e+000 66614 69171,69327,69301
 6.6000e+000 69376 -1.7382e+001 -2.2039e+001 -1.0187e+000 66614 69223,69275,69249
 6.6000e+000 69353 -2.1680e+001 -3.4356e+001 -9.5361e-002 66614 69171,69223,69197
 6.6000e+000 69546 -2.8581e+001 -7.9225e+001  5.6257e+000 66416 69468,69520,69494
 6.6000e+000 69997 -2.4008e+001 -7.7482e+001 -5.3484e+000 66104 69700,69830,69726
 6.6000e+000 69974 -3.0504e+001 -9.2203e+001 -1.0937e+001 66104 69700,69856,69830
 6.6000e+000 69951 -2.6607e+001 -5.9052e+001 -4.5964e+000 66104 69726,69804,69778
 6.6000e+000 69928 -2.1445e+001 -7.1583e+001 -5.8335e+000 66104 69726,69830,69804
 6.6000e+000 69905 -2.7787e+001 -5.5258e+001 -1.5735e+000 66104 69726,69778,69752
 6.6000e+000 69882 -1.0446e+001 -1.2626e+002 -2.5418e+001 66104 69674,69856,69700
 6.6000e+000 70326 -1.6717e+001 -3.1792e+001  2.7128e-001 65814 70349,70153,70127
 6.6000e+000 70303 -9.6661e+000 -3.1393e+001  1.8113e+000 65814 70349,70127,70101
 6.6000e+000 70280 -9.8729e+000 -3.3238e+001  1.5656e+001 65814 70101,70231,70205
 6.6000e+000 70257 -6.3076e+000 -3.3446e+001  5.9727e+000 65814 70153,70205,70179
 6.6000e+000 70375 -1.3389e+001 -3.3701e+001  5.7110e+000 65814 70205,70153,70349
 6.6000e+000 70398 -2.7720e+000 -3.1724e+001  6.5065e+000 65814 70205,70349,70101
 6.6000e+000 70904 -1.0302e+001 -1.3154e+001 -7.1866e+000 65502 70607,70737,70685
 6.6000e+000 70881 -1.1155e+001 -8.1817e+000 -9.6006e+000 65502 70581,70737,70607
 6.6000e+000 70858 -1.0550e+001  4.1898e+000 -3.3402e+000 65502 70581,70763,70737
 6.6000e+000 70835 -8.2739e+000 -1.2729e+001 -8.8638e+000 65502 70685,70737,70711
 6.6000e+000 70812 -4.6297e+001 -1.7627e+001  8.0339e-001 65502 70607,70659,70633
 6.6000e+000 70789 -1.3991e+001 -1.9076e+001  1.8494e+000 65502 70607,70685,70659
 6.6000e+000 71103 -9.2669e+000 -6.0007e+001 -2.6642e+000 65304 71126,70979,70953
 6.6000e+000 71080 -2.0405e+001 -5.6937e+001 -1.5664e+000 65304 71126,70953,70927
 6.6000e+000 71057 -3.1903e+001 -6.1676e+001 -1.8304e+000 65304 70927,71031,71005
 6.6000e+000 71152 -1.9445e+001 -5.9816e+001 -5.9872e+000 65304 71005,70979,71126
 6.6000e+000 71175 -3.0256e+001 -5.6253e+001 -2.6967e+000 65304 71005,71126,70927
 6.6000e+000 71374 -2.5415e+001 -5.3111e+001  4.0366e+000 65106 71198,71276,71224
 6.6000e+000 71351 -1.9410e+001 -5.5467e+001  2.5932e+000 65106 71198,71302,71276
 6.6000e+000 71328 -2.5835e+001 -5.2110e+001  6.9788e+000 65106 71224,71276,71250
 6.6000e+000 71756 -1.0082e+001 -4.0934e+001 -3.3953e+000 64652 71508,71638,71534
 6.6000e+000 71733  3.2624e-001 -3.6868e+001  2.3504e-001 64652 71482,71638,71508
 6.6000e+000 71710 -2.8037e+001 -4.9076e+001 -5.5659e+000 64652 71534,71586,71560
 6.6000e+000 71687 -2.4187e+001 -4.6995e+001 -8.8401e+000 64652 71534,71612,71586
 6.6000e+000 71664 -2.4218e+001 -4.7217e+001 -8.6177e+000 64652 71534,71638,71612
 6.6000e+000 72085 -2.4355e+001 -4.6442e+001 -9.1164e+000 64248 71886,71964,71912
 6.6000e+000 72062 -1.9172e+001 -4.6346e+001 -7.6321e+000 64248 71860,71964,71886
 6.6000e+000 72039 -7.5173e+000 -5.1716e+001 -6.2264e+000 64248 71912,71964,71938
 6.6000e+000 72016 -2.8081e+001 -4.6221e+001 -4.7090e+000 64248 71860,71990,71964
 6.6000e+000 72235 -3.5441e+000 -2.7252e+001 -3.3280e+000 63858 72588,72258,72134
 6.6000e+000 72212 -1.5655e+001 -2.5557e+001  8.7936e-001 63858 72330,72258,72108
 6.6000e+000 72284 -1.1659e+001 -1.8165e+001 -2.9094e+000 63858 72160,72134,72258
 6.6000e+000 72307 -2.3490e+001 -2.6039e+001 -7.3473e+000 63858 72460,72258,72186
 6.6000e+000 72356 -2.3071e+001 -2.4818e+001 -6.2040e+000 63858 72186,72258,72330
 6.6000e+000 72486 -1.5012e+001 -2.8101e+001 -4.5812e+000 63858 72160,72258,72460
 6.6000e+000 72614 -1.3061e+001 -3.2609e+001  5.4192e-001 63858 72108,72258,72588
 6.6000e+000 73248 -2.6194e+001 -7.0004e+001  1.2544e+001 63404 72902,72954,72928
 6.6000e+000 73225 -3.6067e+001 -5.9983e+001  7.8477e+000 63404 73271,72954,72902
 6.6000e+000 73202 -3.1898e+001 -4.5353e+001  6.7101e+000 63404 73271,72902,73032
 6.6000e+000 73179 -2.7012e+001 -4.0481e+001  3.3294e+000 63404 72902,73058,73032
 6.6000e+000 73156 -4.0171e+001 -6.0277e+001 -1.1009e+001 63404 72980,73032,73006
 6.6000e+000 73133 -3.0292e+001 -3.5899e+001  5.1769e+000 63404 72876,73058,72902
 6.6000e+000 73110 -8.8020e+000 -1.8512e+001 -3.0609e+000 63404 72876,73084,73058
 6.6000e+000 73297 -3.0707e+001 -6.2017e+001 -1.0137e+000 63404 72980,72954,73271
 6.6000e+000 73320 -3.0213e+001 -5.4100e+001 -8.4518e-001 63404 72980,73271,73032
 6.6000e+000 73470 -2.1598e+001 -1.4177e+002  1.5338e+001 63014 73343,73395,73369
 6.6000e+000 73447 -6.6771e+001 -1.7231e+002 -2.8679e+000 63014 73343,73421,73395
 6.6000e+000 73929 -1.1428e+001 -5.2135e+001  5.3945e-001 62702 73759,73811,73785
 6.6000e+000 73906 -9.9839e+000 -4.9613e+001  4.6736e+000 62702 73655,73811,73759
 6.6000e+000 73883 -1.8560e+001 -5.4092e+001  6.3052e-001 62702 73655,73759,73681
 6.6000e+000 73860 -1.2640e+001 -4.1682e+001 -5.2423e+000 62702 73681,73759,73707
 6.6000e+000 73837 -3.3057e+001 -4.7703e+001  2.9999e+000 62702 73707,73759,73733
 6.6000e+000 74209 -3.8314e+001 -4.4231e+001  1.2951e+000 62404 74059,74137,74085
 6.6000e+000 74186 -4.2313e+001 -5.6172e+001  6.9863e+000 62404 74033,74137,74059
 6.6000e+000 74163 -3.4425e+001 -3.8896e+001  3.2559e+000 62404 74085,74137,74111
 6.6000e+000 74408 -5.6577e+000 -4.0943e+001  1.7518e+000 62000 74258,74336,74284
 6.6000e+000 74385 -7.1274e-001 -3.8509e+001  3.4940e+000 62000 74232,74336,74258
 6.6000e+000 74362 -1.1711e+001 -4.0983e+001 -3.4740e-001 62000 74284,74336,74310
 6.6000e+000 74509 -1.2157e+001 -2.7556e+001  1.9968e+000 61802 74431,74483,74457
 6.6000e+000 74759 -2.3214e+001 -3.2237e+001  2.8826e+000 61554 74782,74586,74560
 6.6000e+000 74736 -2.0229e+001 -3.3651e+001  1.0850e+000 61554 74782,74560,74664
 6.6000e+000 74713 -2.2549e+001 -3.3048e+001  8.4175e+000 61554 74854,74612,74586
 6.6000e+000 74690 -2.1811e+001 -3.5583e+001  1.7799e-001 61554 74534,74664,74560
 6.6000e+000 74808 -2.4513e+001 -3.5019e+001  3.3277e+000 61554 74854,74586,74782
 6.6000e+000 74831 -2.0942e+001 -4.4088e+001  1.8414e+000 61554 74638,74782,74664
 6.6000e+000 74880 -1.6196e+001 -3.4817e+001  8.1989e+000 61554 74638,74612,74854
 6.6000e+000 74903 -1.6025e+001 -3.3662e+001  4.0924e+000 61554 74638,74854,74782
 6.6000e+000 75285 -1.5641e+001 -3.1484e+001  8.1014e-001 61356 75063,75167,75115
 6.6000e+000 75262 -1.4726e+001 -2.8865e+001  3.4509e-001 61356 75037,75167,75063
 6.6000e+000 75239 -1.1565e+001 -3.1064e+001  1.8497e-001 61356 75115,75167,75141
 6.6000e+000 75216 -1.4748e+001 -3.3153e+001 -4.8540e-001 61356 75063,75115,75089
 6.6000e+000 75193 -2.2350e+001 -2.8915e+001  1.0106e+000 61356 75011,75167,75037
 6.6000e+000 75631 -7.9362e+000 -2.5565e+001  2.1157e+000 60952 75654,75412,75360
 6.6000e+000 75608 -8.0131e+000 -2.8940e+001  8.9522e-001 60952 75654,75360,75334
 6.6000e+000 75585 -1.1565e+001 -3.7104e+001  2.7853e+000 60952 75726,75438,75412
 6.6000e+000 75562 -6.5112e+000 -2.7369e+001 -4.2580e+000 60952 75308,75490,75334
 6.6000e+000 75539 -1.1467e+001 -2.6486e+001  6.2890e-001 60952 75360,75412,75386
 6.6000e+000 75516 -1.3301e+001 -4.4800e+001 -3.5669e+000 60952 75438,75490,75464
 6.6000e+000 75680 -8.5916e+000 -3.0313e+001  2.4390e+000 60952 75726,75412,75654
 6.6000e+000 75703 -7.9609e+000 -2.8753e+001  8.4737e-001 60952 75490,75654,75334
 6.6000e+000 75752 -1.0081e+001 -2.9335e+001  8.0909e-001 60952 75490,75438,75726
 6.6000e+000 75775 -1.0144e+001 -2.9005e+001  1.6139e-001 60952 75490,75726,75654
 6.6000e+000 76155 -1.3900e+001 -3.7389e+001 -5.4369e-001 60754 75933,75985,75959
 6.6000e+000 76132 -1.6948e+001 -3.9424e+001  3.8815e+000 60754 75933,76037,75985
 6.6000e+000 76109 -3.5705e+000 -3.5869e+001  1.1515e-001 60754 75985,76037,76011
 6.6000e+000 76086 -2.4198e+001 -3.6567e+001  5.9012e-002 60754 75881,76037,75933
 6.6000e+000 76063 -2.9395e+001 -4.0054e+001  4.0670e+000 60754 75881,75933,75907
 6.6000e+000 76612 -1.0306e+001 -4.2976e+001  4.1992e+000 60350 76635,76442,76390
 6.6000e+000 76589 -1.2330e-001 -4.9624e+001  6.5449e+000 60350 76635,76390,76364
 6.6000e+000 76566 -7.5709e+000 -6.8299e+001 -3.6737e+000 60350 76364,76494,76468
 6.6000e+000 76543 -1.1439e+000 -3.9221e+001  3.9065e+000 60350 76390,76442,76416
 6.6000e+000 76520 -3.1885e+001 -3.9820e+001 -1.0782e+001 60350 76338,76494,76364
 6.6000e+000 76661 -1.5972e+001 -4.7401e+001  6.1386e+000 60350 76468,76442,76635
 6.6000e+000 76684 -8.5871e+000 -5.5221e+001  9.1057e+000 60350 76468,76635,76364
 6.6000e+000 76932 -2.4846e+001 -3.9853e+001 -2.1331e+000 59946 76955,76733,76707
 6.6000e+000 76909 -2.6059e+001 -4.2597e+001 -1.7134e+000 59946 77027,76955,76707
 6.6000e+000 76886 -2.6940e+001 -4.3629e+001 -1.3367e+000 59946 77027,76707,76837
 6.6000e+000 76863 -1.1555e+001 -4.0812e+001 -7.7954e+000 59946 76733,76785,76759
 6.6000e+000 76981 -2.6895e+001 -4.1083e+001 -1.4623e+000 59946 76785,76733,76955
 6.6000e+000 77004 -2.5950e+001 -3.8523e+001 -1.4315e+000 59946 76785,76955,76811
 6.6000e+000 77053 -2.7613e+001 -4.1000e+001 -2.2107e-001 59946 76811,76955,77027
 6.6000e+000 77076 -2.8937e+001 -4.3018e+001  3.5369e-001 59946 76811,77027,76837
 6.6000e+000 77226 -1.9507e+001 -5.1649e+001  1.6497e+000 59542 77099,77151,77125
 6.6000e+000 77203 -2.9692e+001 -7.0436e+001  5.9977e+000 59542 77099,77177,77151
 6.6000e+000 77427 -2.7697e+001 -5.6536e+001 -4.0848e+000 59030 77450,77277,77251
 6.6000e+000 77404 -2.0306e+001 -5.2375e+001 -1.5420e+001 59030 77450,77251,77355
 6.6000e+000 77381 -2.0585e+001 -6.6630e+001 -1.0959e+000 59030 77277,77329,77303
 6.6000e+000 77476 -1.7545e+001 -5.7183e+001 -8.3715e+000 59030 77329,77277,77450
 6.6000e+000 77499 -7.4966e+000 -5.5565e+001 -1.7508e+001 59030 77329,77450,77355
 6.6000e+000 77749 -2.5163e+001 -7.1908e+001  6.4722e+000 58426 77772,77628,77602
 6.6000e+000 77726 -1.4716e+001 -8.1439e+001  1.4043e+001 58426 77524,77654,77628
 6.6000e+000 77703 -2.1504e+001 -6.9417e+001  5.0107e+000 58426 77772,77602,77550
 6.6000e+000 77680 -1.7001e+001 -6.6592e+001 -1.4664e+000 58426 77550,77602,77576
 6.6000e+000 77798 -2.0679e+001 -7.4508e+001  5.4953e+000 58426 77524,77628,77772
 6.6000e+000 77821 -1.8176e+001 -7.2314e+001  3.8754e+000 58426 77524,77772,77550
 6.6000e+000 78071 -2.8972e+001 -6.1243e+001  7.9677e+000 57922 78094,77924,77898
 6.6000e+000 78048 -2.9479e+001 -5.0311e+001  1.6924e+000 57922 78094,77898,77872
 6.6000e+000 78025 -2.5187e+001 -4.4839e+001  5.4153e+000 57922 78166,77846,77950
 6.6000e+000 78002 -2.1456e+001 -4.4355e+001  5.6159e+000 57922 77846,77976,77950
 6.6000e+000 78120 -2.1115e+001 -5.1362e+001  4.5536e+000 57922 77950,77924,78094
 6.6000e+000 78143 -2.6624e+001 -4.5828e+001  4.6076e+000 57922 78166,77950,78094
 6.6000e+000 78192 -2.2912e+001 -4.7004e+001  3.1292e+000 57922 77872,77846,78166
 6.6000e+000 78215 -2.5669e+001 -4.9178e+001  2.0357e+000 57922 77872,78166,78094
 6.6000e+000 78416  1.4519e-001 -5.0199e+001 -1.7944e+000 57468 78439,78292,78240
 6.6000e+000 78393 -4.8625e+000 -4.8574e+001 -1.3263e-001 57468 78439,78240,78344
 6.6000e+000 78370 -2.4969e+000 -7.0933e+001  2.4597e-002 57468 78240,78292,78266
 6.6000e+000 78465 -4.7265e+000 -5.2597e+001 -2.7137e+000 57468 78318,78292,78439
 6.6000e+000 78488 -6.7632e+000 -4.9716e+001 -6.1455e-001 57468 78318,78439,78344
 6.6000e+000 78689 -1.1118e+001 -5.5304e+001 -2.2163e+000 57014 78712,78539,78513
 6.6000e+000 78666 -1.4358e+001 -5.5577e+001 -1.7916e-001 57014 78712,78513,78617
 6.6000e+000 78643 -1.2263e+001 -5.1050e+001  5.1641e+000 57014 78565,78617,78591
 6.6000e+000 78738 -1.4998e+001 -5.1543e+001 -2.0967e+000 57014 78565,78539,78712
 6.6000e+000 78761 -1.9770e+001 -5.4796e+001  1.2011e+000 57014 78565,78712,78617
 6.6000e+000 79241 -2.0801e+001 -5.2743e+001  3.4714e+000 56652 79264,78895,78869
 6.6000e+000 79218 -1.1032e+001 -6.8394e+001 -4.6456e+000 56652 79264,78869,79051
 6.6000e+000 79195 -1.6799e+001 -6.1599e+001 -1.2925e+001 56652 78869,79077,79051
 6.6000e+000 79172 -1.6597e+001 -3.7373e+001 -4.3752e+000 56652 78895,78973,78947
 6.6000e+000 79149 -2.8368e+001 -1.1273e+002 -9.4646e+000 56652 78973,79051,78999
 6.6000e+000 79126 -1.1845e+001 -3.4827e+001 -6.0804e+000 56652 78895,78947,78921
 6.6000e+000 79103 -1.8308e+001 -6.7754e+001  1.4651e+001 56652 78999,79051,79025
 6.6000e+000 79290 -1.3249e+001 -4.2925e+001  8.9151e+000 56652 78973,78895,79264
 6.6000e+000 79313 -2.8815e+000 -5.9872e+001  1.2875e+000 56652 78973,79264,79051
 6.6000e+000 79512 -5.7394e+000 -8.2557e+001  6.1787e+000 56062 79388,79440,79414
 6.6000e+000 79489 -2.8848e+001 -4.1303e+001  1.1319e+001 56062 79336,79440,79388
 6.6000e+000 79466 -6.6419e+000 -7.1049e+001  1.1415e+001 56062 79336,79388,79362
 6.6000e+000 79941 -8.1075e+000 -2.9957e+001  8.2845e+000 55658 79964,79670,79644
 6.6000e+000 79918 -1.0870e+001 -3.0496e+001  8.8364e+000 55658 79964,79644,79800
 6.6000e+000 79895 -1.0239e+001 -3.1972e+001  7.1148e+000 55658 80036,79696,79670
 6.6000e+000 79872 -1.2697e+001 -2.6437e+001  2.5943e+000 55658 80108,79722,79696
 6.6000e+000 79849 -1.6161e+001 -1.5053e+001  7.9246e+000 55658 79722,79774,79748
 6.6000e+000 79826 -5.1479e-002 -2.7521e+001  2.7461e-003 55658 79618,79800,79644
 6.6000e+000 79990 -1.0947e+001 -3.2243e+001  7.2625e+000 55658 80036,79670,79964
 6.6000e+000 80013 -8.1315e+000 -2.8068e+001  1.0139e+001 55658 79774,79964,79800
 6.6000e+000 80062 -8.7951e+000 -2.9022e+001  6.2543e+000 55658 80108,79696,80036
 6.6000e+000 80085 -1.2008e+001 -2.9630e+001  9.5015e+000 55658 79774,80036,79964
 6.6000e+000 80134 -2.0482e+001 -2.9008e+001  4.1350e+000 55658 79774,79722,80108
 6.6000e+000 80157 -1.8348e+001 -3.2712e+001  7.7211e+000 55658 79774,80108,80036
 6.6000e+000 80307 -3.7565e+001 -3.5725e+001 -8.4948e-001 55254 80402,80330,80206
 6.6000e+000 80284 -3.5802e+001 -5.1150e+001 -1.7893e+000 55254 80330,80180,80258
 6.6000e+000 80356 -4.2943e+001 -4.7781e+001  6.4996e+000 55254 80232,80206,80330
 6.6000e+000 80379 -2.1263e+001 -3.8299e+001  8.4817e+000 55254 80232,80330,80258
 6.6000e+000 80428 -4.3141e+001 -4.6698e+001 -5.0289e+000 55254 80180,80330,80402
 6.6000e+000 80659 -1.2851e+001 -6.6098e+001 -4.2087e+000 54850 80558,80610,80584
 6.6000e+000 80636 -1.3041e+001 -6.4420e+001 -2.3881e+000 54850 80532,80610,80558
 6.6000e+000 80760 -6.1847e+000 -2.3863e+001 -4.2679e-001 54652 80682,80734,80708
 6.6000e+000 81164 -6.2284e+000 -2.6747e+001  6.1013e-001 54248 81187,80942,80890
 6.6000e+000 81141 -6.9300e+000 -2.9003e+001  1.0027e+000 54248 81187,80890,81046
 6.6000e+000 81118 -8.3460e+000 -2.6623e+001  5.5203e+000 54248 80942,81020,80994
 6.6000e+000 81095 -5.4378e+000 -2.3847e+001  1.1156e-001 54248 80890,80942,80916
 6.6000e+000 81072 -9.2680e+000 -1.6559e+001  1.5582e+000 54248 80942,80994,80968
 6.6000e+000 81213 -7.3202e+000 -2.5048e+001  1.0340e+000 54248 81020,80942,81187
 6.6000e+000 81236 -7.4788e+000 -2.6583e+001  1.2774e+000 54248 81020,81187,81046
 6.6000e+000 81663 -3.3219e+001 -5.0476e+001  3.4502e+000 53594 81340,81444,81366
 6.6000e+000 81640 -3.1840e+001 -7.7086e+001  5.5603e-001 53594 81340,81470,81444
 6.6000e+000 81617 -2.8938e+001 -6.9848e+001 -1.3016e+001 53594 81340,81522,81470
 6.6000e+000 81594 -2.1651e+001 -3.5124e+001 -3.3580e+000 53594 81392,81444,81418
 6.6000e+000 81571 -2.4313e+001 -4.3585e+001 -5.3860e+000 53594 81366,81444,81392
 6.6000e+000 81548 -3.4936e+000 -8.8081e+001  1.1864e+000 53594 81470,81522,81496
 6.6000e+000 81943 -9.5189e+000 -2.5058e+001 -2.0814e+000 53104 81966,81845,81819
 6.6000e+000 81920 -1.5680e+001 -2.2224e+001 -4.3254e+000 53104 81966,81819,81767
 6.6000e+000 81897 -1.5712e+001 -2.2745e+001 -3.7558e+000 53104 81767,81819,81793
 6.6000e+000 81992 -5.4382e+000 -2.5906e+001 -4.9960e+000 53104 81871,81845,81966
 6.6000e+000 82015 -1.0519e+001 -2.1687e+001 -8.4104e+000 53104 81871,81966,81767
 6.6000e+000 82491 -1.3412e+001 -3.4472e+001 -5.9954e+000 52650 82145,82249,82171
 6.6000e+000 82468 -2.8243e+001 -4.1153e+001 -4.3658e+000 52650 82145,82301,82249
 6.6000e+000 82445 -3.0608e+001 -6.1107e+001 -8.4777e+000 52650 82249,82301,82275
 6.6000e+000 82422 -3.0770e+001 -7.9668e+001 -1.5181e+001 52650 82119,82301,82145
 6.6000e+000 82399 -1.1710e+001 -2.3726e+001  2.3218e+000 52650 82171,82249,82223
 6.6000e+000 82376 -1.1836e+001 -7.2449e+001 -5.2041e+000 52650 82119,82327,82301
 6.6000e+000 82353 -1.9822e+000 -1.1600e+001 -5.2500e+000 52650 82171,82223,82197
 6.6000e+000 82739 -1.8351e+001 -2.2635e+001 -1.8403e+000 52246 82762,82540,82514
 6.6000e+000 82716 -1.2154e+001 -1.4370e+001 -4.6084e+000 52246 82762,82514,82644
 6.6000e+000 82693 -1.9587e+001 -2.9494e+001  2.7619e+000 52246 82540,82618,82592
 6.6000e+000 82670 -1.7922e+001 -2.0914e+001 -2.9024e+000 52246 82540,82592,82566
 6.6000e+000 82788 -1.2636e+001 -2.9566e+001  1.3386e+000 52246 82618,82540,82762
 6.6000e+000 82811 -8.5768e+000 -2.5499e+001 -9.3967e-001 52246 82618,82762,82644
 6.6000e+000 83059 -5.7961e+000 -3.9327e+001  3.4046e+000 51578 82860,82964,82938
 6.6000e+000 83036 -3.3173e+000 -3.1350e+001 -9.3058e+000 51578 82834,82964,82860
 6.6000e+000 83013 -3.8007e+000 -3.2698e+001  6.4924e+000 51578 82860,82938,82886
 6.6000e+000 82990 -3.2900e+000 -2.7357e+001  3.6383e+000 51578 82886,82938,82912
 6.6000e+000 83309 -1.0151e+001 -2.0082e+001  8.1330e+000 51138 83332,83162,83136
 6.6000e+000 83286 -5.6038e+000 -2.8475e+001  2.9736e+000 51138 83332,83136,83110
 6.6000e+000 83263 -1.0569e+001 -2.8617e+001  7.9901e-001 51138 83404,83214,83188
 6.6000e+000 83240 -2.2425e-001 -1.3934e+001  1.8472e+000 51138 83084,83214,83110
 6.6000e+000 83358 -1.7436e+001 -3.1333e+001  1.2748e+001 51138 83188,83162,83332
 6.6000e+000 83381 -8.2666e+000 -3.2812e+001  4.4173e+000 51138 83404,83188,83332
 6.6000e+000 83430 -6.4713e+000 -1.7212e+001 -5.1684e-001 51138 83110,83214,83404
 6.6000e+000 83453 -6.0095e+000 -2.4084e+001  3.2978e+000 51138 83110,83404,83332
 6.6000e+000 83835 -1.3382e+001 -4.1792e+001 -1.0559e+000 50734 83613,83717,83691
 6.6000e+000 83812 -1.6230e+001 -4.9276e+001 -5.7496e+000 50734 83561,83717,83613
 6.6000e+000 83789 -1.1889e+001 -2.2638e+001 -1.0570e+001 50734 83561,83613,83587
 6.6000e+000 83766 -1.8108e+001 -3.0224e+001 -3.2682e-001 50734 83613,83691,83639
 6.6000e+000 83743 -1.9495e+001 -3.0244e+001  8.4020e+000 50734 83639,83691,83665
 6.6000e+000 84034 -9.8193e+000 -2.3510e+001  1.0205e+000 50230 84057,83884,83858
 6.6000e+000 84011 -8.5157e+000 -2.2190e+001 -1.8428e+000 50230 84129,84057,83858
 6.6000e+000 83988 -2.9250e+000 -2.2692e+001 -3.3689e+000 50230 84129,83858,83962
 6.6000e+000 84083 -7.9549e+000 -2.1449e+001 -2.4814e+000 50230 83910,83884,84057
 6.6000e+000 84106 -6.3178e+000 -1.8175e+001 -1.9246e+000 50230 83910,84057,83936
 6.6000e+000 84155 -9.8915e-001 -2.0398e+001 -7.3577e-001 50230 83936,84057,84129
 6.6000e+000 84178  1.2709e+000 -2.3316e+001 -2.8396e+000 50230 83936,84129,83962
 6.6000e+000 84558 -1.7504e+001 -3.4479e+001 -4.1851e+000 49768 84581,84388,84362
 6.6000e+000 84535 -3.0242e+001 -3.6408e+001 -2.0199e+000 49768 84581,84362,84310
 6.6000e+000 84512 -3.9987e+000 -4.1285e+001 -5.6330e+000 49768 84653,84440,84414
 6.6000e+000 84489 -2.5824e+001 -4.1607e+001  2.9211e+000 49768 84310,84362,84336
 6.6000e+000 84466 -6.3166e+000 -3.3950e+001  1.5908e+000 49768 84284,84440,84310
 6.6000e+000 84607 -9.0991e+000 -3.1915e+001 -8.1532e+000 49768 84414,84388,84581
 6.6000e+000 84630 -9.1212e+000 -3.6771e+001 -3.8575e+000 49768 84653,84414,84581
 6.6000e+000 84679 -1.0965e+001 -4.0376e+001 -8.0265e+000 49768 84310,84440,84653
 6.6000e+000 84702 -1.9199e+001 -3.9623e+001 -8.5351e+000 49768 84310,84653,84581
 6.6000e+000 85159 -2.6938e+001 -4.4128e+001 -1.1953e+001 49192 84885,84937,84911
 6.6000e+000 85136 -2.3480e+001 -2.6324e+001 -8.9509e+000 49192 84885,85041,84937
 6.6000e+000 85113 -1.5193e+001 -2.1971e+001 -4.6763e+000 49192 84963,85041,84989
 6.6000e+000 85090 -1.4620e+001 -2.0593e+001 -4.6355e+000 49192 84937,85041,84963
 6.6000e+000 85067 -8.6444e+000 -1.8318e+001 -6.2695e+000 49192 84989,85041,85015
 6.6000e+000 85714 -2.2436e+001 -2.9061e+001  1.3286e+000 48638 85368,85498,85394
 6.6000e+000 85691 -2.8430e+001 -3.5527e+001  3.9629e+000 48638 85368,85524,85498
 6.6000e+000 85668 -3.0527e+001 -2.9927e+001  1.2708e+001 48638 85737,85420,85394
 6.6000e+000 85645 -2.3220e+001 -3.2744e+001  5.8428e+000 48638 85737,85394,85498
 6.6000e+000 85622 -1.6860e+001 -3.1979e+001  8.2295e+000 48638 85446,85498,85472
 6.6000e+000 85599 -8.0170e+000 -2.7297e+001  4.5907e+000 48638 85342,85524,85368
 6.6000e+000 85576 -2.8777e+001 -3.5506e+001  6.8035e+000 48638 85342,85550,85524
 6.6000e+000 85763 -1.9069e+001 -2.4608e+001  1.4532e+001 48638 85446,85420,85737
 6.6000e+000 85786 -1.8696e+001 -2.9724e+001  7.2364e+000 48638 85446,85737,85498
 6.6000e+000 86371 -2.0275e+001 -1.8972e+001 -6.3614e-001 48084 86100,86230,86178
 6.6000e+000 86348 -2.5928e+001 -3.1462e+001 -3.9031e+000 48084 86048,86230,86100
 6.6000e+000 86325 -1.5759e+001 -1.5450e+001  6.1974e+000 48084 86100,86178,86126
 6.6000e+000 86302 -1.6599e+001 -9.5776e+000 -6.2867e+000 48084 86048,86100,86074
 6.6000e+000 86279 -2.4244e+001 -3.8312e+001 -7.9612e-001 48084 86178,86230,86204
 6.6000e+000 86256 -1.2402e+001 -1.1661e+001  7.6447e+000 48084 86126,86178,86152
 6.6000e+000 86619 -1.0960e+001 -2.1927e+001  1.6709e+000 47630 86642,86446,86420
 6.6000e+000 86596 -1.2424e+001 -2.4978e+001 -5.2275e+000 47630 86642,86420,86394
 6.6000e+000 86573 -2.0956e+001 -2.5560e+001 -6.1347e+000 47630 86394,86524,86498
 6.6000e+000 86550 -7.8580e+000 -2.8413e+001  1.9562e+000 47630 86446,86498,86472
 6.6000e+000 86668 -1.4448e+001 -2.9879e+001  3.5554e-001 47630 86498,86446,86642
 6.6000e+000 86691 -1.4706e+001 -3.0571e+001 -6.4353e+000 47630 86498,86642,86394
 6.6000e+000 87022 -4.3289e+000 -1.2052e+001 -7.6137e+000 47226 87045,86875,86849
 6.6000e+000 86999 -4.2223e+000 -1.6049e+001 -7.3374e+000 47226 87045,86849,86797
 6.6000e+000 86976 -1.5128e+000 -5.1392e+000 -3.9402e+000 47226 86797,86849,86823
 6.6000e+000 86953 -3.2256e+000 -1.0864e+001 -6.8202e+000 47226 86875,86927,86901
 6.6000e+000 87071 -5.2880e+000 -1.5644e+001 -7.1013e+000 47226 86927,86875,87045
 6.6000e+000 87094 -4.1601e+000 -1.8306e+001 -6.9948e+000 47226 86927,87045,86797
 6.6000e+000 87244 -5.2846e+000 -3.5987e+001  1.2003e+001 46814 87267,87169,87143
 6.6000e+000 87221 -2.1662e+001 -3.3494e+001 -7.0690e-001 46814 87267,87143,87117
 6.6000e+000 87293 -2.1317e+000 -2.6248e+001  7.1970e+000 46814 87339,87267,87195
 6.6000e+000 87316  1.3588e+000 -2.3636e+001 -1.1104e+000 46814 87469,87267,87117
 6.6000e+000 87365 -1.0711e+001 -2.7806e+001  1.1314e+001 46814 87169,87267,87339
 6.6000e+000 87495 -9.1476e-001  8.6820e-001 -1.1594e+000 46814 87195,87267,87469
 6.6000e+000 88001 -9.3647e+000 -1.4208e+001  8.8796e+000 46310 88024,87834,87808
 6.6000e+000 87978 -1.3550e+001 -1.5119e+001  3.9222e+000 46310 88024,87808,87756
 6.6000e+000 87955 -8.7825e+000 -2.3548e+001  2.0219e+000 46310 88096,87730,87860
 6.6000e+000 87932 -8.3290e+000 -2.1571e+001  4.7958e+000 46310 87756,87808,87782
 6.6000e+000 87909 -1.0786e+001 -2.2720e+001  4.3305e-001 46310 87678,87860,87730
 6.6000e+000 87886 -1.5502e+001 -4.2767e+001 -2.5132e+000 46310 87678,87730,87704
 6.6000e+000 88050 -1.0038e+001 -1.6281e+001  5.4443e+000 46310 87860,87834,88024
 6.6000e+000 88073 -8.6114e+000 -1.4246e+001  4.6111e+000 46310 88096,87860,88024
 6.6000e+000 88122 -1.0114e+001 -2.7948e+001 -1.3002e+000 46310 87756,87730,88096
 6.6000e+000 88145 -1.5504e+001 -2.4317e+001  1.5129e-001 46310 87756,88096,88024
 6.6000e+000 88572 -1.0830e+001 -3.1039e+001  3.3025e+000 45856 88249,88405,88275
 6.6000e+000 88549 -6.6860e+000 -9.3194e+000 -5.1714e+000 45856 88249,88431,88405
 6.6000e+000 88526 -2.2550e+001 -4.8853e+001 -7.4423e+000 45856 88327,88405,88353
 6.6000e+000 88503 -9.0786e+000 -3.8625e+001 -2.2891e+000 45856 88275,88405,88327
 6.6000e+000 88480 -1.8980e+001 -4.5879e+001 -1.3771e+001 45856 88353,88405,88379
 6.6000e+000 88457 -3.6223e+001 -9.6313e+001  8.3836e+000 45856 88275,88327,88301
 6.6000e+000 88950 -4.5264e+000 -1.5953e+001 -1.0575e-002 45658 88973,88754,88728
 6.6000e+000 88927 -2.9765e+000 -9.7884e+000  1.3019e+000 45658 88973,88728,88676
 6.6000e+000 88904 -7.9798e+000 -1.1146e+001  9.1709e+000 45658 88676,88832,88806
 6.6000e+000 88881 -8.2752e+000 -1.9613e+001  5.3446e+000 45658 88676,88728,88702
 6.6000e+000 88858 -1.0314e+001 -1.3659e+001 -6.3344e+000 45658 88754,88806,88780
 6.6000e+000 88999 -4.6182e+000 -9.9418e+000  3.9773e-001 45658 88806,88754,88973
 6.6000e+000 89022 -5.1277e+000 -6.4228e+000  1.5539e+000 45658 88806,88973,88676
 6.6000e+000 89351 -1.1027e+001 -3.2582e+001 -7.0729e-001 45254 89152,89230,89204
 6.6000e+000 89328 -1.6010e+001 -3.4979e+001 -1.7512e+000 45254 89152,89256,89230
 6.6000e+000 89305 -8.4904e+000 -3.6107e+001 -4.1375e+000 45254 89126,89256,89152
 6.6000e+000 89282 -7.1892e+000 -3.0842e+001 -2.3672e+000 45254 89152,89204,89178
 6.6000e+000 89523 -2.2704e+000 -1.5479e+001  2.3943e-001 45006 89422,89474,89448
 6.6000e+000 89500 -2.9009e+000 -1.5784e+001 -2.8093e-001 45006 89396,89474,89422
 6.6000e+000 89673 -2.5396e+001 -4.2758e+001  3.8117e+000 44495 89572,89624,89598
 6.6000e+000 89650 -2.6831e+001 -4.6878e+001  4.3356e+000 44495 89546,89624,89572
 6.6000e+000 90104 -5.3129e+000 -3.7648e+001 -2.3385e+000 44005 90199,90127,89937
 6.6000e+000 90081 -8.5147e+000 -3.5213e+001  5.2511e-001 44005 90271,90127,89859
 6.6000e+000 90058 -3.9628e+000 -3.7719e+001 -2.2282e+000 44005 90199,89937,89885
 6.6000e+000 90035 -1.0733e+001 -3.1941e+001  1.8985e+000 44005 90271,89859,89807
 6.6000e+000 90012 -7.5775e+000 -4.0933e+001 -4.2697e+000 44005 89885,89937,89911
 6.6000e+000 89989 -3.6123e+000 -3.3567e+001  5.2079e+000 44005 89807,89859,89833
 6.6000e+000 90153 -9.9265e+000 -3.9805e+001 -3.0069e+000 44005 89963,89937,90127
 6.6000e+000 90176 -1.0138e+001 -4.2512e+001  2.3024e-001 44005 89963,90127,89781
 6.6000e+000 90225 -9.8576e+000 -3.6150e+001 -1.4499e+000 44005 89859,90127,90199
 6.6000e+000 90248 -5.9282e+000 -3.4210e+001 -3.7204e-001 44005 89859,90199,89885
 6.6000e+000 90297 -1.1220e+001 -3.8663e+001 -1.5936e+000 44005 89781,90127,90271
 6.6000e+000 90320 -1.2380e+001 -3.4980e+001  1.4377e-001 44005 89781,90271,89807
 6.6000e+000 90470 -5.5257e+000 -2.9249e+001 -4.0061e-001 43601 90493,90369,90343
 6.6000e+000 90447 -9.6850e+000 -2.1540e+001  3.1617e+000 43601 90493,90343,90421
 6.6000e+000 90519 -1.1770e+001 -4.3337e+001 -5.2522e+000 43601 90395,90369,90493
 6.6000e+000 90542 -8.9776e+000 -2.7169e+001 -7.6595e-001 43601 90395,90493,90421
 6.6000e+000 90922 -9.6014e+000 -3.3665e+001  1.8708e+000 43154 90945,90700,90674
 6.6000e+000 90899 -8.0446e+000 -3.4439e+001 -5.1044e+000 43154 90945,90674,90648
 6.6000e+000 90876 -1.1773e+001 -2.6091e+001 -2.9949e+000 43154 90648,90778,90752
 6.6000e+000 90853 -4.6325e+000 -5.4959e+001  1.9375e+000 43154 90700,90752,90726
 6.6000e+000 90830 -9.5631e+000 -2.8013e+001 -5.2164e-001 43154 90648,90804,90778
 6.6000e+000 90971 -1.1539e+001 -3.9747e+001  3.1740e+000 43154 90752,90700,90945
 6.6000e+000 90994 -9.5565e+000 -3.8148e+001 -3.6138e+000 43154 90752,90945,90648
 6.6000e+000 91451 -4.7270e+000 -3.4529e+001 -6.1502e+000 42650 91203,91255,91229
 6.6000e+000 91428 -1.0861e+000 -3.2958e+001 -2.5965e+000 42650 91203,91333,91255
 6.6000e+000 91405 -2.9810e+000 -4.9930e+001 -7.4027e+000 42650 91177,91333,91203
 6.6000e+000 91382 -1.8833e+001 -5.6299e+001  6.2509e+000 42650 91255,91333,91281
 6.6000e+000 91359 -3.3194e+000 -4.6126e+001  1.3410e+000 42650 91281,91333,91307
 6.6000e+000 91721 -2.6647e+001 -4.8801e+001  4.7570e+000 42288 91496,91600,91522
 6.6000e+000 91698 -1.7258e+001 -3.1223e+001 -1.9380e+000 42288 91496,91626,91600
 6.6000e+000 91675 -1.2947e+001 -4.3133e+001  5.2314e+000 42288 91522,91574,91548
 6.6000e+000 91652 -1.2832e+001 -4.3235e+001  5.2347e+000 42288 91522,91600,91574
 6.6000e+000 92199 -3.9402e+001 -5.4747e+001 -1.4055e+000 41898 92222,91983,91879
 6.6000e+000 92176 -3.9821e+001 -6.2746e+001 -4.5700e+000 41898 92294,92222,91879
 6.6000e+000 92153 -4.2072e+001 -6.1548e+001 -6.2575e+000 41898 92294,91879,91853
 6.6000e+000 92130 -3.5129e+001 -3.1859e+001  4.5055e+000 41898 91879,91957,91931
 6.6000e+000 92107 -3.5280e+001 -5.3155e+001 -7.8581e-002 41898 91879,91983,91957
 6.6000e+000 92084 -4.0133e+001 -3.2156e+001  9.1628e+000 41898 91879,91931,91905
 6.6000e+000 92061 -3.7817e+001 -6.0372e+001 -6.8959e+000 41898 91827,92035,91853
 6.6000e+000 92248 -3.9613e+001 -6.5011e+001  8.9226e-001 41898 92009,91983,92222
 6.6000e+000 92271 -3.7815e+001 -6.6664e+001 -6.5327e+000 41898 92009,92222,92035
 6.6000e+000 92320 -3.6021e+001 -6.0977e+001 -5.0795e+000 41898 92035,92222,92294
 6.6000e+000 92343 -3.7717e+001 -5.9573e+001 -6.6899e+000 41898 92035,92294,91853
 6.6000e+000 92770 -7.2890e+000 -4.0358e+001 -4.0854e+000 41437 92865,92793,92525
 6.6000e+000 92747 -1.0897e+001 -4.4860e+001 -5.1806e+000 41437 92793,92473,92629
 6.6000e+000 92724 -1.3116e+000 -4.2730e+001 -7.3458e+000 41437 92865,92525,92499
 6.6000e+000 92701 -1.7207e+001 -3.3464e+001 -9.3337e+000 41437 92525,92603,92577
 6.6000e+000 92678  2.3953e+000 -4.2605e+001 -4.3091e+000 41437 92447,92629,92473
 6.6000e+000 92655 -2.1422e+001 -2.9579e+001 -6.8080e+000 41437 92525,92577,92551
 6.6000e+000 92819 -8.0002e+000 -4.1985e+001 -8.0729e+000 41437 92603,92525,92793
 6.6000e+000 92842 -1.9219e+001 -4.5956e+001 -1.3915e+001 41437 92603,92793,92629
 6.6000e+000 92891  3.7662e+000 -4.2406e+001 -4.2310e+000 41437 92473,92793,92865
 6.6000e+000 92914  1.1877e+001 -4.2122e+001 -8.7314e+000 41437 92473,92865,92499
 6.6000e+000 93243 -1.0495e+001 -6.6039e+001  2.3207e+001 41097 93044,93096,93070
 6.6000e+000 93220 -1.7227e+001 -6.1322e+001  1.1923e+001 41097 93044,93122,93096
 6.6000e+000 93197  1.3299e+000 -4.0229e+001  3.4311e+000 41097 93044,93148,93122
 6.6000e+000 93174 -1.1231e+001 -2.9361e+001  1.1330e+001 41097 93018,93148,93044
 6.6000e+000 93393 -1.3280e+000 -5.1262e+001  3.0836e+000 40643 93416,93292,93344
 6.6000e+000 93370 -8.6907e-001 -4.7151e+001  3.9276e+000 40643 93266,93344,93292
 6.6000e+000 93442 -2.3633e+000 -4.9694e+001  6.0509e+000 40643 93318,93292,93416
 6.6000e+000 93901 -1.4376e+001 -4.4000e+001 -4.0797e+000 40132 93924,93731,93705
 6.6000e+000 93878 -1.3857e+001 -4.2195e+001 -3.7501e+000 40132 93996,93924,93705
 6.6000e+000 93855 -1.5817e+001 -4.7028e+001 -1.7570e+000 40132 93996,93705,93653
 6.6000e+000 93832 -2.7134e+000 -4.6915e+001 -3.1983e+000 40132 93653,93705,93679
 6.6000e+000 93809 -1.2639e+001 -3.8608e+001 -8.7404e-001 40132 93627,93783,93757
 6.6000e+000 93950 -1.4332e+001 -4.3445e+001 -4.0526e+000 40132 93757,93731,93924
 6.6000e+000 93973 -1.4962e+001 -3.8096e+001 -1.3229e+000 40132 93757,93924,93627
 6.6000e+000 94022 -1.8403e+001 -4.5546e+001 -4.4953e-001 40132 93627,93924,93996
 6.6000e+000 94045 -1.6883e+001 -4.7136e+001  1.0553e+000 40132 93627,93996,93653
 6.6000e+000 94423 -9.3871e+000 -6.0652e+001 -6.9853e+000 39514 94149,94227,94175
 6.6000e+000 94400 -9.8205e+000 -5.3810e+001  4.8411e+000 39514 94149,94305,94227
 6.6000e+000 94377 -1.8741e+000 -6.4435e+001 -8.3358e+000 39514 94175,94227,94201
 6.6000e+000 94354 -1.7839e+001 -5.0650e+001  2.2598e+000 39514 94227,94305,94279
 6.6000e+000 94331 -9.7718e+000 -4.6892e+001  4.1514e+000 39514 94227,94279,94253
 6.6000e+000 94573 -5.5482e+000 -2.8855e+001 -4.2695e+000 38822 94596,94498,94472
 6.6000e+000 94550  4.2640e+000 -2.8897e+001  7.7741e+000 38822 94596,94472,94446
 6.6000e+000 94622 -1.6585e+001 -3.3400e+001 -6.7919e+000 38822 94524,94498,94596
 6.6000e+000 94645 -1.3252e+001 -3.5233e+001  6.3850e+000 38822 94524,94596,94446
 6.6000e+000 95025 -5.2370e+000 -3.3797e+001 -3.0771e+000 38418 95048,94829,94777
 6.6000e+000 95002 -3.1196e+000 -3.4412e+001 -4.7133e+000 38418 95120,95048,94777
 6.6000e+000 94979 -1.2101e+000 -3.6371e+001 -4.4273e+000 38418 95120,94777,94751
 6.6000e+000 94956 -2.5208e+000 -3.4276e+001 -4.0465e+000 38418 95192,94881,94855
 6.6000e+000 94933 -1.0380e+001 -2.4721e+001 -3.8054e+000 38418 94777,94829,94803
 6.6000e+000 95074 -7.1142e+000 -4.1613e+001 -5.0389e-001 38418 94855,94829,95048
 6.6000e+000 95097 -3.3002e+000 -3.4927e+001 -3.4390e+000 38418 95192,94855,95048
 6.6000e+000 95146 -7.0113e+000 -3.5517e+001 -3.3210e+000 38418 94907,95048,95120
 6.6000e+000 95169 -3.7243e+000 -3.6585e+001 -2.7706e+000 38418 94907,95120,94751
 6.6000e+000 95218 -4.0600e+000 -3.1338e+001 -4.1451e+000 38418 94907,94881,95192
 6.6000e+000 95241 -6.0726e+000 -3.3460e+001 -3.1039e+000 38418 94907,95192,95048
 6.6000e+000 95511 -1.3724e+001 -3.4941e+001  3.2598e+000 38049 95312,95390,95364
 6.6000e+000 95488 -4.4462e+000 -3.1063e+001  3.2566e+000 38049 95312,95416,95390
 6.6000e+000 95465 -4.0740e+000 -4.2150e+001 -2.3576e+000 38049 95312,95364,95338
 6.6000e+000 95442 -4.1520e+000 -2.5334e+001  4.4529e+000 38049 95286,95416,95312
 6.6000e+000 95808 -1.3399e+001 -4.6842e+001 -1.9954e+000 37437 95831,95586,95560
 6.6000e+000 95785  2.4310e+000 -4.7645e+001 -2.1874e+000 37437 95831,95560,95534
 6.6000e+000 95762 -2.4096e+001 -4.3006e+001  2.8834e+000 37437 95586,95664,95638
 6.6000e+000 95739 -4.8419e+000 -2.3616e+001 -1.0059e+001 37437 95534,95690,95664
 6.6000e+000 95716 -2.5025e+001 -2.7632e+001  1.0346e+000 37437 95586,95638,95612
 6.6000e+000 95857 -2.3857e+001 -4.4078e+001  4.5986e+000 37437 95664,95586,95831
 6.6000e+000 95880 -7.2335e+000 -4.4474e+001  4.6780e+000 37437 95664,95831,95534
 6.6000e+000 96390 -2.2732e+001 -3.8271e+001 -4.4147e+000 36883 96413,96145,96093
 6.6000e+000 96367 -1.9789e+001 -3.6467e+001 -2.2034e+000 36883 96413,96093,96067
 6.6000e+000 96344 -1.5019e+001 -4.9073e+001 -1.3959e+000 36883 96067,96249,96171
 6.6000e+000 96321 -1.9099e+001 -4.5062e+001 -2.9164e+000 36883 96093,96145,96119
 6.6000e+000 96298 -2.5451e+001 -7.5932e+001  5.6228e+000 36883 96171,96249,96197
 6.6000e+000 96275 -5.6705e+000 -6.1795e+001 -9.8587e-001 36883 96197,96249,96223
 6.6000e+000 96439 -2.0991e+001 -3.4996e+001 -2.0813e+000 36883 96171,96145,96413
 6.6000e+000 96462 -1.9113e+001 -3.5382e+001 -1.1502e-001 36883 96171,96413,96067
 6.6000e+000 96781 -1.4426e+001 -4.3995e+001 -6.8669e+000 36215 96559,96663,96637
 6.6000e+000 96758 -1.8267e+001 -4.5695e+001 -7.6704e+000 36215 96507,96663,96559
 6.6000e+000 96735 -1.7796e+001 -2.6659e+001  3.6339e+000 36215 96585,96637,96611
 6.6000e+000 96712 -4.0233e+001 -5.1122e+001 -6.4658e+000 36215 96559,96637,96585
 6.6000e+000 96689 -9.0307e+000 -4.8926e+001 -2.4624e+000 36215 96507,96559,96533
 6.6000e+000 97161  2.3938e-001 -1.9524e+001 -5.6380e-001 35818 97184,96965,96939
 6.6000e+000 97138 -3.1359e+000 -2.2082e+001 -2.6104e+000 35818 97184,96939,96887
 6.6000e+000 97115 -3.9566e+000 -2.9036e+001  6.8134e+000 35818 96965,97043,97017
 6.6000e+000 97092 -2.3674e+000 -2.0490e+001 -2.8954e+000 35818 96887,96939,96913
 6.6000e+000 97069 -1.7825e+001 -2.8333e+001  5.1776e+000 35818 96965,97017,96991
 6.6000e+000 97210  4.0687e+000 -2.1871e+001  1.1411e+000 35818 97043,96965,97184
 6.6000e+000 97233  1.0926e+000 -2.3518e+001 -6.0600e-001 35818 97043,97184,96887
 6.6000e+000 97739 -1.2885e+001 -3.9388e+001 -1.4457e+001 35214 97416,97468,97442
 6.6000e+000 97716 -1.6271e+001 -2.4010e+001 -5.5122e+000 35214 97416,97598,97468
 6.6000e+000 97693 -1.2283e+001 -2.0418e+001 -3.3525e+000 35214 97762,97520,97468
 6.6000e+000 97670 -1.2695e+001 -2.0828e+001 -3.8620e+000 35214 97762,97468,97598
 6.6000e+000 97647 -1.0980e+001 -1.7900e+001 -5.8393e+000 35214 97546,97598,97572
 6.6000e+000 97624 -9.6938e+000 -2.1243e+001 -3.4814e+000 35214 97468,97520,97494
 6.6000e+000 97788 -1.2508e+001 -2.1156e+001 -3.7297e+000 35214 97546,97520,97762
 6.6000e+000 97811 -1.2692e+001 -2.1453e+001 -4.1933e+000 35214 97546,97762,97598
 6.6000e+000 98189 -1.4326e+000 -9.6849e+000 -5.4613e+000 34760 98356,98212,97967
 6.6000e+000 98166  8.7607e-001 -1.1688e+001 -6.9293e+000 34760 98284,98212,97941
 6.6000e+000 98143 -1.0038e+000 -9.9483e+000 -5.6630e+000 34760 98284,97941,97915
 6.6000e+000 98120  1.3604e+000 -1.3438e+001 -1.3228e+000 34760 98484,97993,97967
 6.6000e+000 98097  1.4537e+000 -1.1466e+001 -8.5008e-001 34760 98556,98045,98019
 6.6000e+000 98238 -8.4849e-001 -1.2266e+001 -1.6937e+000 34760 98484,97967,98212
 6.6000e+000 98261  3.4023e+000 -1.3341e+001 -1.8926e+000 34760 98556,98019,98212
 6.6000e+000 98310  1.2434e+000 -7.7155e+000 -6.7150e+000 34760 98071,98212,98284
 6.6000e+000 98333  1.2798e+000 -3.0741e+000 -5.5315e+000 34760 98071,98284,97915
 6.6000e+000 98382 -1.9046e+001 -1.8575e+001 -9.8472e+000 34760 97941,98212,98356
 6.6000e+000 98510  5.8532e+000 -1.3418e+001 -2.4097e+000 34760 98019,97993,98484
 6.6000e+000 98533  1.9002e+000 -1.3616e+001 -2.8648e+000 34760 98019,98484,98212
 6.6000e+000 98582  3.7608e+000 -9.3033e+000  1.4196e-001 34760 98071,98045,98556
 6.6000e+000 98605  4.5070e+000 -1.1792e+001 -1.2781e+000 34760 98071,98556,98212
 6.6000e+000 99032 -1.8263e+001 -3.3950e+001  6.9601e+000 34156 98735,98891,98839
 6.6000e+000 99009 -1.6447e+001 -3.5089e+001  4.6057e+000 34156 98709,98891,98735
 6.6000e+000 98986 -7.8778e+000 -3.2414e+001  6.2582e+000 34156 98735,98813,98787
 6.6000e+000 98963 -8.6107e+000 -3.4175e+001  6.2713e+000 34156 98735,98839,98813
 6.6000e+000 98940 -8.4766e-001 -4.9309e+001  6.9578e+000 34156 98735,98787,98761
 6.6000e+000 98917 -1.7024e+001 -3.1185e+001  7.6934e+000 34156 98839,98891,98865
 6.6000e+000 99231 -3.2055e+000 -1.4356e+001  1.7026e+000 33766 99055,99133,99107
 6.6000e+000 99208 -6.8304e+000 -1.8756e+001  3.2644e+000 33766 99055,99159,99133
 6.6000e+000 99185 -2.9370e+000 -2.3696e+001  4.2187e+000 33766 99055,99107,99081
 6.6000e+000 99818 -5.5863e+000 -1.4392e+001  8.0116e-001 33248 99521,99651,99573
 6.6000e+000 99795 -2.5956e+000 -1.2066e+001  2.7740e+000 33248 99521,99677,99651
 6.6000e+000 99772 -9.5402e+000 -2.1109e+001 -8.2737e-001 33248 99573,99651,99599
 6.6000e+000 99749 -1.8758e+000 -1.9762e+001  3.7476e+000 33248 99495,99677,99521
 6.6000e+000 99726 -5.6704e+000 -1.9881e+001 -3.6394e+000 33248 99599,99651,99625
 6.6000e+000 99703 -6.9889e+000 -1.6853e+001  1.4976e+000 33248 99521,99573,99547
 6.6000e+000 100196 -1.0432e+001 -2.5343e+001 -5.4974e+000 32794 100219,99948,99922
 6.6000e+000 100173 -1.1158e+001 -2.6402e+001 -1.3998e+000 32794 100219,99922,100052
 6.6000e+000 100150 -1.2429e+001 -1.8702e+001  2.5298e+000 32794 99974,100052,100026
 6.6000e+000 100127 -1.3199e+001 -2.6421e+001 -1.2170e+000 32794 99922,100078,100052
 6.6000e+000 100104 -9.2114e+000 -2.4801e+001  8.2739e+000 32794 99974,100026,100000
 6.6000e+000 100245 -1.5115e+001 -2.6818e+001 -4.8389e+000 32794 99974,99948,100219
 6.6000e+000 100268 -1.4113e+001 -2.7504e+001 -5.6330e-001 32794 99974,100219,100052
 6.6000e+000 100418 -4.3097e+000 -2.8860e+001 -3.6582e+000 32504 100571,100343,100317
 6.6000e+000 100395 -1.7067e+001 -3.4609e+001  3.5558e+000 32504 100571,100317,100441
 6.6000e+000 100467  8.0068e+000 -1.4451e+001 -1.1450e+001 32504 100291,100369,100441
 6.6000e+000 100597  1.0909e+000 -2.3688e+001 -1.4182e+001 32504 100369,100343,100571
 6.6000e+000 100620 -4.8568e+000 -2.2168e+001 -7.9585e+000 32504 100369,100571,100441
 6.6000e+000 101020  3.8217e+000 -4.5182e+000  1.6000e+000 32142 100772,100902,100876
 6.6000e+000 100997  1.3727e+000  7.8024e+000 -4.9811e-001 32142 100746,100902,100772
 6.6000e+000 100974  3.0168e+000 -1.2938e+001  5.7166e+000 32142 101043,100824,100798
 6.6000e+000 100951 -1.1998e-001 -1.5683e+001  4.4943e+000 32142 101043,100798,100772
 6.6000e+000 100928 -1.2322e+001 -2.1125e+001 -8.8431e+000 32142 101115,100876,100850
 6.6000e+000 101069  5.7483e+000 -1.7824e+001  1.1499e+000 32142 100850,100824,101043
 6.6000e+000 101092 -4.5994e+000 -2.4190e+001 -2.0986e+000 32142 101115,100850,101043
 6.6000e+000 101141 -2.4568e+000 -1.1505e+001 -3.8614e+000 32142 100772,100876,101115
 6.6000e+000 101164  4.4525e+000 -1.3208e+001  3.1499e+000 32142 100772,101115,101043
 6.6000e+000 101719 -1.8376e+001 -3.7485e+001  5.5202e+000 31538 101742,101477,101399
 6.6000e+000 101696 -1.9643e+001 -4.4671e+001  1.9962e+000 31538 101814,101742,101399
 6.6000e+000 101673 -2.0778e+001 -3.7992e+001 -8.3146e-001 31538 101814,101399,101373
 6.6000e+000 101650 -1.8979e+001 -2.6379e+001  4.4001e+000 31538 101425,101477,101451
 6.6000e+000 101627 -1.6613e+001 -3.1587e+001  1.4922e+000 31538 101399,101477,101425
 6.6000e+000 101604 -1.1756e+001 -4.8023e+001  9.6772e+000 31538 101477,101529,101503
 6.6000e+000 101581 -5.3747e+000 -2.1047e+001  9.6151e-001 31538 101347,101555,101373
 6.6000e+000 101768 -2.0136e+001 -4.5481e+001  5.1494e+000 31538 101529,101477,101742
 6.6000e+000 101791 -1.9711e+001 -4.7902e+001 -2.7093e+000 31538 101529,101742,101555
 6.6000e+000 101840 -1.5959e+001 -3.7480e+001 -1.5717e+000 31538 101555,101742,101814
 6.6000e+000 101863 -1.8296e+001 -3.2138e+001 -4.2173e+000 31538 101555,101814,101373
 6.6000e+000 102111 -2.9452e+001 -6.6711e+001  1.0046e+001 31112 101886,101990,101912
 6.6000e+000 102088 -1.1985e+001 -4.2311e+001 -3.4848e-001 31112 101886,102016,101990
 6.6000e+000 102065 -1.4280e+001 -6.1761e+001  1.1141e+001 31112 101912,101990,101964
 6.6000e+000 102042 -1.6073e+001 -6.9099e+001  1.1313e+001 31112 101912,101964,101938
 6.6000e+000 102408 -8.1200e+000 -3.3312e+001  3.2348e+000 30658 102431,102186,102160
 6.6000e+000 102385 -1.3766e+001 -3.2755e+001  4.2586e-001 30658 102431,102160,102264
 6.6000e+000 102362 -1.2955e+001 -3.5863e+001  1.5976e+000 30658 102186,102238,102212
 6.6000e+000 102339 -1.5148e+001 -3.6260e+001 -3.2998e+000 30658 102134,102264,102160
 6.6000e+000 102316 -1.0539e+001 -2.9987e+001 -1.1704e+001 30658 102134,102290,102264
 6.6000e+000 102457 -1.2681e+001 -3.5457e+001  1.9519e+000 30658 102238,102186,102431
 6.6000e+000 102480 -1.8718e+001 -3.5473e+001 -1.0922e+000 30658 102238,102431,102264
 6.6000e+000 102681 -4.9095e+000 -3.6498e+001  4.3537e+000 30004 102704,102557,102505
 6.6000e+000 102658 -4.1501e+000 -4.0278e+001  6.0403e+000 30004 102704,102505,102609
 6.6000e+000 102635  4.6669e-001 -2.7670e+001  1.3058e+000 30004 102505,102557,102531
 6.6000e+000 102730 -5.2390e+000 -3.3161e+001  3.8369e+000 30004 102583,102557,102704
 6.6000e+000 102753 -4.5915e+000 -3.6008e+001  6.6240e+000 30004 102583,102704,102609
 6.6000e+000 103003 -6.0106e+000 -3.1914e+001 -1.7354e+000 29564 103026,102804,102778
 6.6000e+000 102980 -7.6153e+000 -3.9363e+001 -3.2905e+000 29564 103026,102778,102908
 6.6000e+000 102957 -8.1706e+000 -3.3557e+001  8.5993e-001 29564 102856,102908,102882
 6.6000e+000 102934 -1.4182e+001 -2.7245e+001  3.9029e+000 29564 102804,102856,102830
 6.6000e+000 103052 -5.5269e+000 -2.8286e+001  3.2775e+000 29564 102856,102804,103026
 6.6000e+000 103075 -7.6816e+000 -3.4351e+001  1.0255e+000 29564 102856,103026,102908
 6.6000e+000 103634 -1.4974e+001 -3.7455e+001 -5.1840e+000 29160 103657,103418,103392
 6.6000e+000 103611 -1.2970e+001 -3.3466e+001 -7.4227e-001 29160 103657,103392,103314
 6.6000e+000 103588 -1.0567e+001 -2.7284e+001 -2.1814e+000 29160 103314,103392,103366
 6.6000e+000 103565 -1.5543e+000 -2.7304e+001 -6.1540e+000 29160 103314,103366,103340
 6.6000e+000 103542 -1.2069e+001 -2.7100e+001 -4.1279e+000 29160 103262,103444,103314
 6.6000e+000 103519 -1.5006e+001 -3.3262e+001 -5.1753e+000 29160 103262,103314,103288
 6.6000e+000 103496 -9.3796e+000 -2.8853e+001 -2.8219e+000 29160 103262,103470,103444
 6.6000e+000 103683 -2.2227e+001 -4.3886e+001 -1.1969e+001 29160 103444,103418,103657
 6.6000e+000 103706 -1.5333e+001 -3.2413e+001 -6.7246e+000 29160 103444,103657,103314
 6.6000e+000 104035 -1.2572e+001 -3.6988e+001  4.6373e+000 28770 103836,103914,103862
 6.6000e+000 104012 -1.1709e+001 -3.5309e+001  5.7015e+000 28770 103810,103914,103836
 6.6000e+000 103989 -9.2987e-001 -3.1394e+001  5.5466e+000 28770 103810,103940,103914
 6.6000e+000 103966 -3.3988e+000 -3.0519e+001  8.7910e+000 28770 103862,103914,103888
 6.6000e+000 104185 -1.3054e+000 -2.7959e+001  6.0056e+000 28366 104208,104110,104084
 6.6000e+000 104162 -1.2790e+000 -2.4014e+001  4.5971e+000 28366 104280,104208,104084
 6.6000e+000 104234  4.4090e+000 -2.8390e+001  2.3912e+000 28366 104610,104208,104136
 6.6000e+000 104257 -4.7570e+000 -2.6111e+001  3.6794e+000 28366 104538,104410,104208
 6.6000e+000 104306 -6.9725e+000 -2.6713e+001  3.8365e+000 28366 104538,104208,104280
 6.6000e+000 104436 -6.8372e-002 -2.2545e+001  8.7644e-001 28366 104136,104208,104410
 6.6000e+000 104564 -7.0983e+000 -2.5364e+001  2.4482e+000 28366 104058,104410,104538
 6.6000e+000 104587 -8.3355e+000 -2.5361e+001  2.3971e+000 28366 104058,104538,104280
 6.6000e+000 104636  4.0794e+000 -2.7910e+001  5.1551e+000 28366 104110,104208,104610
 6.6000e+000 105349 -1.0099e+001 -3.0393e+001 -2.6578e+000 27976 105516,105372,105107
 6.6000e+000 105326 -1.6902e+001 -3.1706e+001  1.5452e+000 27976 105588,105372,105055
 6.6000e+000 105303 -2.0946e+001 -3.1156e+001 -5.5875e+000 27976 105444,105159,105133
 6.6000e+000 105280 -5.9303e+000 -3.1825e+001 -1.1338e+000 27976 105516,105107,105081
 6.6000e+000 105257 -1.6607e+001 -3.4933e+001  2.9957e+000 27976 105588,105055,105029
 6.6000e+000 105234 -1.0645e+001 -2.5925e+001  2.3617e+000 27976 105003,105185,105159
 6.6000e+000 105211 -1.1737e+001 -1.9583e+001  6.5681e+000 27976 104977,105185,105003
 6.6000e+000 105398 -7.0384e+000 -3.2318e+001 -4.4217e+000 27976 105133,105107,105372
 6.6000e+000 105421 -1.4844e+001 -3.5244e+001 -3.1663e+000 27976 105444,105133,105372
 6.6000e+000 105470 -1.4962e+001 -2.3816e+001 -2.6566e+000 27976 105003,105159,105444
 6.6000e+000 105493 -1.0901e+001 -2.8880e+001 -1.4259e+000 27976 105003,105444,105372
 6.6000e+000 105542 -7.2711e+000 -3.0000e+001  8.7185e-001 27976 105055,105372,105516
 6.6000e+000 105565 -9.7495e-001 -3.0586e+001  1.9643e+000 27976 105055,105516,105081
 6.6000e+000 105614 -1.7920e+001 -3.4965e+001  3.1816e+000 27976 105003,105372,105588
 6.6000e+000 105637 -1.7877e+001 -3.7936e+001  4.8297e+000 27976 105003,105588,105029
 6.6000e+000 106143 -8.8738e+000 -4.0460e+001  1.5576e+000 27664 106166,105846,105820
 6.6000e+000 106120 -4.9330e+000 -2.6966e+001  4.2115e-001 27664 106310,106166,105820
 6.6000e+000 106097 -9.2784e-001 -3.8088e+001 -9.3932e+000 27664 106382,106238,105950
 6.6000e+000 106074 -2.9247e+000 -2.4660e+001 -8.2697e-001 27664 106310,105820,106002
 6.6000e+000 106051  6.8831e+000 -3.2974e+001 -6.7151e+000 27664 106382,105950,105924
 6.6000e+000 106028  4.3339e+000 -6.7873e+001 -1.6680e+000 27664 105846,105898,105872
 6.6000e+000 106192 -8.4114e+000 -4.6431e+001 -8.3553e+000 27664 105898,105846,106166
 6.6000e+000 106215 -3.2973e+000 -3.8147e+001 -3.7129e+000 27664 106238,105898,106166
 6.6000e+000 106264 -2.0458e+001 -4.2369e+001 -1.3309e+001 27664 105976,105950,106238
 6.6000e+000 106287 -3.5836e+000 -3.6817e+001 -4.0976e+000 27664 105976,106238,106166
 6.6000e+000 106336 -2.7241e+000 -3.1550e+001  3.1983e+000 27664 105976,106166,106310
 6.6000e+000 106359 -1.4280e-001 -2.8865e+001  1.8034e+000 27664 105976,106310,106002
 6.6000e+000 106408 -3.6924e+000 -2.9134e+001 -4.4317e-001 27664 105898,106238,106382
 6.6000e+000 106431  6.0419e-001 -2.6697e+001  1.5608e+000 27664 105898,106382,105924
 6.6000e+000 106728 -3.5800e+000 -1.9318e+001  5.5257e+000 27153 106751,106506,106454
 6.6000e+000 106705 -3.4271e+000 -2.0747e+001  3.6307e+000 27153 106751,106454,106610
 6.6000e+000 106682 -5.4120e+000 -1.5948e+001  3.0462e+000 27153 106454,106506,106480
 6.6000e+000 106659 -4.7916e+000 -1.8090e+001  2.8700e+000 27153 106532,106610,106584
 6.6000e+000 106636 -5.4551e+000 -6.9860e+000  6.2403e+000 27153 106532,106584,106558
 6.6000e+000 106777 -1.2876e+000 -1.7258e+001  6.3906e+000 27153 106532,106506,106751
 6.6000e+000 106800 -1.9480e+000 -1.9475e+001  4.2223e+000 27153 106532,106751,106610
 6.6000e+000 107180 -3.9246e+000 -2.7289e+001  2.8649e+000 26642 107203,106984,106958
 6.6000e+000 107157 -1.3563e+001 -3.2385e+001 -1.0342e+000 26642 107203,106958,106932
 6.6000e+000 107134 -1.8988e+001 -3.7711e+001 -5.2837e+000 26642 107275,107036,107010
 6.6000e+000 107111 -1.3774e+001 -3.5713e+001 -8.4969e+000 26642 106932,107062,107036
 6.6000e+000 107088 -1.9521e-001 -2.6487e+001  2.9170e+000 26642 106906,107062,106932
 6.6000e+000 107229 -2.3765e-001 -2.8387e+001 -8.0281e+000 26642 107010,106984,107203
 6.6000e+000 107252 -1.5610e+001 -3.2955e+001 -7.0486e+000 26642 107275,107010,107203
 6.6000e+000 107301 -1.5002e+001 -3.7123e+001 -7.8587e+000 26642 106932,107036,107275
 6.6000e+000 107324 -1.3940e+001 -3.7149e+001 -8.3904e+000 26642 106932,107275,107203
 6.6000e+000 107675 -1.0705e+001 -2.1261e+001  3.8356e+000 26045 107450,107554,107476
 6.6000e+000 107652 -9.1740e+000 -1.9063e+001  2.6312e+000 26045 107450,107580,107554
 6.6000e+000 107629 -2.6504e+000 -4.1920e+000 -1.3551e+000 26045 107476,107528,107502
 6.6000e+000 107606 -7.7566e-001 -1.7856e+001  3.5287e+000 26045 107476,107554,107528
 6.6000e+000 107874 -7.9503e+000 -3.0346e+001  8.8888e+000 25641 107750,107802,107776
 6.6000e+000 107851 -7.9553e+000 -2.2645e+001  6.8484e+000 25641 107724,107802,107750
 6.6000e+000 107828 -1.2621e+001 -2.4019e+001  7.3053e+000 25641 107698,107802,107724
 6.6000e+000 108431 -7.6754e-001 -3.5773e+001  8.1698e+000 25023 108526,108267,108241
 6.6000e+000 108408  1.1837e-001 -3.1186e+001  9.7724e-001 25023 108059,108267,108085
 6.6000e+000 108385 -5.8498e+000 -3.9473e+001  7.3222e+000 25023 108454,108163,108111
 6.6000e+000 108362 -2.1350e+001 -3.9037e+001  1.3960e+001 25023 108454,108111,108085
 6.6000e+000 108339 -1.3897e+001 -5.0983e+001  1.2224e+001 25023 108111,108163,108137
 6.6000e+000 108316 -1.1324e+001 -2.8125e+001 -1.9011e+000 25023 108163,108241,108215
 6.6000e+000 108293 -1.9761e-001 -2.2765e+001  1.3688e+000 25023 108163,108215,108189
 6.6000e+000 108480 -1.3728e+000 -3.4579e+001  1.1765e+000 25023 108241,108163,108454
 6.6000e+000 108503 -4.5049e+000 -3.6274e+001  8.5499e+000 25023 108526,108241,108454
 6.6000e+000 108552 -5.8001e+000 -3.3137e+001  5.7100e+000 25023 108085,108267,108526
 6.6000e+000 108575 -9.6654e+000 -3.3748e+001  6.0285e+000 25023 108085,108526,108454
 6.6000e+000 108823  4.6778e+000 -2.5382e+001  3.9449e+000 24461 108624,108728,108650
 6.6000e+000 108800 -2.3013e+000 -5.7240e+001 -5.0973e+000 24461 108598,108728,108624
 6.6000e+000 108777  1.3406e+000 -3.3393e+001  2.0667e+000 24461 108650,108728,108676
 6.6000e+000 108754 -1.3177e+001 -9.7480e+001  8.6259e+000 24461 108676,108728,108702
 6.6000e+000 109022 -9.9196e+000 -2.3874e+001  5.3496e+000 24121 108872,108924,108898
 6.6000e+000 108999 -4.8839e+000 -2.5517e+001  5.5955e+000 24121 108846,108924,108872
 6.6000e+000 108976 -1.1814e+001 -2.8364e+001  5.5435e+000 24121 108846,108950,108924
 6.6000e+000 109483 -1.2346e+001 -3.7927e+001 -4.9245e+000 23717 109209,109339,109235
 6.6000e+000 109460 -5.9584e+000 -4.6249e+001 -1.0143e+001 23717 109209,109365,109339
 6.6000e+000 109437  3.2627e-002 -4.8480e+001 -2.4960e+000 23717 109287,109339,109313
 6.6000e+000 109414 -2.0786e+001 -4.9007e+001  2.6542e+000 23717 109235,109339,109287
 6.6000e+000 109391  3.5424e+000 -5.6580e+001  2.1718e+001 23717 109235,109287,109261
 6.6000e+000 109910 -1.5908e+001 -4.7082e+001 -4.7940e+000 23305 109613,109743,109717
 6.6000e+000 109887 -1.6945e+001 -4.7564e+001 -4.5775e+000 23305 109613,109769,109743
 6.6000e+000 109864 -1.9082e+001 -4.4513e+001 -4.2277e+000 23305 109613,109717,109639
 6.6000e+000 109841 -1.1194e+001 -4.4260e+001 -1.5264e+000 23305 109587,109769,109613
 6.6000e+000 109818  5.0246e-001 -3.6273e+001  3.5187e+000 23305 109639,109717,109691
 6.6000e+000 109795 -2.9229e+000 -2.8580e+001 -6.7488e+000 23305 109639,109691,109665
 6.6000e+000 110180 -2.9525e+000 -1.3076e+001 -2.7300e+000 22851 110007,110059,110033
 6.6000e+000 110157 -1.1494e+001 -3.6687e+001  2.4398e+000 22851 109981,110059,110007
 6.6000e+000 110134 -1.5545e+001 -4.1420e+001 -1.6813e-001 22851 109955,110059,109981
 6.6000e+000 110111 -6.7163e+000 -5.0734e+001 -4.2105e+000 22851 109955,110085,110059
 6.6000e+000 110737 -1.9834e-001 -3.6631e+001 -1.2849e+001 22333 110760,110469,110391
 6.6000e+000 110714  1.9561e+000 -4.3804e+001 -1.0009e+001 22333 110760,110391,110365
 6.6000e+000 110691 -1.2031e+000 -3.1335e+001 -1.0170e+001 22333 110832,110521,110469
 6.6000e+000 110668 -7.6693e+000 -6.6560e+001  6.2547e+000 22333 110417,110469,110443
 6.6000e+000 110645 -1.6045e+001 -6.2445e+001  5.3771e+000 22333 110391,110469,110417
 6.6000e+000 110622 -2.1199e-001 -3.3317e+001 -3.7807e+000 22333 110469,110521,110495
 6.6000e+000 110599 -6.1093e+000 -2.5316e+001  6.3077e+000 22333 110365,110573,110547
 6.6000e+000 110786  1.0909e+000 -3.2892e+001 -1.2086e+001 22333 110832,110469,110760
 6.6000e+000 110809  5.9977e+000 -3.6736e+001 -8.3827e+000 22333 110547,110760,110365
 6.6000e+000 110858 -2.7870e+000 -3.4702e+001 -9.3480e+000 22333 110547,110521,110832
 6.6000e+000 110881 -1.0841e+000 -3.7556e+001 -1.1431e+001 22333 110547,110832,110760
 6.6000e+000 111308 -1.9210e+001 -4.6780e+001  3.9179e+000 21829 111331,111063,111011
 6.6000e+000 111285 -1.3770e+001 -4.0231e+001 -2.1805e+000 21829 111331,111011,111167
 6.6000e+000 111262 -1.9267e+001 -4.7216e+001  5.0253e+000 21829 111403,111089,111063
 6.6000e+000 111239 -2.6166e+001 -5.1324e+001  9.0096e+000 21829 111011,111063,111037
 6.6000e+000 111216 -7.9518e+000 -3.0735e+001  3.0035e-001 21829 110985,111167,111011
 6.6000e+000 111193 -2.5944e+001 -8.7962e+001  2.1996e+001 21829 111089,111141,111115
 6.6000e+000 111357 -1.8536e+001 -4.7912e+001  4.9917e+000 21829 111403,111063,111331
 6.6000e+000 111380 -1.8895e+001 -4.8974e+001  3.5026e-001 21829 111141,111331,111167
 6.6000e+000 111429 -2.2294e+001 -4.8333e+001  5.0076e+000 21829 111141,111089,111403
 6.6000e+000 111452 -1.9976e+001 -4.8014e+001  5.2463e+000 21829 111141,111403,111331
 6.6000e+000 112056  1.9801e+001 -3.0985e+001  2.0267e+000 21489 111687,111765,111739
 6.6000e+000 112033  9.8175e+000 -3.5547e+001  4.6448e+000 21489 112151,112079,111687
 6.6000e+000 112010  3.9361e+000 -5.8742e+001  1.6808e+000 21489 111791,111843,111817
 6.6000e+000 111987 -6.9882e+000 -4.7899e+001 -5.1704e+000 21489 112079,111843,111791
 6.6000e+000 111964  1.6801e+001 -3.1001e+001  8.6211e+000 21489 112151,111687,111661
 6.6000e+000 111941  3.1873e+000 -2.0984e+001  5.4352e+000 21489 111661,111869,111843
 6.6000e+000 111918  2.1506e+001 -3.2983e+001  6.6432e+000 21489 111687,111739,111713
 6.6000e+000 111895  1.1095e+001 -2.6293e+000  9.7834e-001 21489 111635,111869,111661
 6.6000e+000 112105 -1.3284e+000 -3.9503e+001  2.6046e+000 21489 111765,111687,112079
 6.6000e+000 112128 -1.2028e+000 -3.7257e+001  2.8175e+000 21489 111765,112079,111791
 6.6000e+000 112177 -1.5123e+000 -3.3967e+001 -2.2181e+000 21489 111843,112079,112151
 6.6000e+000 112200  4.5685e+000 -3.1910e+001  9.6646e-001 21489 111843,112151,111661
 6.6000e+000 112578 -3.2329e+000 -4.5743e+001  2.5207e+000 21177 112382,112434,112408
 6.6000e+000 112555 -6.3814e+000 -4.5015e+001 -5.2961e-001 21177 112330,112434,112382
 6.6000e+000 112532 -2.2780e+000 -3.4809e+001  9.9759e+000 21177 112304,112434,112330
 6.6000e+000 112509 -8.0021e+000 -4.2882e+001  0.0000e+000 21177 112330,112382,112356
 6.6000e+000 112486 -1.7013e+000 -5.7246e+000 -4.5949e-001 21177 112304,112460,112434
 6.6000e+000 112679  8.3585e-001 -3.5425e+000 -7.5225e+000 20666 112601,112653,112627
 6.6000e+000 112927 -1.7146e+001 -5.5312e+001  1.4136e+000 19762 112702,112754,112728
 6.6000e+000 112904 -6.3876e+000 -5.3546e+001 -9.9655e-001 19762 112702,112832,112754
 6.6000e+000 112881 -1.4377e+001 -5.7274e+001  9.0882e+000 19762 112754,112832,112806
 6.6000e+000 112858 -2.0271e+001 -7.4384e+001  1.0141e+001 19762 112754,112806,112780
 6.6000e+000 113297 -1.4436e+001 -6.5527e+001  4.3989e+000 19308 112974,113052,113026
 6.6000e+000 113274 -1.0225e+001 -5.4294e+001  1.6976e+000 19308 112974,113156,113052
 6.6000e+000 113251 -6.9003e+000 -7.2326e+001 -8.6213e+000 19308 113052,113130,113104
 6.6000e+000 113228 -1.1185e+001 -5.4160e+001  1.2590e-001 19308 113052,113156,113130
 6.6000e+000 113205 -1.1577e+001 -6.2944e+001  0.0000e+000 19308 113052,113104,113078
 6.6000e+000 113182 -2.1677e+001 -6.9437e+001 -4.8088e-001 19308 112974,113026,113000
 6.6000e+000 113547  9.2306e-001 -5.7963e+001 -4.2344e+000 18711 113570,113374,113348
 6.6000e+000 113524 -2.1983e-001 -5.3358e+001 -2.6854e+000 18711 113570,113348,113452
 6.6000e+000 113501  2.7817e+000 -3.8525e+001 -9.9611e+000 18711 113322,113452,113348
 6.6000e+000 113478 -5.5924e+000 -5.3333e+001 -1.9483e+001 18711 113374,113426,113400
 6.6000e+000 113596  1.6143e-001 -5.2740e+001 -5.2547e+000 18711 113426,113374,113570
 6.6000e+000 113619 -8.8103e-001 -4.8531e+001 -2.7010e+000 18711 113426,113570,113452
 6.6000e+000 113771 -2.9522e+001 -7.4058e+001 -4.4814e+000 18307 113670,113722,113696
 6.6000e+000 113748 -2.2521e+001 -6.8791e+001 -2.0712e+000 18307 113644,113722,113670
 6.6000e+000 113972 -1.5287e+001 -6.3049e+001  1.5370e+000 17945 113822,113874,113848
 6.6000e+000 113949 -1.3759e+001 -6.2713e+001  1.5293e+000 17945 113822,113900,113874
 6.6000e+000 113926 -1.9498e+001 -5.0002e+001  2.6519e+001 17945 113796,113900,113822
 6.6000e+000 114075 -7.5934e+000 -8.8745e+001  1.0575e+001 17482 113997,114049,114023
 6.6000e+000 114479 -4.3665e+000 -5.2909e+001 -8.0781e+000 17042 114257,114361,114335
 6.6000e+000 114456 -1.1820e+001 -4.8697e+001 -1.8118e+000 17042 114205,114361,114257
 6.6000e+000 114433 -1.2855e+001 -5.7282e+001  2.0110e+000 17042 114205,114257,114231
 6.6000e+000 114410  7.2488e+000 -7.8527e+001 -3.7597e+000 17042 114283,114335,114309
 6.6000e+000 114387 -1.0830e+000 -6.5851e+001 -3.5649e+000 17042 114257,114335,114283
 6.6000e+000 114879 -2.3399e+001 -4.5563e+001 -2.1601e-002 16638 114631,114683,114657
 6.6000e+000 114856 -2.6613e+000 -3.6333e+001  7.0725e-001 16638 114605,114683,114631
 6.6000e+000 114833  1.2096e+001 -1.6691e+001 -7.6490e+000 16638 114605,114761,114683
 6.6000e+000 114810  2.8930e-002 -5.5781e+001 -2.8646e+000 16638 114683,114735,114709
 6.6000e+000 114787  1.5694e+000 -5.6809e+001 -3.8299e+000 16638 114683,114761,114735
 6.6000e+000 115078 -2.4827e+001 -5.4898e+001  1.5766e+000 16232 114954,115006,114980
 6.6000e+000 115055 -2.4514e+001 -5.9602e+001  2.5497e+000 16232 114928,115006,114954
 6.6000e+000 115032 -1.1554e+001 -7.3454e+001  5.2690e+000 16232 114902,115006,114928
 6.6000e+000 115228 -1.0137e+001 -5.4467e+001  2.4362e+000 15482 115101,115153,115127
 6.6000e+000 115205 -1.2594e+001 -5.1990e+001 -7.3044e-001 15482 115101,115179,115153
 6.6000e+000 115331 -5.3190e+000 -4.3147e+001 -6.3224e+000 15163 115253,115305,115279
 6.6000e+000 115434 -1.3708e+001 -5.0610e+001  1.0184e+001 421 115356,115408,115382
 6.7000e+000 68213 -1.4837e+001 -1.5909e+001 -9.1154e-001 67888 68112,68164,68138
 6.7000e+000 68190 -2.5412e+001 -2.1147e+001 -5.5275e-001 67888 68086,68164,68112
 6.7000e+000 68314 -2.3637e+001 -2.4526e+001  9.4553e-001 67576 68236,68288,68262
 6.7000e+000 68584 -2.1131e+001 -7.3706e+001  5.7669e+000 67378 68385,68489,68463
 6.7000e+000 68561 -4.1738e+000 -6.5647e+001  3.1887e+000 67378 68359,68489,68385
 6.7000e+000 68538 -1.5180e+001 -5.6581e+001  8.3131e+000 67378 68385,68463,68411
 6.7000e+000 68515 -5.5766e+000 -4.1048e+001  4.1692e+000 67378 68411,68463,68437
 6.7000e+000 68964 -2.7144e+001 -7.5808e+001  1.3168e+001 67130 68690,68820,68716
 6.7000e+000 68941  8.8245e+000 -8.3239e+001  2.3128e+001 67130 68690,68846,68820
 6.7000e+000 68918 -2.8233e+001 -4.6924e+001  4.2589e+000 67130 68742,68820,68794
 6.7000e+000 68895 -1.2895e+001 -4.4892e+001  6.5559e+000 67130 68716,68820,68742
 6.7000e+000 68872 -1.8871e+001 -3.2333e+001 -4.7404e+000 67130 68742,68794,68768
 6.7000e+000 69065 -2.6544e+001 -2.4669e+001  2.0361e+000 66926 68987,69039,69013
 6.7000e+000 69445 -1.6197e+001 -2.1172e+001 -2.8221e+000 66614 69223,69301,69275
 6.7000e+000 69422 -2.3281e+001 -2.4666e+001 -1.6631e+000 66614 69171,69301,69223
 6.7000e+000 69399 -2.4302e+001 -2.2623e+001 -1.0910e+000 66614 69171,69327,69301
 6.7000e+000 69376 -1.7949e+001 -1.9468e+001 -3.2368e-001 66614 69223,69275,69249
 6.7000e+000 69353 -1.8515e+001 -2.4528e+001 -4.4834e-001 66614 69171,69223,69197
 6.7000e+000 69546 -2.6180e+001 -6.3968e+001  4.4092e+000 66416 69468,69520,69494
 6.7000e+000 69997 -2.2213e+001 -6.3038e+001 -4.2395e+000 66104 69700,69830,69726
 6.7000e+000 69974 -2.9521e+001 -7.4714e+001 -8.8104e+000 66104 69700,69856,69830
 6.7000e+000 69951 -2.3355e+001 -4.6924e+001 -3.7141e+000 66104 69726,69804,69778
 6.7000e+000 69928 -1.9866e+001 -5.8636e+001 -5.1555e+000 66104 69726,69830,69804
 6.7000e+000 69905 -2.4923e+001 -4.4202e+001 -1.4069e+000 66104 69726,69778,69752
 6.7000e+000 69882 -1.0858e+001 -1.0215e+002 -2.1910e+001 66104 69674,69856,69700
 6.7000e+000 70326 -1.4866e+001 -2.5008e+001 -9.2749e-001 65814 70349,70153,70127
 6.7000e+000 70303 -8.1859e+000 -2.4411e+001  3.4119e-001 65814 70349,70127,70101
 6.7000e+000 70280 -6.4951e+000 -2.3932e+001  1.2290e+001 65814 70101,70231,70205
 6.7000e+000 70257 -5.8916e+000 -2.7103e+001  4.4956e+000 65814 70153,70205,70179
 6.7000e+000 70375 -1.1755e+001 -2.7148e+001  4.3441e+000 65814 70205,70153,70349
 6.7000e+000 70398 -1.5800e+000 -2.4966e+001  4.8807e+000 65814 70205,70349,70101
 6.7000e+000 70904 -1.0109e+001 -1.0236e+001 -5.6559e+000 65502 70607,70737,70685
 6.7000e+000 70881 -9.9179e+000 -5.3855e+000 -7.9770e+000 65502 70581,70737,70607
 6.7000e+000 70858 -9.7481e+000  4.4911e+000 -2.5158e+000 65502 70581,70763,70737
 6.7000e+000 70835 -7.1115e+000 -9.3771e+000 -7.2436e+000 65502 70685,70737,70711
 6.7000e+000 70812 -3.8594e+001 -1.3679e+001  1.1234e+000 65502 70607,70659,70633
 6.7000e+000 70789 -1.2673e+001 -1.3854e+001  2.3166e+000 65502 70607,70685,70659
 6.7000e+000 71103 -7.8665e+000 -4.5561e+001 -2.2837e+000 65304 71126,70979,70953
 6.7000e+000 71080 -1.7637e+001 -4.2594e+001 -1.3852e+000 65304 71126,70953,70927
 6.7000e+000 71057 -2.8327e+001 -4.6389e+001 -3.0491e+000 65304 70927,71031,71005
 6.7000e+000 71152 -1.6840e+001 -4.5603e+001 -5.2297e+000 65304 71005,70979,71126
 6.7000e+000 71175 -2.6246e+001 -4.2092e+001 -2.3985e+000 65304 71005,71126,70927
 6.7000e+000 71374 -2.5665e+001 -4.2184e+001  3.0074e+000 65106 71198,71276,71224
 6.7000e+000 71351 -1.8957e+001 -4.2210e+001  2.6971e+000 65106 71198,71302,71276
 6.7000e+000 71328 -2.5953e+001 -4.0700e+001  6.6613e+000 65106 71224,71276,71250
 6.7000e+000 71756 -9.2469e+000 -3.4061e+001 -1.8879e+000 64652 71508,71638,71534
 6.7000e+000 71733  2.2848e-001 -3.0447e+001 -7.8005e-002 64652 71482,71638,71508
 6.7000e+000 71710 -2.7066e+001 -4.1614e+001 -4.4502e+000 64652 71534,71586,71560
 6.7000e+000 71687 -2.3447e+001 -3.8509e+001 -7.1194e+000 64652 71534,71612,71586
 6.7000e+000 71664 -2.1068e+001 -3.8572e+001 -6.1989e+000 64652 71534,71638,71612
 6.7000e+000 72085 -2.0458e+001 -3.6381e+001 -8.0193e+000 64248 71886,71964,71912
 6.7000e+000 72062 -1.9572e+001 -3.8506e+001 -5.7465e+000 64248 71860,71964,71886
 6.7000e+000 72039 -5.8411e+000 -4.2018e+001 -5.6933e+000 64248 71912,71964,71938
 6.7000e+000 72016 -2.5553e+001 -3.7849e+001 -3.8319e+000 64248 71860,71990,71964
 6.7000e+000 72235 -3.0464e+000 -2.1202e+001 -2.1783e+000 63858 72588,72258,72134
 6.7000e+000 72212 -1.3855e+001 -2.0530e+001  8.2821e-001 63858 72330,72258,72108
 6.7000e+000 72284 -9.9409e+000 -1.5378e+001 -2.2272e+000 63858 72160,72134,72258
 6.7000e+000 72307 -1.9048e+001 -2.0502e+001 -7.0215e+000 63858 72460,72258,72186
 6.7000e+000 72356 -2.0227e+001 -1.9391e+001 -5.4103e+000 63858 72186,72258,72330
 6.7000e+000 72486 -1.1577e+001 -2.2045e+001 -4.7714e+000 63858 72160,72258,72460
 6.7000e+000 72614 -1.3277e+001 -2.6640e+001  1.0989e+000 63858 72108,72258,72588
 6.7000e+000 73248 -2.0868e+001 -6.0905e+001  1.3853e+001 63404 72902,72954,72928
 6.7000e+000 73225 -3.3718e+001 -5.0641e+001  7.8112e+000 63404 73271,72954,72902
 6.7000e+000 73202 -2.8954e+001 -3.7742e+001  6.2051e+000 63404 73271,72902,73032
 6.7000e+000 73179 -2.6830e+001 -3.4110e+001  3.1309e+000 63404 72902,73058,73032
 6.7000e+000 73156 -3.6432e+001 -5.1143e+001 -1.0928e+001 63404 72980,73032,73006
 6.7000e+000 73133 -3.1586e+001 -2.8344e+001  5.4403e+000 63404 72876,73058,72902
 6.7000e+000 73110 -1.3014e+001 -1.8137e+001  1.2934e+000 63404 72876,73084,73058
 6.7000e+000 73297 -2.7883e+001 -5.2113e+001 -2.6506e-001 63404 72980,72954,73271
 6.7000e+000 73320 -2.6518e+001 -4.5373e+001 -6.0741e-001 63404 72980,73271,73032
 6.7000e+000 73470 -1.8800e+001 -1.1885e+002  1.3043e+001 63014 73343,73395,73369
 6.7000e+000 73447 -5.6977e+001 -1.4430e+002 -2.3305e+000 63014 73343,73421,73395
 6.7000e+000 73929 -1.1957e+001 -3.9462e+001  1.4106e+000 62702 73759,73811,73785
 6.7000e+000 73906 -1.2960e+001 -3.8477e+001  4.1791e+000 62702 73655,73811,73759
 6.7000e+000 73883 -2.0532e+001 -4.1954e+001  5.9031e-001 62702 73655,73759,73681
 6.7000e+000 73860 -1.7254e+001 -3.4672e+001 -1.1064e+000 62702 73681,73759,73707
 6.7000e+000 73837 -2.8345e+001 -3.7142e+001  3.3485e+000 62702 73707,73759,73733
 6.7000e+000 74209 -3.3214e+001 -3.1806e+001  1.5480e+000 62404 74059,74137,74085
 6.7000e+000 74186 -3.6805e+001 -3.9830e+001  5.3380e+000 62404 74033,74137,74059
 6.7000e+000 74163 -2.9457e+001 -2.9522e+001  3.2026e+000 62404 74085,74137,74111
 6.7000e+000 74408 -5.3694e+000 -3.0287e+001  1.6559e+000 62000 74258,74336,74284
 6.7000e+000 74385 -2.2711e+000 -2.8989e+001  2.4341e+000 62000 74232,74336,74258
 6.7000e+000 74362 -9.6220e+000 -3.1535e+001  9.5099e-002 62000 74284,74336,74310
 6.7000e+000 74509 -1.3714e+001 -1.4821e+001 -1.0861e+000 61802 74431,74483,74457
 6.7000e+000 74759 -2.1271e+001 -2.1815e+001  2.9174e+000 61554 74782,74586,74560
 6.7000e+000 74736 -1.9496e+001 -2.3627e+001  1.0757e+000 61554 74782,74560,74664
 6.7000e+000 74713 -2.0410e+001 -2.3595e+001  4.7135e+000 61554 74854,74612,74586
 6.7000e+000 74690 -2.0685e+001 -2.4517e+001  2.1096e-001 61554 74534,74664,74560
 6.7000e+000 74808 -2.1291e+001 -2.4543e+001  2.5113e+000 61554 74854,74586,74782
 6.7000e+000 74831 -2.0067e+001 -3.1657e+001  1.6660e+000 61554 74638,74782,74664
 6.7000e+000 74880 -1.7578e+001 -2.4517e+001  4.6599e+000 61554 74638,74612,74854
 6.7000e+000 74903 -1.7491e+001 -2.4002e+001  2.9066e+000 61554 74638,74854,74782
 6.7000e+000 75285 -1.8384e+001 -2.3333e+001  4.9217e-001 61356 75063,75167,75115
 6.7000e+000 75262 -1.7143e+001 -2.0084e+001  2.0878e-001 61356 75037,75167,75063
 6.7000e+000 75239 -1.6239e+001 -2.0736e+001 -5.0599e-001 61356 75115,75167,75141
 6.7000e+000 75216 -1.8142e+001 -2.4355e+001 -2.4659e-001 61356 75063,75115,75089
 6.7000e+000 75193 -1.5255e+001 -2.2601e+001 -8.4338e-001 61356 75011,75167,75037
 6.7000e+000 75631 -8.6913e+000 -1.4836e+001  1.4399e+000 60952 75654,75412,75360
 6.7000e+000 75608 -9.7729e+000 -1.7201e+001  5.2548e-001 60952 75654,75360,75334
 6.7000e+000 75585 -1.0359e+001 -2.2073e+001  1.9317e+000 60952 75726,75438,75412
 6.7000e+000 75562 -9.8823e+000 -1.7802e+001 -2.4235e+000 60952 75308,75490,75334
 6.7000e+000 75539 -1.0141e+001 -1.5532e+001  1.4937e+000 60952 75360,75412,75386
 6.7000e+000 75516 -9.5054e+000 -2.7901e+001 -4.6262e+000 60952 75438,75490,75464
 6.7000e+000 75680 -8.6275e+000 -1.8243e+001  1.4453e+000 60952 75726,75412,75654
 6.7000e+000 75703 -8.5900e+000 -1.7653e+001  3.8936e-001 60952 75490,75654,75334
 6.7000e+000 75752 -9.0760e+000 -1.7897e+001  7.8886e-001 60952 75490,75438,75726
 6.7000e+000 75775 -9.0372e+000 -1.7430e+001  2.7824e-001 60952 75490,75726,75654
 6.7000e+000 76155 -1.2141e+001 -2.8512e+001 -2.8814e-001 60754 75933,75985,75959
 6.7000e+000 76132 -1.7032e+001 -3.1283e+001  3.8654e+000 60754 75933,76037,75985
 6.7000e+000 76109 -5.9104e+000 -2.8449e+001  7.5512e-001 60754 75985,76037,76011
 6.7000e+000 76086 -2.2554e+001 -2.8834e+001  9.3956e-001 60754 75881,76037,75933
 6.7000e+000 76063 -2.3055e+001 -3.1699e+001  4.0359e-001 60754 75881,75933,75907
 6.7000e+000 76612 -8.1486e+000 -3.5315e+001  3.9092e+000 60350 76635,76442,76390
 6.7000e+000 76589 -2.7433e-001 -4.0672e+001  5.7034e+000 60350 76635,76390,76364
 6.7000e+000 76566 -6.9400e+000 -5.5846e+001 -2.3476e+000 60350 76364,76494,76468
 6.7000e+000 76543 -5.0711e-001 -3.2333e+001  3.1634e+000 60350 76390,76442,76416
 6.7000e+000 76520 -2.6590e+001 -3.2719e+001 -8.1039e+000 60350 76338,76494,76364
 6.7000e+000 76661 -1.2537e+001 -3.8927e+001  5.4963e+000 60350 76468,76442,76635
 6.7000e+000 76684 -6.8092e+000 -4.5139e+001  7.7985e+000 60350 76468,76635,76364
 6.7000e+000 76932 -2.0700e+001 -2.8118e+001 -1.5411e+000 59946 76955,76733,76707
 6.7000e+000 76909 -2.1390e+001 -2.9805e+001 -1.8443e+000 59946 77027,76955,76707
 6.7000e+000 76886 -2.3578e+001 -3.0368e+001 -1.0329e+000 59946 77027,76707,76837
 6.7000e+000 76863 -9.1985e+000 -2.7460e+001 -6.0549e+000 59946 76733,76785,76759
 6.7000e+000 76981 -2.1482e+001 -2.8800e+001 -9.6050e-001 59946 76785,76733,76955
 6.7000e+000 77004 -2.1261e+001 -2.5949e+001 -1.9169e+000 59946 76785,76955,76811
 6.7000e+000 77053 -2.4349e+001 -2.8865e+001 -5.6673e-001 59946 76811,76955,77027
 6.7000e+000 77076 -2.6446e+001 -3.0101e+001  6.2714e-001 59946 76811,77027,76837
 6.7000e+000 77226 -1.5863e+001 -4.2527e+001  1.3029e+000 59542 77099,77151,77125
 6.7000e+000 77203 -2.4698e+001 -5.7840e+001  5.6123e+000 59542 77099,77177,77151
 6.7000e+000 77427 -2.2964e+001 -4.5505e+001 -2.7207e+000 59030 77450,77277,77251
 6.7000e+000 77404 -1.7065e+001 -4.2442e+001 -1.1992e+001 59030 77450,77251,77355
 6.7000e+000 77381 -2.1443e+001 -5.4860e+001 -2.3310e-001 59030 77277,77329,77303
 6.7000e+000 77476 -1.4738e+001 -4.5944e+001 -6.1097e+000 59030 77329,77277,77450
 6.7000e+000 77499 -6.5802e+000 -4.4816e+001 -1.3589e+001 59030 77329,77450,77355
 6.7000e+000 77749 -2.0421e+001 -5.8152e+001  5.2811e+000 58426 77772,77628,77602
 6.7000e+000 77726 -1.1572e+001 -6.5752e+001  1.0498e+001 58426 77524,77654,77628
 6.7000e+000 77703 -1.7674e+001 -5.5550e+001  4.1422e+000 58426 77772,77602,77550
 6.7000e+000 77680 -1.5075e+001 -5.3750e+001 -8.4230e-001 58426 77550,77602,77576
 6.7000e+000 77798 -1.6943e+001 -6.0955e+001  4.2030e+000 58426 77524,77628,77772
 6.7000e+000 77821 -1.4832e+001 -5.8328e+001  3.0492e+000 58426 77524,77772,77550
 6.7000e+000 78071 -2.2504e+001 -4.6407e+001  5.6621e+000 57922 78094,77924,77898
 6.7000e+000 78048 -2.1396e+001 -3.4946e+001  1.3034e+000 57922 78094,77898,77872
 6.7000e+000 78025 -1.9927e+001 -3.0760e+001  3.7555e+000 57922 78166,77846,77950
 6.7000e+000 78002 -1.7364e+001 -2.8987e+001  2.9538e+000 57922 77846,77976,77950
 6.7000e+000 78120 -1.5415e+001 -3.6323e+001  2.5681e+000 57922 77950,77924,78094
 6.7000e+000 78143 -2.0222e+001 -3.1456e+001  2.6212e+000 57922 78166,77950,78094
 6.7000e+000 78192 -1.8955e+001 -3.2609e+001  2.5716e+000 57922 77872,77846,78166
 6.7000e+000 78215 -2.0271e+001 -3.4566e+001  1.3479e+000 57922 77872,78166,78094
 6.7000e+000 78416  6.5536e-001 -3.8939e+001 -2.0064e+000 57468 78439,78292,78240
 6.7000e+000 78393 -3.8415e+000 -3.8378e+001 -4.5669e-001 57468 78439,78240,78344
 6.7000e+000 78370 -1.1211e+000 -5.3075e+001 -7.1790e-001 57468 78240,78292,78266
 6.7000e+000 78465 -3.7595e+000 -4.0847e+001 -2.2441e+000 57468 78318,78292,78439
 6.7000e+000 78488 -5.6088e+000 -3.8905e+001 -4.7312e-001 57468 78318,78439,78344
 6.7000e+000 78689 -1.2118e+001 -4.3488e+001 -6.0326e-001 57014 78712,78539,78513
 6.7000e+000 78666 -1.3658e+001 -4.4175e+001  2.8976e-001 57014 78712,78513,78617
 6.7000e+000 78643 -9.8445e+000 -4.0906e+001  5.0364e+000 57014 78565,78617,78591
 6.7000e+000 78738 -1.3872e+001 -4.0363e+001 -2.3595e-001 57014 78565,78539,78712
 6.7000e+000 78761 -1.6603e+001 -4.3259e+001  1.3739e+000 57014 78565,78712,78617
 6.7000e+000 79241 -1.6442e+001 -4.1170e+001  2.4143e+000 56652 79264,78895,78869
 6.7000e+000 79218 -8.8030e+000 -5.3199e+001 -3.9152e+000 56652 79264,78869,79051
 6.7000e+000 79195 -1.3660e+001 -4.8811e+001 -9.6091e+000 56652 78869,79077,79051
 6.7000e+000 79172 -1.3984e+001 -2.9933e+001 -3.2289e+000 56652 78895,78973,78947
 6.7000e+000 79149 -2.3654e+001 -9.0310e+001 -8.3801e+000 56652 78973,79051,78999
 6.7000e+000 79126 -9.8270e+000 -2.7790e+001 -4.7120e+000 56652 78895,78947,78921
 6.7000e+000 79103 -1.6375e+001 -5.6177e+001  1.0835e+001 56652 78999,79051,79025
 6.7000e+000 79290 -1.0482e+001 -3.3616e+001  6.5812e+000 56652 78973,78895,79264
 6.7000e+000 79313 -2.3572e+000 -4.6621e+001  6.1846e-001 56652 78973,79264,79051
 6.7000e+000 79512 -4.9639e+000 -6.6440e+001  4.8627e+000 56062 79388,79440,79414
 6.7000e+000 79489 -2.3349e+001 -3.2568e+001  9.1999e+000 56062 79336,79440,79388
 6.7000e+000 79466 -4.9020e+000 -5.8924e+001  8.9895e+000 56062 79336,79388,79362
 6.7000e+000 79941 -5.9614e+000 -2.0500e+001  5.7274e+000 55658 79964,79670,79644
 6.7000e+000 79918 -8.6151e+000 -2.3222e+001  6.8081e+000 55658 79964,79644,79800
 6.7000e+000 79895 -7.9625e+000 -2.0802e+001  5.4519e+000 55658 80036,79696,79670
 6.7000e+000 79872 -9.8346e+000 -1.8599e+001  2.3311e+000 55658 80108,79722,79696
 6.7000e+000 79849 -1.0170e+001 -5.1477e+000  6.3499e+000 55658 79722,79774,79748
 6.7000e+000 79826  1.4134e+000 -2.0248e+001 -9.5607e-002 55658 79618,79800,79644
 6.7000e+000 79990 -8.7912e+000 -2.1236e+001  5.0250e+000 55658 80036,79670,79964
 6.7000e+000 80013 -6.5440e+000 -1.8536e+001  7.5953e+000 55658 79774,79964,79800
 6.7000e+000 80062 -7.2885e+000 -1.9677e+001  4.5808e+000 55658 80108,79696,80036
 6.7000e+000 80085 -9.2614e+000 -1.9504e+001  6.2450e+000 55658 79774,80036,79964
 6.7000e+000 80134 -1.4732e+001 -1.9279e+001  3.0047e+000 55658 79774,79722,80108
 6.7000e+000 80157 -1.3380e+001 -2.1263e+001  5.1448e+000 55658 79774,80108,80036
 6.7000e+000 80307 -3.1286e+001 -2.7406e+001 -3.3651e+000 55254 80402,80330,80206
 6.7000e+000 80284 -2.9319e+001 -3.5771e+001 -4.0749e+000 55254 80330,80180,80258
 6.7000e+000 80356 -3.4807e+001 -3.5203e+001  2.7194e+000 55254 80232,80206,80330
 6.7000e+000 80379 -1.8863e+001 -2.8260e+001  3.8924e+000 55254 80232,80330,80258
 6.7000e+000 80428 -3.4746e+001 -3.3692e+001 -5.7768e+000 55254 80180,80330,80402
 6.7000e+000 80659 -1.2925e+001 -5.4381e+001 -3.1207e+000 54850 80558,80610,80584
 6.7000e+000 80636 -1.2639e+001 -5.2667e+001 -1.4325e+000 54850 80532,80610,80558
 6.7000e+000 80760 -7.5667e+000 -1.4124e+001 -4.3518e-001 54652 80682,80734,80708
 6.7000e+000 81164 -6.5825e+000 -1.5713e+001  7.6390e-001 54248 81187,80942,80890
 6.7000e+000 81141 -6.1551e+000 -1.6000e+001  6.3207e-001 54248 81187,80890,81046
 6.7000e+000 81118 -8.3415e+000 -1.7409e+001  4.3831e+000 54248 80942,81020,80994
 6.7000e+000 81095 -5.8627e+000 -1.4358e+001  1.2499e+000 54248 80890,80942,80916
 6.7000e+000 81072 -6.4766e+000 -9.7859e+000  1.3084e+000 54248 80942,80994,80968
 6.7000e+000 81213 -6.2159e+000 -1.5603e+001  8.3199e-001 54248 81020,80942,81187
 6.7000e+000 81236 -5.7718e+000 -1.5862e+001  7.4332e-001 54248 81020,81187,81046
 6.7000e+000 81663 -2.7607e+001 -4.0879e+001  2.3866e+000 53594 81340,81444,81366
 6.7000e+000 81640 -2.6173e+001 -6.2466e+001 -1.4398e-001 53594 81340,81470,81444
 6.7000e+000 81617 -2.6778e+001 -5.7627e+001 -1.1529e+001 53594 81340,81522,81470
 6.7000e+000 81594 -1.8591e+001 -2.6849e+001 -2.5734e+000 53594 81392,81444,81418
 6.7000e+000 81571 -1.9983e+001 -3.5296e+001 -4.2985e+000 53594 81366,81444,81392
 6.7000e+000 81548 -2.8834e+000 -7.1705e+001 -8.0504e-002 53594 81470,81522,81496
 6.7000e+000 81943 -8.8950e+000 -1.6511e+001 -2.5921e+000 53104 81966,81845,81819
 6.7000e+000 81920 -1.3325e+001 -1.5237e+001 -4.2383e+000 53104 81966,81819,81767
 6.7000e+000 81897 -1.2990e+001 -1.4732e+001 -3.8573e+000 53104 81767,81819,81793
 6.7000e+000 81992 -6.2097e+000 -1.7707e+001 -4.6089e+000 53104 81871,81845,81966
 6.7000e+000 82015 -1.0012e+001 -1.5693e+001 -7.0484e+000 53104 81871,81966,81767
 6.7000e+000 82491 -1.2936e+001 -2.7157e+001 -5.2199e+000 52650 82145,82249,82171
 6.7000e+000 82468 -2.2538e+001 -3.1884e+001 -3.7100e+000 52650 82145,82301,82249
 6.7000e+000 82445 -2.5353e+001 -4.7599e+001 -6.0091e+000 52650 82249,82301,82275
 6.7000e+000 82422 -3.0240e+001 -6.3883e+001 -1.3401e+001 52650 82119,82301,82145
 6.7000e+000 82399 -9.9057e+000 -1.8265e+001  1.2758e+000 52650 82171,82249,82223
 6.7000e+000 82376 -1.4208e+001 -5.7834e+001 -3.8254e+000 52650 82119,82327,82301
 6.7000e+000 82353 -1.9501e+000 -1.0192e+001 -3.4560e+000 52650 82171,82223,82197
 6.7000e+000 82739 -1.1664e+001 -1.5814e+001 -1.3828e+000 52246 82762,82540,82514
 6.7000e+000 82716 -7.6939e+000 -1.0354e+001 -3.1781e+000 52246 82762,82514,82644
 6.7000e+000 82693 -1.5681e+001 -2.1255e+001  1.5226e+000 52246 82540,82618,82592
 6.7000e+000 82670 -5.7568e+000 -1.4258e+001 -1.9151e+000 52246 82540,82592,82566
 6.7000e+000 82788 -8.0267e+000 -2.0403e+001  6.5364e-001 52246 82618,82540,82762
 6.7000e+000 82811 -5.5097e+000 -1.7763e+001 -8.5273e-001 52246 82618,82762,82644
 6.7000e+000 83059 -3.6226e+000 -2.7484e+001  2.0832e+000 51578 82860,82964,82938
 6.7000e+000 83036 -2.4130e+000 -2.3005e+001 -7.7437e+000 51578 82834,82964,82860
 6.7000e+000 83013 -3.3043e+000 -2.3659e+001  3.8839e+000 51578 82860,82938,82886
 6.7000e+000 82990 -2.7548e+000 -2.1298e+001  3.2498e+000 51578 82886,82938,82912
 6.7000e+000 83309 -8.4314e+000 -1.5944e+001  5.9020e+000 51138 83332,83162,83136
 6.7000e+000 83286 -5.1181e+000 -2.0971e+001  2.7612e+000 51138 83332,83136,83110
 6.7000e+000 83263 -8.0004e+000 -2.0431e+001  1.5309e+000 51138 83404,83214,83188
 6.7000e+000 83240  3.7682e-002 -9.0701e+000 -4.2643e-001 51138 83084,83214,83110
 6.7000e+000 83358 -1.3878e+001 -2.3376e+001  9.9627e+000 51138 83188,83162,83332
 6.7000e+000 83381 -6.4648e+000 -2.3850e+001  4.4165e+000 51138 83404,83188,83332
 6.7000e+000 83430 -4.9252e+000 -1.1064e+001 -2.2157e-001 51138 83110,83214,83404
 6.7000e+000 83453 -5.1276e+000 -1.6742e+001  2.8898e+000 51138 83110,83404,83332
 6.7000e+000 83835 -1.1228e+001 -3.2714e+001 -7.7772e-001 50734 83613,83717,83691
 6.7000e+000 83812 -1.3748e+001 -3.9200e+001 -4.1154e+000 50734 83561,83717,83613
 6.7000e+000 83789 -1.1458e+001 -1.7768e+001 -7.6795e+000 50734 83561,83613,83587
 6.7000e+000 83766 -1.4734e+001 -2.3761e+001 -1.7957e-001 50734 83613,83691,83639
 6.7000e+000 83743 -1.5756e+001 -2.3499e+001  6.9522e+000 50734 83639,83691,83665
 6.7000e+000 84034 -7.2628e+000 -1.7471e+001  1.1126e+000 50230 84057,83884,83858
 6.7000e+000 84011 -5.4327e+000 -1.4534e+001 -1.1415e+000 50230 84129,84057,83858
 6.7000e+000 83988 -2.6420e+000 -1.3572e+001 -2.0499e+000 50230 84129,83858,83962
 6.7000e+000 84083 -4.5529e+000 -1.5381e+001 -1.5235e+000 50230 83910,83884,84057
 6.7000e+000 84106 -4.2893e+000 -1.4434e+001 -1.6647e+000 50230 83910,84057,83936
 6.7000e+000 84155 -1.3276e+000 -1.5329e+001 -1.1624e+000 50230 83936,84057,84129
 6.7000e+000 84178 -5.4743e-002 -1.5498e+001 -2.0914e+000 50230 83936,84129,83962
 6.7000e+000 84558 -1.5469e+001 -2.7198e+001 -3.2988e+000 49768 84581,84388,84362
 6.7000e+000 84535 -2.5381e+001 -2.9064e+001 -1.9682e+000 49768 84581,84362,84310
 6.7000e+000 84512 -4.3567e+000 -3.3404e+001 -4.5239e+000 49768 84653,84440,84414
 6.7000e+000 84489 -2.1598e+001 -3.2729e+001  2.0740e+000 49768 84310,84362,84336
 6.7000e+000 84466 -6.2153e+000 -2.8374e+001  1.6704e-001 49768 84284,84440,84310
 6.7000e+000 84607 -9.6531e+000 -2.6179e+001 -6.0683e+000 49768 84414,84388,84581
 6.7000e+000 84630 -8.5018e+000 -2.9163e+001 -3.1100e+000 49768 84653,84414,84581
 6.7000e+000 84679 -1.0016e+001 -3.3052e+001 -6.4920e+000 49768 84310,84440,84653
 6.7000e+000 84702 -1.6941e+001 -3.2221e+001 -7.0095e+000 49768 84310,84653,84581
 6.7000e+000 85159 -2.3738e+001 -3.2882e+001 -9.2700e+000 49192 84885,84937,84911
 6.7000e+000 85136 -1.9399e+001 -1.8065e+001 -8.3653e+000 49192 84885,85041,84937
 6.7000e+000 85113 -1.1693e+001 -1.3164e+001 -5.2112e+000 49192 84963,85041,84989
 6.7000e+000 85090 -1.1387e+001 -1.2080e+001 -4.5108e+000 49192 84937,85041,84963
 6.7000e+000 85067 -8.0930e+000 -1.0090e+001 -7.1273e+000 49192 84989,85041,85015
 6.7000e+000 85714 -1.9321e+001 -2.1608e+001  1.5491e+000 48638 85368,85498,85394
 6.7000e+000 85691 -2.3311e+001 -2.7996e+001  3.2810e+000 48638 85368,85524,85498
 6.7000e+000 85668 -2.7396e+001 -2.3112e+001  1.1834e+001 48638 85737,85420,85394
 6.7000e+000 85645 -2.0061e+001 -2.4672e+001  5.2616e+000 48638 85737,85394,85498
 6.7000e+000 85622 -1.3728e+001 -2.3759e+001  7.0568e+000 48638 85446,85498,85472
 6.7000e+000 85599 -6.7625e+000 -2.1421e+001  4.0519e+000 48638 85342,85524,85368
 6.7000e+000 85576 -2.4512e+001 -2.8083e+001  5.6891e+000 48638 85342,85550,85524
 6.7000e+000 85763 -1.6230e+001 -1.8128e+001  1.2871e+001 48638 85446,85420,85737
 6.7000e+000 85786 -1.5690e+001 -2.2460e+001  6.0387e+000 48638 85446,85737,85498
 6.7000e+000 86371 -1.6926e+001 -1.3584e+001 -3.4561e-001 48084 86100,86230,86178
 6.7000e+000 86348 -2.1961e+001 -2.4633e+001 -3.2437e+000 48084 86048,86230,86100
 6.7000e+000 86325 -1.1628e+001 -1.0093e+001  4.9513e+000 48084 86100,86178,86126
 6.7000e+000 86302 -1.5445e+001 -9.3268e+000 -5.3766e+000 48084 86048,86100,86074
 6.7000e+000 86279 -1.9562e+001 -2.9869e+001 -9.3972e-001 48084 86178,86230,86204
 6.7000e+000 86256 -7.1581e+000 -5.6581e+000  6.7608e+000 48084 86126,86178,86152
 6.7000e+000 86619 -8.1946e+000 -1.5746e+001  1.7934e+000 47630 86642,86446,86420
 6.7000e+000 86596 -1.0100e+001 -1.8176e+001 -2.8220e+000 47630 86642,86420,86394
 6.7000e+000 86573 -1.7281e+001 -1.7427e+001 -4.1682e+000 47630 86394,86524,86498
 6.7000e+000 86550 -5.9198e+000 -2.0657e+001  1.1316e+000 47630 86446,86498,86472
 6.7000e+000 86668 -1.0642e+001 -2.1209e+001  8.3212e-002 47630 86498,86446,86642
 6.7000e+000 86691 -1.1589e+001 -2.2005e+001 -4.4318e+000 47630 86498,86642,86394
 6.7000e+000 87022 -4.1655e+000 -7.7199e+000 -5.0665e+000 47226 87045,86875,86849
 6.7000e+000 86999 -4.1295e+000 -1.0862e+001 -4.8766e+000 47226 87045,86849,86797
 6.7000e+000 86976 -2.1832e+000 -4.0607e+000 -3.2672e+000 47226 86797,86849,86823
 6.7000e+000 86953 -3.7654e+000 -7.7203e+000 -5.6739e+000 47226 86875,86927,86901
 6.7000e+000 87071 -4.8818e+000 -1.0627e+001 -4.6758e+000 47226 86927,86875,87045
 6.7000e+000 87094 -4.0381e+000 -1.2708e+001 -4.6072e+000 47226 86927,87045,86797
 6.7000e+000 87244 -4.8061e+000 -2.7281e+001  9.2007e+000 46814 87267,87169,87143
 6.7000e+000 87221 -1.7395e+001 -2.4825e+001 -6.9829e-001 46814 87267,87143,87117
 6.7000e+000 87293 -1.4396e+000 -1.9013e+001  5.2738e+000 46814 87339,87267,87195
 6.7000e+000 87316  1.6770e+000 -1.6669e+001 -1.8584e+000 46814 87469,87267,87117
 6.7000e+000 87365 -1.0804e+001 -2.1051e+001  9.0185e+000 46814 87169,87267,87339
 6.7000e+000 87495 -7.5884e-001  2.4055e+000 -1.6510e+000 46814 87195,87267,87469
 6.7000e+000 88001 -7.3864e+000 -8.8867e+000  6.6996e+000 46310 88024,87834,87808
 6.7000e+000 87978 -1.0080e+001 -9.3743e+000  2.9203e+000 46310 88024,87808,87756
 6.7000e+000 87955 -5.7199e+000 -1.5449e+001  1.7664e+000 46310 88096,87730,87860
 6.7000e+000 87932 -7.6590e+000 -9.8276e+000  3.6125e+000 46310 87756,87808,87782
 6.7000e+000 87909 -7.1151e+000 -1.2472e+001  2.2276e-001 46310 87678,87860,87730
 6.7000e+000 87886 -9.3574e+000 -2.5991e+001 -2.8948e+000 46310 87678,87730,87704
 6.7000e+000 88050 -8.9557e+000 -1.2734e+001  5.4288e+000 46310 87860,87834,88024
 6.7000e+000 88073 -6.0167e+000 -9.0902e+000  3.9186e+000 46310 88096,87860,88024
 6.7000e+000 88122 -7.4792e+000 -1.8419e+001 -2.6686e-001 46310 87756,87730,88096
 6.7000e+000 88145 -1.1777e+001 -1.5889e+001  9.1883e-001 46310 87756,88096,88024
 6.7000e+000 88572 -9.1739e+000 -2.3038e+001  2.5019e+000 45856 88249,88405,88275
 6.7000e+000 88549 -5.8689e+000 -7.6036e+000 -3.5487e+000 45856 88249,88431,88405
 6.7000e+000 88526 -1.8217e+001 -3.7555e+001 -6.1939e+000 45856 88327,88405,88353
 6.7000e+000 88503 -7.1314e+000 -2.8883e+001 -1.9269e+000 45856 88275,88405,88327
 6.7000e+000 88480 -1.5637e+001 -3.6747e+001 -1.2288e+001 45856 88353,88405,88379
 6.7000e+000 88457 -2.7851e+001 -7.4684e+001  6.0922e+000 45856 88275,88327,88301
 6.7000e+000 88950 -4.9639e+000 -1.3367e+001  6.5308e-001 45658 88973,88754,88728
 6.7000e+000 88927 -2.9508e+000 -6.8367e+000  2.1344e+000 45658 88973,88728,88676
 6.7000e+000 88904 -7.0678e+000 -5.9991e+000  7.3651e+000 45658 88676,88832,88806
 6.7000e+000 88881 -6.6065e+000 -1.4489e+001  3.5977e+000 45658 88676,88728,88702
 6.7000e+000 88858 -9.9082e+000 -9.1749e+000 -4.6423e+000 45658 88754,88806,88780
 6.7000e+000 88999 -5.2831e+000 -6.7586e+000  1.2109e+000 45658 88806,88754,88973
 6.7000e+000 89022 -5.4874e+000 -3.0581e+000  2.4486e+000 45658 88806,88973,88676
 6.7000e+000 89351 -8.7670e+000 -2.4881e+001 -5.7235e-001 45254 89152,89230,89204
 6.7000e+000 89328 -1.3820e+001 -2.7291e+001 -1.5577e+000 45254 89152,89256,89230
 6.7000e+000 89305 -8.5357e+000 -2.8130e+001 -3.2696e+000 45254 89126,89256,89152
 6.7000e+000 89282 -8.0517e+000 -2.2640e+001 -8.8854e-001 45254 89152,89204,89178
 6.7000e+000 89523 -7.6293e-001 -8.5497e+000  7.1062e-001 45006 89422,89474,89448
 6.7000e+000 89500  6.5850e-001 -7.9757e+000  1.8339e+000 45006 89396,89474,89422
 6.7000e+000 89673 -1.9195e+001 -3.1485e+001  3.1177e+000 44495 89572,89624,89598
 6.7000e+000 89650 -2.0652e+001 -3.5857e+001  3.8231e+000 44495 89546,89624,89572
 6.7000e+000 90104 -5.1337e+000 -2.8984e+001 -1.4315e+000 44005 90199,90127,89937
 6.7000e+000 90081 -6.4885e+000 -2.7325e+001  1.0307e+000 44005 90271,90127,89859
 6.7000e+000 90058 -4.5535e+000 -2.8706e+001 -1.2873e+000 44005 90199,89937,89885
 6.7000e+000 90035 -8.1068e+000 -2.5169e+001  2.0182e+000 44005 90271,89859,89807
 6.7000e+000 90012 -6.8352e+000 -3.0960e+001 -2.5211e+000 44005 89885,89937,89911
 6.7000e+000 89989 -4.2377e+000 -2.8587e+001  6.0246e+000 44005 89807,89859,89833
 6.7000e+000 90153 -8.8751e+000 -3.0866e+001 -2.3495e+000 44005 89963,89937,90127
 6.7000e+000 90176 -8.3071e+000 -3.1495e+001  5.5043e-001 44005 89963,90127,89781
 6.7000e+000 90225 -7.6471e+000 -2.7733e+001 -1.0055e+000 44005 89859,90127,90199
 6.7000e+000 90248 -5.4768e+000 -2.6124e+001 -2.7303e-001 44005 89859,90199,89885
 6.7000e+000 90297 -8.6219e+000 -2.9641e+001 -3.2230e-001 44005 89781,90127,90271
 6.7000e+000 90320 -9.4798e+000 -2.7169e+001  9.0555e-001 44005 89781,90271,89807
 6.7000e+000 90470 -3.4577e+000 -1.8974e+001  2.4898e-001 43601 90493,90369,90343
 6.7000e+000 90447 -6.3790e+000 -1.3869e+001  2.7123e+000 43601 90493,90343,90421
 6.7000e+000 90519 -7.8332e+000 -2.8704e+001 -3.1082e+000 43601 90395,90369,90493
 6.7000e+000 90542 -6.0074e+000 -1.7816e+001 -1.8551e-002 43601 90395,90493,90421
 6.7000e+000 90922 -7.5515e+000 -2.3740e+001  1.8914e+000 43154 90945,90700,90674
 6.7000e+000 90899 -6.8919e+000 -2.4457e+001 -2.9306e+000 43154 90945,90674,90648
 6.7000e+000 90876 -8.9410e+000 -1.8828e+001 -1.9485e+000 43154 90648,90778,90752
 6.7000e+000 90853 -3.2467e+000 -4.0726e+001  1.5507e+000 43154 90700,90752,90726
 6.7000e+000 90830 -7.1389e+000 -2.0834e+001  4.8696e-001 43154 90648,90804,90778
 6.7000e+000 90971 -9.0650e+000 -2.8114e+001  2.5478e+000 43154 90752,90700,90945
 6.7000e+000 90994 -8.0035e+000 -2.7147e+001 -2.1282e+000 43154 90752,90945,90648
 6.7000e+000 91451 -3.3324e+000 -2.5874e+001 -4.1390e+000 42650 91203,91255,91229
 6.7000e+000 91428 -1.2481e+000 -2.4974e+001 -1.6100e+000 42650 91203,91333,91255
 6.7000e+000 91405 -1.9965e+000 -3.8631e+001 -5.3759e+000 42650 91177,91333,91203
 6.7000e+000 91382 -1.5068e+001 -4.3744e+001  5.1500e+000 42650 91255,91333,91281
 6.7000e+000 91359 -2.3595e+000 -3.4321e+001  9.0509e-002 42650 91281,91333,91307
 6.7000e+000 91721 -2.2277e+001 -3.8140e+001  3.7619e+000 42288 91496,91600,91522
 6.7000e+000 91698 -1.5470e+001 -2.5860e+001 -1.7490e+000 42288 91496,91626,91600
 6.7000e+000 91675 -1.0396e+001 -3.4016e+001  4.2791e+000 42288 91522,91574,91548
 6.7000e+000 91652 -1.0789e+001 -3.3461e+001  4.2289e+000 42288 91522,91600,91574
 6.7000e+000 92199 -3.3162e+001 -4.3684e+001 -9.9824e-001 41898 92222,91983,91879
 6.7000e+000 92176 -3.3221e+001 -5.0457e+001 -3.6693e+000 41898 92294,92222,91879
 6.7000e+000 92153 -3.4970e+001 -4.8992e+001 -5.0609e+000 41898 92294,91879,91853
 6.7000e+000 92130 -2.9258e+001 -2.5937e+001  3.6145e+000 41898 91879,91957,91931
 6.7000e+000 92107 -2.9283e+001 -4.2164e+001  7.7088e-002 41898 91879,91983,91957
 6.7000e+000 92084 -3.3398e+001 -2.6099e+001  7.5103e+000 41898 91879,91931,91905
 6.7000e+000 92061 -3.2702e+001 -4.9713e+001 -6.6911e+000 41898 91827,92035,91853
 6.7000e+000 92248 -3.3751e+001 -5.2505e+001  1.0481e+000 41898 92009,91983,92222
 6.7000e+000 92271 -3.1956e+001 -5.3940e+001 -5.7131e+000 41898 92009,92222,92035
 6.7000e+000 92320 -3.0203e+001 -4.8591e+001 -4.5173e+000 41898 92035,92222,92294
 6.7000e+000 92343 -3.1593e+001 -4.7173e+001 -5.8934e+000 41898 92035,92294,91853
 6.7000e+000 92770 -5.3876e+000 -2.9365e+001 -3.8015e+000 41437 92865,92793,92525
 6.7000e+000 92747 -7.9110e+000 -3.3305e+001 -3.8950e+000 41437 92793,92473,92629
 6.7000e+000 92724 -1.1498e+000 -3.1138e+001 -6.1177e+000 41437 92865,92525,92499
 6.7000e+000 92701 -1.3809e+001 -2.5368e+001 -8.3374e+000 41437 92525,92603,92577
 6.7000e+000 92678  1.3585e+000 -3.1561e+001 -3.2028e+000 41437 92447,92629,92473
 6.7000e+000 92655 -1.7077e+001 -2.2540e+001 -6.4604e+000 41437 92525,92577,92551
 6.7000e+000 92819 -5.7072e+000 -3.0090e+001 -6.8471e+000 41437 92603,92525,92793
 6.7000e+000 92842 -1.3387e+001 -3.2917e+001 -1.0082e+001 41437 92603,92793,92629
 6.7000e+000 92891  2.3273e+000 -3.0711e+001 -3.8692e+000 41437 92473,92793,92865
 6.7000e+000 92914  8.0371e+000 -3.0662e+001 -7.0465e+000 41437 92473,92865,92499
 6.7000e+000 93243 -7.9480e+000 -4.8375e+001  1.7698e+001 41097 93044,93096,93070
 6.7000e+000 93220 -1.3802e+001 -4.6301e+001  8.8876e+000 41097 93044,93122,93096
 6.7000e+000 93197  2.6888e-001 -3.0161e+001  2.4000e+000 41097 93044,93148,93122
 6.7000e+000 93174 -7.7005e+000 -2.1813e+001  8.2933e+000 41097 93018,93148,93044
 6.7000e+000 93393 -1.2208e+000 -3.9116e+001  2.4369e+000 40643 93416,93292,93344
 6.7000e+000 93370 -4.7198e-001 -3.5552e+001  3.2455e+000 40643 93266,93344,93292
 6.7000e+000 93442 -1.5781e+000 -3.7499e+001  5.0837e+000 40643 93318,93292,93416
 6.7000e+000 93901 -1.1620e+001 -3.3472e+001 -3.5534e+000 40132 93924,93731,93705
 6.7000e+000 93878 -1.1275e+001 -3.2060e+001 -3.3157e+000 40132 93996,93924,93705
 6.7000e+000 93855 -1.2739e+001 -3.5626e+001 -2.1417e+000 40132 93996,93705,93653
 6.7000e+000 93832 -2.7118e+000 -3.5978e+001 -3.1119e+000 40132 93653,93705,93679
 6.7000e+000 93809 -8.8568e+000 -2.7924e+001 -3.0322e-001 40132 93627,93783,93757
 6.7000e+000 93950 -1.2386e+001 -3.2742e+001 -3.0465e+000 40132 93757,93731,93924
 6.7000e+000 93973 -1.1473e+001 -2.7765e+001 -5.7856e-001 40132 93757,93924,93627
 6.7000e+000 94022 -1.4092e+001 -3.4378e+001 -7.3525e-001 40132 93627,93924,93996
 6.7000e+000 94045 -1.3309e+001 -3.5589e+001  1.2245e-001 40132 93627,93996,93653
 6.7000e+000 94423 -9.5421e+000 -4.8899e+001 -5.1283e+000 39514 94149,94227,94175
 6.7000e+000 94400 -9.3427e+000 -4.2819e+001  3.2856e+000 39514 94149,94305,94227
 6.7000e+000 94377 -3.1769e+000 -4.9969e+001 -6.5906e+000 39514 94175,94227,94201
 6.7000e+000 94354 -1.4601e+001 -3.9839e+001  1.6526e+000 39514 94227,94305,94279
 6.7000e+000 94331 -7.3699e+000 -3.6531e+001  3.0038e+000 39514 94227,94279,94253
 6.7000e+000 94573 -5.5492e+000 -2.2514e+001 -2.1132e+000 38822 94596,94498,94472
 6.7000e+000 94550  1.6207e+000 -2.1193e+001  6.0948e+000 38822 94596,94472,94446
 6.7000e+000 94622 -1.3640e+001 -2.5734e+001 -5.5806e+000 38822 94524,94498,94596
 6.7000e+000 94645 -1.0405e+001 -2.4647e+001  3.3832e+000 38822 94524,94596,94446
 6.7000e+000 95025 -4.0808e+000 -2.4436e+001 -2.7461e+000 38418 95048,94829,94777
 6.7000e+000 95002 -5.6960e-001 -2.4482e+001 -4.3016e+000 38418 95120,95048,94777
 6.7000e+000 94979  1.8284e+000 -2.6891e+001 -3.9358e+000 38418 95120,94777,94751
 6.7000e+000 94956 -2.1672e+000 -2.4863e+001 -3.1491e+000 38418 95192,94881,94855
 6.7000e+000 94933 -7.5917e+000 -1.6136e+001 -3.6594e+000 38418 94777,94829,94803
 6.7000e+000 95074 -5.2867e+000 -3.0619e+001 -1.4649e-001 38418 94855,94829,95048
 6.7000e+000 95097 -2.7546e+000 -2.5074e+001 -2.5840e+000 38418 95192,94855,95048
 6.7000e+000 95146 -5.3601e+000 -2.5793e+001 -2.5918e+000 38418 94907,95048,95120
 6.7000e+000 95169 -1.2500e+000 -2.7086e+001 -1.8966e+000 38418 94907,95120,94751
 6.7000e+000 95218 -3.2834e+000 -2.3226e+001 -3.2788e+000 38418 94907,94881,95192
 6.7000e+000 95241 -4.7303e+000 -2.4378e+001 -2.4690e+000 38418 94907,95192,95048
 6.7000e+000 95511 -1.0013e+001 -2.3470e+001  2.5314e+000 38049 95312,95390,95364
 6.7000e+000 95488 -2.6066e+000 -2.0426e+001  2.6848e+000 38049 95312,95416,95390
 6.7000e+000 95465 -2.5788e+000 -2.9416e+001 -1.8223e+000 38049 95312,95364,95338
 6.7000e+000 95442 -2.8007e+000 -1.6441e+001  3.4369e+000 38049 95286,95416,95312
 6.7000e+000 95808 -1.0687e+001 -3.3915e+001 -1.4822e+000 37437 95831,95586,95560
 6.7000e+000 95785  5.7702e-001 -3.4958e+001 -1.8156e+000 37437 95831,95560,95534
 6.7000e+000 95762 -1.7821e+001 -3.0525e+001  1.8506e+000 37437 95586,95664,95638
 6.7000e+000 95739 -4.1259e+000 -1.7673e+001 -7.8972e+000 37437 95534,95690,95664
 6.7000e+000 95716 -1.8884e+001 -1.9870e+001  3.3064e-001 37437 95586,95638,95612
 6.7000e+000 95857 -1.8059e+001 -3.2325e+001  3.1222e+000 37437 95664,95586,95831
 6.7000e+000 95880 -6.2629e+000 -3.3106e+001  2.9773e+000 37437 95664,95831,95534
 6.7000e+000 96390 -1.8805e+001 -2.9760e+001 -4.2426e+000 36883 96413,96145,96093
 6.7000e+000 96367 -1.6472e+001 -2.8240e+001 -2.1310e+000 36883 96413,96093,96067
 6.7000e+000 96344 -1.2807e+001 -3.9253e+001 -1.4776e+000 36883 96067,96249,96171
 6.7000e+000 96321 -1.6301e+001 -3.5067e+001 -3.0352e+000 36883 96093,96145,96119
 6.7000e+000 96298 -2.0599e+001 -5.9325e+001  3.7687e+000 36883 96171,96249,96197
 6.7000e+000 96275 -5.4519e+000 -4.8986e+001 -9.4036e-001 36883 96197,96249,96223
 6.7000e+000 96439 -1.7189e+001 -2.6578e+001 -2.4889e+000 36883 96171,96145,96413
 6.7000e+000 96462 -1.5846e+001 -2.7148e+001 -5.7436e-001 36883 96171,96413,96067
 6.7000e+000 96781 -1.1394e+001 -3.4333e+001 -5.5572e+000 36215 96559,96663,96637
 6.7000e+000 96758 -1.4413e+001 -3.5408e+001 -6.0884e+000 36215 96507,96663,96559
 6.7000e+000 96735 -1.4157e+001 -1.9723e+001  2.6628e+000 36215 96585,96637,96611
 6.7000e+000 96712 -3.2025e+001 -3.9868e+001 -5.3534e+000 36215 96559,96637,96585
 6.7000e+000 96689 -9.0586e+000 -3.8450e+001 -2.9641e+000 36215 96507,96559,96533
 6.7000e+000 97161  8.6083e-002 -1.3720e+001 -3.5693e-001 35818 97184,96965,96939
 6.7000e+000 97138 -2.6607e+000 -1.5825e+001 -2.0182e+000 35818 97184,96939,96887
 6.7000e+000 97115 -3.7608e+000 -2.2237e+001  5.8397e+000 35818 96965,97043,97017
 6.7000e+000 97092 -1.6922e+000 -1.3574e+001 -2.3414e+000 35818 96887,96939,96913
 6.7000e+000 97069 -1.3466e+001 -2.0843e+001  4.9405e+000 35818 96965,97017,96991
 6.7000e+000 97210  3.1854e+000 -1.5672e+001  1.0538e+000 35818 97043,96965,97184
 6.7000e+000 97233  7.6702e-001 -1.7028e+001 -3.6317e-001 35818 97043,97184,96887
 6.7000e+000 97739 -1.0217e+001 -2.9441e+001 -1.2677e+001 35214 97416,97468,97442
 6.7000e+000 97716 -1.3512e+001 -1.7459e+001 -5.0292e+000 35214 97416,97598,97468
 6.7000e+000 97693 -9.1933e+000 -1.3416e+001 -3.1352e+000 35214 97762,97520,97468
 6.7000e+000 97670 -9.6024e+000 -1.3633e+001 -3.2406e+000 35214 97762,97468,97598
 6.7000e+000 97647 -9.0087e+000 -1.0653e+001 -5.0183e+000 35214 97546,97598,97572
 6.7000e+000 97624 -7.8757e+000 -1.4275e+001 -3.0879e+000 35214 97468,97520,97494
 6.7000e+000 97788 -9.2104e+000 -1.3634e+001 -3.4601e+000 35214 97546,97520,97762
 6.7000e+000 97811 -9.4317e+000 -1.3764e+001 -3.5453e+000 35214 97546,97762,97598
 6.7000e+000 98189  2.1473e-001 -2.4410e+000 -4.6504e+000 34760 98356,98212,97967
 6.7000e+000 98166  2.2792e+000 -5.3370e+000 -5.9914e+000 34760 98284,98212,97941
 6.7000e+000 98143  1.6313e+000 -4.3087e+000 -5.2940e+000 34760 98284,97941,97915
 6.7000e+000 98120  2.2222e+000 -6.4803e+000 -1.4758e+000 34760 98484,97993,97967
 6.7000e+000 98097  2.4049e+000 -5.3753e+000 -8.3527e-001 34760 98556,98045,98019
 6.7000e+000 98238  3.0117e-001 -5.2867e+000 -1.7727e+000 34760 98484,97967,98212
 6.7000e+000 98261  3.5845e+000 -6.1643e+000 -1.4511e+000 34760 98556,98019,98212
 6.7000e+000 98310  1.7180e+000 -2.6657e+000 -5.3626e+000 34760 98071,98212,98284
 6.7000e+000 98333  2.5013e+000  1.8600e-001 -4.5204e+000 34760 98071,98284,97915
 6.7000e+000 98382 -1.5371e+001 -1.1313e+001 -8.8636e+000 34760 97941,98212,98356
 6.7000e+000 98510  6.0004e+000 -6.1432e+000 -2.4405e+000 34760 98019,97993,98484
 6.7000e+000 98533  2.6222e+000 -6.0932e+000 -2.7626e+000 34760 98019,98484,98212
 6.7000e+000 98582  3.8122e+000 -4.3889e+000 -4.0381e-001 34760 98071,98045,98556
 6.7000e+000 98605  4.2985e+000 -5.5641e+000 -1.1956e+000 34760 98071,98556,98212
 6.7000e+000 99032 -1.4254e+001 -2.4561e+001  5.5342e+000 34156 98735,98891,98839
 6.7000e+000 99009 -1.3207e+001 -2.5395e+001  4.0049e+000 34156 98709,98891,98735
 6.7000e+000 98986 -5.8525e+000 -2.3789e+001  4.9009e+000 34156 98735,98813,98787
 6.7000e+000 98963 -6.3341e+000 -2.4855e+001  5.0045e+000 34156 98735,98839,98813
 6.7000e+000 98940 -3.5289e-001 -3.7280e+001  5.4226e+000 34156 98735,98787,98761
 6.7000e+000 98917 -1.3581e+001 -2.3216e+001  6.7668e+000 34156 98839,98891,98865
 6.7000e+000 99231 -2.3592e+000 -9.9131e+000  1.4459e+000 33766 99055,99133,99107
 6.7000e+000 99208 -5.3938e+000 -1.3512e+001  2.7431e+000 33766 99055,99159,99133
 6.7000e+000 99185 -3.0184e+000 -1.7609e+001  2.7883e+000 33766 99055,99107,99081
 6.7000e+000 99818 -4.1324e+000 -8.9829e+000  4.8823e-001 33248 99521,99651,99573
 6.7000e+000 99795 -1.1466e+000 -6.5754e+000  2.6018e+000 33248 99521,99677,99651
 6.7000e+000 99772 -6.5532e+000 -1.2940e+001 -5.3756e-001 33248 99573,99651,99599
 6.7000e+000 99749 -1.9944e+000 -1.0596e+001  2.4484e+000 33248 99495,99677,99521
 6.7000e+000 99726 -5.0525e+000 -1.2827e+001 -1.7130e+000 33248 99599,99651,99625
 6.7000e+000 99703 -4.6315e+000 -1.0135e+001  7.7000e-001 33248 99521,99573,99547
 6.7000e+000 100196 -7.7692e+000 -1.7088e+001 -3.7871e+000 32794 100219,99948,99922
 6.7000e+000 100173 -8.2426e+000 -1.7770e+001 -1.0984e+000 32794 100219,99922,100052
 6.7000e+000 100150 -8.6153e+000 -1.1790e+001  1.8556e+000 32794 99974,100052,100026
 6.7000e+000 100127 -1.0813e+001 -1.8885e+001 -5.1893e-001 32794 99922,100078,100052
 6.7000e+000 100104 -4.6818e+000 -1.7344e+001  7.3275e+000 32794 99974,100026,100000
 6.7000e+000 100245 -1.0841e+001 -1.8038e+001 -3.3244e+000 32794 99974,99948,100219
 6.7000e+000 100268 -1.0187e+001 -1.8489e+001 -5.1854e-001 32794 99974,100219,100052
 6.7000e+000 100418 -4.2710e+000 -2.1735e+001 -2.8834e+000 32504 100571,100343,100317
 6.7000e+000 100395 -1.4744e+001 -2.6443e+001  2.7366e+000 32504 100571,100317,100441
 6.7000e+000 100467  5.9523e+000 -1.0590e+001 -9.4306e+000 32504 100291,100369,100441
 6.7000e+000 100597  4.2139e-002 -1.7859e+001 -1.1634e+001 32504 100369,100343,100571
 6.7000e+000 100620 -4.8952e+000 -1.6803e+001 -6.7976e+000 32504 100369,100571,100441
 6.7000e+000 101020  5.0349e+000  1.2838e+000  1.2152e+000 32142 100772,100902,100876
 6.7000e+000 100997  2.6679e+000  1.3446e+001 -8.2980e-001 32142 100746,100902,100772
 6.7000e+000 100974  3.5280e+000 -5.5046e+000  4.9135e+000 32142 101043,100824,100798
 6.7000e+000 100951  1.0416e+000 -7.7166e+000  3.9269e+000 32142 101043,100798,100772
 6.7000e+000 100928 -8.2922e+000 -1.1988e+001 -6.5213e+000 32142 101115,100876,100850
 6.7000e+000 101069  5.4299e+000 -9.5433e+000  1.5101e+000 32142 100850,100824,101043
 6.7000e+000 101092 -2.3635e+000 -1.4506e+001 -1.1506e+000 32142 101115,100850,101043
 6.7000e+000 101141 -7.0990e-001 -4.2043e+000 -2.7413e+000 32142 100772,100876,101115
 6.7000e+000 101164  4.6823e+000 -5.5858e+000  2.8192e+000 32142 100772,101115,101043
 6.7000e+000 101719 -1.4598e+001 -2.7849e+001  4.4893e+000 31538 101742,101477,101399
 6.7000e+000 101696 -1.4533e+001 -3.2920e+001  1.9612e+000 31538 101814,101742,101399
 6.7000e+000 101673 -1.4686e+001 -2.7488e+001  3.4345e-001 31538 101814,101399,101373
 6.7000e+000 101650 -1.4416e+001 -1.9791e+001  3.4380e+000 31538 101425,101477,101451
 6.7000e+000 101627 -1.2933e+001 -2.3320e+001  1.4562e+000 31538 101399,101477,101425
 6.7000e+000 101604 -9.5036e+000 -3.5892e+001  7.6679e+000 31538 101477,101529,101503
 6.7000e+000 101581 -4.2733e+000 -1.3876e+001  1.4990e+000 31538 101347,101555,101373
 6.7000e+000 101768 -1.5851e+001 -3.3583e+001  4.2156e+000 31538 101529,101477,101742
 6.7000e+000 101791 -1.6159e+001 -3.5887e+001 -2.3660e+000 31538 101529,101742,101555
 6.7000e+000 101840 -1.3079e+001 -2.6964e+001 -1.0963e+000 31538 101555,101742,101814
 6.7000e+000 101863 -1.4149e+001 -2.2665e+001 -2.6415e+000 31538 101555,101814,101373
 6.7000e+000 102111 -2.3620e+001 -5.1283e+001  8.0385e+000 31112 101886,101990,101912
 6.7000e+000 102088 -9.8300e+000 -3.3029e+001 -6.0574e-001 31112 101886,102016,101990
 6.7000e+000 102065 -1.1975e+001 -4.7415e+001  8.7841e+000 31112 101912,101990,101964
 6.7000e+000 102042 -1.1516e+001 -5.1535e+001  7.9522e+000 31112 101912,101964,101938
 6.7000e+000 102408 -6.1003e+000 -2.4912e+001  1.9095e+000 30658 102431,102186,102160
 6.7000e+000 102385 -1.0133e+001 -2.4790e+001  2.0841e-001 30658 102431,102160,102264
 6.7000e+000 102362 -1.0357e+001 -2.6139e+001  1.3677e+000 30658 102186,102238,102212
 6.7000e+000 102339 -1.2186e+001 -2.7503e+001 -2.2247e+000 30658 102134,102264,102160
 6.7000e+000 102316 -7.9860e+000 -2.2584e+001 -8.3833e+000 30658 102134,102290,102264
 6.7000e+000 102457 -9.4379e+000 -2.6077e+001  1.0619e+000 30658 102238,102186,102431
 6.7000e+000 102480 -1.3714e+001 -2.6308e+001 -7.9675e-001 30658 102238,102431,102264
 6.7000e+000 102681 -4.0312e+000 -2.5268e+001  3.0084e+000 30004 102704,102557,102505
 6.7000e+000 102658 -3.1082e+000 -2.7476e+001  3.9966e+000 30004 102704,102505,102609
 6.7000e+000 102635 -2.4219e-001 -1.8587e+001  1.1333e+000 30004 102505,102557,102531
 6.7000e+000 102730 -3.8818e+000 -2.3656e+001  2.9398e+000 30004 102583,102557,102704
 6.7000e+000 102753 -2.5090e+000 -2.4978e+001  4.5437e+000 30004 102583,102704,102609
 6.7000e+000 103003 -4.6231e+000 -2.2911e+001 -1.1117e+000 29564 103026,102804,102778
 6.7000e+000 102980 -6.1250e+000 -2.9529e+001 -2.3923e+000 29564 103026,102778,102908
 6.7000e+000 102957 -6.6996e+000 -2.4687e+001  1.2684e+000 29564 102856,102908,102882
 6.7000e+000 102934 -1.1563e+001 -1.8410e+001  3.7207e+000 29564 102804,102856,102830
 6.7000e+000 103052 -4.3069e+000 -1.9737e+001  3.3328e+000 29564 102856,102804,103026
 6.7000e+000 103075 -6.2287e+000 -2.5096e+001  1.4376e+000 29564 102856,103026,102908
 6.7000e+000 103634 -1.0805e+001 -2.7218e+001 -4.6179e+000 29160 103657,103418,103392
 6.7000e+000 103611 -9.1067e+000 -2.3863e+001 -6.8713e-001 29160 103657,103392,103314
 6.7000e+000 103588 -7.2013e+000 -1.9003e+001 -1.8253e+000 29160 103314,103392,103366
 6.7000e+000 103565  1.1958e+000 -1.8319e+001 -5.5222e+000 29160 103314,103366,103340
 6.7000e+000 103542 -7.8708e+000 -1.8118e+001 -3.3529e+000 29160 103262,103444,103314
 6.7000e+000 103519 -9.1698e+000 -2.1651e+001 -2.7707e+000 29160 103262,103314,103288
 6.7000e+000 103496 -7.0563e+000 -1.8692e+001 -2.9628e+000 29160 103262,103470,103444
 6.7000e+000 103683 -1.7106e+001 -3.2723e+001 -1.0348e+001 29160 103444,103418,103657
 6.7000e+000 103706 -1.1202e+001 -2.3022e+001 -5.7288e+000 29160 103444,103657,103314
 6.7000e+000 104035 -1.0215e+001 -2.7042e+001  3.8804e+000 28770 103836,103914,103862
 6.7000e+000 104012 -9.2555e+000 -2.5823e+001  4.5909e+000 28770 103810,103914,103836
 6.7000e+000 103989 -2.1301e+000 -2.2976e+001  4.2023e+000 28770 103810,103940,103914
 6.7000e+000 103966 -3.3234e+000 -2.2728e+001  7.0147e+000 28770 103862,103914,103888
 6.7000e+000 104185 -6.6651e-001 -1.8655e+001  3.9235e+000 28366 104208,104110,104084
 6.7000e+000 104162 -3.1088e-001 -1.5434e+001  3.1292e+000 28366 104280,104208,104084
 6.7000e+000 104234  2.5644e+000 -1.8516e+001  1.0723e+000 28366 104610,104208,104136
 6.7000e+000 104257 -3.2948e+000 -1.6326e+001  2.1436e+000 28366 104538,104410,104208
 6.7000e+000 104306 -4.4790e+000 -1.7374e+001  2.6266e+000 28366 104538,104208,104280
 6.7000e+000 104436 -5.2715e-002 -1.3697e+001  2.3780e-001 28366 104136,104208,104410
 6.7000e+000 104564 -4.6491e+000 -1.4976e+001  1.3844e+000 28366 104058,104410,104538
 6.7000e+000 104587 -5.1297e+000 -1.5580e+001  1.6648e+000 28366 104058,104538,104280
 6.7000e+000 104636  2.5876e+000 -1.8014e+001  3.2611e+000 28366 104110,104208,104610
 6.7000e+000 105349 -8.3567e+000 -2.2832e+001 -1.8904e+000 27976 105516,105372,105107
 6.7000e+000 105326 -1.4037e+001 -2.3810e+001  1.5318e+000 27976 105588,105372,105055
 6.7000e+000 105303 -1.8098e+001 -2.3393e+001 -4.7330e+000 27976 105444,105159,105133
 6.7000e+000 105280 -4.9405e+000 -2.4048e+001 -6.1373e-001 27976 105516,105107,105081
 6.7000e+000 105257 -1.3993e+001 -2.6068e+001  2.3795e+000 27976 105588,105055,105029
 6.7000e+000 105234 -9.2094e+000 -1.8808e+001  2.1115e+000 27976 105003,105185,105159
 6.7000e+000 105211 -9.1448e+000 -1.3643e+001  5.4125e+000 27976 104977,105185,105003
 6.7000e+000 105398 -5.4144e+000 -2.4205e+001 -3.5536e+000 27976 105133,105107,105372
 6.7000e+000 105421 -1.2508e+001 -2.6924e+001 -2.6241e+000 27976 105444,105133,105372
 6.7000e+000 105470 -1.2527e+001 -1.6907e+001 -2.1221e+000 27976 105003,105159,105444
 6.7000e+000 105493 -8.8865e+000 -2.1404e+001 -1.0323e+000 27976 105003,105444,105372
 6.7000e+000 105542 -6.0461e+000 -2.2423e+001  9.5142e-001 27976 105055,105372,105516
 6.7000e+000 105565 -9.2892e-001 -2.2974e+001  1.8851e+000 27976 105055,105516,105081
 6.7000e+000 105614 -1.4497e+001 -2.6100e+001  2.6973e+000 27976 105003,105372,105588
 6.7000e+000 105637 -1.4565e+001 -2.8129e+001  3.6859e+000 27976 105003,105588,105029
 6.7000e+000 106143 -4.8730e+000 -2.7698e+001  1.1375e+000 27664 106166,105846,105820
 6.7000e+000 106120 -2.0178e+000 -1.7450e+001  3.4942e-001 27664 106310,106166,105820
 6.7000e+000 106097  1.0614e+000 -2.6064e+001 -7.1796e+000 27664 106382,106238,105950
 6.7000e+000 106074 -7.3641e-001 -1.5676e+001 -6.5366e-001 27664 106310,105820,106002
 6.7000e+000 106051  6.8764e+000 -2.2432e+001 -5.3838e+000 27664 106382,105950,105924
 6.7000e+000 106028  6.7966e+000 -4.9140e+001 -9.7277e-001 27664 105846,105898,105872
 6.7000e+000 106192 -4.4654e+000 -3.2100e+001 -6.2069e+000 27664 105898,105846,106166
 6.7000e+000 106215 -8.2059e-001 -2.6217e+001 -2.8671e+000 27664 106238,105898,106166
 6.7000e+000 106264 -1.3631e+001 -2.9289e+001 -1.0120e+001 27664 105976,105950,106238
 6.7000e+000 106287 -1.0425e+000 -2.4843e+001 -3.2722e+000 27664 105976,106238,106166
 6.7000e+000 106336 -6.1103e-001 -2.0938e+001  2.2464e+000 27664 105976,106166,106310
 6.7000e+000 106359  1.0751e+000 -1.8888e+001  1.1389e+000 27664 105976,106310,106002
 6.7000e+000 106408 -1.1386e+000 -1.9841e+001 -5.5831e-001 27664 105898,106238,106382
 6.7000e+000 106431  2.1470e+000 -1.8055e+001  7.3330e-001 27664 105898,106382,105924
 6.7000e+000 106728 -2.7338e+000 -1.3086e+001  4.6353e+000 27153 106751,106506,106454
 6.7000e+000 106705 -2.6503e+000 -1.4545e+001  2.8884e+000 27153 106751,106454,106610
 6.7000e+000 106682 -4.0782e+000 -1.1357e+001  3.0118e+000 27153 106454,106506,106480
 6.7000e+000 106659 -3.9683e+000 -1.1907e+001  2.2907e+000 27153 106532,106610,106584
 6.7000e+000 106636 -3.3092e+000 -3.4764e+000  4.9734e+000 27153 106532,106584,106558
 6.7000e+000 106777 -6.8983e-001 -1.0957e+001  5.4942e+000 27153 106532,106506,106751
 6.7000e+000 106800 -1.4100e+000 -1.3259e+001  3.5097e+000 27153 106532,106751,106610
 6.7000e+000 107180 -2.8115e+000 -1.9767e+001  2.1809e+000 26642 107203,106984,106958
 6.7000e+000 107157 -9.6196e+000 -2.3617e+001 -1.5218e+000 26642 107203,106958,106932
 6.7000e+000 107134 -1.4721e+001 -2.8541e+001 -3.9335e+000 26642 107275,107036,107010
 6.7000e+000 107111 -1.1377e+001 -2.6807e+001 -6.9204e+000 26642 106932,107062,107036
 6.7000e+000 107088 -1.8530e-001 -1.9379e+001  1.9735e+000 26642 106906,107062,106932
 6.7000e+000 107229 -4.0778e-001 -2.1286e+001 -5.8048e+000 26642 107010,106984,107203
 6.7000e+000 107252 -1.1668e+001 -2.4023e+001 -5.4590e+000 26642 107275,107010,107203
 6.7000e+000 107301 -1.1173e+001 -2.8055e+001 -6.3203e+000 26642 106932,107036,107275
 6.7000e+000 107324 -1.0312e+001 -2.8000e+001 -6.7481e+000 26642 106932,107275,107203
 6.7000e+000 107675 -8.4000e+000 -1.4892e+001  3.2930e+000 26045 107450,107554,107476
 6.7000e+000 107652 -6.9811e+000 -1.3160e+001  2.3728e+000 26045 107450,107580,107554
 6.7000e+000 107629 -7.1549e-001  1.0075e-001 -1.1562e+000 26045 107476,107528,107502
 6.7000e+000 107606  1.0852e-001 -1.1865e+001  3.1672e+000 26045 107476,107554,107528
 6.7000e+000 107874 -7.3453e+000 -2.1512e+001  6.6995e+000 25641 107750,107802,107776
 6.7000e+000 107851 -6.5669e+000 -1.6709e+001  6.1034e+000 25641 107724,107802,107750
 6.7000e+000 107828 -1.1111e+001 -1.8278e+001  6.2525e+000 25641 107698,107802,107724
 6.7000e+000 108431  2.0298e-001 -2.6123e+001  6.7978e+000 25023 108526,108267,108241
 6.7000e+000 108408  1.8171e-002 -2.2026e+001  7.5907e-001 25023 108059,108267,108085
 6.7000e+000 108385 -4.6832e+000 -2.9785e+001  5.7476e+000 25023 108454,108163,108111
 6.7000e+000 108362 -1.7304e+001 -2.9187e+001  1.1413e+001 25023 108454,108111,108085
 6.7000e+000 108339 -1.0403e+001 -3.8823e+001  9.5890e+000 25023 108111,108163,108137
 6.7000e+000 108316 -9.1404e+000 -2.1217e+001 -1.2734e+000 25023 108163,108241,108215
 6.7000e+000 108293 -1.3141e+000 -1.7383e+001  1.3539e+000 25023 108163,108215,108189
 6.7000e+000 108480 -1.2139e+000 -2.5779e+001  1.2188e+000 25023 108241,108163,108454
 6.7000e+000 108503 -3.0681e+000 -2.6858e+001  7.2389e+000 25023 108526,108241,108454
 6.7000e+000 108552 -4.2697e+000 -2.3374e+001  4.5993e+000 25023 108085,108267,108526
 6.7000e+000 108575 -7.6402e+000 -2.4185e+001  4.9915e+000 25023 108085,108526,108454
 6.7000e+000 108823  4.0162e+000 -1.8767e+001  2.9860e+000 24461 108624,108728,108650
 6.7000e+000 108800 -1.8698e+000 -4.3707e+001 -4.1643e+000 24461 108598,108728,108624
 6.7000e+000 108777  4.0648e-001 -2.4993e+001  1.2276e+000 24461 108650,108728,108676
 6.7000e+000 108754 -1.0178e+001 -7.2588e+001  6.2984e+000 24461 108676,108728,108702
 6.7000e+000 109022 -7.5080e+000 -1.6799e+001  4.5014e+000 24121 108872,108924,108898
 6.7000e+000 108999 -2.8968e+000 -1.8167e+001  4.7637e+000 24121 108846,108924,108872
 6.7000e+000 108976 -9.5373e+000 -2.0867e+001  4.6424e+000 24121 108846,108950,108924
 6.7000e+000 109483 -9.6190e+000 -2.8461e+001 -3.9534e+000 23717 109209,109339,109235
 6.7000e+000 109460 -4.8497e+000 -3.6225e+001 -8.0636e+000 23717 109209,109365,109339
 6.7000e+000 109437  1.5187e-001 -3.5724e+001 -1.3852e+000 23717 109287,109339,109313
 6.7000e+000 109414 -1.5678e+001 -3.6861e+001  1.8850e+000 23717 109235,109339,109287
 6.7000e+000 109391  2.2565e+000 -4.2555e+001  1.5963e+001 23717 109235,109287,109261
 6.7000e+000 109910 -1.2513e+001 -3.5948e+001 -3.4338e+000 23305 109613,109743,109717
 6.7000e+000 109887 -1.3140e+001 -3.6199e+001 -3.5165e+000 23305 109613,109769,109743
 6.7000e+000 109864 -1.5291e+001 -3.4589e+001 -2.8260e+000 23305 109613,109717,109639
 6.7000e+000 109841 -8.6377e+000 -3.3617e+001 -1.1274e+000 23305 109587,109769,109613
 6.7000e+000 109818  1.6133e-001 -2.8080e+001  2.5731e+000 23305 109639,109717,109691
 6.7000e+000 109795 -2.8327e+000 -2.2833e+001 -4.7103e+000 23305 109639,109691,109665
 6.7000e+000 110180 -2.6979e+000 -9.8914e+000 -2.0392e+000 22851 110007,110059,110033
 6.7000e+000 110157 -9.0917e+000 -2.7690e+001  2.0230e+000 22851 109981,110059,110007
 6.7000e+000 110134 -1.2319e+001 -3.1725e+001 -2.3717e-001 22851 109955,110059,109981
 6.7000e+000 110111 -5.3502e+000 -3.9941e+001 -3.4358e+000 22851 109955,110085,110059
 6.7000e+000 110737  1.1411e+000 -2.5994e+001 -1.0489e+001 22333 110760,110469,110391
 6.7000e+000 110714  2.2304e+000 -3.1298e+001 -8.3801e+000 22333 110760,110391,110365
 6.7000e+000 110691 -3.7504e-001 -2.1521e+001 -8.2690e+000 22333 110832,110521,110469
 6.7000e+000 110668 -4.4006e+000 -4.6430e+001  4.9636e+000 22333 110417,110469,110443
 6.7000e+000 110645 -1.0388e+001 -4.3705e+001  4.4321e+000 22333 110391,110469,110417
 6.7000e+000 110622 -6.1504e-001 -2.3578e+001 -3.0630e+000 22333 110469,110521,110495
 6.7000e+000 110599 -5.6300e+000 -1.8068e+001  5.0050e+000 22333 110365,110573,110547
 6.7000e+000 110786  1.7942e+000 -2.2878e+001 -9.9845e+000 22333 110832,110469,110760
 6.7000e+000 110809  4.9639e+000 -2.6258e+001 -7.3238e+000 22333 110547,110760,110365
 6.7000e+000 110858 -2.1442e+000 -2.4652e+001 -7.4129e+000 22333 110547,110521,110832
 6.7000e+000 110881 -3.4167e-001 -2.7099e+001 -9.2474e+000 22333 110547,110832,110760
 6.7000e+000 111308 -1.4573e+001 -3.3642e+001  3.1682e+000 21829 111331,111063,111011
 6.7000e+000 111285 -8.7370e+000 -2.7258e+001 -2.5040e+000 21829 111331,111011,111167
 6.7000e+000 111262 -1.4157e+001 -3.4282e+001  4.4335e+000 21829 111403,111089,111063
 6.7000e+000 111239 -2.0682e+001 -3.7574e+001  7.6578e+000 21829 111011,111063,111037
 6.7000e+000 111216 -4.0018e+000 -2.2399e+001 -3.2136e-001 21829 110985,111167,111011
 6.7000e+000 111193 -2.0901e+001 -6.8895e+001  1.6526e+001 21829 111089,111141,111115
 6.7000e+000 111357 -1.3681e+001 -3.4666e+001  4.4266e+000 21829 111403,111063,111331
 6.7000e+000 111380 -1.3726e+001 -3.5578e+001  6.1245e-002 21829 111141,111331,111167
 6.7000e+000 111429 -1.6140e+001 -3.4973e+001  4.3682e+000 21829 111141,111089,111403
 6.7000e+000 111452 -1.4601e+001 -3.4645e+001  4.5684e+000 21829 111141,111403,111331
 6.7000e+000 112056  1.5579e+001 -2.1234e+001  1.1871e+000 21489 111687,111765,111739
 6.7000e+000 112033  9.4356e+000 -2.4798e+001  3.7243e+000 21489 112151,112079,111687
 6.7000e+000 112010  3.8457e+000 -4.3700e+001  1.1437e+000 21489 111791,111843,111817
 6.7000e+000 111987 -3.8835e+000 -3.5041e+001 -4.2429e+000 21489 112079,111843,111791
 6.7000e+000 111964  1.4853e+001 -2.0825e+001  6.7421e+000 21489 112151,111687,111661
 6.7000e+000 111941  5.0110e+000 -1.2436e+001  4.0377e+000 21489 111661,111869,111843
 6.7000e+000 111918  1.7650e+001 -2.2732e+001  5.2499e+000 21489 111687,111739,111713
 6.7000e+000 111895  1.0306e+001 -1.6833e-001  7.5025e-002 21489 111635,111869,111661
 6.7000e+000 112105  4.9603e-001 -2.7470e+001  2.2711e+000 21489 111765,111687,112079
 6.7000e+000 112128  2.9073e-001 -2.6204e+001  2.5662e+000 21489 111765,112079,111791
 6.7000e+000 112177  8.1446e-001 -2.3189e+001 -1.9928e+000 21489 111843,112079,112151
 6.7000e+000 112200  5.4350e+000 -2.1297e+001  4.0370e-001 21489 111843,112151,111661
 6.7000e+000 112578 -1.1505e+000 -3.3375e+001  2.0472e+000 21177 112382,112434,112408
 6.7000e+000 112555 -3.3902e+000 -3.2135e+001 -3.2666e-001 21177 112330,112434,112382
 6.7000e+000 112532 -6.3475e-001 -2.4104e+001  8.1513e+000 21177 112304,112434,112330
 6.7000e+000 112509 -4.5310e+000 -2.9520e+001  0.0000e+000 21177 112330,112382,112356
 6.7000e+000 112486 -3.5819e-001  1.3982e+000 -9.8203e-001 21177 112304,112460,112434
 6.7000e+000 112679 -2.3531e-001  5.3948e+000 -6.0593e+000 20666 112601,112653,112627
 6.7000e+000 112927 -1.3198e+001 -4.1876e+001  1.2842e+000 19762 112702,112754,112728
 6.7000e+000 112904 -4.9493e+000 -4.1001e+001 -4.6355e-001 19762 112702,112832,112754
 6.7000e+000 112881 -1.1311e+001 -4.4268e+001  7.3866e+000 19762 112754,112832,112806
 6.7000e+000 112858 -1.5581e+001 -5.7104e+001  8.4069e+000 19762 112754,112806,112780
 6.7000e+000 113297 -1.0875e+001 -5.0006e+001  3.4108e+000 19308 112974,113052,113026
 6.7000e+000 113274 -7.8571e+000 -4.1334e+001  1.3864e+000 19308 112974,113156,113052
 6.7000e+000 113251 -5.5237e+000 -5.4969e+001 -6.4969e+000 19308 113052,113130,113104
 6.7000e+000 113228 -8.6119e+000 -4.1192e+001  1.2976e-001 19308 113052,113156,113130
 6.7000e+000 113205 -9.0191e+000 -4.7885e+001  0.0000e+000 19308 113052,113104,113078
 6.7000e+000 113182 -1.6718e+001 -5.3667e+001 -4.0934e-001 19308 112974,113026,113000
 6.7000e+000 113547  1.5085e+000 -4.3067e+001 -2.7956e+000 18711 113570,113374,113348
 6.7000e+000 113524  8.1627e-001 -3.9752e+001 -1.6729e+000 18711 113570,113348,113452
 6.7000e+000 113501  2.7848e+000 -2.9640e+001 -6.8067e+000 18711 113322,113452,113348
 6.7000e+000 113478 -4.2500e+000 -4.1262e+001 -1.4150e+001 18711 113374,113426,113400
 6.7000e+000 113596  6.8674e-001 -3.9313e+001 -3.4807e+000 18711 113426,113374,113570
 6.7000e+000 113619  1.6959e-001 -3.6213e+001 -1.6257e+000 18711 113426,113570,113452
 6.7000e+000 113771 -2.2520e+001 -5.7267e+001 -3.1028e+000 18307 113670,113722,113696
 6.7000e+000 113748 -1.7651e+001 -5.3152e+001 -1.3217e+000 18307 113644,113722,113670
 6.7000e+000 113972 -1.2592e+001 -4.8947e+001  1.3848e+000 17945 113822,113874,113848
 6.7000e+000 113949 -1.0554e+001 -4.8300e+001  1.5075e+000 17945 113822,113900,113874
 6.7000e+000 113926 -1.4857e+001 -3.8337e+001  2.0596e+001 17945 113796,113900,113822
 6.7000e+000 114075 -5.7013e+000 -6.6981e+001  8.0895e+000 17482 113997,114049,114023
 6.7000e+000 114479 -3.4167e+000 -4.0925e+001 -5.9771e+000 17042 114257,114361,114335
 6.7000e+000 114456 -8.5530e+000 -3.6996e+001 -1.4637e+000 17042 114205,114361,114257
 6.7000e+000 114433 -8.8921e+000 -4.3854e+001  1.5933e+000 17042 114205,114257,114231
 6.7000e+000 114410  4.2388e+000 -6.0827e+001 -2.5835e+000 17042 114283,114335,114309
 6.7000e+000 114387 -1.1720e+000 -5.0430e+001 -2.7809e+000 17042 114257,114335,114283
 6.7000e+000 114879 -1.6210e+001 -3.2576e+001  5.9133e-001 16638 114631,114683,114657
 6.7000e+000 114856 -1.4524e+000 -2.5798e+001  9.5340e-001 16638 114605,114683,114631
 6.7000e+000 114833  1.1233e+001 -9.1561e+000 -6.3140e+000 16638 114605,114761,114683
 6.7000e+000 114810  1.2974e+000 -4.0309e+001 -1.6536e+000 16638 114683,114735,114709
 6.7000e+000 114787  3.3471e+000 -4.1279e+001 -2.6614e+000 16638 114683,114761,114735
 6.7000e+000 115078 -2.0233e+001 -4.0672e+001  1.4024e+000 16232 114954,115006,114980
 6.7000e+000 115055 -1.9394e+001 -4.4894e+001  2.1746e+000 16232 114928,115006,114954
 6.7000e+000 115032 -9.2753e+000 -5.4176e+001  4.4494e+000 16232 114902,115006,114928
 6.7000e+000 115228 -7.3747e+000 -3.8688e+001  1.7428e+000 15482 115101,115153,115127
 6.7000e+000 115205 -9.6113e+000 -3.7277e+001 -3.2328e-001 15482 115101,115179,115153
 6.7000e+000 115331 -2.5289e+000 -3.0904e+001 -4.0654e+000 15163 115253,115305,115279
 6.7000e+000 115434 -8.6034e+000 -3.4720e+001  7.2929e+000 421 115356,115408,115382
 6.8000e+000 68213 -1.7444e+001 -5.8794e+000  1.6048e-001 67888 68112,68164,68138
 6.8000e+000 68190 -1.5228e+001 -4.7442e+000 -1.5986e+000 67888 68086,68164,68112
 6.8000e+000 68314 -2.2742e+001 -1.1569e+001 -1.5070e+000 67576 68236,68288,68262
 6.8000e+000 68584 -1.9812e+001 -5.6129e+001  4.6547e+000 67378 68385,68489,68463
 6.8000e+000 68561 -1.0104e+000 -4.7715e+001  2.9556e+000 67378 68359,68489,68385
 6.8000e+000 68538 -1.5492e+001 -4.2411e+001  6.4969e+000 67378 68385,68463,68411
 6.8000e+000 68515 -5.6551e+000 -2.8855e+001  2.1815e+000 67378 68411,68463,68437
 6.8000e+000 68964 -2.5247e+001 -6.0440e+001  1.0904e+001 67130 68690,68820,68716
 6.8000e+000 68941  2.2484e+000 -6.8506e+001  1.8262e+001 67130 68690,68846,68820
 6.8000e+000 68918 -2.7235e+001 -3.7332e+001  4.4079e+000 67130 68742,68820,68794
 6.8000e+000 68895 -1.4431e+001 -3.5062e+001  5.8238e+000 67130 68716,68820,68742
 6.8000e+000 68872 -1.8151e+001 -2.2949e+001 -4.0794e+000 67130 68742,68794,68768
 6.8000e+000 69065 -2.3237e+001 -1.3549e+001  1.8764e+000 66926 68987,69039,69013
 6.8000e+000 69445 -1.6668e+001 -1.2034e+001 -1.1688e+000 66614 69223,69301,69275
 6.8000e+000 69422 -2.0478e+001 -1.3617e+001 -1.0014e+000 66614 69171,69301,69223
 6.8000e+000 69399 -1.9719e+001 -9.9978e+000 -1.2438e+000 66614 69171,69327,69301
 6.8000e+000 69376 -1.7157e+001 -1.5533e+001 -2.0625e+000 66614 69223,69275,69249
 6.8000e+000 69353 -1.6271e+001 -1.0642e+001  5.0590e-001 66614 69171,69223,69197
 6.8000e+000 69546 -2.5018e+001 -5.0400e+001  3.1626e+000 66416 69468,69520,69494
 6.8000e+000 69997 -1.9290e+001 -4.8536e+001 -3.1486e+000 66104 69700,69830,69726
 6.8000e+000 69974 -2.3757e+001 -5.5852e+001 -6.0031e+000 66104 69700,69856,69830
 6.8000e+000 69951 -2.0586e+001 -3.6025e+001 -2.9734e+000 66104 69726,69804,69778
 6.8000e+000 69928 -1.7217e+001 -4.4323e+001 -3.8027e+000 66104 69726,69830,69804
 6.8000e+000 69905 -2.2656e+001 -3.3778e+001 -9.2004e-001 66104 69726,69778,69752
 6.8000e+000 69882 -8.5110e+000 -7.6335e+001 -1.6545e+001 66104 69674,69856,69700
 6.8000e+000 70326 -1.2344e+001 -1.7119e+001 -9.4403e-001 65814 70349,70153,70127
 6.8000e+000 70303 -6.4528e+000 -1.6832e+001  3.8628e-001 65814 70349,70127,70101
 6.8000e+000 70280 -5.8169e+000 -1.7951e+001  1.1038e+001 65814 70101,70231,70205
 6.8000e+000 70257 -6.0703e+000 -1.8906e+001  3.6077e+000 65814 70153,70205,70179
 6.8000e+000 70375 -9.5440e+000 -1.8680e+001  3.6192e+000 65814 70205,70153,70349
 6.8000e+000 70398 -6.6560e-001 -1.7078e+001  4.3279e+000 65814 70205,70349,70101
 6.8000e+000 70904 -9.3529e+000 -6.4686e+000 -4.6855e+000 65502 70607,70737,70685
 6.8000e+000 70881 -8.7020e+000 -2.4109e+000 -6.6107e+000 65502 70581,70737,70607
 6.8000e+000 70858 -9.4523e+000  3.6146e+000 -2.0107e+000 65502 70581,70763,70737
 6.8000e+000 70835 -5.7932e+000 -5.3261e+000 -6.0951e+000 65502 70685,70737,70711
 6.8000e+000 70812 -3.1124e+001 -9.0471e+000  1.2270e+000 65502 70607,70659,70633
 6.8000e+000 70789 -1.1192e+001 -8.6911e+000  2.3160e+000 65502 70607,70685,70659
 6.8000e+000 71103 -1.1437e+001 -3.2914e+001 -9.9858e-001 65304 71126,70979,70953
 6.8000e+000 71080 -1.7053e+001 -3.0964e+001 -5.3903e-001 65304 71126,70953,70927
 6.8000e+000 71057 -2.2546e+001 -3.1136e+001 -3.4195e+000 65304 70927,71031,71005
 6.8000e+000 71152 -1.6159e+001 -3.3794e+001 -2.6185e+000 65304 71005,70979,71126
 6.8000e+000 71175 -2.1233e+001 -3.1156e+001 -1.1483e+000 65304 71005,71126,70927
 6.8000e+000 71374 -2.3338e+001 -2.9383e+001  2.3849e+000 65106 71198,71276,71224
 6.8000e+000 71351 -1.9258e+001 -2.9833e+001  1.9789e+000 65106 71198,71302,71276
 6.8000e+000 71328 -2.4526e+001 -3.0151e+001  5.2939e+000 65106 71224,71276,71250
 6.8000e+000 71756 -7.8495e+000 -2.4336e+001 -1.6219e+000 64652 71508,71638,71534
 6.8000e+000 71733  5.3450e-001 -2.1190e+001  4.7743e-001 64652 71482,71638,71508
 6.8000e+000 71710 -2.3414e+001 -3.1406e+001 -5.0087e+000 64652 71534,71586,71560
 6.8000e+000 71687 -2.1065e+001 -2.7874e+001 -6.2023e+000 64652 71534,71612,71586
 6.8000e+000 71664 -1.6376e+001 -2.7662e+001 -4.7406e+000 64652 71534,71638,71612
 6.8000e+000 72085 -1.8313e+001 -2.7457e+001 -7.2361e+000 64248 71886,71964,71912
 6.8000e+000 72062 -1.6725e+001 -2.9555e+001 -4.7764e+000 64248 71860,71964,71886
 6.8000e+000 72039 -5.0905e+000 -3.2153e+001 -5.0621e+000 64248 71912,71964,71938
 6.8000e+000 72016 -2.0708e+001 -2.8152e+001 -3.5808e+000 64248 71860,71990,71964
 6.8000e+000 72235 -5.3685e+000 -1.5554e+001 -1.7916e+000 63858 72588,72258,72134
 6.8000e+000 72212 -1.3201e+001 -1.4908e+001  5.3769e-001 63858 72330,72258,72108
 6.8000e+000 72284 -9.8141e+000 -1.0716e+001 -1.5937e+000 63858 72160,72134,72258
 6.8000e+000 72307 -1.5765e+001 -1.4703e+001 -6.3900e+000 63858 72460,72258,72186
 6.8000e+000 72356 -1.8369e+001 -1.3873e+001 -4.5576e+000 63858 72186,72258,72330
 6.8000e+000 72486 -1.1181e+001 -1.6809e+001 -4.2171e+000 63858 72160,72258,72460
 6.8000e+000 72614 -1.4122e+001 -2.0295e+001  1.2586e+000 63858 72108,72258,72588
 6.8000e+000 73248 -2.2384e+001 -4.9611e+001  1.0275e+001 63404 72902,72954,72928
 6.8000e+000 73225 -2.9991e+001 -3.9772e+001  6.5937e+000 63404 73271,72954,72902
 6.8000e+000 73202 -2.5480e+001 -2.9340e+001  4.9305e+000 63404 73271,72902,73032
 6.8000e+000 73179 -2.5113e+001 -2.6778e+001  2.3496e+000 63404 72902,73058,73032
 6.8000e+000 73156 -3.3461e+001 -4.1432e+001 -1.1693e+001 63404 72980,73032,73006
 6.8000e+000 73133 -3.0124e+001 -2.0157e+001  5.0053e+000 63404 72876,73058,72902
 6.8000e+000 73110 -1.1070e+001 -1.5451e+001  4.3356e+000 63404 72876,73084,73058
 6.8000e+000 73297 -2.4615e+001 -4.0767e+001 -8.0073e-002 63404 72980,72954,73271
 6.8000e+000 73320 -2.2942e+001 -3.5449e+001 -6.5652e-001 63404 72980,73271,73032
 6.8000e+000 73470 -1.4806e+001 -9.4550e+001  1.0856e+001 63014 73343,73395,73369
 6.8000e+000 73447 -4.5737e+001 -1.1379e+002 -1.5341e+000 63014 73343,73421,73395
 6.8000e+000 73929 -1.7725e+001 -2.8006e+001  5.4906e-001 62702 73759,73811,73785
 6.8000e+000 73906 -1.7303e+001 -2.7035e+001  1.7455e+000 62702 73655,73811,73759
 6.8000e+000 73883 -2.0490e+001 -2.9092e+001  2.5564e-001 62702 73655,73759,73681
 6.8000e+000 73860 -1.8604e+001 -2.4638e+001  2.5843e-001 62702 73681,73759,73707
 6.8000e+000 73837 -2.1660e+001 -2.3922e+001  1.4432e+000 62702 73707,73759,73733
 6.8000e+000 74209 -2.6870e+001 -2.0720e+001  1.3846e+000 62404 74059,74137,74085
 6.8000e+000 74186 -2.8653e+001 -2.4546e+001  3.1887e+000 62404 74033,74137,74059
 6.8000e+000 74163 -2.5572e+001 -1.7795e+001  2.3064e+000 62404 74085,74137,74111
 6.8000e+000 74408 -6.1015e+000 -2.1743e+001  1.6169e+000 62000 74258,74336,74284
 6.8000e+000 74385 -1.8506e+000 -2.0378e+001  1.3322e+000 62000 74232,74336,74258
 6.8000e+000 74362 -7.2037e+000 -2.3108e+001  1.1376e+000 62000 74284,74336,74310
 6.8000e+000 74509 -1.2277e+001 -2.7638e+000 -2.5521e+000 61802 74431,74483,74457
 6.8000e+000 74759 -2.0107e+001 -1.3204e+001  1.9284e+000 61554 74782,74586,74560
 6.8000e+000 74736 -1.9012e+001 -1.4757e+001  4.4617e-001 61554 74782,74560,74664
 6.8000e+000 74713 -1.9434e+001 -1.5018e+001  2.2713e+000 61554 74854,74612,74586
 6.8000e+000 74690 -1.9819e+001 -1.5996e+001  9.8529e-002 61554 74534,74664,74560
 6.8000e+000 74808 -1.9793e+001 -1.5421e+001  1.3758e+000 61554 74854,74586,74782
 6.8000e+000 74831 -1.9521e+001 -2.0260e+001  8.9405e-001 61554 74638,74782,74664
 6.8000e+000 74880 -1.8337e+001 -1.5308e+001  2.2350e+000 61554 74638,74612,74854
 6.8000e+000 74903 -1.8336e+001 -1.5187e+001  1.5083e+000 61554 74638,74854,74782
 6.8000e+000 75285 -1.6410e+001 -9.8080e+000  3.9856e-002 61356 75063,75167,75115
 6.8000e+000 75262 -1.4628e+001 -6.3437e+000  1.0381e+000 61356 75037,75167,75063
 6.8000e+000 75239 -1.7595e+001 -1.0778e+001  4.5650e-001 61356 75115,75167,75141
 6.8000e+000 75216 -1.6169e+001 -9.5967e+000  1.5548e-001 61356 75063,75115,75089
 6.8000e+000 75193 -1.7421e+001 -1.3776e+001 -2.2715e+000 61356 75011,75167,75037
 6.8000e+000 75631 -1.0189e+001 -5.8067e+000  3.8505e-001 60952 75654,75412,75360
 6.8000e+000 75608 -1.1475e+001 -6.5972e+000  2.5991e-002 60952 75654,75360,75334
 6.8000e+000 75585 -9.3255e+000 -6.7937e+000 -2.6777e-001 60952 75726,75438,75412
 6.8000e+000 75562 -1.3308e+001 -8.6268e+000 -2.0561e-001 60952 75308,75490,75334
 6.8000e+000 75539 -9.7372e+000 -5.8083e+000  6.5511e-001 60952 75360,75412,75386
 6.8000e+000 75516 -8.5262e+000 -7.1082e+000 -2.3072e+000 60952 75438,75490,75464
 6.8000e+000 75680 -9.3650e+000 -6.8453e+000  4.4356e-002 60952 75726,75412,75654
 6.8000e+000 75703 -1.0235e+001 -7.2984e+000 -6.9829e-002 60952 75490,75654,75334
 6.8000e+000 75752 -9.8621e+000 -7.0474e+000 -1.0315e-001 60952 75490,75438,75726
 6.8000e+000 75775 -9.7806e+000 -7.0339e+000  9.6177e-002 60952 75490,75726,75654
 6.8000e+000 76155 -1.0570e+001 -1.8848e+001 -3.6919e-001 60754 75933,75985,75959
 6.8000e+000 76132 -1.4112e+001 -2.0657e+001  1.5026e+000 60754 75933,76037,75985
 6.8000e+000 76109 -5.2652e+000 -1.6758e+001 -1.2383e+000 60754 75985,76037,76011
 6.8000e+000 76086 -1.7335e+001 -1.8897e+001 -2.2307e-001 60754 75881,76037,75933
 6.8000e+000 76063 -1.7765e+001 -2.0194e+001 -2.9963e-001 60754 75881,75933,75907
 6.8000e+000 76612 -7.1665e+000 -2.7237e+001  3.7015e+000 60350 76635,76442,76390
 6.8000e+000 76589 -6.6413e-001 -3.1105e+001  5.2456e+000 60350 76635,76390,76364
 6.8000e+000 76566 -6.1620e+000 -4.3002e+001 -1.4263e+000 60350 76364,76494,76468
 6.8000e+000 76543 -4.2748e-001 -2.4753e+001  2.5572e+000 60350 76390,76442,76416
 6.8000e+000 76520 -2.1744e+001 -2.4252e+001 -5.9769e+000 60350 76338,76494,76364
 6.8000e+000 76661 -1.0867e+001 -2.9768e+001  4.8019e+000 60350 76468,76442,76635
 6.8000e+000 76684 -6.1889e+000 -3.4470e+001  6.6887e+000 60350 76468,76635,76364
 6.8000e+000 76932 -1.8149e+001 -1.5701e+001 -1.5454e+000 59946 76955,76733,76707
 6.8000e+000 76909 -1.8867e+001 -1.7432e+001 -1.7511e+000 59946 77027,76955,76707
 6.8000e+000 76886 -2.0385e+001 -1.8033e+001 -1.1751e+000 59946 77027,76707,76837
 6.8000e+000 76863 -1.0983e+001 -1.4267e+001 -3.8789e+000 59946 76733,76785,76759
 6.8000e+000 76981 -1.8581e+001 -1.6423e+001 -6.9852e-001 59946 76785,76733,76955
 6.8000e+000 77004 -1.8612e+001 -1.4566e+001 -1.5276e+000 59946 76785,76955,76811
 6.8000e+000 77053 -2.1293e+001 -1.6571e+001 -6.3575e-001 59946 76811,76955,77027
 6.8000e+000 77076 -2.2896e+001 -1.7839e+001  2.2933e-001 59946 76811,77027,76837
 6.8000e+000 77226 -1.3001e+001 -3.2233e+001  9.1363e-001 59542 77099,77151,77125
 6.8000e+000 77203 -2.0913e+001 -4.5481e+001  5.0256e+000 59542 77099,77177,77151
 6.8000e+000 77427 -1.7818e+001 -3.4155e+001 -2.0585e+000 59030 77450,77277,77251
 6.8000e+000 77404 -1.3811e+001 -3.3101e+001 -9.1956e+000 59030 77450,77251,77355
 6.8000e+000 77381 -2.0183e+001 -4.1185e+001 -3.5851e-001 59030 77277,77329,77303
 6.8000e+000 77476 -1.1838e+001 -3.4159e+001 -4.1983e+000 59030 77329,77277,77450
 6.8000e+000 77499 -5.7767e+000 -3.4021e+001 -9.9800e+000 59030 77329,77450,77355
 6.8000e+000 77749 -1.5848e+001 -4.4388e+001  4.2063e+000 58426 77772,77628,77602
 6.8000e+000 77726 -9.9927e+000 -5.2920e+001  9.0889e+000 58426 77524,77654,77628
 6.8000e+000 77703 -1.4253e+001 -4.1512e+001  3.4662e+000 58426 77772,77602,77550
 6.8000e+000 77680 -1.3215e+001 -4.0627e+001  2.6257e-001 58426 77550,77602,77576
 6.8000e+000 77798 -1.3715e+001 -4.7692e+001  2.8977e+000 58426 77524,77628,77772
 6.8000e+000 77821 -1.2056e+001 -4.4336e+001  2.3433e+000 58426 77524,77772,77550
 6.8000e+000 78071 -1.6856e+001 -3.2649e+001  4.4738e+000 57922 78094,77924,77898
 6.8000e+000 78048 -1.4288e+001 -2.1075e+001  2.0364e+000 57922 78094,77898,77872
 6.8000e+000 78025 -1.5329e+001 -2.0177e+001  1.7312e+000 57922 78166,77846,77950
 6.8000e+000 78002 -1.4843e+001 -1.9582e+001  1.4035e+000 57922 77846,77976,77950
 6.8000e+000 78120 -1.0421e+001 -2.3082e+001  1.6602e+000 57922 77950,77924,78094
 6.8000e+000 78143 -1.5014e+001 -2.0251e+001  1.3374e+000 57922 78166,77950,78094
 6.8000e+000 78192 -1.5406e+001 -2.0485e+001  1.7201e+000 57922 77872,77846,78166
 6.8000e+000 78215 -1.5275e+001 -2.0909e+001  1.3663e+000 57922 77872,78166,78094
 6.8000e+000 78416 -2.5472e+000 -3.0156e+001 -5.8353e-001 57468 78439,78292,78240
 6.8000e+000 78393 -3.6540e+000 -3.0724e+001 -1.5935e-001 57468 78439,78240,78344
 6.8000e+000 78370 -1.4042e+000 -3.4349e+001  1.0425e+000 57468 78240,78292,78266
 6.8000e+000 78465 -3.7120e+000 -3.0457e+001 -1.9667e-001 57468 78318,78292,78439
 6.8000e+000 78488 -4.1892e+000 -3.0502e+001  1.4572e-001 57468 78318,78439,78344
 6.8000e+000 78689 -1.2460e+001 -2.9412e+001 -9.1436e-001 57014 78712,78539,78513
 6.8000e+000 78666 -1.3416e+001 -2.9532e+001 -3.1966e-001 57014 78712,78513,78617
 6.8000e+000 78643 -8.0682e+000 -3.1709e+001  4.1263e+000 57014 78565,78617,78591
 6.8000e+000 78738 -1.3548e+001 -2.8473e+001 -9.0488e-001 57014 78565,78539,78712
 6.8000e+000 78761 -1.4892e+001 -2.9362e+001  2.7589e-002 57014 78565,78712,78617
 6.8000e+000 79241 -1.3873e+001 -2.9913e+001  1.6152e+000 56652 79264,78895,78869
 6.8000e+000 79218 -7.7645e+000 -3.8821e+001 -3.3614e+000 56652 79264,78869,79051
 6.8000e+000 79195 -1.1419e+001 -3.6209e+001 -6.9865e+000 56652 78869,79077,79051
 6.8000e+000 79172 -1.1149e+001 -2.2334e+001 -1.1810e+000 56652 78895,78973,78947
 6.8000e+000 79149 -1.7364e+001 -7.0477e+001 -6.3557e+000 56652 78973,79051,78999
 6.8000e+000 79126 -6.2422e+000 -2.1606e+001 -2.7335e+000 56652 78895,78947,78921
 6.8000e+000 79103 -1.0576e+001 -4.1073e+001  8.7127e+000 56652 78999,79051,79025
 6.8000e+000 79290 -9.0774e+000 -2.4470e+001  4.5420e+000 56652 78973,78895,79264
 6.8000e+000 79313 -2.5014e+000 -3.3974e+001 -1.9423e-001 56652 78973,79264,79051
 6.8000e+000 79512 -3.7533e+000 -4.8982e+001  3.4196e+000 56062 79388,79440,79414
 6.8000e+000 79489 -1.7743e+001 -2.3613e+001  6.6400e+000 56062 79336,79440,79388
 6.8000e+000 79466 -3.3700e+000 -4.4789e+001  6.3621e+000 56062 79336,79388,79362
 6.8000e+000 79941 -7.1750e+000 -1.1121e+001  3.3459e+000 55658 79964,79670,79644
 6.8000e+000 79918 -6.4675e+000 -1.3932e+001  3.9396e+000 55658 79964,79644,79800
 6.8000e+000 79895 -4.5321e+000 -9.8072e+000  4.8272e+000 55658 80036,79696,79670
 6.8000e+000 79872 -6.5814e+000 -1.1250e+001  1.6030e+000 55658 80108,79722,79696
 6.8000e+000 79849 -6.6073e+000  2.0579e+000  6.2924e+000 55658 79722,79774,79748
 6.8000e+000 79826 -2.5891e+000 -1.3160e+001 -5.8610e-001 55658 79618,79800,79644
 6.8000e+000 79990 -6.6505e+000 -1.0969e+001  3.4795e+000 55658 80036,79670,79964
 6.8000e+000 80013 -3.6587e+000 -9.8747e+000  5.1669e+000 55658 79774,79964,79800
 6.8000e+000 80062 -4.6357e+000 -1.0994e+001  3.0806e+000 55658 80108,79696,80036
 6.8000e+000 80085 -6.5572e+000 -1.0865e+001  3.4151e+000 55658 79774,80036,79964
 6.8000e+000 80134 -9.9949e+000 -1.0423e+001  1.6596e+000 55658 79774,79722,80108
 6.8000e+000 80157 -8.9740e+000 -1.1058e+001  2.9648e+000 55658 79774,80108,80036
 6.8000e+000 80307 -2.6469e+001 -1.9989e+001 -2.9797e+000 55254 80402,80330,80206
 6.8000e+000 80284 -2.4054e+001 -2.1761e+001 -3.5081e+000 55254 80330,80180,80258
 6.8000e+000 80356 -2.8296e+001 -2.3925e+001  1.6938e+000 55254 80232,80206,80330
 6.8000e+000 80379 -1.8300e+001 -1.9667e+001  1.5591e+000 55254 80232,80330,80258
 6.8000e+000 80428 -2.6743e+001 -2.1923e+001 -3.6666e+000 55254 80180,80330,80402
 6.8000e+000 80659 -1.3210e+001 -4.1475e+001 -2.0030e+000 54850 80558,80610,80584
 6.8000e+000 80636 -1.3648e+001 -4.0426e+001 -7.5096e-001 54850 80532,80610,80558
 6.8000e+000 80760 -8.9000e+000 -4.7829e+000  1.0203e-001 54652 80682,80734,80708
 6.8000e+000 81164 -7.3160e+000 -5.3908e+000  7.2217e-001 54248 81187,80942,80890
 6.8000e+000 81141 -6.5824e+000 -6.5618e+000  5.4063e-001 54248 81187,80890,81046
 6.8000e+000 81118 -8.7050e+000 -5.9468e+000  2.0399e+000 54248 80942,81020,80994
 6.8000e+000 81095 -6.2684e+000 -3.7606e+000  1.6044e+000 54248 80890,80942,80916
 6.8000e+000 81072 -7.4991e+000 -3.2271e+000  9.2949e-001 54248 80942,80994,80968
 6.8000e+000 81213 -6.7459e+000 -4.8313e+000  9.5033e-001 54248 81020,80942,81187
 6.8000e+000 81236 -5.8656e+000 -5.7937e+000  8.3514e-001 54248 81020,81187,81046
 6.8000e+000 81663 -2.2171e+001 -3.0392e+001  8.6006e-001 53594 81340,81444,81366
 6.8000e+000 81640 -2.1140e+001 -4.6838e+001 -1.0383e+000 53594 81340,81470,81444
 6.8000e+000 81617 -2.4394e+001 -4.4006e+001 -1.0337e+001 53594 81340,81522,81470
 6.8000e+000 81594 -1.6298e+001 -1.9415e+001 -2.2562e+000 53594 81392,81444,81418
 6.8000e+000 81571 -1.7283e+001 -2.6716e+001 -3.6960e+000 53594 81366,81444,81392
 6.8000e+000 81548 -3.0152e+000 -5.4985e+001 -1.1001e+000 53594 81470,81522,81496
 6.8000e+000 81943 -7.6274e+000 -1.2139e+001 -1.2713e+000 53104 81966,81845,81819
 6.8000e+000 81920 -1.1885e+001 -1.0067e+001 -2.8208e+000 53104 81966,81819,81767
 6.8000e+000 81897 -1.2753e+001 -1.2767e+001 -2.0162e+000 53104 81767,81819,81793
 6.8000e+000 81992 -4.8326e+000 -1.2364e+001 -3.2084e+000 53104 81871,81845,81966
 6.8000e+000 82015 -8.2951e+000 -9.2657e+000 -5.5600e+000 53104 81871,81966,81767
 6.8000e+000 82491 -1.3043e+001 -2.0497e+001 -4.3184e+000 52650 82145,82249,82171
 6.8000e+000 82468 -1.6959e+001 -2.3374e+001 -2.6228e+000 52650 82145,82301,82249
 6.8000e+000 82445 -1.9666e+001 -3.5933e+001 -4.0090e+000 52650 82249,82301,82275
 6.8000e+000 82422 -2.8288e+001 -4.8067e+001 -1.0796e+001 52650 82119,82301,82145
 6.8000e+000 82399 -9.2123e+000 -1.3207e+001  6.8925e-001 52650 82171,82249,82223
 6.8000e+000 82376 -1.5443e+001 -4.3329e+001 -1.4318e+000 52650 82119,82327,82301
 6.8000e+000 82353 -9.8995e-001 -6.6933e+000 -2.7331e+000 52650 82171,82223,82197
 6.8000e+000 82739 -1.2791e+001 -1.0125e+001 -1.5977e+000 52246 82762,82540,82514
 6.8000e+000 82716 -8.9011e+000 -6.1029e+000 -3.1934e+000 52246 82762,82514,82644
 6.8000e+000 82693 -1.2841e+001 -1.4706e+001  6.0379e-001 52246 82540,82618,82592
 6.8000e+000 82670 -5.5799e+000 -1.0144e+001 -1.6213e+000 52246 82540,82592,82566
 6.8000e+000 82788 -9.2196e+000 -1.4043e+001  3.7734e-001 52246 82618,82540,82762
 6.8000e+000 82811 -6.1228e+000 -1.1791e+001 -7.0980e-001 52246 82618,82762,82644
 6.8000e+000 83059 -2.1980e+000 -1.9897e+001  1.1689e+000 51578 82860,82964,82938
 6.8000e+000 83036 -1.2446e+000 -1.6457e+001 -6.1606e+000 51578 82834,82964,82860
 6.8000e+000 83013 -1.5163e+000 -1.5733e+001  3.1170e+000 51578 82860,82938,82886
 6.8000e+000 82990 -1.4235e+000 -1.3544e+001  1.7733e+000 51578 82886,82938,82912
 6.8000e+000 83309 -7.1386e+000 -1.1769e+001  3.8276e+000 51138 83332,83162,83136
 6.8000e+000 83286 -4.8860e+000 -1.4686e+001  1.9763e+000 51138 83332,83136,83110
 6.8000e+000 83263 -5.4033e+000 -1.3906e+001  2.0484e+000 51138 83404,83214,83188
 6.8000e+000 83240 -2.0269e-001 -5.7820e+000  5.0135e-001 51138 83084,83214,83110
 6.8000e+000 83358 -1.1208e+001 -1.6543e+001  7.3463e+000 51138 83188,83162,83332
 6.8000e+000 83381 -4.9333e+000 -1.6200e+001  3.8754e+000 51138 83404,83188,83332
 6.8000e+000 83430 -3.6588e+000 -7.3757e+000 -9.6771e-002 51138 83110,83214,83404
 6.8000e+000 83453 -4.6944e+000 -1.1295e+001  1.9837e+000 51138 83110,83404,83332
 6.8000e+000 83835 -1.0026e+001 -2.3423e+001  4.9913e-003 50734 83613,83717,83691
 6.8000e+000 83812 -1.2343e+001 -2.9211e+001 -2.0817e+000 50734 83561,83717,83613
 6.8000e+000 83789 -1.0613e+001 -1.2992e+001 -4.7827e+000 50734 83561,83613,83587
 6.8000e+000 83766 -1.2346e+001 -1.7449e+001  4.0815e-001 50734 83613,83691,83639
 6.8000e+000 83743 -1.2582e+001 -1.6428e+001  4.5561e+000 50734 83639,83691,83665
 6.8000e+000 84034 -6.0922e+000 -1.2406e+001  8.0320e-001 50230 84057,83884,83858
 6.8000e+000 84011 -4.0960e+000 -9.3672e+000 -1.9176e+000 50230 84129,84057,83858
 6.8000e+000 83988 -1.6437e+000 -8.1873e+000 -2.7565e+000 50230 84129,83858,83962
 6.8000e+000 84083 -1.7302e+000 -9.9524e+000 -9.5510e-001 50230 83910,83884,84057
 6.8000e+000 84106 -2.8166e+000 -1.0992e+001 -1.9484e+000 50230 83910,84057,83936
 6.8000e+000 84155 -4.5863e-001 -1.0538e+001 -2.1002e+000 50230 83936,84057,84129
 6.8000e+000 84178  7.0620e-001 -1.0324e+001 -2.8863e+000 50230 83936,84129,83962
 6.8000e+000 84558 -1.3641e+001 -2.0154e+001 -1.4835e+000 49768 84581,84388,84362
 6.8000e+000 84535 -2.1329e+001 -2.1978e+001 -8.1490e-001 49768 84581,84362,84310
 6.8000e+000 84512 -5.5864e+000 -2.5968e+001 -2.9816e+000 49768 84653,84440,84414
 6.8000e+000 84489 -1.8473e+001 -2.4400e+001  2.1550e+000 49768 84310,84362,84336
 6.8000e+000 84466 -7.0106e+000 -2.3465e+001 -8.4806e-001 49768 84284,84440,84310
 6.8000e+000 84607 -7.7687e+000 -1.9548e+001 -4.2928e+000 49768 84414,84388,84581
 6.8000e+000 84630 -8.4848e+000 -2.2335e+001 -2.0189e+000 49768 84653,84414,84581
 6.8000e+000 84679 -9.5371e+000 -2.6150e+001 -4.3821e+000 49768 84310,84440,84653
 6.8000e+000 84702 -1.4681e+001 -2.5321e+001 -4.8628e+000 49768 84310,84653,84581
 6.8000e+000 85159 -2.1009e+001 -2.4259e+001 -6.3562e+000 49192 84885,84937,84911
 6.8000e+000 85136 -1.6157e+001 -7.6243e+000 -5.3239e+000 49192 84885,85041,84937
 6.8000e+000 85113 -7.6446e+000 -6.0214e+000 -4.5617e+000 49192 84963,85041,84989
 6.8000e+000 85090 -9.0586e+000 -7.8169e+000 -1.5591e+000 49192 84937,85041,84963
 6.8000e+000 85067 -5.5113e+000 -5.2679e+000 -4.7850e+000 49192 84989,85041,85015
 6.8000e+000 85714 -1.5694e+001 -1.5380e+001  1.7213e+000 48638 85368,85498,85394
 6.8000e+000 85691 -1.7642e+001 -2.0394e+001  2.5475e+000 48638 85368,85524,85498
 6.8000e+000 85668 -2.0824e+001 -1.5721e+001  8.9463e+000 48638 85737,85420,85394
 6.8000e+000 85645 -1.5424e+001 -1.7040e+001  4.0657e+000 48638 85737,85394,85498
 6.8000e+000 85622 -1.0479e+001 -1.6113e+001  5.6037e+000 48638 85446,85498,85472
 6.8000e+000 85599 -5.8807e+000 -1.5868e+001  3.4886e+000 48638 85342,85524,85368
 6.8000e+000 85576 -2.0885e+001 -2.2623e+001  5.6458e+000 48638 85342,85550,85524
 6.8000e+000 85763 -1.2569e+001 -1.2006e+001  9.8251e+000 48638 85446,85420,85737
 6.8000e+000 85786 -1.2189e+001 -1.5294e+001  4.7281e+000 48638 85446,85737,85498
 6.8000e+000 86371 -1.2219e+001 -8.8136e+000 -2.2302e-001 48084 86100,86230,86178
 6.8000e+000 86348 -1.7297e+001 -1.7932e+001 -2.8522e+000 48084 86048,86230,86100
 6.8000e+000 86325 -8.3955e+000 -6.1836e+000  4.0647e+000 48084 86100,86178,86126
 6.8000e+000 86302 -1.3244e+001 -8.4391e+000 -3.5832e+000 48084 86048,86100,86074
 6.8000e+000 86279 -1.3355e+001 -2.1039e+001 -1.2189e+000 48084 86178,86230,86204
 6.8000e+000 86256 -4.8072e+000 -2.2999e+000  5.5807e+000 48084 86126,86178,86152
 6.8000e+000 86619 -5.5256e+000 -1.0370e+001  1.9197e+000 47630 86642,86446,86420
 6.8000e+000 86596 -7.8947e+000 -1.2454e+001 -1.1768e+000 47630 86642,86420,86394
 6.8000e+000 86573 -1.5129e+001 -1.0513e+001 -2.7706e+000 47630 86394,86524,86498
 6.8000e+000 86550 -3.5698e+000 -1.3215e+001  7.1881e-001 47630 86446,86498,86472
 6.8000e+000 86668 -7.2451e+000 -1.4073e+001 -1.8534e-001 47630 86498,86446,86642
 6.8000e+000 86691 -8.7959e+000 -1.4996e+001 -3.1833e+000 47630 86498,86642,86394
 6.8000e+000 87022 -5.0739e+000 -6.2860e+000 -2.2845e+000 47226 87045,86875,86849
 6.8000e+000 86999 -4.9164e+000 -7.8179e+000 -2.1220e+000 47226 87045,86849,86797
 6.8000e+000 86976 -3.3291e+000 -4.3916e+000 -2.5309e+000 47226 86797,86849,86823
 6.8000e+000 86953 -5.4643e+000 -6.3406e+000 -5.4161e+000 47226 86875,86927,86901
 6.8000e+000 87071 -5.5704e+000 -7.5323e+000 -2.0446e+000 47226 86927,86875,87045
 6.8000e+000 87094 -5.0295e+000 -8.5698e+000 -1.9751e+000 47226 86927,87045,86797
 6.8000e+000 87244 -5.2844e+000 -2.0342e+001  6.9382e+000 46814 87267,87169,87143
 6.8000e+000 87221 -1.4299e+001 -1.8396e+001 -2.0263e-001 46814 87267,87143,87117
 6.8000e+000 87293 -1.0670e+000 -1.2739e+001  4.7937e+000 46814 87339,87267,87195
 6.8000e+000 87316  1.7724e+000 -1.1531e+001 -1.7075e+000 46814 87469,87267,87117
 6.8000e+000 87365 -1.3225e+001 -1.6352e+001  7.5866e+000 46814 87169,87267,87339
 6.8000e+000 87495 -1.5249e+000  2.0065e+000 -9.6428e-001 46814 87195,87267,87469
 6.8000e+000 88001 -5.0268e+000 -1.3397e+000  4.8322e+000 46310 88024,87834,87808
 6.8000e+000 87978 -6.5281e+000 -1.4484e+000  1.7691e+000 46310 88024,87808,87756
 6.8000e+000 87955 -3.3170e+000 -5.2239e+000  1.3421e+000 46310 88096,87730,87860
 6.8000e+000 87932 -4.3254e+000 -3.6372e+000  2.2113e+000 46310 87756,87808,87782
 6.8000e+000 87909 -3.9344e+000  1.4895e+000 -3.2544e-001 46310 87678,87860,87730
 6.8000e+000 87886 -8.7116e+000 -7.8822e+000  1.1841e+000 46310 87678,87730,87704
 6.8000e+000 88050 -7.4947e+000 -7.0554e+000  5.0870e+000 46310 87860,87834,88024
 6.8000e+000 88073 -3.8422e+000 -1.6675e+000  2.8781e+000 46310 88096,87860,88024
 6.8000e+000 88122 -4.9213e+000 -6.8034e+000  4.2237e-001 46310 87756,87730,88096
 6.8000e+000 88145 -7.8728e+000 -5.3540e+000  1.2598e+000 46310 87756,88096,88024
 6.8000e+000 88572 -7.8726e+000 -1.6659e+001  1.1027e+000 45856 88249,88405,88275
 6.8000e+000 88549 -5.8284e+000 -8.1827e+000 -2.2527e+000 45856 88249,88431,88405
 6.8000e+000 88526 -1.5119e+001 -2.8265e+001 -5.5738e+000 45856 88327,88405,88353
 6.8000e+000 88503 -5.9199e+000 -2.0601e+001 -1.9835e+000 45856 88275,88405,88327
 6.8000e+000 88480 -1.3004e+001 -2.8795e+001 -1.1924e+001 45856 88353,88405,88379
 6.8000e+000 88457 -2.2202e+001 -5.7396e+001  4.2493e+000 45856 88275,88327,88301
 6.8000e+000 88950 -3.0849e+000 -1.0781e+001  2.0316e-001 45658 88973,88754,88728
 6.8000e+000 88927 -1.6397e+000 -1.5768e+000  1.9370e+000 45658 88973,88728,88676
 6.8000e+000 88904 -5.9990e+000  6.3540e-001  5.7900e+000 45658 88676,88832,88806
 6.8000e+000 88881 -4.2002e+000 -7.4690e+000  2.1588e+000 45658 88676,88728,88702
 6.8000e+000 88858 -6.3685e+000 -5.3251e+000 -3.6417e+000 45658 88754,88806,88780
 6.8000e+000 88999 -2.5731e+000 -2.1848e+000  4.4340e-001 45658 88806,88754,88973
 6.8000e+000 89022 -4.1061e+000  3.1204e+000  2.1238e+000 45658 88806,88973,88676
 6.8000e+000 89351 -6.6625e+000 -1.7312e+001  6.2832e-002 45254 89152,89230,89204
 6.8000e+000 89328 -1.2944e+001 -2.0233e+001 -9.0527e-001 45254 89152,89256,89230
 6.8000e+000 89305 -7.6193e+000 -2.0346e+001 -2.0755e+000 45254 89126,89256,89152
 6.8000e+000 89282 -8.7051e+000 -1.4308e+001  9.3400e-001 45254 89152,89204,89178
 6.8000e+000 89523 -8.9035e-002 -4.1599e+000 -1.7627e-001 45006 89422,89474,89448
 6.8000e+000 89500 -1.4228e+000 -4.7670e+000 -1.2610e+000 45006 89396,89474,89422
 6.8000e+000 89673 -1.2036e+001 -1.9500e+001  1.4859e+000 44495 89572,89624,89598
 6.8000e+000 89650 -1.3424e+001 -2.4700e+001  3.1057e+000 44495 89546,89624,89572
 6.8000e+000 90104 -4.9514e+000 -1.9590e+001 -1.1040e+000 44005 90199,90127,89937
 6.8000e+000 90081 -4.1447e+000 -1.8138e+001  7.2774e-001 44005 90271,90127,89859
 6.8000e+000 90058 -5.0399e+000 -1.9146e+001 -9.7265e-001 44005 90199,89937,89885
 6.8000e+000 90035 -5.1119e+000 -1.6616e+001  1.3323e+000 44005 90271,89859,89807
 6.8000e+000 90012 -6.6405e+000 -2.2481e+001 -1.4849e+000 44005 89885,89937,89911
 6.8000e+000 89989 -1.7635e+000 -1.9104e+001  4.3847e+000 44005 89807,89859,89833
 6.8000e+000 90153 -7.1547e+000 -2.0953e+001 -2.3678e+000 44005 89963,89937,90127
 6.8000e+000 90176 -6.1832e+000 -2.0199e+001 -9.3987e-002 44005 89963,90127,89781
 6.8000e+000 90225 -5.3297e+000 -1.8825e+001 -1.1297e+000 44005 89859,90127,90199
 6.8000e+000 90248 -4.9604e+000 -1.7889e+001 -8.3550e-001 44005 89859,90199,89885
 6.8000e+000 90297 -5.3250e+000 -1.9752e+001 -2.8226e-001 44005 89781,90127,90271
 6.8000e+000 90320 -5.8269e+000 -1.8059e+001  4.8996e-001 44005 89781,90271,89807
 6.8000e+000 90470 -3.0959e+000 -1.2180e+001  2.0714e-001 43601 90493,90369,90343
 6.8000e+000 90447 -5.0315e+000 -8.8673e+000  1.8306e+000 43601 90493,90343,90421
 6.8000e+000 90519 -5.9341e+000 -1.8262e+001 -1.9021e+000 43601 90395,90369,90493
 6.8000e+000 90542 -4.8295e+000 -1.1307e+001  1.5036e-001 43601 90395,90493,90421
 6.8000e+000 90922 -4.4414e+000 -1.4198e+001  2.8831e-001 43154 90945,90700,90674
 6.8000e+000 90899 -3.0883e+000 -1.4326e+001 -3.0927e+000 43154 90945,90674,90648
 6.8000e+000 90876 -6.1849e+000 -9.8842e+000 -1.2734e+000 43154 90648,90778,90752
 6.8000e+000 90853 -1.5593e+000 -2.7322e+001  2.9392e-001 43154 90700,90752,90726
 6.8000e+000 90830 -4.6123e+000 -1.1207e+001  4.4481e-001 43154 90648,90804,90778
 6.8000e+000 90971 -5.3100e+000 -1.7332e+001  1.2658e+000 43154 90752,90700,90945
 6.8000e+000 90994 -3.9143e+000 -1.6377e+001 -2.0315e+000 43154 90752,90945,90648
 6.8000e+000 91451 -2.2521e+000 -1.8419e+001 -2.2178e+000 42650 91203,91255,91229
 6.8000e+000 91428 -2.2532e+000 -1.8416e+001 -1.1398e+000 42650 91203,91333,91255
 6.8000e+000 91405 -2.1315e+000 -2.8419e+001 -3.8110e+000 42650 91177,91333,91203
 6.8000e+000 91382 -1.1916e+001 -3.2270e+001  3.4256e+000 42650 91255,91333,91281
 6.8000e+000 91359 -1.3439e+000 -2.4310e+001 -8.9827e-001 42650 91281,91333,91307
 6.8000e+000 91721 -1.8270e+001 -2.6953e+001  3.2642e+000 42288 91496,91600,91522
 6.8000e+000 91698 -1.4263e+001 -2.0961e+001 -1.7097e+000 42288 91496,91626,91600
 6.8000e+000 91675 -7.1837e+000 -2.4076e+001  3.7521e+000 42288 91522,91574,91548
 6.8000e+000 91652 -8.6993e+000 -2.2963e+001  3.7810e+000 42288 91522,91600,91574
 6.8000e+000 92199 -2.6228e+001 -3.0913e+001 -1.1616e+000 41898 92222,91983,91879
 6.8000e+000 92176 -2.6101e+001 -3.7195e+001 -3.6346e+000 41898 92294,92222,91879
 6.8000e+000 92153 -2.7601e+001 -3.5859e+001 -4.8391e+000 41898 92294,91879,91853
 6.8000e+000 92130 -2.3619e+001 -1.8440e+001  2.9804e+000 41898 91879,91957,91931
 6.8000e+000 92107 -2.3477e+001 -2.9936e+001  3.8393e-001 41898 91879,91983,91957
 6.8000e+000 92084 -2.6191e+001 -1.8392e+001  5.4868e+000 41898 91879,91931,91905
 6.8000e+000 92061 -2.6240e+001 -3.8516e+001 -6.9332e+000 41898 91827,92035,91853
 6.8000e+000 92248 -2.7124e+001 -3.9175e+001  8.1597e-001 41898 92009,91983,92222
 6.8000e+000 92271 -2.5148e+001 -4.0391e+001 -5.5112e+000 41898 92009,92222,92035
 6.8000e+000 92320 -2.3542e+001 -3.5520e+001 -4.4437e+000 41898 92035,92222,92294
 6.8000e+000 92343 -2.4751e+001 -3.4265e+001 -5.6446e+000 41898 92035,92294,91853
 6.8000e+000 92770 -4.0100e+000 -1.9333e+001 -3.1686e+000 41437 92865,92793,92525
 6.8000e+000 92747 -4.7771e+000 -2.1802e+001 -3.6297e+000 41437 92793,92473,92629
 6.8000e+000 92724 -5.1977e-002 -2.1034e+001 -5.3330e+000 41437 92865,92525,92499
 6.8000e+000 92701 -9.9167e+000 -1.6161e+001 -4.8054e+000 41437 92525,92603,92577
 6.8000e+000 92678  1.8913e+000 -1.9012e+001 -2.4358e+000 41437 92447,92629,92473
 6.8000e+000 92655 -1.1617e+001 -1.6496e+001 -4.7777e+000 41437 92525,92577,92551
 6.8000e+000 92819 -4.6963e+000 -2.0927e+001 -4.0877e+000 41437 92603,92525,92793
 6.8000e+000 92842 -8.3118e+000 -2.2003e+001 -7.4525e+000 41437 92603,92793,92629
 6.8000e+000 92891  3.1630e+000 -2.0400e+001 -3.1622e+000 41437 92473,92793,92865
 6.8000e+000 92914  8.4529e+000 -2.0472e+001 -6.1133e+000 41437 92473,92865,92499
 6.8000e+000 93243 -6.2800e+000 -3.1456e+001  1.1407e+001 41097 93044,93096,93070
 6.8000e+000 93220 -1.0939e+001 -3.2316e+001  5.6360e+000 41097 93044,93122,93096
 6.8000e+000 93197 -3.5282e-001 -1.9951e+001  6.8204e-001 41097 93044,93148,93122
 6.8000e+000 93174 -4.2236e+000 -1.4090e+001  4.6395e+000 41097 93018,93148,93044
 6.8000e+000 93393 -1.0376e+000 -2.7906e+001  1.1919e+000 40643 93416,93292,93344
 6.8000e+000 93370  3.1670e-002 -2.5733e+001  1.8190e+000 40643 93266,93344,93292
 6.8000e+000 93442 -1.7266e+000 -2.5993e+001  4.4788e+000 40643 93318,93292,93416
 6.8000e+000 93901 -8.8095e+000 -2.2627e+001 -2.7313e+000 40132 93924,93731,93705
 6.8000e+000 93878 -7.8988e+000 -2.0449e+001 -2.2433e+000 40132 93996,93924,93705
 6.8000e+000 93855 -8.3927e+000 -2.1686e+001 -1.5791e+000 40132 93996,93705,93653
 6.8000e+000 93832 -1.5110e-001 -2.3371e+001 -1.9560e+000 40132 93653,93705,93679
 6.8000e+000 93809 -4.6120e+000 -1.6674e+001 -8.3378e-001 40132 93627,93783,93757
 6.8000e+000 93950 -9.7382e+000 -2.0779e+001 -2.0287e+000 40132 93757,93731,93924
 6.8000e+000 93973 -8.3729e+000 -1.7702e+001 -5.4055e-001 40132 93757,93924,93627
 6.8000e+000 94022 -9.4863e+000 -2.1463e+001 -1.4352e+000 40132 93627,93924,93996
 6.8000e+000 94045 -8.9234e+000 -2.1831e+001 -9.2419e-001 40132 93627,93996,93653
 6.8000e+000 94423 -9.0145e+000 -3.6567e+001 -2.9954e+000 39514 94149,94227,94175
 6.8000e+000 94400 -8.2534e+000 -3.1374e+001  2.0794e+000 39514 94149,94305,94227
 6.8000e+000 94377 -3.8252e+000 -3.5139e+001 -4.5289e+000 39514 94175,94227,94201
 6.8000e+000 94354 -1.1267e+001 -2.8974e+001  1.1894e+000 39514 94227,94305,94279
 6.8000e+000 94331 -6.9019e+000 -2.6961e+001  2.0988e+000 39514 94227,94279,94253
 6.8000e+000 94573 -3.6327e+000 -1.4850e+001 -1.7663e+000 38822 94596,94498,94472
 6.8000e+000 94550  1.7249e+000 -1.2519e+001  3.7634e+000 38822 94596,94472,94446
 6.8000e+000 94622 -9.4852e+000 -1.7073e+001 -5.7553e+000 38822 94524,94498,94596
 6.8000e+000 94645 -6.3185e+000 -1.3964e+001  2.5586e-001 38822 94524,94596,94446
 6.8000e+000 95025 -2.8475e+000 -1.4718e+001 -2.1253e+000 38418 95048,94829,94777
 6.8000e+000 95002  1.3249e-001 -1.4274e+001 -2.8717e+000 38418 95120,95048,94777
 6.8000e+000 94979  2.0065e+000 -1.6486e+001 -2.6271e+000 38418 95120,94777,94751
 6.8000e+000 94956 -1.1008e+000 -1.5483e+001 -2.0921e+000 38418 95192,94881,94855
 6.8000e+000 94933 -5.5316e+000 -8.9983e+000 -2.7030e+000 38418 94777,94829,94803
 6.8000e+000 95074 -3.0585e+000 -1.7424e+001 -3.4839e-001 38418 94855,94829,95048
 6.8000e+000 95097 -1.5061e+000 -1.4939e+001 -1.4389e+000 38418 95192,94855,95048
 6.8000e+000 95146 -3.3831e+000 -1.5947e+001 -1.5623e+000 38418 94907,95048,95120
 6.8000e+000 95169 -4.0145e-001 -1.7525e+001 -1.1694e+000 38418 94907,95120,94751
 6.8000e+000 95218 -2.1031e+000 -1.5229e+001 -2.3515e+000 38418 94907,94881,95192
 6.8000e+000 95241 -3.1322e+000 -1.5198e+001 -1.6370e+000 38418 94907,95192,95048
 6.8000e+000 95511 -5.7185e+000 -1.2518e+001  1.5706e+000 38049 95312,95390,95364
 6.8000e+000 95488 -4.9254e-001 -1.0467e+001  1.9783e+000 38049 95312,95416,95390
 6.8000e+000 95465 -2.1737e+000 -1.9058e+001 -7.5310e-001 38049 95312,95364,95338
 6.8000e+000 95442 -1.5062e+000 -7.9730e+000  2.2697e+000 38049 95286,95416,95312
 6.8000e+000 95808 -7.6950e+000 -2.0785e+001 -9.7750e-001 37437 95831,95586,95560
 6.8000e+000 95785 -7.2171e-001 -2.1752e+001 -1.3176e+000 37437 95831,95560,95534
 6.8000e+000 95762 -1.1805e+001 -1.8890e+001  1.8084e+000 37437 95586,95664,95638
 6.8000e+000 95739 -3.9841e+000 -1.2122e+001 -4.6302e+000 37437 95534,95690,95664
 6.8000e+000 95716 -1.3223e+001 -1.1340e+001  3.5503e-001 37437 95586,95638,95612
 6.8000e+000 95857 -1.2267e+001 -2.0065e+001  1.8457e+000 37437 95664,95586,95831
 6.8000e+000 95880 -4.9818e+000 -2.0887e+001  1.6197e+000 37437 95664,95831,95534
 6.8000e+000 96390 -1.5292e+001 -2.1480e+001 -3.8664e+000 36883 96413,96145,96093
 6.8000e+000 96367 -1.3444e+001 -2.0189e+001 -1.8476e+000 36883 96413,96093,96067
 6.8000e+000 96344 -1.1269e+001 -2.9636e+001 -1.1106e+000 36883 96067,96249,96171
 6.8000e+000 96321 -1.3043e+001 -2.6357e+001 -2.7523e+000 36883 96093,96145,96119
 6.8000e+000 96298 -1.6472e+001 -4.2987e+001  2.2229e+000 36883 96171,96249,96197
 6.8000e+000 96275 -3.5664e+000 -3.5215e+001 -1.0378e+000 36883 96197,96249,96223
 6.8000e+000 96439 -1.3809e+001 -1.8444e+001 -2.5937e+000 36883 96171,96145,96413
 6.8000e+000 96462 -1.2884e+001 -1.9148e+001 -7.3372e-001 36883 96171,96413,96067
 6.8000e+000 96781 -8.0613e+000 -2.4350e+001 -4.1854e+000 36215 96559,96663,96637
 6.8000e+000 96758 -1.0588e+001 -2.4955e+001 -4.5166e+000 36215 96507,96663,96559
 6.8000e+000 96735 -1.0014e+001 -1.2022e+001  1.9394e+000 36215 96585,96637,96611
 6.8000e+000 96712 -2.3774e+001 -2.8328e+001 -4.2013e+000 36215 96559,96637,96585
 6.8000e+000 96689 -6.6372e+000 -2.7128e+001 -2.1999e+000 36215 96507,96559,96533
 6.8000e+000 97161  7.5944e-003 -7.2475e+000 -2.1205e-001 35818 97184,96965,96939
 6.8000e+000 97138 -1.8101e+000 -8.9973e+000 -1.2387e+000 35818 97184,96939,96887
 6.8000e+000 97115 -4.0987e+000 -1.5638e+001  4.6779e+000 35818 96965,97043,97017
 6.8000e+000 97092 -1.3033e+000 -7.9314e+000 -1.4274e+000 35818 96887,96939,96913
 6.8000e+000 97069 -1.0269e+001 -1.2827e+001  4.6290e+000 35818 96965,97017,96991
 6.8000e+000 97210  1.9739e+000 -8.8019e+000  8.6505e-001 35818 97043,96965,97184
 6.8000e+000 97233  4.1567e-001 -9.9916e+000  6.0850e-004 35818 97043,97184,96887
 6.8000e+000 97739 -5.4179e+000 -1.5293e+001 -9.5067e+000 35214 97416,97468,97442
 6.8000e+000 97716 -8.8785e+000 -8.2571e+000 -3.4354e+000 35214 97416,97598,97468
 6.8000e+000 97693 -6.4762e+000 -7.3521e+000 -2.7013e+000 35214 97762,97520,97468
 6.8000e+000 97670 -6.5119e+000 -7.1743e+000 -2.2943e+000 35214 97762,97468,97598
 6.8000e+000 97647 -5.5097e+000 -1.8336e+000 -4.5859e+000 35214 97546,97598,97572
 6.8000e+000 97624 -7.6028e+000 -9.6682e+000 -1.9359e+000 35214 97468,97520,97494
 6.8000e+000 97788 -6.3143e+000 -6.9328e+000 -2.6383e+000 35214 97546,97520,97762
 6.8000e+000 97811 -6.3917e+000 -6.7782e+000 -2.2529e+000 35214 97546,97762,97598
 6.8000e+000 98189  2.3770e+000  4.3313e+000 -3.8236e+000 34760 98356,98212,97967
 6.8000e+000 98166  2.7822e+000  1.0067e+000 -4.9517e+000 34760 98284,98212,97941
 6.8000e+000 98143  2.3762e+000  1.7797e+000 -4.4362e+000 34760 98284,97941,97915
 6.8000e+000 98120  1.4879e+000  2.8567e+000 -2.2864e+000 34760 98484,97993,97967
 6.8000e+000 98097  2.7986e+000  2.3745e+000 -9.7868e-001 34760 98556,98045,98019
 6.8000e+000 98238  1.8880e+000  1.6073e+000 -2.3802e+000 34760 98484,97967,98212
 6.8000e+000 98261  3.9447e+000  8.1943e-001 -1.6089e+000 34760 98556,98019,98212
 6.8000e+000 98310  2.0750e+000  3.0242e+000 -4.3072e+000 34760 98071,98212,98284
 6.8000e+000 98333  2.8488e+000  5.2111e+000 -3.6348e+000 34760 98071,98284,97915
 6.8000e+000 98382 -1.0480e+001 -3.3506e+000 -7.4200e+000 34760 97941,98212,98356
 6.8000e+000 98510  1.3152e+000  1.3513e+000 -2.0035e+000 34760 98019,97993,98484
 6.8000e+000 98533  1.7767e+000  1.7410e-001 -2.3239e+000 34760 98019,98484,98212
 6.8000e+000 98582  4.1426e+000  4.0491e+000 -1.8516e-001 34760 98071,98045,98556
 6.8000e+000 98605  4.5379e+000  2.1491e+000 -1.1049e+000 34760 98071,98556,98212
 6.8000e+000 99032 -1.0569e+001 -1.5343e+001  4.2431e+000 34156 98735,98891,98839
 6.8000e+000 99009 -9.7053e+000 -1.5586e+001  3.6279e+000 34156 98709,98891,98735
 6.8000e+000 98986 -5.3358e+000 -1.5399e+001  3.5371e+000 34156 98735,98813,98787
 6.8000e+000 98963 -5.9537e+000 -1.6274e+001  4.1875e+000 34156 98735,98839,98813
 6.8000e+000 98940 -8.3314e-001 -2.5411e+001  4.0594e+000 34156 98735,98787,98761
 6.8000e+000 98917 -9.9069e+000 -1.4342e+001  7.0989e+000 34156 98839,98891,98865
 6.8000e+000 99231 -1.6505e+000 -5.7449e+000  8.6350e-001 33766 99055,99133,99107
 6.8000e+000 99208 -3.6254e+000 -8.0228e+000  1.6998e+000 33766 99055,99159,99133
 6.8000e+000 99185 -2.0775e+000 -1.1227e+001  1.8574e+000 33766 99055,99107,99081
 6.8000e+000 99818 -1.7331e+000 -3.4800e-001  2.3432e-001 33248 99521,99651,99573
 6.8000e+000 99795 -1.0276e+000  3.1173e-001  8.8972e-001 33248 99521,99677,99651
 6.8000e+000 99772 -2.8476e+000 -4.6311e+000  2.1651e-001 33248 99573,99651,99599
 6.8000e+000 99749 -8.0919e-001 -6.8154e-001  1.0916e+000 33248 99495,99677,99521
 6.8000e+000 99726 -3.3420e+000 -4.5963e+000  6.1109e-001 33248 99599,99651,99625
 6.8000e+000 99703 -1.3983e+000 -2.0125e+000  3.4013e-001 33248 99521,99573,99547
 6.8000e+000 100196 -5.0921e+000 -9.3838e+000 -2.6485e+000 32794 100219,99948,99922
 6.8000e+000 100173 -5.1685e+000 -9.2809e+000 -8.8224e-001 32794 100219,99922,100052
 6.8000e+000 100150 -4.4986e+000 -3.4221e+000  1.2334e+000 32794 99974,100052,100026
 6.8000e+000 100127 -6.0366e+000 -1.2027e+001  6.2552e-002 32794 99922,100078,100052
 6.8000e+000 100104 -2.1715e+000 -6.0089e+000  3.8887e+000 32794 99974,100026,100000
 6.8000e+000 100245 -7.1265e+000 -1.0347e+001 -2.9224e+000 32794 99974,99948,100219
 6.8000e+000 100268 -6.3424e+000 -9.8125e+000 -1.0567e+000 32794 99974,100219,100052
 6.8000e+000 100418 -3.9423e+000 -1.4914e+001 -2.1992e+000 32504 100571,100343,100317
 6.8000e+000 100395 -1.2276e+001 -1.8653e+001  2.0764e+000 32504 100571,100317,100441
 6.8000e+000 100467  3.6563e+000 -6.9409e+000 -7.2759e+000 32504 100291,100369,100441
 6.8000e+000 100597 -5.8622e-001 -1.2076e+001 -9.2523e+000 32504 100369,100343,100571
 6.8000e+000 100620 -4.5446e+000 -1.1359e+001 -5.5801e+000 32504 100369,100571,100441
 6.8000e+000 101020  6.0758e+000  7.1589e+000  1.0498e+000 32142 100772,100902,100876
 6.8000e+000 100997  2.3267e+000  1.6026e+001 -1.5154e+000 32142 100746,100902,100772
 6.8000e+000 100974  4.1302e+000  1.9152e+000  4.1161e+000 32142 101043,100824,100798
 6.8000e+000 100951  1.7728e+000 -1.1887e-002  3.2618e+000 32142 101043,100798,100772
 6.8000e+000 100928 -4.4801e+000 -3.1324e+000 -4.5588e+000 32142 101115,100876,100850
 6.8000e+000 101069  5.4732e+000 -1.3932e+000  1.5531e+000 32142 100850,100824,101043
 6.8000e+000 101092 -2.3423e-001 -5.1127e+000 -5.0404e-001 32142 101115,100850,101043
 6.8000e+000 101141  1.0160e+000  2.8263e+000 -1.8583e+000 32142 100772,100876,101115
 6.8000e+000 101164  4.9439e+000  1.7427e+000  2.3207e+000 32142 100772,101115,101043
 6.8000e+000 101719 -1.1493e+001 -1.8818e+001  3.4460e+000 31538 101742,101477,101399
 6.8000e+000 101696 -1.0155e+001 -2.1893e+001  1.8561e+000 31538 101814,101742,101399
 6.8000e+000 101673 -9.4192e+000 -1.8238e+001  1.5110e+000 31538 101814,101399,101373
 6.8000e+000 101650 -1.1462e+001 -1.2831e+001  2.7091e+000 31538 101425,101477,101451
 6.8000e+000 101627 -9.5832e+000 -1.5336e+001  1.2369e+000 31538 101399,101477,101425
 6.8000e+000 101604 -7.6564e+000 -2.4236e+001  6.0390e+000 31538 101477,101529,101503
 6.8000e+000 101581 -1.3516e+000 -7.4647e+000  2.5330e+000 31538 101347,101555,101373
 6.8000e+000 101768 -1.2492e+001 -2.2540e+001  3.4135e+000 31538 101529,101477,101742
 6.8000e+000 101791 -1.3085e+001 -2.4469e+001 -1.6765e+000 31538 101529,101742,101555
 6.8000e+000 101840 -1.0842e+001 -1.7631e+001 -4.4216e-001 31538 101555,101742,101814
 6.8000e+000 101863 -1.0664e+001 -1.4805e+001 -8.2364e-001 31538 101555,101814,101373
 6.8000e+000 102111 -1.8415e+001 -3.6314e+001  6.0410e+000 31112 101886,101990,101912
 6.8000e+000 102088 -8.6326e+000 -2.4686e+001 -6.6506e-001 31112 101886,102016,101990
 6.8000e+000 102065 -9.7300e+000 -3.3018e+001  6.0253e+000 31112 101912,101990,101964
 6.8000e+000 102042 -7.8843e+000 -3.4369e+001  4.6701e+000 31112 101912,101964,101938
 6.8000e+000 102408 -5.0954e+000 -1.6083e+001  1.1648e+000 30658 102431,102186,102160
 6.8000e+000 102385 -7.2475e+000 -1.6036e+001  2.7680e-001 30658 102431,102160,102264
 6.8000e+000 102362 -6.6839e+000 -1.5253e+001  2.2135e+000 30658 102186,102238,102212
 6.8000e+000 102339 -8.6444e+000 -1.7832e+001 -1.3138e+000 30658 102134,102264,102160
 6.8000e+000 102316 -5.8214e+000 -1.4296e+001 -5.9021e+000 30658 102134,102290,102264
 6.8000e+000 102457 -6.9471e+000 -1.6653e+001  7.1162e-001 30658 102238,102186,102431
 6.8000e+000 102480 -9.2222e+000 -1.6788e+001 -2.6046e-001 30658 102238,102431,102264
 6.8000e+000 102681 -2.4511e+000 -1.2261e+001  1.4006e+000 30004 102704,102557,102505
 6.8000e+000 102658 -1.2988e+000 -1.3970e+001  2.1686e+000 30004 102704,102505,102609
 6.8000e+000 102635 -1.5017e-001 -7.7226e+000  5.4513e-001 30004 102505,102557,102531
 6.8000e+000 102730 -1.9200e+000 -1.1421e+001  1.6305e+000 30004 102583,102557,102704
 6.8000e+000 102753  1.5875e-001 -1.2070e+001  2.8249e+000 30004 102583,102704,102609
 6.8000e+000 103003 -4.7772e+000 -1.4843e+001  5.3427e-001 29564 103026,102804,102778
 6.8000e+000 102980 -5.2626e+000 -1.8785e+001 -7.6895e-001 29564 103026,102778,102908
 6.8000e+000 102957 -5.4712e+000 -1.6489e+001  1.2383e+000 29564 102856,102908,102882
 6.8000e+000 102934 -8.5378e+000 -1.0500e+001  3.0054e+000 29564 102804,102856,102830
 6.8000e+000 103052 -3.7972e+000 -1.2675e+001  3.1438e+000 29564 102856,102804,103026
 6.8000e+000 103075 -4.9322e+000 -1.6089e+001  1.4576e+000 29564 102856,103026,102908
 6.8000e+000 103634 -6.6832e+000 -1.5227e+001 -3.0639e+000 29160 103657,103418,103392
 6.8000e+000 103611 -5.3460e+000 -1.2555e+001 -1.5284e-001 29160 103657,103392,103314
 6.8000e+000 103588 -5.0848e+000 -9.3936e+000 -6.1844e-001 29160 103314,103392,103366
 6.8000e+000 103565  4.7099e+000 -7.8549e+000 -4.9277e+000 29160 103314,103366,103340
 6.8000e+000 103542 -2.8504e+000 -8.0394e+000 -2.3340e+000 29160 103262,103444,103314
 6.8000e+000 103519 -3.2218e+000 -1.0057e+001 -8.6167e-001 29160 103262,103314,103288
 6.8000e+000 103496 -4.9665e+000 -8.5310e+000 -2.3189e+000 29160 103262,103470,103444
 6.8000e+000 103683 -1.1414e+001 -1.9444e+001 -7.5282e+000 29160 103444,103418,103657
 6.8000e+000 103706 -6.8695e+000 -1.1853e+001 -4.0917e+000 29160 103444,103657,103314
 6.8000e+000 104035 -7.8488e+000 -1.8195e+001  3.2138e+000 28770 103836,103914,103862
 6.8000e+000 104012 -6.9768e+000 -1.7483e+001  3.5701e+000 28770 103810,103914,103836
 6.8000e+000 103989 -3.2437e+000 -1.5560e+001  2.8893e+000 28770 103810,103940,103914
 6.8000e+000 103966 -2.8576e+000 -1.5638e+001  5.4980e+000 28770 103862,103914,103888
 6.8000e+000 104185 -3.7871e-001 -1.0093e+001  2.0207e+000 28366 104208,104110,104084
 6.8000e+000 104162  3.4576e-001 -7.4106e+000  1.8169e+000 28366 104280,104208,104084
 6.8000e+000 104234 -6.4037e-002 -9.6814e+000 -4.9998e-001 28366 104610,104208,104136
 6.8000e+000 104257 -1.8121e+000 -8.2551e+000  4.7507e-001 28366 104538,104410,104208
 6.8000e+000 104306 -3.0185e+000 -9.2823e+000  9.4470e-001 28366 104538,104208,104280
 6.8000e+000 104436  1.5237e-001 -4.3131e+000 -2.1806e-001 28366 104136,104208,104410
 6.8000e+000 104564 -3.1642e+000 -6.9008e+000 -2.8437e-001 28366 104058,104410,104538
 6.8000e+000 104587 -3.6648e+000 -7.4808e+000 -1.6731e-002 28366 104058,104538,104280
 6.8000e+000 104636  9.4772e-002 -9.1155e+000  1.7089e+000 28366 104110,104208,104610
 6.8000e+000 105349 -6.5602e+000 -1.4542e+001 -8.7284e-001 27976 105516,105372,105107
 6.8000e+000 105326 -1.1828e+001 -1.5797e+001  1.5708e+000 27976 105588,105372,105055
 6.8000e+000 105303 -1.5108e+001 -1.5735e+001 -3.6959e+000 27976 105444,105159,105133
 6.8000e+000 105280 -3.5948e+000 -1.5738e+001  3.2707e-001 27976 105516,105107,105081
 6.8000e+000 105257 -1.2503e+001 -1.7307e+001  1.4046e+000 27976 105588,105055,105029
 6.8000e+000 105234 -8.0238e+000 -1.2074e+001  1.8417e+000 27976 105003,105185,105159
 6.8000e+000 105211 -5.2933e+000 -9.2063e+000  3.3166e+000 27976 104977,105185,105003
 6.8000e+000 105398 -3.6134e+000 -1.5999e+001 -2.5445e+000 27976 105133,105107,105372
 6.8000e+000 105421 -1.0022e+001 -1.8536e+001 -1.9889e+000 27976 105444,105133,105372
 6.8000e+000 105470 -9.8921e+000 -1.0313e+001 -1.4704e+000 27976 105003,105159,105444
 6.8000e+000 105493 -6.7287e+000 -1.4129e+001 -5.5317e-001 27976 105003,105444,105372
 6.8000e+000 105542 -4.5105e+000 -1.3904e+001  1.5126e+000 27976 105055,105372,105516
 6.8000e+000 105565 -1.5065e-001 -1.4589e+001  2.4393e+000 27976 105055,105516,105081
 6.8000e+000 105614 -1.1095e+001 -1.7413e+001  2.4547e+000 27976 105003,105372,105588
 6.8000e+000 105637 -1.1571e+001 -1.8552e+001  2.3939e+000 27976 105003,105588,105029
 6.8000e+000 106143 -1.7616e+000 -1.5892e+001  1.2018e+000 27664 106166,105846,105820
 6.8000e+000 106120 -6.0517e-002 -8.0556e+000  8.6248e-001 27664 106310,106166,105820
 6.8000e+000 106097  1.4683e+000 -1.5096e+001 -4.8308e+000 27664 106382,106238,105950
 6.8000e+000 106074  1.1309e-001 -6.4719e+000 -1.8248e-001 27664 106310,105820,106002
 6.8000e+000 106051  5.4379e+000 -1.2244e+001 -3.1787e+000 27664 106382,105950,105924
 6.8000e+000 106028  7.2302e+000 -3.1322e+001 -5.0819e-001 27664 105846,105898,105872
 6.8000e+000 106192 -1.7047e+000 -1.9200e+001 -4.1583e+000 27664 105898,105846,106166
 6.8000e+000 106215  9.1926e-001 -1.4759e+001 -1.9891e+000 27664 106238,105898,106166
 6.8000e+000 106264 -9.1981e+000 -1.7158e+001 -7.3324e+000 27664 105976,105950,106238
 6.8000e+000 106287  1.8009e-001 -1.3719e+001 -2.2402e+000 27664 105976,106238,106166
 6.8000e+000 106336  2.4644e-001 -1.0979e+001  1.7609e+000 27664 105976,106166,106310
 6.8000e+000 106359  6.5851e-001 -9.2080e+000  6.5176e-001 27664 105976,106310,106002
 6.8000e+000 106408  2.8571e-001 -9.9003e+000 -2.5253e-001 27664 105898,106238,106382
 6.8000e+000 106431  2.3510e+000 -8.6162e+000  1.0629e+000 27664 105898,106382,105924
 6.8000e+000 106728 -1.7972e+000 -6.5351e+000  3.4356e+000 27153 106751,106506,106454
 6.8000e+000 106705 -1.7165e+000 -7.9092e+000  1.7858e+000 27153 106751,106454,106610
 6.8000e+000 106682 -2.3876e+000 -7.1421e+000  3.0832e+000 27153 106454,106506,106480
 6.8000e+000 106659 -2.1303e+000 -5.3585e+000  1.5552e+000 27153 106532,106610,106584
 6.8000e+000 106636 -7.0528e-002  4.4080e-001  3.5706e+000 27153 106532,106584,106558
 6.8000e+000 106777  1.3084e-001 -4.6434e+000  4.2107e+000 27153 106532,106506,106751
 6.8000e+000 106800 -5.2513e-001 -6.7641e+000  2.3311e+000 27153 106532,106751,106610
 6.8000e+000 107180 -4.8162e-001 -9.9975e+000  2.1243e+000 26642 107203,106984,106958
 6.8000e+000 107157 -4.6066e+000 -1.2860e+001 -2.1238e+000 26642 107203,106958,106932
 6.8000e+000 107134 -1.0017e+001 -1.7916e+001 -2.4411e+000 26642 107275,107036,107010
 6.8000e+000 107111 -8.2601e+000 -1.5672e+001 -5.8444e+000 26642 106932,107062,107036
 6.8000e+000 107088  2.5220e-002 -1.0207e+001  6.9381e-001 26642 106906,107062,106932
 6.8000e+000 107229  3.4771e-001 -1.2835e+001 -3.1612e+000 26642 107010,106984,107203
 6.8000e+000 107252 -6.9423e+000 -1.3066e+001 -3.8827e+000 26642 107275,107010,107203
 6.8000e+000 107301 -6.5333e+000 -1.7496e+001 -4.9314e+000 26642 106932,107036,107275
 6.8000e+000 107324 -5.8001e+000 -1.7339e+001 -5.2911e+000 26642 106932,107275,107203
 6.8000e+000 107675 -6.2067e+000 -9.5422e+000  2.4731e+000 26045 107450,107554,107476
 6.8000e+000 107652 -5.4362e+000 -9.1219e+000  2.3078e+000 26045 107450,107580,107554
 6.8000e+000 107629  5.4214e-001  4.6107e+000 -1.2947e+000 26045 107476,107528,107502
 6.8000e+000 107606  2.1244e-001 -6.8406e+000  2.9041e+000 26045 107476,107554,107528
 6.8000e+000 107874 -5.8909e+000 -1.2852e+001  4.4839e+000 25641 107750,107802,107776
 6.8000e+000 107851 -4.6599e+000 -1.0160e+001  4.8384e+000 25641 107724,107802,107750
 6.8000e+000 107828 -8.5551e+000 -1.1585e+001  4.8642e+000 25641 107698,107802,107724
 6.8000e+000 108431  1.5534e+000 -1.6407e+001  5.4693e+000 25023 108526,108267,108241
 6.8000e+000 108408  1.1982e-001 -1.2733e+001  1.3002e-001 25023 108059,108267,108085
 6.8000e+000 108385 -3.5858e+000 -2.0053e+001  4.0409e+000 25023 108454,108163,108111
 6.8000e+000 108362 -1.3289e+001 -1.9283e+001  8.7376e+000 25023 108454,108111,108085
 6.8000e+000 108339 -7.1260e+000 -2.6894e+001  6.9377e+000 25023 108111,108163,108137
 6.8000e+000 108316 -8.2553e+000 -1.4615e+001 -9.3096e-001 25023 108163,108241,108215
 6.8000e+000 108293 -2.8244e+000 -1.1863e+001  1.3707e+000 25023 108163,108215,108189
 6.8000e+000 108480 -1.2774e+000 -1.7064e+001  1.3655e+000 25023 108241,108163,108454
 6.8000e+000 108503 -1.4380e+000 -1.7349e+001  5.9718e+000 25023 108526,108241,108454
 6.8000e+000 108552 -2.6135e+000 -1.3478e+001  3.4108e+000 25023 108085,108267,108526
 6.8000e+000 108575 -5.6846e+000 -1.4470e+001  3.8729e+000 25023 108085,108526,108454
 6.8000e+000 108823  5.0804e+000 -1.0393e+001  1.8483e+000 24461 108624,108728,108650
 6.8000e+000 108800  7.9230e-001 -2.7085e+001 -2.9974e+000 24461 108598,108728,108624
 6.8000e+000 108777  1.4562e+000 -1.5154e+001  2.5070e-001 24461 108650,108728,108676
 6.8000e+000 108754 -5.4122e+000 -4.7372e+001  3.9798e+000 24461 108676,108728,108702
 6.8000e+000 109022 -4.7467e+000 -9.0536e+000  3.8992e+000 24121 108872,108924,108898
 6.8000e+000 108999 -8.4882e-001 -1.0696e+001  3.9914e+000 24121 108846,108924,108872
 6.8000e+000 108976 -6.7063e+000 -1.3037e+001  3.7786e+000 24121 108846,108950,108924
 6.8000e+000 109483 -7.2027e+000 -1.8912e+001 -3.0276e+000 23717 109209,109339,109235
 6.8000e+000 109460 -4.1399e+000 -2.5975e+001 -5.9526e+000 23717 109209,109365,109339
 6.8000e+000 109437  5.5640e-002 -2.3806e+001 -7.7749e-001 23717 109287,109339,109313
 6.8000e+000 109414 -9.6641e+000 -2.4469e+001  1.2630e+000 23717 109235,109339,109287
 6.8000e+000 109391  1.8911e+000 -2.7493e+001  1.0216e+001 23717 109235,109287,109261
 6.8000e+000 109910 -8.5760e+000 -2.4517e+001 -2.5165e+000 23305 109613,109743,109717
 6.8000e+000 109887 -9.3288e+000 -2.4753e+001 -2.9556e+000 23305 109613,109769,109743
 6.8000e+000 109864 -1.0200e+001 -2.3156e+001 -2.2317e+000 23305 109613,109717,109639
 6.8000e+000 109841 -6.0755e+000 -2.4407e+001 -1.0739e+000 23305 109587,109769,109613
 6.8000e+000 109818  3.5429e-001 -1.8724e+001  1.8591e+000 23305 109639,109717,109691
 6.8000e+000 109795 -2.0478e+000 -1.5288e+001 -3.1067e+000 23305 109639,109691,109665
 6.8000e+000 110180 -2.3389e+000 -5.5933e+000 -1.4231e+000 22851 110007,110059,110033
 6.8000e+000 110157 -6.5923e+000 -1.7828e+001  1.8882e+000 22851 109981,110059,110007
 6.8000e+000 110134 -9.0493e+000 -2.1478e+001 -2.3312e-001 22851 109955,110059,109981
 6.8000e+000 110111 -3.9923e+000 -2.9642e+001 -2.5743e+000 22851 109955,110085,110059
 6.8000e+000 110737  2.4238e+000 -1.5098e+001 -7.7756e+000 22333 110760,110469,110391
 6.8000e+000 110714  2.3430e+000 -1.9377e+001 -6.0527e+000 22333 110760,110391,110365
 6.8000e+000 110691  4.3428e-001 -1.1161e+001 -6.1375e+000 22333 110832,110521,110469
 6.8000e+000 110668 -2.1525e+000 -2.8384e+001  3.8568e+000 22333 110417,110469,110443
 6.8000e+000 110645 -5.6064e+000 -2.6811e+001  3.5769e+000 22333 110391,110469,110417
 6.8000e+000 110622 -2.5913e-001 -1.3153e+001 -1.6189e+000 22333 110469,110521,110495
 6.8000e+000 110599 -6.0883e+000 -1.1497e+001  4.6339e+000 22333 110365,110573,110547
 6.8000e+000 110786  2.1919e+000 -1.2323e+001 -7.5816e+000 22333 110832,110469,110760
 6.8000e+000 110809  3.8079e+000 -1.5255e+001 -5.7240e+000 22333 110547,110760,110365
 6.8000e+000 110858 -8.8153e-001 -1.3624e+001 -5.4881e+000 22333 110547,110521,110832
 6.8000e+000 110881  5.2567e-001 -1.5700e+001 -7.0296e+000 22333 110547,110832,110760
 6.8000e+000 111308 -9.9143e+000 -2.1256e+001  2.0583e+000 21829 111331,111063,111011
 6.8000e+000 111285 -2.9507e+000 -1.5125e+001 -2.6994e+000 21829 111331,111011,111167
 6.8000e+000 111262 -8.5228e+000 -2.1925e+001  3.8461e+000 21829 111403,111089,111063
 6.8000e+000 111239 -1.5607e+001 -2.5248e+001  6.1461e+000 21829 111011,111063,111037
 6.8000e+000 111216 -4.2234e-001 -1.2956e+001 -1.5071e+000 21829 110985,111167,111011
 6.8000e+000 111193 -1.3074e+001 -4.6491e+001  1.2242e+001 21829 111089,111141,111115
 6.8000e+000 111357 -8.4117e+000 -2.2009e+001  3.8448e+000 21829 111403,111063,111331
 6.8000e+000 111380 -7.7716e+000 -2.2205e+001  2.8595e-001 21829 111141,111331,111167
 6.8000e+000 111429 -9.5875e+000 -2.2130e+001  3.5913e+000 21829 111141,111089,111403
 6.8000e+000 111452 -8.8148e+000 -2.1625e+001  3.8163e+000 21829 111141,111403,111331
 6.8000e+000 112056  1.0214e+001 -1.1266e+001  7.1611e-001 21489 111687,111765,111739
 6.8000e+000 112033  7.7732e+000 -1.3156e+001  2.8442e+000 21489 112151,112079,111687
 6.8000e+000 112010  3.4270e+000 -2.5851e+001  8.9058e-001 21489 111791,111843,111817
 6.8000e+000 111987 -1.3925e+000 -2.0300e+001 -2.5445e+000 21489 112079,111843,111791
 6.8000e+000 111964  1.1453e+001 -1.0133e+001  4.8458e+000 21489 112151,111687,111661
 6.8000e+000 111941  5.4180e+000 -6.1635e+000  2.0731e+000 21489 111661,111869,111843
 6.8000e+000 111918  1.2761e+001 -1.2033e+001  3.9404e+000 21489 111687,111739,111713
 6.8000e+000 111895  8.7905e+000  1.6365e+000 -1.1226e+000 21489 111635,111869,111661
 6.8000e+000 112105  1.5480e+000 -1.4889e+001  1.8790e+000 21489 111765,111687,112079
 6.8000e+000 112128  1.0521e+000 -1.4193e+001  2.2842e+000 21489 111765,112079,111791
 6.8000e+000 112177  1.9886e+000 -1.1881e+001 -1.2324e+000 21489 111843,112079,112151
 6.8000e+000 112200  5.0682e+000 -1.0353e+001  3.4635e-001 21489 111843,112151,111661
 6.8000e+000 112578  1.6894e+000 -1.8051e+001  1.6699e+000 21177 112382,112434,112408
 6.8000e+000 112555 -3.9610e-001 -1.8456e+001 -9.9274e-002 21177 112330,112434,112382
 6.8000e+000 112532  2.5434e+000 -1.2508e+001  5.7926e+000 21177 112304,112434,112330
 6.8000e+000 112509 -9.6099e-001 -1.5655e+001  0.0000e+000 21177 112330,112382,112356
 6.8000e+000 112486  1.1586e+000  8.2465e+000 -1.5380e+000 21177 112304,112460,112434
 6.8000e+000 112679 -5.3396e-001  1.2909e+001 -4.2942e+000 20666 112601,112653,112627
 6.8000e+000 112927 -9.5336e+000 -2.9341e+001  7.0577e-001 19762 112702,112754,112728
 6.8000e+000 112904 -3.6013e+000 -2.9522e+001 -3.8137e-001 19762 112702,112832,112754
 6.8000e+000 112881 -8.3303e+000 -3.1929e+001  5.4662e+000 19762 112754,112832,112806
 6.8000e+000 112858 -1.1310e+001 -4.1082e+001  6.2918e+000 19762 112754,112806,112780
 6.8000e+000 113297 -7.8051e+000 -3.4595e+001  2.2857e+000 19308 112974,113052,113026
 6.8000e+000 113274 -5.5559e+000 -2.8731e+001  8.6324e-001 19308 112974,113156,113052
 6.8000e+000 113251 -3.8768e+000 -3.8185e+001 -4.5627e+000 19308 113052,113130,113104
 6.8000e+000 113228 -5.9606e+000 -2.8495e+001  9.3710e-002 19308 113052,113156,113130
 6.8000e+000 113205 -6.3297e+000 -3.3206e+001  0.0000e+000 19308 113052,113104,113078
 6.8000e+000 113182 -1.1837e+001 -3.7619e+001 -2.3379e-001 19308 112974,113026,113000
 6.8000e+000 113547  1.8157e+000 -2.9383e+001 -1.9344e+000 18711 113570,113374,113348
 6.8000e+000 113524  1.6899e+000 -2.7190e+001 -1.1708e+000 18711 113570,113348,113452
 6.8000e+000 113501  2.7154e+000 -2.1702e+001 -4.0462e+000 18711 113322,113452,113348
 6.8000e+000 113478 -2.8603e+000 -2.8332e+001 -1.0037e+001 18711 113374,113426,113400
 6.8000e+000 113596  7.2322e-001 -2.6928e+001 -2.2837e+000 18711 113426,113374,113570
 6.8000e+000 113619  9.2982e-001 -2.4729e+001 -1.0248e+000 18711 113426,113570,113452
 6.8000e+000 113771 -1.5773e+001 -4.0138e+001 -2.2375e+000 18307 113670,113722,113696
 6.8000e+000 113748 -1.2425e+001 -3.7268e+001 -1.0024e+000 18307 113644,113722,113670
 6.8000e+000 113972 -9.6293e+000 -3.4084e+001  1.2016e+000 17945 113822,113874,113848
 6.8000e+000 113949 -7.5643e+000 -3.3856e+001  1.0381e+000 17945 113822,113900,113874
 6.8000e+000 113926 -1.0437e+001 -2.6715e+001  1.4198e+001 17945 113796,113900,113822
 6.8000e+000 114075 -3.8751e+000 -4.6170e+001  5.8662e+000 17482 113997,114049,114023
 6.8000e+000 114479 -2.7549e+000 -2.9165e+001 -3.9903e+000 17042 114257,114361,114335
 6.8000e+000 114456 -5.8441e+000 -2.5862e+001 -1.0977e+000 17042 114205,114361,114257
 6.8000e+000 114433 -5.8293e+000 -3.0875e+001  1.1391e+000 17042 114205,114257,114231
 6.8000e+000 114410  7.7738e-001 -4.3226e+001 -1.3361e+000 17042 114283,114335,114309
 6.8000e+000 114387 -1.3834e+000 -3.5402e+001 -1.9648e+000 17042 114257,114335,114283
 6.8000e+000 114879 -7.7528e+000 -1.8558e+001 -4.4668e-001 16638 114631,114683,114657
 6.8000e+000 114856  7.9279e-001 -1.4550e+001  5.5618e-001 16638 114605,114683,114631
 6.8000e+000 114833  9.7810e+000 -3.6546e+000 -4.9053e+000 16638 114605,114761,114683
 6.8000e+000 114810  1.1312e+000 -2.6451e+001 -1.1723e+000 16638 114683,114735,114709
 6.8000e+000 114787  4.8676e+000 -2.6246e+001 -1.6457e+000 16638 114683,114761,114735
 6.8000e+000 115078 -1.3241e+001 -2.5449e+001  6.8972e-001 16232 114954,115006,114980
 6.8000e+000 115055 -1.3187e+001 -2.8798e+001  1.4139e+000 16232 114928,115006,114954
 6.8000e+000 115032 -6.1312e+000 -3.4866e+001  3.0407e+000 16232 114902,115006,114928
 6.8000e+000 115228 -4.2540e+000 -2.5515e+001  1.2147e+000 15482 115101,115153,115127
 6.8000e+000 115205 -6.2844e+000 -2.4519e+001 -3.8487e-001 15482 115101,115179,115153
 6.8000e+000 115331  6.8055e-001 -1.6498e+001 -1.9610e+000 15163 115253,115305,115279
 6.8000e+000 115434 -3.9149e+000 -2.0162e+001  3.1978e+000 421 115356,115408,115382
 6.9000e+000 68213 -2.3243e+001 -1.0916e+000  1.3491e+000 67888 68112,68164,68138
 6.9000e+000 68190 -8.2880e+000  3.7612e+000  3.7966e-001 67888 68086,68164,68112
 6.9000e+000 68314 -2.7394e+001 -9.0544e-001 -3.1374e+000 67576 68236,68288,68262
 6.9000e+000 68584 -1.5996e+001 -3.7230e+001  3.3970e+000 67378 68385,68489,68463
 6.9000e+000 68561 -3.5195e-001 -3.0286e+001  2.0964e+000 67378 68359,68489,68385
 6.9000e+000 68538 -1.2810e+001 -2.6763e+001  4.7539e+000 67378 68385,68463,68411
 6.9000e+000 68515 -4.7042e+000 -1.9633e+001  1.0730e+000 67378 68411,68463,68437
 6.9000e+000 68964 -1.9825e+001 -4.1612e+001  6.9516e+000 67130 68690,68820,68716
 6.9000e+000 68941 -1.4947e+000 -4.6685e+001  1.1889e+001 67130 68690,68846,68820
 6.9000e+000 68918 -2.1529e+001 -2.5305e+001  2.2718e+000 67130 68742,68820,68794
 6.9000e+000 68895 -1.4142e+001 -2.5260e+001  4.1847e+000 67130 68716,68820,68742
 6.9000e+000 68872 -1.5493e+001 -1.5258e+001 -2.8716e+000 67130 68742,68794,68768
 6.9000e+000 69065 -2.0542e+001 -2.8112e+000  1.1304e+000 66926 68987,69039,69013
 6.9000e+000 69445 -1.9079e+001 -3.0013e+000  6.1296e-002 66614 69223,69301,69275
 6.9000e+000 69422 -1.8210e+001 -2.8113e+000  2.9192e-001 66614 69171,69301,69223
 6.9000e+000 69399 -1.7639e+001 -2.0462e+000  2.8626e-002 66614 69171,69327,69301
 6.9000e+000 69376 -1.8968e+001 -1.0364e+001 -2.9763e+000 66614 69223,69275,69249
 6.9000e+000 69353 -1.6304e+001 -1.6493e+000  9.4903e-001 66614 69171,69223,69197
 6.9000e+000 69546 -2.0706e+001 -3.5243e+001  9.4031e-001 66416 69468,69520,69494
 6.9000e+000 69997 -1.7675e+001 -3.5367e+001 -2.0076e+000 66104 69700,69830,69726
 6.9000e+000 69974 -2.2743e+001 -3.9801e+001 -3.8904e+000 66104 69700,69856,69830
 6.9000e+000 69951 -1.5095e+001 -2.4462e+001 -1.8426e+000 66104 69726,69804,69778
 6.9000e+000 69928 -1.5247e+001 -3.1189e+001 -3.1308e+000 66104 69726,69830,69804
 6.9000e+000 69905 -1.6387e+001 -2.4052e+001 -1.2926e+000 66104 69726,69778,69752
 6.9000e+000 69882 -1.4085e+001 -5.5657e+001 -1.0288e+001 66104 69674,69856,69700
 6.9000e+000 70326 -1.0458e+001 -1.2198e+001 -1.0676e+000 65814 70349,70153,70127
 6.9000e+000 70303 -5.6574e+000 -1.2061e+001  1.0231e-001 65814 70349,70127,70101
 6.9000e+000 70280 -3.0202e+000 -1.0110e+001  6.9981e+000 65814 70101,70231,70205
 6.9000e+000 70257 -7.3687e+000 -1.4041e+001  2.2427e+000 65814 70153,70205,70179
 6.9000e+000 70375 -8.1717e+000 -1.3243e+001  2.5461e+000 65814 70205,70153,70349
 6.9000e+000 70398 -1.0298e+000 -1.2098e+001  3.2323e+000 65814 70205,70349,70101
 6.9000e+000 70904 -8.7780e+000 -5.6915e+000 -3.1891e+000 65502 70607,70737,70685
 6.9000e+000 70881 -8.5697e+000 -3.7286e+000 -4.1221e+000 65502 70581,70737,70607
 6.9000e+000 70858 -8.2330e+000  1.9380e-001 -2.4134e+000 65502 70581,70763,70737
 6.9000e+000 70835 -5.1810e+000 -4.5662e+000 -4.7377e+000 65502 70685,70737,70711
 6.9000e+000 70812 -2.5873e+001 -1.0064e+001  2.2725e-001 65502 70607,70659,70633
 6.9000e+000 70789 -9.7144e+000 -6.2278e+000  2.4194e+000 65502 70607,70685,70659
 6.9000e+000 71103 -1.6328e+001 -1.8348e+001  3.1440e-001 65304 71126,70979,70953
 6.9000e+000 71080 -1.5895e+001 -1.7441e+001  3.0141e-002 65304 71126,70953,70927
 6.9000e+000 71057 -1.5781e+001 -1.5955e+001 -4.1524e+000 65304 70927,71031,71005
 6.9000e+000 71152 -1.5566e+001 -2.0360e+001  3.9519e-001 65304 71005,70979,71126
 6.9000e+000 71175 -1.4485e+001 -1.8627e+001 -1.0183e-001 65304 71005,71126,70927
 6.9000e+000 71374 -1.8981e+001 -1.6936e+001  2.2947e+000 65106 71198,71276,71224
 6.9000e+000 71351 -1.7499e+001 -1.8933e+001  1.2309e+000 65106 71198,71302,71276
 6.9000e+000 71328 -2.0311e+001 -1.8508e+001  2.9654e+000 65106 71224,71276,71250
 6.9000e+000 71756 -6.5659e+000 -1.4925e+001 -1.7363e-001 64652 71508,71638,71534
 6.9000e+000 71733  1.4132e+000 -1.2012e+001 -8.1922e-002 64652 71482,71638,71508
 6.9000e+000 71710 -1.9854e+001 -2.2989e+001 -1.3956e+000 64652 71534,71586,71560
 6.9000e+000 71687 -1.6846e+001 -1.9550e+001 -3.3082e+000 64652 71534,71612,71586
 6.9000e+000 71664 -1.2001e+001 -1.8844e+001 -2.3091e+000 64652 71534,71638,71612
 6.9000e+000 72085 -1.4414e+001 -1.6744e+001 -4.8272e+000 64248 71886,71964,71912
 6.9000e+000 72062 -1.4980e+001 -1.9189e+001 -2.6945e+000 64248 71860,71964,71886
 6.9000e+000 72039 -4.2818e+000 -2.1541e+001 -3.3655e+000 64248 71912,71964,71938
 6.9000e+000 72016 -1.7728e+001 -1.8567e+001 -1.8409e+000 64248 71860,71990,71964
 6.9000e+000 72235 -3.8565e+000 -9.6246e+000 -8.3070e-001 63858 72588,72258,72134
 6.9000e+000 72212 -1.1859e+001 -8.1810e+000  4.5193e-001 63858 72330,72258,72108
 6.9000e+000 72284 -8.5071e+000 -8.1639e+000 -1.3920e+000 63858 72160,72134,72258
 6.9000e+000 72307 -1.4759e+001 -1.0102e+001 -4.6737e+000 63858 72460,72258,72186
 6.9000e+000 72356 -1.5278e+001 -8.3831e+000 -2.6570e+000 63858 72186,72258,72330
 6.9000e+000 72486 -9.2066e+000 -1.1431e+001 -2.8786e+000 63858 72160,72258,72460
 6.9000e+000 72614 -1.3932e+001 -1.4708e+001  1.6486e+000 63858 72108,72258,72588
 6.9000e+000 73248 -1.8976e+001 -3.5559e+001  6.6863e+000 63404 72902,72954,72928
 6.9000e+000 73225 -2.3573e+001 -2.8396e+001  4.3882e+000 63404 73271,72954,72902
 6.9000e+000 73202 -2.1516e+001 -2.0556e+001  3.8759e+000 63404 73271,72902,73032
 6.9000e+000 73179 -2.1742e+001 -1.8763e+001  1.8936e+000 63404 72902,73058,73032
 6.9000e+000 73156 -2.9971e+001 -3.0110e+001 -9.9856e+000 63404 72980,73032,73006
 6.9000e+000 73133 -2.1677e+001 -1.4503e+001  3.6604e+000 63404 72876,73058,72902
 6.9000e+000 73110 -1.6790e+001 -1.7420e+001  5.9801e+000 63404 72876,73084,73058
 6.9000e+000 73297 -2.0881e+001 -2.9539e+001 -3.0395e-001 63404 72980,72954,73271
 6.9000e+000 73320 -2.0768e+001 -2.5255e+001 -1.3667e-001 63404 72980,73271,73032
 6.9000e+000 73470 -1.1546e+001 -6.4794e+001  7.1361e+000 63014 73343,73395,73369
 6.9000e+000 73447 -3.1339e+001 -7.6220e+001 -7.5317e-001 63014 73343,73421,73395
 6.9000e+000 73929 -1.7232e+001 -1.2798e+001  3.4769e+000 62702 73759,73811,73785
 6.9000e+000 73906 -1.6042e+001 -1.3061e+001  6.8211e-001 62702 73655,73811,73759
 6.9000e+000 73883 -1.7036e+001 -1.2625e+001  1.7371e-001 62702 73655,73759,73681
 6.9000e+000 73860 -1.6545e+001 -1.1022e+001  1.8345e+000 62702 73681,73759,73707
 6.9000e+000 73837 -1.5344e+001 -1.1152e+001  1.3644e+000 62702 73707,73759,73733
 6.9000e+000 74209 -1.7768e+001 -1.0147e+001  1.1121e+000 62404 74059,74137,74085
 6.9000e+000 74186 -1.7102e+001 -8.6934e+000  4.2553e-001 62404 74033,74137,74059
 6.9000e+000 74163 -2.2618e+001 -1.0810e+001 -2.6186e-001 62404 74085,74137,74111
 6.9000e+000 74408 -7.8004e+000 -1.5080e+001  1.0975e+000 62000 74258,74336,74284
 6.9000e+000 74385 -8.9022e+000 -1.6036e+001  5.5781e-001 62000 74232,74336,74258
 6.9000e+000 74362 -6.8618e+000 -1.4458e+001  1.4615e+000 62000 74284,74336,74310
 6.9000e+000 74509 -1.3941e+001  1.2106e+001 -4.3842e+000 61802 74431,74483,74457
 6.9000e+000 74759 -1.8040e+001 -6.5950e+000  1.0925e+000 61554 74782,74586,74560
 6.9000e+000 74736 -1.9807e+001 -7.3039e+000  9.2632e-001 61554 74782,74560,74664
 6.9000e+000 74713 -1.6646e+001 -6.3539e+000 -1.0688e+000 61554 74854,74612,74586
 6.9000e+000 74690 -1.7851e+001 -1.0325e+000  8.0241e-001 61554 74534,74664,74560
 6.9000e+000 74808 -1.6617e+001 -6.9191e+000  8.4077e-002 61554 74854,74586,74782
 6.9000e+000 74831 -1.8366e+001 -7.9807e+000  4.1856e-001 61554 74638,74782,74664
 6.9000e+000 74880 -1.8143e+001 -7.4959e+000 -5.5752e-001 61554 74638,74612,74854
 6.9000e+000 74903 -1.8211e+001 -7.8698e+000  4.8400e-001 61554 74638,74854,74782
 6.9000e+000 75285 -1.9646e+001 -9.8550e-001  9.0185e-001 61356 75063,75167,75115
 6.9000e+000 75262 -1.7207e+001  4.1414e+000  1.7995e+000 61356 75037,75167,75063
 6.9000e+000 75239 -1.9238e+001 -7.8728e-001  7.9301e-001 61356 75115,75167,75141
 6.9000e+000 75216 -1.6635e+001  5.6655e-001  1.4876e+000 61356 75063,75115,75089
 6.9000e+000 75193 -1.7255e+001 -5.7031e+000 -2.8677e+000 61356 75011,75167,75037
 6.9000e+000 75631 -1.1233e+001  4.7214e+000  3.7791e-001 60952 75654,75412,75360
 6.9000e+000 75608 -1.0176e+001  3.6626e+000  5.7251e-002 60952 75654,75360,75334
 6.9000e+000 75585 -1.0793e+001  3.8982e+000 -1.4037e+000 60952 75726,75438,75412
 6.9000e+000 75562 -1.5849e+001  7.0998e-001  1.9205e+000 60952 75308,75490,75334
 6.9000e+000 75539 -1.0012e+001  4.7611e+000  1.3184e+000 60952 75360,75412,75386
 6.9000e+000 75516 -1.2546e+001  8.4694e+000  6.5788e-001 60952 75438,75490,75464
 6.9000e+000 75680 -1.0864e+001  4.2203e+000  2.2396e-001 60952 75726,75412,75654
 6.9000e+000 75703 -1.1372e+001  2.8882e+000  4.4954e-001 60952 75490,75654,75334
 6.9000e+000 75752 -1.3208e+001  3.8777e+000 -9.5597e-001 60952 75490,75438,75726
 6.9000e+000 75775 -1.2986e+001  3.6067e+000  3.7717e-002 60952 75490,75726,75654
 6.9000e+000 76155 -8.4843e+000 -1.1102e+001  1.5979e+000 60754 75933,75985,75959
 6.9000e+000 76132 -1.3857e+001 -1.3120e+001  4.5301e-002 60754 75933,76037,75985
 6.9000e+000 76109 -1.0591e+001 -1.0273e+001 -1.1975e+000 60754 75985,76037,76011
 6.9000e+000 76086 -1.4115e+001 -1.2210e+001 -1.3009e-001 60754 75881,76037,75933
 6.9000e+000 76063 -1.2255e+001 -1.0936e+001 -1.6502e+000 60754 75881,75933,75907
 6.9000e+000 76612 -5.6210e+000 -1.8431e+001  2.8679e+000 60350 76635,76442,76390
 6.9000e+000 76589  6.2866e-001 -2.1319e+001  4.4430e+000 60350 76635,76390,76364
 6.9000e+000 76566 -6.7636e+000 -3.1188e+001 -7.5434e-001 60350 76364,76494,76468
 6.9000e+000 76543 -1.0383e+000 -1.6839e+001  1.7695e+000 60350 76390,76442,76416
 6.9000e+000 76520 -1.7566e+001 -1.8774e+001 -3.9480e+000 60350 76338,76494,76364
 6.9000e+000 76661 -9.3437e+000 -2.0213e+001  3.6210e+000 60350 76468,76442,76635
 6.9000e+000 76684 -4.9337e+000 -2.4100e+001  5.4091e+000 60350 76468,76635,76364
 6.9000e+000 76932 -1.4364e+001 -2.6100e+000 -5.0999e-001 59946 76955,76733,76707
 6.9000e+000 76909 -1.5251e+001 -4.6517e+000 -3.4453e-001 59946 77027,76955,76707
 6.9000e+000 76886 -1.6161e+001 -5.0599e+000  3.6849e-003 59946 77027,76707,76837
 6.9000e+000 76863 -1.7271e+001 -4.0062e+000  1.8175e+000 59946 76733,76785,76759
 6.9000e+000 76981 -1.4591e+001 -3.5010e+000  7.1214e-001 59946 76785,76733,76955
 6.9000e+000 77004 -1.4922e+001 -3.5010e+000  3.2278e-001 59946 76785,76955,76811
 6.9000e+000 77053 -1.6656e+001 -3.9529e+000  4.5087e-001 59946 76811,76955,77027
 6.9000e+000 77076 -1.7660e+001 -4.8387e+000  9.7837e-001 59946 76811,77027,76837
 6.9000e+000 77226 -1.0627e+001 -2.2376e+001  5.0073e-001 59542 77099,77151,77125
 6.9000e+000 77203 -1.7356e+001 -3.2668e+001  4.5310e+000 59542 77099,77177,77151
 6.9000e+000 77427 -1.2406e+001 -2.4023e+001 -1.6958e+000 59030 77450,77277,77251
 6.9000e+000 77404 -1.0099e+001 -2.3813e+001 -6.1264e+000 59030 77450,77251,77355
 6.9000e+000 77381 -1.6565e+001 -2.9393e+001 -2.0965e-001 59030 77277,77329,77303
 6.9000e+000 77476 -8.8426e+000 -2.3931e+001 -2.8745e+000 59030 77329,77277,77450
 6.9000e+000 77499 -5.1542e+000 -2.4100e+001 -6.4733e+000 59030 77329,77450,77355
 6.9000e+000 77749 -1.1363e+001 -2.9328e+001  2.5638e+000 58426 77772,77628,77602
 6.9000e+000 77726 -7.2146e+000 -3.5793e+001  5.6029e+000 58426 77524,77654,77628
 6.9000e+000 77703 -1.0171e+001 -2.6837e+001  1.9907e+000 58426 77772,77602,77550
 6.9000e+000 77680 -1.1959e+001 -2.7337e+001  6.2008e-002 58426 77550,77602,77576
 6.9000e+000 77798 -9.7005e+000 -3.2228e+001  1.4134e+000 58426 77524,77628,77772
 6.9000e+000 77821 -8.3530e+000 -2.9263e+001  1.0274e+000 58426 77524,77772,77550
 6.9000e+000 78071 -9.4989e+000 -1.4369e+001  1.9061e+000 57922 78094,77924,77898
 6.9000e+000 78048 -5.7126e+000 -5.1485e+000  2.3321e+000 57922 78094,77898,77872
 6.9000e+000 78025 -9.7809e+000 -7.2893e+000 -2.9127e-001 57922 78166,77846,77950
 6.9000e+000 78002 -8.2362e+000 -6.2823e+000 -7.3835e-001 57922 77846,77976,77950
 6.9000e+000 78120 -5.5388e+000 -7.3790e+000  1.6168e-001 57922 77950,77924,78094
 6.9000e+000 78143 -8.5428e+000 -6.7994e+000 -3.0977e-001 57922 78166,77950,78094
 6.9000e+000 78192 -1.1257e+001 -6.4355e+000  1.0620e+000 57922 77872,77846,78166
 6.9000e+000 78215 -9.4644e+000 -5.6853e+000  1.2618e+000 57922 77872,78166,78094
 6.9000e+000 78416 -5.9740e+000 -1.9273e+001 -5.3867e-001 57468 78439,78292,78240
 6.9000e+000 78393 -5.7578e+000 -2.0173e+001 -5.6147e-001 57468 78439,78240,78344
 6.9000e+000 78370 -4.3052e+000 -1.3699e+001 -2.2623e-001 57468 78240,78292,78266
 6.9000e+000 78465 -5.8016e+000 -1.8949e+001  2.3680e-002 57468 78318,78292,78439
 6.9000e+000 78488 -5.7469e+000 -1.9693e+001 -1.7431e-001 57468 78318,78439,78344
 6.9000e+000 78689 -1.2062e+001 -1.5374e+001 -6.5534e-001 57014 78712,78539,78513
 6.9000e+000 78666 -1.1923e+001 -1.6026e+001 -8.3150e-001 57014 78712,78513,78617
 6.9000e+000 78643 -8.6377e+000 -1.8947e+001  1.7587e+000 57014 78565,78617,78591
 6.9000e+000 78738 -1.1817e+001 -1.4344e+001 -3.8390e-001 57014 78565,78539,78712
 6.9000e+000 78761 -1.2050e+001 -1.5594e+001 -5.1808e-001 57014 78565,78712,78617
 6.9000e+000 79241 -1.0329e+001 -1.9674e+001  1.8120e+000 56652 79264,78895,78869
 6.9000e+000 79218 -6.3697e+000 -2.4983e+001 -1.3623e+000 56652 79264,78869,79051
 6.9000e+000 79195 -9.8378e+000 -2.4366e+001 -3.0257e+000 56652 78869,79077,79051
 6.9000e+000 79172 -1.1284e+001 -1.5729e+001 -1.0942e+000 56652 78895,78973,78947
 6.9000e+000 79149 -1.2809e+001 -4.6552e+001 -3.6917e+000 56652 78973,79051,78999
 6.9000e+000 79126 -5.9636e+000 -1.6923e+001 -2.5622e+000 56652 78895,78947,78921
 6.9000e+000 79103 -7.6773e+000 -2.6473e+001  5.0425e+000 56652 78999,79051,79025
 6.9000e+000 79290 -7.1426e+000 -1.6448e+001  3.4945e+000 56652 78973,78895,79264
 6.9000e+000 79313 -2.8346e+000 -2.2043e+001  4.4394e-001 56652 78973,79264,79051
 6.9000e+000 79512 -2.8877e+000 -3.2809e+001  2.5436e+000 56062 79388,79440,79414
 6.9000e+000 79489 -1.2572e+001 -1.5221e+001  4.7895e+000 56062 79336,79440,79388
 6.9000e+000 79466 -2.2839e+000 -3.0368e+001  4.5922e+000 56062 79336,79388,79362
 6.9000e+000 79941 -8.8106e+000 -2.4971e+000  7.5322e-001 55658 79964,79670,79644
 6.9000e+000 79918 -6.4461e+000 -2.5891e+000  4.1505e-001 55658 79964,79644,79800
 6.9000e+000 79895 -2.2266e+000 -4.1279e-001  3.0800e+000 55658 80036,79696,79670
 6.9000e+000 79872 -4.4056e+000 -6.1025e+000 -6.5873e-002 55658 80108,79722,79696
 6.9000e+000 79849 -4.3476e+000  2.6629e+000  5.9780e-001 55658 79722,79774,79748
 6.9000e+000 79826 -1.1789e+001 -4.9425e+000  3.1551e-001 55658 79618,79800,79644
 6.9000e+000 79990 -6.5097e+000 -2.6021e+000  1.1811e+000 55658 80036,79670,79964
 6.9000e+000 80013 -6.8445e+000 -3.0856e+000  2.3527e-001 55658 79774,79964,79800
 6.9000e+000 80062 -3.2290e+000 -4.2107e+000  4.3555e-001 55658 80108,79696,80036
 6.9000e+000 80085 -4.8386e+000 -2.1237e+000 -5.1217e-001 55658 79774,80036,79964
 6.9000e+000 80134 -6.1319e+000 -3.0558e+000 -8.7007e-001 55658 79774,79722,80108
 6.9000e+000 80157 -5.6048e+000 -2.1464e+000 -6.4559e-001 55658 79774,80108,80036
 6.9000e+000 80307 -1.5197e+001 -1.0965e+001 -1.2950e+000 55254 80402,80330,80206
 6.9000e+000 80284 -1.4164e+001 -6.7883e+000 -1.7028e+000 55254 80330,80180,80258
 6.9000e+000 80356 -1.4822e+001 -1.0043e+001 -5.5568e-001 55254 80232,80206,80330
 6.9000e+000 80379 -1.5804e+001 -1.0630e+001 -2.0675e+000 55254 80232,80330,80258
 6.9000e+000 80428 -1.2992e+001 -8.8475e+000 -4.1083e-001 55254 80180,80330,80402
 6.9000e+000 80659 -1.2090e+001 -2.8618e+001 -1.0600e+000 54850 80558,80610,80584
 6.9000e+000 80636 -1.1880e+001 -2.7536e+001 -4.5851e-003 54850 80532,80610,80558
 6.9000e+000 80760 -9.6983e+000  6.3527e+000 -8.6833e-001 54652 80682,80734,80708
 6.9000e+000 81164 -8.7596e+000  5.5011e+000  5.8093e-001 54248 81187,80942,80890
 6.9000e+000 81141 -6.4535e+000  5.7813e+000 -2.4666e-001 54248 81187,80890,81046
 6.9000e+000 81118 -6.8750e+000  4.6684e+000  9.0969e-002 54248 80942,81020,80994
 6.9000e+000 81095 -8.7219e+000  5.9214e+000  5.1396e-001 54248 80890,80942,80916
 6.9000e+000 81072 -8.9179e+000  1.1201e+000  1.5610e+000 54248 80942,80994,80968
 6.9000e+000 81213 -6.1839e+000  4.8393e+000  6.2065e-001 54248 81020,80942,81187
 6.9000e+000 81236 -4.2154e+000  4.7213e+000  9.7569e-002 54248 81020,81187,81046
 6.9000e+000 81663 -1.7898e+001 -2.0580e+001  1.4812e-001 53594 81340,81444,81366
 6.9000e+000 81640 -1.6538e+001 -3.1955e+001 -1.5250e+000 53594 81340,81470,81444
 6.9000e+000 81617 -2.0376e+001 -3.0423e+001 -8.4498e+000 53594 81340,81522,81470
 6.9000e+000 81594 -1.3649e+001 -1.3365e+001 -1.7548e+000 53594 81392,81444,81418
 6.9000e+000 81571 -1.3534e+001 -1.7823e+001 -2.4662e+000 53594 81366,81444,81392
 6.9000e+000 81548 -2.0984e+000 -3.7912e+001 -1.7167e+000 53594 81470,81522,81496
 6.9000e+000 81943 -5.7893e+000 -8.2903e+000 -2.8699e-001 53104 81966,81845,81819
 6.9000e+000 81920 -7.5844e+000 -8.1689e+000 -9.7008e-001 53104 81966,81819,81767
 6.9000e+000 81897 -7.6372e+000 -9.1335e+000  1.1333e-001 53104 81767,81819,81793
 6.9000e+000 81992 -4.6541e+000 -9.2611e+000 -1.2125e+000 53104 81871,81845,81966
 6.9000e+000 82015 -6.3087e+000 -9.0093e+000 -2.2089e+000 53104 81871,81966,81767
 6.9000e+000 82491 -1.2332e+001 -1.3835e+001 -3.6771e+000 52650 82145,82249,82171
 6.9000e+000 82468 -1.0960e+001 -1.4361e+001 -2.5206e+000 52650 82145,82301,82249
 6.9000e+000 82445 -1.4452e+001 -2.1741e+001 -1.4902e+000 52650 82249,82301,82275
 6.9000e+000 82422 -1.9958e+001 -3.0253e+001 -7.9939e+000 52650 82119,82301,82145
 6.9000e+000 82399 -1.0116e+001 -1.0153e+001 -1.2148e+000 52650 82171,82249,82223
 6.9000e+000 82376 -1.2035e+001 -2.7439e+001 -6.5755e-001 52650 82119,82327,82301
 6.9000e+000 82353 -1.7344e+000 -6.4496e+000 -2.3381e+000 52650 82171,82223,82197
 6.9000e+000 82739 -8.2313e+000 -7.7976e+000 -9.3762e-001 52246 82762,82540,82514
 6.9000e+000 82716 -6.6993e+000 -3.8535e+000 -1.8606e+000 52246 82762,82514,82644
 6.9000e+000 82693 -9.2090e+000 -9.7410e+000  9.7394e-001 52246 82540,82618,82592
 6.9000e+000 82670 -1.5077e+000 -2.2986e+000 -3.0937e+000 52246 82540,82592,82566
 6.9000e+000 82788 -6.6092e+000 -1.0360e+001 -1.3793e-003 52246 82618,82540,82762
 6.9000e+000 82811 -6.5550e+000 -8.9035e+000 -1.1173e+000 52246 82618,82762,82644
 6.9000e+000 83059 -3.0021e+000 -1.1712e+001  6.2520e-001 51578 82860,82964,82938
 6.9000e+000 83036 -2.4800e+000 -1.0096e+001 -1.7488e+000 51578 82834,82964,82860
 6.9000e+000 83013  3.1522e-001 -1.1055e+001  8.5533e-001 51578 82860,82938,82886
 6.9000e+000 82990 -1.5836e-001 -1.1895e+001  6.8373e-001 51578 82886,82938,82912
 6.9000e+000 83309 -5.4730e+000 -9.1913e+000  1.4700e+000 51138 83332,83162,83136
 6.9000e+000 83286 -3.1204e+000 -8.2571e+000  1.7919e+000 51138 83332,83136,83110
 6.9000e+000 83263 -3.8044e+000 -7.2195e+000  2.5798e+000 51138 83404,83214,83188
 6.9000e+000 83240  4.1218e-001 -3.0731e+000  3.1079e-001 51138 83084,83214,83110
 6.9000e+000 83358 -7.0034e+000 -9.1639e+000  3.9210e+000 51138 83188,83162,83332
 6.9000e+000 83381 -3.7725e+000 -8.2410e+000  3.3616e+000 51138 83404,83188,83332
 6.9000e+000 83430 -3.1384e+000 -4.2416e+000  1.2954e+000 51138 83110,83214,83404
 6.9000e+000 83453 -3.8925e+000 -6.0243e+000  2.2234e+000 51138 83110,83404,83332
 6.9000e+000 83835 -8.4167e+000 -1.5976e+001  4.4908e-001 50734 83613,83717,83691
 6.9000e+000 83812 -9.5778e+000 -1.8937e+001 -9.0219e-001 50734 83561,83717,83613
 6.9000e+000 83789 -1.0793e+001 -9.6669e+000 -1.8675e+000 50734 83561,83613,83587
 6.9000e+000 83766 -1.0652e+001 -1.2071e+001  5.3805e-001 50734 83613,83691,83639
 6.9000e+000 83743 -1.0858e+001 -1.1718e+001  2.6653e+000 50734 83639,83691,83665
 6.9000e+000 84034 -4.6751e+000 -7.3805e+000 -5.5592e-001 50230 84057,83884,83858
 6.9000e+000 84011 -2.9649e+000 -4.4381e+000 -2.3253e+000 50230 84129,84057,83858
 6.9000e+000 83988 -1.7145e+000 -2.8834e+000 -2.8696e+000 50230 84129,83858,83962
 6.9000e+000 84083 -1.1792e+000 -5.5383e+000 -1.6321e+000 50230 83910,83884,84057
 6.9000e+000 84106 -2.4038e+000 -7.4404e+000 -2.3531e+000 50230 83910,84057,83936
 6.9000e+000 84155 -9.0883e-001 -6.3058e+000 -2.8509e+000 50230 83936,84057,84129
 6.9000e+000 84178 -1.8720e-001 -5.1622e+000 -3.1640e+000 50230 83936,84129,83962
 6.9000e+000 84558 -1.0652e+001 -1.2814e+001 -7.9091e-001 49768 84581,84388,84362
 6.9000e+000 84535 -1.5669e+001 -1.4311e+001 -6.5157e-001 49768 84581,84362,84310
 6.9000e+000 84512 -5.0589e+000 -1.7591e+001 -1.9281e+000 49768 84653,84440,84414
 6.9000e+000 84489 -1.4627e+001 -1.7045e+001  8.8940e-001 49768 84310,84362,84336
 6.9000e+000 84466 -5.7115e+000 -1.6746e+001 -1.4640e+000 49768 84284,84440,84310
 6.9000e+000 84607 -6.5899e+000 -1.2718e+001 -2.7447e+000 49768 84414,84388,84581
 6.9000e+000 84630 -6.9680e+000 -1.4439e+001 -1.3240e+000 49768 84653,84414,84581
 6.9000e+000 84679 -7.6623e+000 -1.8202e+001 -2.8825e+000 49768 84310,84440,84653
 6.9000e+000 84702 -1.1393e+001 -1.7374e+001 -3.3352e+000 49768 84310,84653,84581
 6.9000e+000 85159 -1.0396e+001 -1.3427e+001 -4.9242e+000 49192 84885,84937,84911
 6.9000e+000 85136 -9.0641e+000 -5.3170e+000 -3.2886e+000 49192 84885,85041,84937
 6.9000e+000 85113 -3.3718e+000 -6.7393e-001 -2.3165e+000 49192 84963,85041,84989
 6.9000e+000 85090 -2.5064e+000  2.4062e+000 -3.1246e-001 49192 84937,85041,84963
 6.9000e+000 85067 -1.9905e+000 -9.5565e-001 -1.8117e+000 49192 84989,85041,85015
 6.9000e+000 85714 -1.1737e+001 -9.5028e+000  1.4562e+000 48638 85368,85498,85394
 6.9000e+000 85691 -1.1910e+001 -1.2789e+001  1.5009e+000 48638 85368,85524,85498
 6.9000e+000 85668 -1.6346e+001 -1.0343e+001  6.7594e+000 48638 85737,85420,85394
 6.9000e+000 85645 -1.1699e+001 -1.0501e+001  2.8059e+000 48638 85737,85394,85498
 6.9000e+000 85622 -7.4493e+000 -9.0615e+000  3.6639e+000 48638 85446,85498,85472
 6.9000e+000 85599 -6.7947e+000 -1.0791e+001  1.8154e+000 48638 85342,85524,85368
 6.9000e+000 85576 -1.3852e+001 -1.5526e+001  3.8937e+000 48638 85342,85550,85524
 6.9000e+000 85763 -9.5031e+000 -7.4211e+000  6.9046e+000 48638 85446,85420,85737
 6.9000e+000 85786 -9.0459e+000 -9.6289e+000  2.8977e+000 48638 85446,85737,85498
 6.9000e+000 86371 -1.0376e+001 -5.3748e+000  4.4650e-001 48084 86100,86230,86178
 6.9000e+000 86348 -1.3859e+001 -1.2286e+001 -1.4506e+000 48084 86048,86230,86100
 6.9000e+000 86325 -5.7379e+000 -2.8378e+000  2.8739e+000 48084 86100,86178,86126
 6.9000e+000 86302 -1.2369e+001 -8.7698e+000 -2.3948e+000 48084 86048,86100,86074
 6.9000e+000 86279 -9.9129e+000 -1.3125e+001 -9.5396e-001 48084 86178,86230,86204
 6.9000e+000 86256 -2.2521e+000 -8.9780e-001  4.0196e+000 48084 86126,86178,86152
 6.9000e+000 86619 -2.5310e+000 -3.1914e+000  1.5495e+000 47630 86642,86446,86420
 6.9000e+000 86596 -4.2519e+000 -4.2325e+000  6.3759e-001 47630 86642,86420,86394
 6.9000e+000 86573 -6.8693e+000 -5.2343e+000 -3.1195e-001 47630 86394,86524,86498
 6.9000e+000 86550 -1.5788e+000 -5.1121e+000  1.9521e-001 47630 86446,86498,86472
 6.9000e+000 86668 -3.1378e+000 -4.3876e+000  2.8021e-002 47630 86498,86446,86642
 6.9000e+000 86691 -4.4513e+000 -5.0241e+000 -8.2459e-001 47630 86498,86642,86394
 6.9000e+000 87022 -3.6125e+000 -6.1230e+000 -1.3333e+000 47226 87045,86875,86849
 6.9000e+000 86999 -3.3218e+000 -5.0251e+000 -1.2453e+000 47226 87045,86849,86797
 6.9000e+000 86976 -2.7033e+000 -3.8165e+000 -1.5086e+000 47226 86797,86849,86823
 6.9000e+000 86953 -3.4698e+000 -4.1603e+000 -2.7946e+000 47226 86875,86927,86901
 6.9000e+000 87071 -3.6726e+000 -5.0586e+000 -1.3509e+000 47226 86927,86875,87045
 6.9000e+000 87094 -3.6421e+000 -4.3247e+000 -1.2747e+000 47226 86927,87045,86797
 6.9000e+000 87244 -2.3203e+000 -1.3866e+001  3.7852e+000 46814 87267,87169,87143
 6.9000e+000 87221 -1.0846e+001 -1.3947e+001 -2.6135e+000 46814 87267,87143,87117
 6.9000e+000 87293  2.0113e-001 -8.7445e+000  3.1023e+000 46814 87339,87267,87195
 6.9000e+000 87316  1.0364e+000 -8.8395e+000 -1.4352e+000 46814 87469,87267,87117
 6.9000e+000 87365 -4.9725e+000 -1.0609e+001  3.5836e+000 46814 87169,87267,87339
 6.9000e+000 87495 -3.8262e-001  1.7810e+000 -1.3201e+000 46814 87195,87267,87469
 6.9000e+000 88001 -2.2822e+000  5.1806e+000  4.3325e+000 46310 88024,87834,87808
 6.9000e+000 87978 -3.9189e+000  4.8843e+000  2.0148e+000 46310 88024,87808,87756
 6.9000e+000 87955 -3.5733e+000  3.5506e+000  1.8853e+000 46310 88096,87730,87860
 6.9000e+000 87932 -2.3814e+000  3.8868e+000  2.3866e+000 46310 87756,87808,87782
 6.9000e+000 87909 -5.0206e+000  1.1234e+001 -5.6129e-001 46310 87678,87860,87730
 6.9000e+000 87886 -8.1278e+000  5.9565e+000  7.0208e-001 46310 87678,87730,87704
 6.9000e+000 88050 -4.5795e+000 -2.2844e-001  3.9911e+000 46310 87860,87834,88024
 6.9000e+000 88073 -3.6616e+000  4.3418e+000  2.2012e+000 46310 88096,87860,88024
 6.9000e+000 88122 -3.7496e+000  3.2318e+000  1.6632e+000 46310 87756,87730,88096
 6.9000e+000 88145 -4.3874e+000  3.5324e+000  1.8445e+000 46310 87756,88096,88024
 6.9000e+000 88572 -7.6619e+000 -9.4007e+000  1.5720e+000 45856 88249,88405,88275
 6.9000e+000 88549 -8.1096e+000 -6.0943e+000  2.8286e-001 45856 88249,88431,88405
 6.9000e+000 88526 -1.2508e+001 -1.6873e+001 -3.5022e+000 45856 88327,88405,88353
 6.9000e+000 88503 -5.6959e+000 -1.2590e+001 -9.8961e-001 45856 88275,88405,88327
 6.9000e+000 88480 -1.1961e+001 -1.9587e+001 -8.0554e+000 45856 88353,88405,88379
 6.9000e+000 88457 -1.4630e+001 -3.4600e+001  2.2834e+000 45856 88275,88327,88301
 6.9000e+000 88950 -7.4573e-001 -2.9823e+000  5.8804e-001 45658 88973,88754,88728
 6.9000e+000 88927  1.0240e+000  3.0805e+000  1.9352e+000 45658 88973,88728,88676
 6.9000e+000 88904 -1.5256e+000  6.0856e+000  2.8816e+000 45658 88676,88832,88806
 6.9000e+000 88881 -3.8499e-001 -2.3383e-001  1.9213e+000 45658 88676,88728,88702
 6.9000e+000 88858 -5.6512e+000 -1.0670e+000 -3.8116e+000 45658 88754,88806,88780
 6.9000e+000 88999 -9.7768e-001  3.0759e+000  1.0630e+000 45658 88806,88754,88973
 6.9000e+000 89022 -1.2505e+000  6.5239e+000  2.2068e+000 45658 88806,88973,88676
 6.9000e+000 89351 -5.4761e+000 -1.1275e+001  3.3931e-001 45254 89152,89230,89204
 6.9000e+000 89328 -1.0529e+001 -1.3672e+001 -6.0324e-001 45254 89152,89256,89230
 6.9000e+000 89305 -7.9704e+000 -1.4011e+001 -1.3805e+000 45254 89126,89256,89152
 6.9000e+000 89282 -9.7911e+000 -7.8423e+000  2.1902e+000 45254 89152,89204,89178
 6.9000e+000 89523  2.8141e+000  6.6382e+000 -9.1976e-002 45006 89422,89474,89448
 6.9000e+000 89500 -1.7474e+000  4.6451e+000 -3.7653e+000 45006 89396,89474,89422
 6.9000e+000 89673 -8.7215e+000 -1.2709e+001  1.3621e+000 44495 89572,89624,89598
 6.9000e+000 89650 -9.6028e+000 -1.6837e+001  3.1359e+000 44495 89546,89624,89572
 6.9000e+000 90104 -3.6699e+000 -8.6329e+000 -3.0112e-002 44005 90199,90127,89937
 6.9000e+000 90081 -2.3845e+000 -8.5331e+000  1.2608e+000 44005 90271,90127,89859
 6.9000e+000 90058 -3.8975e+000 -8.5520e+000 -2.5622e-002 44005 90199,89937,89885
 6.9000e+000 90035 -2.2101e+000 -8.4917e+000  1.1706e+000 44005 90271,89859,89807
 6.9000e+000 90012 -4.6976e+000 -9.9420e+000 -3.2248e-001 44005 89885,89937,89911
 6.9000e+000 89989  9.5015e-001 -1.0216e+001  3.5063e+000 44005 89807,89859,89833
 6.9000e+000 90153 -5.4164e+000 -9.7873e+000 -1.2399e+000 44005 89963,89937,90127
 6.9000e+000 90176 -3.8188e+000 -7.2655e+000  6.2825e-001 44005 89963,90127,89781
 6.9000e+000 90225 -3.1111e+000 -8.5987e+000 -1.7447e-001 44005 89859,90127,90199
 6.9000e+000 90248 -3.5798e+000 -8.6654e+000 -2.5897e-001 44005 89859,90199,89885
 6.9000e+000 90297 -2.1530e+000 -8.4928e+000  1.2416e+000 44005 89781,90127,90271
 6.9000e+000 90320 -2.0372e+000 -8.4878e+000  1.1490e+000 44005 89781,90271,89807
 6.9000e+000 90470 -1.7519e+000 -4.5167e+000  7.6199e-001 43601 90493,90369,90343
 6.9000e+000 90447 -2.8369e+000 -2.5693e+000  1.6848e+000 43601 90493,90343,90421
 6.9000e+000 90519 -3.2890e+000 -8.2233e+000 -5.0177e-001 43601 90395,90369,90493
 6.9000e+000 90542 -2.5633e+000 -4.0572e+000  6.3895e-001 43601 90395,90493,90421
 6.9000e+000 90922 -1.4160e+000 -3.9900e+000 -4.9062e-001 43154 90945,90700,90674
 6.9000e+000 90899 -4.6929e-001 -3.9693e+000 -2.3160e+000 43154 90945,90674,90648
 6.9000e+000 90876 -1.2395e+000 -3.1528e+000 -1.5433e+000 43154 90648,90778,90752
 6.9000e+000 90853 -3.1699e-001 -1.0634e+001 -4.0705e-001 43154 90700,90752,90726
 6.9000e+000 90830 -6.3576e-002 -2.3871e+000 -1.9347e+000 43154 90648,90804,90778
 6.9000e+000 90971 -1.8150e+000 -5.6376e+000  1.5713e-001 43154 90752,90700,90945
 6.9000e+000 90994 -8.9974e-001 -5.0527e+000 -1.6299e+000 43154 90752,90945,90648
 6.9000e+000 91451 -1.3917e+000 -8.6185e+000 -8.9036e-001 42650 91203,91255,91229
 6.9000e+000 91428 -1.2351e+000 -8.5492e+000 -8.9544e-001 42650 91203,91333,91255
 6.9000e+000 91405 -7.2661e-001 -1.3533e+001 -2.1648e+000 42650 91177,91333,91203
 6.9000e+000 91382 -6.8318e+000 -1.7130e+001  1.6227e+000 42650 91255,91333,91281
 6.9000e+000 91359 -9.8228e-001 -1.1313e+001 -2.1165e+000 42650 91281,91333,91307
 6.9000e+000 91721 -1.3545e+001 -1.7030e+001  2.5007e+000 42288 91496,91600,91522
 6.9000e+000 91698 -1.1176e+001 -1.3899e+001 -1.0367e+000 42288 91496,91626,91600
 6.9000e+000 91675 -4.3365e+000 -1.4642e+001  2.8809e+000 42288 91522,91574,91548
 6.9000e+000 91652 -5.8455e+000 -1.3785e+001  2.9648e+000 42288 91522,91600,91574
 6.9000e+000 92199 -1.8221e+001 -1.8844e+001 -5.2697e-001 41898 92222,91983,91879
 6.9000e+000 92176 -1.7407e+001 -2.3222e+001 -2.2284e+000 41898 92294,92222,91879
 6.9000e+000 92153 -1.7772e+001 -2.2163e+001 -2.6314e+000 41898 92294,91879,91853
 6.9000e+000 92130 -1.5576e+001 -1.0671e+001  1.6032e+000 41898 91879,91957,91931
 6.9000e+000 92107 -1.6028e+001 -1.8029e+001  4.1911e-001 41898 91879,91983,91957
 6.9000e+000 92084 -1.9031e+001 -1.3148e+001  4.1834e+000 41898 91879,91931,91905
 6.9000e+000 92061 -1.8034e+001 -2.6134e+001 -4.8741e+000 41898 91827,92035,91853
 6.9000e+000 92248 -1.9130e+001 -2.4797e+001  9.4433e-001 41898 92009,91983,92222
 6.9000e+000 92271 -1.7779e+001 -2.5827e+001 -4.0076e+000 41898 92009,92222,92035
 6.9000e+000 92320 -1.6603e+001 -2.2101e+001 -3.0538e+000 41898 92035,92222,92294
 6.9000e+000 92343 -1.6991e+001 -2.1342e+001 -3.5133e+000 41898 92035,92294,91853
 6.9000e+000 92770 -7.4914e-001 -6.1122e+000 -1.8176e+000 41437 92865,92793,92525
 6.9000e+000 92747 -1.4301e+000 -7.6744e+000 -1.8540e+000 41437 92793,92473,92629
 6.9000e+000 92724  1.3280e+000 -6.9540e+000 -2.9515e+000 41437 92865,92525,92499
 6.9000e+000 92701 -3.5203e+000 -6.1642e+000 -3.1990e+000 41437 92525,92603,92577
 6.9000e+000 92678  7.5264e-001 -6.0101e+000 -1.1212e+000 41437 92447,92629,92473
 6.9000e+000 92655 -4.8972e+000 -6.2726e+000 -3.0711e+000 41437 92525,92577,92551
 6.9000e+000 92819 -1.0075e+000 -6.7094e+000 -2.6194e+000 41437 92603,92525,92793
 6.9000e+000 92842 -3.4769e+000 -7.5495e+000 -4.1654e+000 41437 92603,92793,92629
 6.9000e+000 92891  3.0441e+000 -6.6116e+000 -1.7887e+000 41437 92473,92793,92865
 6.9000e+000 92914  5.8187e+000 -6.6109e+000 -3.3328e+000 41437 92473,92865,92499
 6.9000e+000 93243 -3.1084e+000 -1.5142e+001  6.4714e+000 41097 93044,93096,93070
 6.9000e+000 93220 -6.1156e+000 -1.6894e+001  3.3365e+000 41097 93044,93122,93096
 6.9000e+000 93197 -1.8737e-001 -9.9802e+000  5.6551e-001 41097 93044,93148,93122
 6.9000e+000 93174 -1.9871e+000 -6.5865e+000  2.8158e+000 41097 93018,93148,93044
 6.9000e+000 93393 -2.3329e+000 -1.5622e+001  7.4961e-001 40643 93416,93292,93344
 6.9000e+000 93370 -1.8120e+000 -1.3764e+001  1.1996e+000 40643 93266,93344,93292
 6.9000e+000 93442 -2.9091e+000 -1.4109e+001  3.3687e+000 40643 93318,93292,93416
 6.9000e+000 93901 -4.3166e+000 -1.1367e+001 -1.6814e+000 40132 93924,93731,93705
 6.9000e+000 93878 -3.4988e+000 -1.0211e+001 -1.3166e+000 40132 93996,93924,93705
 6.9000e+000 93855 -3.5730e+000 -1.0410e+001 -1.1015e+000 40132 93996,93705,93653
 6.9000e+000 93832  1.6490e+000 -1.0422e+001 -1.6578e+000 40132 93653,93705,93679
 6.9000e+000 93809 -3.1895e+000 -8.3391e+000  1.7346e-001 40132 93627,93783,93757
 6.9000e+000 93950 -5.7568e+000 -1.0128e+001 -7.4335e-001 40132 93757,93731,93924
 6.9000e+000 93973 -3.6439e+000 -8.2363e+000  1.1083e-001 40132 93757,93924,93627
 6.9000e+000 94022 -3.9538e+000 -1.0464e+001 -1.1662e+000 40132 93627,93924,93996
 6.9000e+000 94045 -3.7165e+000 -1.0457e+001 -9.8482e-001 40132 93627,93996,93653
 6.9000e+000 94423 -7.9909e+000 -2.3645e+001 -1.1329e+000 39514 94149,94227,94175
 6.9000e+000 94400 -7.1423e+000 -1.9989e+001  1.3266e+000 39514 94149,94305,94227
 6.9000e+000 94377 -3.3462e+000 -2.0182e+001 -2.8289e+000 39514 94175,94227,94201
 6.9000e+000 94354 -8.3941e+000 -1.7895e+001  1.0310e+000 39514 94227,94305,94279
 6.9000e+000 94331 -4.2856e+000 -1.6024e+001  1.7511e+000 39514 94227,94279,94253
 6.9000e+000 94573 -1.8646e+000 -5.8644e+000 -3.5951e-001 38822 94596,94498,94472
 6.9000e+000 94550  1.0154e+000 -4.0251e+000  2.3512e+000 38822 94596,94472,94446
 6.9000e+000 94622 -5.0541e+000 -7.0265e+000 -3.2687e+000 38822 94524,94498,94596
 6.9000e+000 94645 -2.9960e+000 -4.2774e+000 -3.2740e-001 38822 94524,94596,94446
 6.9000e+000 95025 -1.4420e+000 -6.8863e+000 -1.1776e+000 38418 95048,94829,94777
 6.9000e+000 95002  9.3747e-001 -6.3143e+000 -1.5140e+000 38418 95120,95048,94777
 6.9000e+000 94979  1.9142e+000 -7.0490e+000 -1.3328e+000 38418 95120,94777,94751
 6.9000e+000 94956 -6.6265e-001 -7.0132e+000 -8.6667e-001 38418 95192,94881,94855
 6.9000e+000 94933 -2.6019e+000 -3.6734e+000 -1.5783e+000 38418 94777,94829,94803
 6.9000e+000 95074 -1.2577e+000 -7.9741e+000  8.2856e-002 38418 94855,94829,95048
 6.9000e+000 95097 -7.7723e-001 -6.5269e+000 -5.5388e-001 38418 95192,94855,95048
 6.9000e+000 95146 -1.2577e+000 -6.4718e+000 -7.6569e-001 38418 94907,95048,95120
 6.9000e+000 95169  5.8337e-001 -6.5965e+000 -3.7167e-001 38418 94907,95120,94751
 6.9000e+000 95218 -1.0781e+000 -7.2760e+000 -1.0173e+000 38418 94907,94881,95192
 6.9000e+000 95241 -1.4067e+000 -6.9032e+000 -7.2860e-001 38418 94907,95192,95048
 6.9000e+000 95511 -3.0575e+000 -3.1936e+000  1.3038e+000 38049 95312,95390,95364
 6.9000e+000 95488  7.3268e-001 -1.6478e+000  1.4203e+000 38049 95312,95416,95390
 6.9000e+000 95465 -1.4416e+000 -9.0182e+000  5.3344e-002 38049 95312,95364,95338
 6.9000e+000 95442 -4.1355e-001  8.8719e-001  1.6927e+000 38049 95286,95416,95312
 6.9000e+000 95808 -3.9468e+000 -9.1745e+000 -1.2488e-001 37437 95831,95586,95560
 6.9000e+000 95785 -1.1118e+000 -9.7527e+000 -3.3998e-001 37437 95831,95560,95534
 6.9000e+000 95762 -5.4188e+000 -8.2889e+000  1.2943e+000 37437 95586,95664,95638
 6.9000e+000 95739 -2.0655e+000 -4.8815e+000 -2.4706e+000 37437 95534,95690,95664
 6.9000e+000 95716 -6.4198e+000 -4.9434e+000  4.4056e-001 37437 95586,95638,95612
 6.9000e+000 95857 -5.8297e+000 -9.0472e+000  1.0184e+000 37437 95664,95586,95831
 6.9000e+000 95880 -2.8767e+000 -9.5751e+000  8.4818e-001 37437 95664,95831,95534
 6.9000e+000 96390 -1.1100e+001 -1.2658e+001 -2.7823e+000 36883 96413,96145,96093
 6.9000e+000 96367 -1.0041e+001 -1.1822e+001 -1.2384e+000 36883 96413,96093,96067
 6.9000e+000 96344 -8.9121e+000 -1.9307e+001 -7.7605e-001 36883 96067,96249,96171
 6.9000e+000 96321 -8.8253e+000 -1.4822e+001 -2.4463e+000 36883 96093,96145,96119
 6.9000e+000 96298 -1.1652e+001 -2.6415e+001  1.1986e+000 36883 96171,96249,96197
 6.9000e+000 96275 -3.9244e+000 -2.2338e+001 -3.3810e-001 36883 96197,96249,96223
 6.9000e+000 96439 -9.9929e+000 -1.0280e+001 -2.1550e+000 36883 96171,96145,96413
 6.9000e+000 96462 -9.6203e+000 -1.0968e+001 -7.0521e-001 36883 96171,96413,96067
 6.9000e+000 96781 -5.0657e+000 -1.4646e+001 -2.3591e+000 36215 96559,96663,96637
 6.9000e+000 96758 -6.9348e+000 -1.5873e+001 -2.9019e+000 36215 96507,96663,96559
 6.9000e+000 96735 -6.2892e+000 -5.7414e+000  7.7111e-001 36215 96585,96637,96611
 6.9000e+000 96712 -1.4097e+001 -1.6544e+001 -2.6497e+000 36215 96559,96637,96585
 6.9000e+000 96689 -4.2661e+000 -1.5989e+001 -1.4074e+000 36215 96507,96559,96533
 6.9000e+000 97161  8.0331e-002 -2.0278e+000  3.4815e-002 35818 97184,96965,96939
 6.9000e+000 97138 -6.7215e-001 -3.9368e+000 -1.4737e-001 35818 97184,96939,96887
 6.9000e+000 97115 -3.7863e+000 -9.5400e+000  3.5409e+000 35818 96965,97043,97017
 6.9000e+000 97092 -5.8970e-001 -3.5225e+000 -1.5172e-001 35818 96887,96939,96913
 6.9000e+000 97069 -6.9011e+000 -8.0107e+000  3.5468e+000 35818 96965,97017,96991
 6.9000e+000 97210  7.4854e-001 -3.5720e+000  9.8508e-001 35818 97043,96965,97184
 6.9000e+000 97233  2.6298e-001 -5.0105e+000  8.7987e-001 35818 97043,97184,96887
 6.9000e+000 97739 -3.0548e-001 -4.8489e+000 -5.6640e+000 35214 97416,97468,97442
 6.9000e+000 97716 -2.6341e+000 -2.1336e+000 -2.2895e+000 35214 97416,97598,97468
 6.9000e+000 97693 -3.2432e+000 -2.7529e+000 -3.1216e+000 35214 97762,97520,97468
 6.9000e+000 97670 -2.4119e+000 -1.9708e+000 -2.1857e+000 35214 97762,97468,97598
 6.9000e+000 97647 -1.9762e+000  2.6390e+000 -3.2390e+000 35214 97546,97598,97572
 6.9000e+000 97624 -3.2956e+000 -4.4024e+000 -2.6782e+000 35214 97468,97520,97494
 6.9000e+000 97788 -2.9351e+000 -1.5999e+000 -2.3609e+000 35214 97546,97520,97762
 6.9000e+000 97811 -2.5507e+000 -1.0293e+000 -1.5025e+000 35214 97546,97762,97598
 6.9000e+000 98189  2.1643e+000  8.7454e+000 -2.4608e+000 34760 98356,98212,97967
 6.9000e+000 98166  3.4279e+000  6.0140e+000 -3.5462e+000 34760 98284,98212,97941
 6.9000e+000 98143  4.2457e+000  6.1393e+000 -3.5602e+000 34760 98284,97941,97915
 6.9000e+000 98120  1.3158e+000  6.1231e+000 -1.1749e+000 34760 98484,97993,97967
 6.9000e+000 98097  3.5426e+000  6.4746e+000 -5.5515e-001 34760 98556,98045,98019
 6.9000e+000 98238  1.5405e+000  5.8495e+000 -1.1632e+000 34760 98484,97967,98212
 6.9000e+000 98261  3.3512e+000  6.4969e+000 -4.5912e-001 34760 98556,98019,98212
 6.9000e+000 98310  1.6741e+000  7.0843e+000 -2.3774e+000 34760 98071,98212,98284
 6.9000e+000 98333  3.3505e+000  7.7156e+000 -1.9640e+000 34760 98071,98284,97915
 6.9000e+000 98382 -6.4820e+000  2.6655e+000 -5.1814e+000 34760 97941,98212,98356
 6.9000e+000 98510  8.7298e-001  5.9726e+000 -1.0455e+000 34760 98019,97993,98484
 6.9000e+000 98533  1.2720e+000  5.8429e+000 -1.0484e+000 34760 98019,98484,98212
 6.9000e+000 98582  3.2388e+000  6.4592e+000 -5.4535e-001 34760 98071,98045,98556
 6.9000e+000 98605  3.1702e+000  6.5798e+000 -4.4329e-001 34760 98071,98556,98212
 6.9000e+000 99032 -5.9882e+000 -5.8537e+000  2.4278e+000 34156 98735,98891,98839
 6.9000e+000 99009 -3.8672e+000 -6.6869e+000  3.4116e-001 34156 98709,98891,98735
 6.9000e+000 98986 -3.9870e+000 -7.9290e+000  2.7369e+000 34156 98735,98813,98787
 6.9000e+000 98963 -4.0987e+000 -7.9657e+000  2.9816e+000 34156 98735,98839,98813
 6.9000e+000 98940 -1.4074e+000 -1.3837e+001  3.0205e+000 34156 98735,98787,98761
 6.9000e+000 98917 -5.9977e+000 -6.4501e+000  5.4155e+000 34156 98839,98891,98865
 6.9000e+000 99231 -1.3255e+000 -2.7721e+000  4.9760e-001 33766 99055,99133,99107
 6.9000e+000 99208 -1.6148e+000 -3.7679e+000  6.9907e-001 33766 99055,99159,99133
 6.9000e+000 99185 -1.3227e+000 -5.7187e+000  1.2267e+000 33766 99055,99107,99081
 6.9000e+000 99818  1.6439e+000  4.0203e+000  8.6604e-001 33248 99521,99651,99573
 6.9000e+000 99795  1.9071e+000  4.0921e+000  8.1127e-001 33248 99521,99677,99651
 6.9000e+000 99772  2.7625e+000  3.5889e+000  1.7580e+000 33248 99573,99651,99599
 6.9000e+000 99749  2.2031e+000  5.6534e+000  8.6302e-001 33248 99495,99677,99521
 6.9000e+000 99726  1.2689e+000  4.1104e+000  3.0555e+000 33248 99599,99651,99625
 6.9000e+000 99703  2.5409e+000  6.1895e+000  3.5035e-001 33248 99521,99573,99547
 6.9000e+000 100196 -2.9019e+000 -4.3717e+000 -2.0067e+000 32794 100219,99948,99922
 6.9000e+000 100173 -2.4281e+000 -2.8858e+000  3.4207e-001 32794 100219,99922,100052
 6.9000e+000 100150 -1.7366e+000  1.7179e+000  7.2550e-001 32794 99974,100052,100026
 6.9000e+000 100127 -1.5541e+000 -3.8355e+000  5.5510e-001 32794 99922,100078,100052
 6.9000e+000 100104 -4.7482e-001  1.7897e+000  9.4565e-001 32794 99974,100026,100000
 6.9000e+000 100245 -5.6413e+000 -6.4898e+000 -3.7976e+000 32794 99974,99948,100219
 6.9000e+000 100268 -3.7269e+000 -3.7383e+000 -1.2614e+000 32794 99974,100219,100052
 6.9000e+000 100418 -3.3495e+000 -7.9266e+000 -5.5759e-001 32504 100571,100343,100317
 6.9000e+000 100395 -9.2798e+000 -1.0570e+001  2.0352e+000 32504 100571,100317,100441
 6.9000e+000 100467  7.1477e-001 -3.6138e+000 -4.5702e+000 32504 100291,100369,100441
 6.9000e+000 100597 -1.1411e+000 -6.4540e+000 -5.7379e+000 32504 100369,100343,100571
 6.9000e+000 100620 -4.0341e+000 -6.2263e+000 -3.5314e+000 32504 100369,100571,100441
 6.9000e+000 101020  7.6052e+000  1.2328e+001  9.4959e-001 32142 100772,100902,100876
 6.9000e+000 100997  3.1972e+000  1.8921e+001 -1.8179e+000 32142 100746,100902,100772
 6.9000e+000 100974  4.7687e+000  8.6676e+000  3.2036e+000 32142 101043,100824,100798
 6.9000e+000 100951  3.1992e+000  7.2872e+000  2.5874e+000 32142 101043,100798,100772
 6.9000e+000 100928 -8.3124e-001  5.2059e+000 -2.4977e+000 32142 101115,100876,100850
 6.9000e+000 101069  5.5710e+000  6.3477e+000  1.5535e+000 32142 100850,100824,101043
 6.9000e+000 101092  1.9427e+000  3.9117e+000  1.5519e-001 32142 101115,100850,101043
 6.9000e+000 101141  2.7199e+000  9.1034e+000 -7.5806e-001 32142 100772,100876,101115
 6.9000e+000 101164  5.3018e+000  8.4029e+000  1.9746e+000 32142 100772,101115,101043
 6.9000e+000 101719 -7.4399e+000 -1.0072e+001  1.8615e+000 31538 101742,101477,101399
 6.9000e+000 101696 -5.7862e+000 -1.1226e+001  1.2146e+000 31538 101814,101742,101399
 6.9000e+000 101673 -4.6619e+000 -9.1079e+000  1.6326e+000 31538 101814,101399,101373
 6.9000e+000 101650 -8.3755e+000 -7.0784e+000  2.0282e+000 31538 101425,101477,101451
 6.9000e+000 101627 -6.6601e+000 -8.7228e+000  1.0135e+000 31538 101399,101477,101425
 6.9000e+000 101604 -5.3424e+000 -1.2609e+001  2.9989e+000 31538 101477,101529,101503
 6.9000e+000 101581 -1.3477e-001 -2.2616e+000  2.2072e+000 31538 101347,101555,101373
 6.9000e+000 101768 -7.6832e+000 -1.1602e+001  1.7162e+000 31538 101529,101477,101742
 6.9000e+000 101791 -8.8773e+000 -1.3144e+001 -1.4462e+000 31538 101529,101742,101555
 6.9000e+000 101840 -7.5670e+000 -8.6452e+000 -2.6447e-001 31538 101555,101742,101814
 6.9000e+000 101863 -6.7095e+000 -7.0494e+000  6.4439e-002 31538 101555,101814,101373
 6.9000e+000 102111 -1.0998e+001 -1.8702e+001  3.3270e+000 31112 101886,101990,101912
 6.9000e+000 102088 -5.8401e+000 -1.4054e+001 -8.5318e-001 31112 101886,102016,101990
 6.9000e+000 102065 -5.2492e+000 -1.5529e+001  1.9361e+000 31112 101912,101990,101964
 6.9000e+000 102042 -5.6606e+000 -1.6552e+001  2.0130e+000 31112 101912,101964,101938
 6.9000e+000 102408 -2.3849e+000 -7.2165e+000  1.2169e-001 30658 102431,102186,102160
 6.9000e+000 102385 -3.4155e+000 -7.8604e+000  4.3617e-001 30658 102431,102160,102264
 6.9000e+000 102362 -2.3059e+000 -4.7981e+000  1.4552e+000 30658 102186,102238,102212
 6.9000e+000 102339 -4.0253e+000 -9.0314e+000 -7.3473e-001 30658 102134,102264,102160
 6.9000e+000 102316 -2.5021e+000 -7.2278e+000 -3.0184e+000 30658 102134,102290,102264
 6.9000e+000 102457 -3.6839e+000 -6.5080e+000  5.3125e-002 30658 102238,102186,102431
 6.9000e+000 102480 -4.6770e+000 -7.0986e+000  3.4969e-001 30658 102238,102431,102264
 6.9000e+000 102681  6.7302e-001 -3.4088e+000  5.2081e-002 30004 102704,102557,102505
 6.9000e+000 102658  1.2595e+000 -4.5817e+000  5.7754e-001 30004 102704,102505,102609
 6.9000e+000 102635  1.5481e+000 -5.4792e-001  3.9769e-001 30004 102505,102557,102531
 6.9000e+000 102730  8.7176e-001 -2.6991e+000  1.0108e-001 30004 102583,102557,102704
 6.9000e+000 102753  1.8684e+000 -3.2918e+000  9.3186e-001 30004 102583,102704,102609
 6.9000e+000 103003 -2.5972e+000 -6.1418e+000  1.1026e+000 29564 103026,102804,102778
 6.9000e+000 102980 -2.7274e+000 -9.0686e+000 -1.6944e-001 29564 103026,102778,102908
 6.9000e+000 102957 -3.1408e+000 -7.4625e+000  1.1265e+000 29564 102856,102908,102882
 6.9000e+000 102934 -5.3325e+000 -2.6530e+000  2.9605e+000 29564 102804,102856,102830
 6.9000e+000 103052 -1.4314e+000 -4.3577e+000  3.0495e+000 29564 102856,102804,103026
 6.9000e+000 103075 -2.2617e+000 -7.0016e+000  1.4827e+000 29564 102856,103026,102908
 6.9000e+000 103634 -2.6771e+000 -5.2844e+000 -5.7171e-001 29160 103657,103418,103392
 6.9000e+000 103611 -1.6954e+000 -3.2385e+000  1.0102e+000 29160 103657,103392,103314
 6.9000e+000 103588 -3.1796e+000 -7.6804e-001  1.1237e+000 29160 103314,103392,103366
 6.9000e+000 103565  7.4253e+000  1.3898e+000 -3.5411e+000 29160 103314,103366,103340
 6.9000e+000 103542  3.4327e+000  3.0486e+000  6.7362e-001 29160 103262,103444,103314
 6.9000e+000 103519  2.6375e+000 -2.5477e-002  2.2018e+000 29160 103262,103314,103288
 6.9000e+000 103496  8.8961e-002  2.4018e+000  6.4509e-001 29160 103262,103470,103444
 6.9000e+000 103683 -5.4616e+000 -8.0906e+000 -3.8255e+000 29160 103444,103418,103657
 6.9000e+000 103706 -2.3808e+000 -2.5354e+000 -1.9041e+000 29160 103444,103657,103314
 6.9000e+000 104035 -3.3260e+000 -9.4681e+000  1.9431e+000 28770 103836,103914,103862
 6.9000e+000 104012 -3.9498e+000 -8.9561e+000  2.4340e+000 28770 103810,103914,103836
 6.9000e+000 103989 -2.0568e+000 -7.4640e+000  1.5162e+000 28770 103810,103940,103914
 6.9000e+000 103966 -1.5985e+000 -7.1935e+000  2.7032e+000 28770 103862,103914,103888
 6.9000e+000 104185  1.4073e+000  7.9264e-001  1.6306e+000 28366 104208,104110,104084
 6.9000e+000 104162 -4.8671e-001  3.4342e-001 -2.1868e-001 28366 104280,104208,104084
 6.9000e+000 104234  1.7702e+000  5.6744e-001  5.6088e-001 28366 104610,104208,104136
 6.9000e+000 104257  1.3427e+000  2.2326e+000  6.2054e-001 28366 104538,104410,104208
 6.9000e+000 104306  1.1308e+000  1.6998e+000  8.9598e-001 28366 104538,104208,104280
 6.9000e+000 104436  1.8531e+000  4.8430e+000  7.5012e-001 28366 104136,104208,104410
 6.9000e+000 104564  1.0983e+000  3.0419e+000  4.5555e-001 28366 104058,104410,104538
 6.9000e+000 104587  1.1067e+000  2.6604e+000  6.4613e-001 28366 104058,104538,104280
 6.9000e+000 104636  2.9417e+000  1.2282e+000  1.2873e+000 28366 104110,104208,104610
 6.9000e+000 105349 -3.9801e+000 -6.0952e+000  2.9648e-001 27976 105516,105372,105107
 6.9000e+000 105326 -7.5753e+000 -7.8403e+000  1.0635e+000 27976 105588,105372,105055
 6.9000e+000 105303 -8.8436e+000 -8.5137e+000 -1.8024e+000 27976 105444,105159,105133
 6.9000e+000 105280 -2.1238e+000 -6.8949e+000  1.0809e+000 27976 105516,105107,105081
 6.9000e+000 105257 -8.4386e+000 -8.7905e+000  5.0305e-001 27976 105588,105055,105029
 6.9000e+000 105234 -6.1207e+000 -7.1885e+000  7.2520e-001 27976 105003,105185,105159
 6.9000e+000 105211 -3.2607e+000 -5.5452e+000  1.3982e+000 27976 104977,105185,105003
 6.9000e+000 105398 -1.7954e+000 -7.8870e+000 -9.9084e-001 27976 105133,105107,105372
 6.9000e+000 105421 -5.9004e+000 -9.6357e+000 -1.0701e+000 27976 105444,105133,105372
 6.9000e+000 105470 -5.6336e+000 -5.9504e+000 -6.9382e-001 27976 105003,105159,105444
 6.9000e+000 105493 -3.9881e+000 -7.8278e+000 -2.5113e-001 27976 105003,105444,105372
 6.9000e+000 105542 -2.6849e+000 -5.6061e+000  1.7618e+000 27976 105055,105372,105516
 6.9000e+000 105565  1.4470e-002 -6.1096e+000  2.3834e+000 27976 105055,105516,105081
 6.9000e+000 105614 -6.4718e+000 -8.9065e+000  1.6825e+000 27976 105003,105372,105588
 6.9000e+000 105637 -7.0390e+000 -9.4888e+000  1.1951e+000 27976 105003,105588,105029
 6.9000e+000 106143  1.3843e+000 -3.3794e+000  7.5836e-001 27664 106166,105846,105820
 6.9000e+000 106120  2.5910e+000  2.5332e+000  5.4376e-001 27664 106310,106166,105820
 6.9000e+000 106097  2.8495e+000 -5.7863e+000 -2.6169e+000 27664 106382,106238,105950
 6.9000e+000 106074  1.0023e+000  4.4300e+000 -9.8248e-001 27664 106310,105820,106002
 6.9000e+000 106051  4.5332e+000 -4.0867e+000 -1.3544e+000 27664 106382,105950,105924
 6.9000e+000 106028  8.0451e+000 -1.0848e+001  1.2060e-001 27664 105846,105898,105872
 6.9000e+000 106192  2.5345e+000 -4.4756e+000 -1.7246e+000 27664 105898,105846,106166
 6.9000e+000 106215  2.6320e+000 -4.5203e+000 -1.4001e+000 27664 106238,105898,106166
 6.9000e+000 106264 -3.2755e+000 -6.2188e+000 -5.0408e+000 27664 105976,105950,106238
 6.9000e+000 106287  2.3084e+000 -1.7182e+000 -2.2413e+000 27664 105976,106238,106166
 6.9000e+000 106336  1.1536e+000 -5.7168e-001  9.7856e-002 27664 105976,106166,106310
 6.9000e+000 106359 -3.8878e-001  1.4353e+000 -1.4498e+000 27664 105976,106310,106002
 6.9000e+000 106408  2.7673e+000 -2.3401e+000 -5.9873e-001 27664 105898,106238,106382
 6.9000e+000 106431  3.4095e+000 -1.7101e+000  5.3078e-001 27664 105898,106382,105924
 6.9000e+000 106728 -3.9177e-001 -8.6390e-001  1.8618e+000 27153 106751,106506,106454
 6.9000e+000 106705 -4.5108e-001 -1.8720e+000  9.5414e-001 27153 106751,106454,106610
 6.9000e+000 106682 -1.1986e-001 -9.1309e-001  2.1109e+000 27153 106454,106506,106480
 6.9000e+000 106659 -4.6452e-001  5.8498e-001  1.1681e+000 27153 106532,106610,106584
 6.9000e+000 106636  1.1273e+000  1.7465e+000  1.7102e+000 27153 106532,106584,106558
 6.9000e+000 106777  6.0170e-001  6.9714e-001  2.4366e+000 27153 106532,106506,106751
 6.9000e+000 106800  2.6109e-002 -9.6703e-001  1.4273e+000 27153 106532,106751,106610
 6.9000e+000 107180  1.9751e+000 -4.1184e-001  2.3008e+000 26642 107203,106984,106958
 6.9000e+000 107157 -4.2254e-001 -2.5226e+000 -1.8596e+000 26642 107203,106958,106932
 6.9000e+000 107134 -4.1516e+000 -6.6100e+000 -1.4282e+000 26642 107275,107036,107010
 6.9000e+000 107111 -2.6084e+000 -6.5684e+000 -3.3811e+000 26642 106932,107062,107036
 6.9000e+000 107088 -1.3850e-001 -4.3715e+000  4.8755e-001 26642 106906,107062,106932
 6.9000e+000 107229  1.2885e+000 -4.6763e+000 -5.5110e-001 26642 107010,106984,107203
 6.9000e+000 107252 -1.9394e+000 -2.4999e+000 -2.2678e+000 26642 107275,107010,107203
 6.9000e+000 107301 -1.8356e+000 -6.4618e+000 -3.4086e+000 26642 106932,107036,107275
 6.9000e+000 107324 -1.5931e+000 -6.1535e+000 -3.5159e+000 26642 106932,107275,107203
 6.9000e+000 107675 -1.9524e+000 -6.1743e+000  1.2088e+000 26045 107450,107554,107476
 6.9000e+000 107652 -3.2784e+000 -7.8108e+000  2.0804e+000 26045 107450,107580,107554
 6.9000e+000 107629  2.5958e-001  2.9622e+000 -7.2106e-001 26045 107476,107528,107502
 6.9000e+000 107606  3.8488e-002 -4.7325e+000  2.1029e+000 26045 107476,107554,107528
 6.9000e+000 107874 -4.5139e+000 -4.8236e+000  2.5077e+000 25641 107750,107802,107776
 6.9000e+000 107851 -3.0980e+000 -4.1975e+000  3.5692e+000 25641 107724,107802,107750
 6.9000e+000 107828 -5.1385e+000 -4.7307e+000  3.8603e+000 25641 107698,107802,107724
 6.9000e+000 108431  1.4574e+000 -7.0491e+000  3.6449e+000 25023 108526,108267,108241
 6.9000e+000 108408  9.2001e-002 -5.8753e+000  4.9346e-001 25023 108059,108267,108085
 6.9000e+000 108385 -1.1718e+000 -9.0158e+000  2.6151e+000 25023 108454,108163,108111
 6.9000e+000 108362 -5.3770e+000 -8.4131e+000  4.9510e+000 25023 108454,108111,108085
 6.9000e+000 108339 -2.9657e+000 -1.3549e+001  4.5259e+000 25023 108111,108163,108137
 6.9000e+000 108316 -5.2949e+000 -5.8725e+000 -2.3663e-001 25023 108163,108241,108215
 6.9000e+000 108293 -3.2660e+000 -4.7133e+000  1.3072e+000 25023 108163,108215,108189
 6.9000e+000 108480 -1.4391e-002 -7.2680e+000  1.5318e+000 25023 108241,108163,108454
 6.9000e+000 108503 -7.3145e-003 -7.3725e+000  3.8408e+000 25023 108526,108241,108454
 6.9000e+000 108552 -5.3435e-001 -5.8416e+000  2.6670e+000 25023 108085,108267,108526
 6.9000e+000 108575 -2.0438e+000 -6.1998e+000  2.8409e+000 25023 108085,108526,108454
 6.9000e+000 108823  5.3286e+000 -3.8799e+000  7.7830e-001 24461 108624,108728,108650
 6.9000e+000 108800  1.9235e+000 -1.1659e+001 -1.6989e+000 24461 108598,108728,108624
 6.9000e+000 108777  1.3195e+000 -5.5574e+000 -5.8118e-001 24461 108650,108728,108676
 6.9000e+000 108754 -1.8802e+000 -2.0834e+001  1.2601e+000 24461 108676,108728,108702
 6.9000e+000 109022 -2.8994e+000 -2.6417e+000  3.1808e+000 24121 108872,108924,108898
 6.9000e+000 108999  9.3519e-001 -3.2694e+000  3.5344e+000 24121 108846,108924,108872
 6.9000e+000 108976 -3.9127e+000 -4.9934e+000  2.8168e+000 24121 108846,108950,108924
 6.9000e+000 109483 -2.9386e+000 -6.9270e+000 -1.7368e+000 23717 109209,109339,109235
 6.9000e+000 109460 -2.1946e+000 -1.1879e+001 -2.8895e+000 23717 109209,109365,109339
 6.9000e+000 109437  1.2401e+000 -1.1205e+001 -4.6797e-001 23717 109287,109339,109313
 6.9000e+000 109414 -3.3555e+000 -1.0528e+001  1.3696e+000 23717 109235,109339,109287
 6.9000e+000 109391  3.4516e+000 -1.1085e+001  6.4181e+000 23717 109235,109287,109261
 6.9000e+000 109910 -4.4546e+000 -1.2680e+001 -8.6560e-001 23305 109613,109743,109717
 6.9000e+000 109887 -4.8591e+000 -1.2684e+001 -1.7397e+000 23305 109613,109769,109743
 6.9000e+000 109864 -5.7043e+000 -1.1376e+001 -6.7776e-001 23305 109613,109717,109639
 6.9000e+000 109841 -2.3515e+000 -1.1913e+001 -3.4074e-001 23305 109587,109769,109613
 6.9000e+000 109818 -2.8582e-001 -9.1078e+000  1.3288e+000 23305 109639,109717,109691
 6.9000e+000 109795 -1.2040e+000 -8.1301e+000 -2.1584e-001 23305 109639,109691,109665
 6.9000e+000 110180 -1.2446e+000 -1.4548e+000 -7.4851e-001 22851 110007,110059,110033
 6.9000e+000 110157 -3.0917e+000 -7.2856e+000  1.4895e+000 22851 109981,110059,110007
 6.9000e+000 110134 -4.7959e+000 -9.9551e+000 -7.6806e-002 22851 109955,110059,109981
 6.9000e+000 110111 -2.0994e+000 -1.6106e+001 -1.3419e+000 22851 109955,110085,110059
 6.9000e+000 110737  4.3697e+000 -4.7822e+000 -7.0248e+000 22333 110760,110469,110391
 6.9000e+000 110714  4.2756e+000 -7.8018e+000 -5.8085e+000 22333 110760,110391,110365
 6.9000e+000 110691  2.2853e+000 -2.4034e+000 -5.6619e+000 22333 110832,110521,110469
 6.9000e+000 110668 -1.3602e-001 -1.1101e+001  1.9473e+000 22333 110417,110469,110443
 6.9000e+000 110645 -6.1592e-001 -1.0804e+001  1.9365e+000 22333 110391,110469,110417
 6.9000e+000 110622  7.4688e-002 -5.2734e+000 -4.8147e-001 22333 110469,110521,110495
 6.9000e+000 110599 -3.2577e+000 -1.6673e+000  4.8864e+000 22333 110365,110573,110547
 6.9000e+000 110786  4.1535e+000 -3.3535e+000 -6.9542e+000 22333 110832,110469,110760
 6.9000e+000 110809  6.2805e+000 -4.7199e+000 -4.9321e+000 22333 110547,110760,110365
 6.9000e+000 110858 -1.4881e-001 -4.3959e+000 -4.7114e+000 22333 110547,110521,110832
 6.9000e+000 110881  2.1995e+000 -5.7002e+000 -5.8846e+000 22333 110547,110832,110760
 6.9000e+000 111308 -4.7465e+000 -9.7929e+000  1.1846e+000 21829 111331,111063,111011
 6.9000e+000 111285  1.0143e+000 -4.7354e+000 -2.7299e+000 21829 111331,111011,111167
 6.9000e+000 111262 -3.5645e+000 -1.0218e+001  2.6895e+000 21829 111403,111089,111063
 6.9000e+000 111239 -8.7911e+000 -1.3296e+001  3.8935e+000 21829 111011,111063,111037
 6.9000e+000 111216  2.1053e+000 -3.1729e+000 -2.2478e+000 21829 110985,111167,111011
 6.9000e+000 111193 -5.9437e+000 -2.4563e+001  8.2587e+000 21829 111089,111141,111115
 6.9000e+000 111357 -3.4659e+000 -1.0346e+001  2.6759e+000 21829 111403,111063,111331
 6.9000e+000 111380 -2.9836e+000 -1.0632e+001 -2.6757e-001 21829 111141,111331,111167
 6.9000e+000 111429 -4.3735e+000 -1.0407e+001  2.5390e+000 21829 111141,111089,111403
 6.9000e+000 111452 -3.7880e+000 -1.0122e+001  2.6732e+000 21829 111141,111403,111331
 6.9000e+000 112056  7.6772e+000 -2.8272e+000  6.4075e-001 21489 111687,111765,111739
 6.9000e+000 112033  6.4386e+000 -2.9394e+000  1.5564e+000 21489 112151,112079,111687
 6.9000e+000 112010  3.8297e+000 -9.0578e+000  2.8430e-001 21489 111791,111843,111817
 6.9000e+000 111987  1.9756e+000 -6.4083e+000 -1.3085e+000 21489 112079,111843,111791
 6.9000e+000 111964  8.1704e+000 -1.0990e+000  2.4353e+000 21489 112151,111687,111661
 6.9000e+000 111941  5.1987e+000 -4.8792e-001  5.0721e-002 21489 111661,111869,111843
 6.9000e+000 111918  9.4232e+000 -2.7721e+000  2.1319e+000 21489 111687,111739,111713
 6.9000e+000 111895  8.3941e+000  6.9363e+000 -1.6442e+000 21489 111635,111869,111661
 6.9000e+000 112105  3.4011e+000 -4.2694e+000  9.0929e-001 21489 111765,111687,112079
 6.9000e+000 112128  3.2867e+000 -3.3255e+000  1.1052e+000 21489 111765,112079,111791
 6.9000e+000 112177  3.8033e+000 -1.9359e+000 -8.1410e-001 21489 111843,112079,112151
 6.9000e+000 112200  5.1445e+000 -9.7191e-001 -1.4810e-001 21489 111843,112151,111661
 6.9000e+000 112578  3.7741e+000 -5.0679e+000  1.1090e+000 21177 112382,112434,112408
 6.9000e+000 112555  2.3323e+000 -5.1625e+000 -1.6628e-001 21177 112330,112434,112382
 6.9000e+000 112532  5.4173e+000 -1.0588e+000  3.4404e+000 21177 112304,112434,112330
 6.9000e+000 112509  1.6147e+000 -2.5749e+000  0.0000e+000 21177 112330,112382,112356
 6.9000e+000 112486  1.6017e+000  1.3203e+001 -1.4227e+000 21177 112304,112460,112434
 6.9000e+000 112679 -1.2414e+000  1.8169e+001 -2.0787e+000 20666 112601,112653,112627
 6.9000e+000 112927 -5.2308e+000 -1.4545e+001 -6.9482e-003 19762 112702,112754,112728
 6.9000e+000 112904 -1.9083e+000 -1.5652e+001 -4.0559e-001 19762 112702,112832,112754
 6.9000e+000 112881 -4.2512e+000 -1.6637e+001  2.6141e+000 19762 112754,112832,112806
 6.9000e+000 112858 -5.9991e+000 -2.3131e+001  3.7524e+000 19762 112754,112806,112780
 6.9000e+000 113297 -3.7405e+000 -1.7894e+001  1.2213e+000 19308 112974,113052,113026
 6.9000e+000 113274 -2.5919e+000 -1.4765e+001  4.7616e-001 19308 112974,113156,113052
 6.9000e+000 113251 -1.5601e+000 -1.9702e+001 -2.3795e+000 19308 113052,113130,113104
 6.9000e+000 113228 -2.8806e+000 -1.4736e+001  1.2186e-002 19308 113052,113156,113130
 6.9000e+000 113205 -2.8846e+000 -1.7116e+001  0.0000e+000 19308 113052,113104,113078
 6.9000e+000 113182 -6.5077e+000 -2.1248e+001 -2.1774e-001 19308 112974,113026,113000
 6.9000e+000 113547  3.1154e+000 -1.5441e+001 -1.1226e+000 18711 113570,113374,113348
 6.9000e+000 113524  3.8659e+000 -1.4219e+001 -6.4489e-001 18711 113570,113348,113452
 6.9000e+000 113501  5.2937e+000 -9.2021e+000 -2.1154e+000 18711 113322,113452,113348
 6.9000e+000 113478 -1.1171e+000 -1.5170e+001 -5.2220e+000 18711 113374,113426,113400
 6.9000e+000 113596  1.0148e+000 -1.3892e+001 -1.0912e+000 18711 113426,113374,113570
 6.9000e+000 113619  2.5687e+000 -1.2230e+001 -2.7718e-001 18711 113426,113570,113452
 6.9000e+000 113771 -8.1219e+000 -2.0494e+001 -1.3964e+000 18307 113670,113722,113696
 6.9000e+000 113748 -6.3146e+000 -1.9508e+001 -8.5740e-001 18307 113644,113722,113670
 6.9000e+000 113972 -6.0713e+000 -1.8106e+001  8.5487e-001 17945 113822,113874,113848
 6.9000e+000 113949 -3.7768e+000 -1.7783e+001  7.1996e-001 17945 113822,113900,113874
 6.9000e+000 113926 -5.3101e+000 -1.4483e+001  7.2302e+000 17945 113796,113900,113822
 6.9000e+000 114075 -2.1778e+000 -2.3615e+001  3.1990e+000 17482 113997,114049,114023
 6.9000e+000 114479 -1.0245e+000 -1.5966e+001 -2.4539e+000 17042 114257,114361,114335
 6.9000e+000 114456 -2.5262e+000 -1.3036e+001 -7.9709e-001 17042 114205,114361,114257
 6.9000e+000 114433 -1.8528e+000 -1.6089e+001  5.6993e-001 17042 114205,114257,114231
 6.9000e+000 114410 -1.3340e+000 -2.4378e+001 -6.7671e-002 17042 114283,114335,114309
 6.9000e+000 114387  1.2331e-002 -1.8876e+001 -1.2310e+000 17042 114257,114335,114283
 6.9000e+000 114879 -1.0671e+000 -6.9351e+000 -6.4148e-002 16638 114631,114683,114657
 6.9000e+000 114856  2.4516e+000 -4.8329e+000 -4.6927e-002 16638 114605,114683,114631
 6.9000e+000 114833  9.3739e+000  2.4379e+000 -4.6447e+000 16638 114605,114761,114683
 6.9000e+000 114810  1.6317e+000 -1.3402e+001 -7.0484e-001 16638 114683,114735,114709
 6.9000e+000 114787  7.3615e+000 -1.2606e+001 -1.0948e+000 16638 114683,114761,114735
 6.9000e+000 115078 -6.3616e+000 -1.1462e+001  2.1410e-002 16232 114954,115006,114980
 6.9000e+000 115055 -6.9141e+000 -1.3779e+001  6.3089e-001 16232 114928,115006,114954
 6.9000e+000 115032 -3.0802e+000 -1.6647e+001  1.5575e+000 16232 114902,115006,114928
 6.9000e+000 115228 -1.1437e+000 -1.1918e+001  5.1706e-001 15482 115101,115153,115127
 6.9000e+000 115205 -1.7335e+000 -1.1140e+001 -4.1656e-001 15482 115101,115179,115153
 6.9000e+000 115331  3.3952e+000 -4.6738e+000 -1.0505e+000 15163 115253,115305,115279
 6.9000e+000 115434  6.7209e-001 -7.6662e+000  1.5838e+000 421 115356,115408,115382
 7.0000e+000 68213 -2.4615e+001  5.2000e+000  2.5746e+000 67888 68112,68164,68138
 7.0000e+000 68190  3.7524e+000  1.4566e+001  1.7766e+000 67888 68086,68164,68112
 7.0000e+000 68314 -2.8105e+001  1.1909e+001 -5.6258e+000 67576 68236,68288,68262
 7.0000e+000 68584 -1.5532e+001 -1.5622e+001  9.0022e-001 67378 68385,68489,68463
 7.0000e+000 68561  5.7107e-001 -9.1627e+000  1.0827e+000 67378 68359,68489,68385
 7.0000e+000 68538 -1.5257e+001 -1.1790e+001  1.0014e+000 67378 68385,68463,68411
 7.0000e+000 68515 -1.6498e+001 -1.1598e+001  1.5902e+000 67378 68411,68463,68437
 7.0000e+000 68964 -1.5248e+001 -2.3711e+001  2.0539e+000 67130 68690,68820,68716
 7.0000e+000 68941 -8.5464e+000 -2.4595e+001  3.9674e+000 67130 68690,68846,68820
 7.0000e+000 68918 -1.9830e+001 -1.7993e+001  1.3567e+000 67130 68742,68820,68794
 7.0000e+000 68895 -1.6095e+001 -1.7826e+001  2.1946e+000 67130 68716,68820,68742
 7.0000e+000 68872 -1.5665e+001 -1.1125e+001 -2.3082e+000 67130 68742,68794,68768
 7.0000e+000 69065 -1.7843e+001  4.8382e+000  4.2739e-001 66926 68987,69039,69013
 7.0000e+000 69445 -1.9096e+001  4.9088e+000  9.8770e-001 66614 69223,69301,69275
 7.0000e+000 69422 -1.6005e+001  6.3183e+000  6.6455e-001 66614 69171,69301,69223
 7.0000e+000 69399 -1.3819e+001  7.6694e+000 -3.7150e-001 66614 69171,69327,69301
 7.0000e+000 69376 -1.8140e+001 -2.4170e-001 -2.1346e+000 66614 69223,69275,69249
 7.0000e+000 69353 -1.6706e+001  7.7509e+000  7.1226e-001 66614 69171,69223,69197
 7.0000e+000 69546 -2.0166e+001 -2.1305e+001 -1.0363e+000 66416 69468,69520,69494
 7.0000e+000 69997 -1.5360e+001 -2.4514e+001 -1.4094e+000 66104 69700,69830,69726
 7.0000e+000 69974 -1.7054e+001 -2.5008e+001 -1.6910e+000 66104 69700,69856,69830
 7.0000e+000 69951 -1.3839e+001 -1.6924e+001 -1.4560e+000 66104 69726,69804,69778
 7.0000e+000 69928 -1.3428e+001 -2.0701e+001 -2.0732e+000 66104 69726,69830,69804
 7.0000e+000 69905 -1.5738e+001 -1.8578e+001 -2.3141e+000 66104 69726,69778,69752
 7.0000e+000 69882 -1.7897e+001 -3.4184e+001 -2.1017e+000 66104 69674,69856,69700
 7.0000e+000 70326 -9.6708e+000 -1.0223e+001 -2.6213e-001 65814 70349,70153,70127
 7.0000e+000 70303 -6.4564e+000 -1.1129e+001  1.3973e+000 65814 70349,70127,70101
 7.0000e+000 70280 -4.2863e+000 -6.7240e+000  5.5784e+000 65814 70101,70231,70205
 7.0000e+000 70257 -1.0915e+001 -9.6686e+000  1.4546e+000 65814 70153,70205,70179
 7.0000e+000 70375 -7.9611e+000 -9.4015e+000  1.6308e+000 65814 70205,70153,70349
 7.0000e+000 70398 -3.7012e+000 -1.0040e+001  3.0917e+000 65814 70205,70349,70101
 7.0000e+000 70904 -1.0641e+001 -7.1738e+000 -1.8173e+000 65502 70607,70737,70685
 7.0000e+000 70881 -9.1461e+000 -8.2729e+000 -1.2461e+000 65502 70581,70737,70607
 7.0000e+000 70858 -7.9982e+000 -5.8838e+000 -1.6766e+000 65502 70581,70763,70737
 7.0000e+000 70835 -2.5754e+000 -4.1136e+000 -3.1887e+000 65502 70685,70737,70711
 7.0000e+000 70812 -2.0785e+001 -8.1498e+000 -1.3908e+000 65502 70607,70659,70633
 7.0000e+000 70789 -9.3064e+000 -3.2313e+000  9.7553e-001 65502 70607,70685,70659
 7.0000e+000 71103 -1.8940e+001 -3.6543e+000  1.3923e+000 65304 71126,70979,70953
 7.0000e+000 71080 -1.7050e+001 -2.8768e+000  9.0010e-001 65304 71126,70953,70927
 7.0000e+000 71057 -1.3963e+001 -1.5794e+000 -1.2706e+000 65304 70927,71031,71005
 7.0000e+000 71152 -1.6594e+001 -6.3286e+000  1.9346e+000 65304 71005,70979,71126
 7.0000e+000 71175 -1.3868e+001 -4.5105e+000  8.8391e-001 65304 71005,71126,70927
 7.0000e+000 71374 -1.5494e+001 -7.5650e+000  1.1576e+000 65106 71198,71276,71224
 7.0000e+000 71351 -1.8905e+001 -8.4124e+000  8.8797e-001 65106 71198,71302,71276
 7.0000e+000 71328 -1.5130e+001 -5.7545e+000 -8.5552e-001 65106 71224,71276,71250
 7.0000e+000 71756 -1.0412e+001 -6.4164e+000 -1.0575e+000 64652 71508,71638,71534
 7.0000e+000 71733 -1.1169e+001 -7.2127e+000  7.6335e-001 64652 71482,71638,71508
 7.0000e+000 71710 -1.1297e+001 -1.2037e+001 -2.3043e+000 64652 71534,71586,71560
 7.0000e+000 71687 -1.0461e+001 -9.2509e+000 -2.1839e+000 64652 71534,71612,71586
 7.0000e+000 71664 -1.0325e+001 -1.0021e+001 -1.3266e+000 64652 71534,71638,71612
 7.0000e+000 72085 -1.2096e+001 -7.1414e+000 -1.2524e+000 64248 71886,71964,71912
 7.0000e+000 72062 -1.4399e+001 -9.0166e+000 -1.8587e-001 64248 71860,71964,71886
 7.0000e+000 72039 -1.1771e+001 -9.4508e+000 -1.5722e+000 64248 71912,71964,71938
 7.0000e+000 72016 -1.2154e+001 -6.7228e+000 -1.1145e+000 64248 71860,71990,71964
 7.0000e+000 72235 -3.7312e+000 -5.6573e+000 -4.4250e-002 63858 72588,72258,72134
 7.0000e+000 72212 -1.1305e+001 -4.1419e+000  8.5938e-001 63858 72330,72258,72108
 7.0000e+000 72284 -8.1755e+000 -6.9116e+000 -1.1470e+000 63858 72160,72134,72258
 7.0000e+000 72307 -1.4545e+001 -6.6160e+000 -3.0807e+000 63858 72460,72258,72186
 7.0000e+000 72356 -1.3373e+001 -4.2728e+000 -1.0196e+000 63858 72186,72258,72330
 7.0000e+000 72486 -7.5871e+000 -6.4546e+000 -2.0776e+000 63858 72160,72258,72460
 7.0000e+000 72614 -1.2612e+001 -9.9940e+000  1.7476e+000 63858 72108,72258,72588
 7.0000e+000 73248 -1.6666e+001 -2.3863e+001  2.6370e+000 63404 72902,72954,72928
 7.0000e+000 73225 -1.7355e+001 -1.8944e+001  2.1237e+000 63404 73271,72954,72902
 7.0000e+000 73202 -1.7705e+001 -1.3599e+001  2.7424e+000 63404 73271,72902,73032
 7.0000e+000 73179 -1.6032e+001 -1.1470e+001  1.0938e+000 63404 72902,73058,73032
 7.0000e+000 73156 -2.4945e+001 -1.9165e+001 -6.9159e+000 63404 72980,73032,73006
 7.0000e+000 73133 -1.5561e+001 -9.0513e+000  2.1058e+000 63404 72876,73058,72902
 7.0000e+000 73110 -1.8052e+001 -1.6369e+001  6.2528e+000 63404 72876,73084,73058
 7.0000e+000 73297 -1.7328e+001 -2.0260e+001 -6.5564e-001 63404 72980,72954,73271
 7.0000e+000 73320 -1.8755e+001 -1.6964e+001  2.4497e-001 63404 72980,73271,73032
 7.0000e+000 73470 -6.2033e+000 -3.3504e+001  4.6232e+000 63014 73343,73395,73369
 7.0000e+000 73447 -1.6823e+001 -3.5791e+001  5.7993e-001 63014 73343,73421,73395
 7.0000e+000 73929 -1.7386e+001  2.2147e+000  4.7230e+000 62702 73759,73811,73785
 7.0000e+000 73906 -1.4827e+001  2.2146e+000  1.1386e+000 62702 73655,73811,73759
 7.0000e+000 73883 -1.6070e+001  7.5245e-001  5.8119e-001 62702 73655,73759,73681
 7.0000e+000 73860 -1.7064e+001 -6.2193e-001  4.2465e+000 62702 73681,73759,73707
 7.0000e+000 73837 -7.7494e+000  2.7261e+000  4.6554e-001 62702 73707,73759,73733
 7.0000e+000 74209 -7.6938e+000  1.4673e+000  4.3053e-001 62404 74059,74137,74085
 7.0000e+000 74186 -6.4503e+000  6.1512e+000 -1.8122e+000 62404 74033,74137,74059
 7.0000e+000 74163 -1.7811e+001  2.2537e+000 -2.5155e+000 62404 74085,74137,74111
 7.0000e+000 74408 -8.1306e+000 -2.2052e+000  1.0274e+000 62000 74258,74336,74284
 7.0000e+000 74385 -1.3414e+001 -4.0021e+000  2.8340e+000 62000 74232,74336,74258
 7.0000e+000 74362 -8.7592e+000 -4.6309e+000  6.3884e-001 62000 74284,74336,74310
 7.0000e+000 74509 -1.4375e+001  2.0582e+001 -6.6441e+000 61802 74431,74483,74457
 7.0000e+000 74759 -1.8494e+001 -1.3162e+000 -1.0237e+000 61554 74782,74586,74560
 7.0000e+000 74736 -2.1232e+001 -1.0407e+000 -1.8668e-001 61554 74782,74560,74664
 7.0000e+000 74713 -1.7117e+001  7.9214e-001 -4.9122e+000 61554 74854,74612,74586
 7.0000e+000 74690 -1.9890e+001  1.9603e+000  2.0225e-001 61554 74534,74664,74560
 7.0000e+000 74808 -1.6752e+001  8.1153e-002 -1.9822e+000 61554 74854,74586,74782
 7.0000e+000 74831 -1.9711e+001  2.3583e+000 -9.1622e-001 61554 74638,74782,74664
 7.0000e+000 74880 -2.0846e+001 -3.6879e-001 -4.1369e+000 61554 74638,74612,74854
 7.0000e+000 74903 -2.1165e+001 -1.6135e+000 -1.6069e+000 61554 74638,74854,74782
 7.0000e+000 75285 -1.8301e+001  1.1915e+001  4.3568e-001 61356 75063,75167,75115
 7.0000e+000 75262 -1.6252e+001  1.5760e+001  1.7464e+000 61356 75037,75167,75063
 7.0000e+000 75239 -1.9266e+001  1.2380e+001  4.2139e-001 61356 75115,75167,75141
 7.0000e+000 75216 -1.4812e+001  1.3012e+001  6.2732e-001 61356 75063,75115,75089
 7.0000e+000 75193 -1.0695e+001  6.5366e+000 -2.8826e+000 61356 75011,75167,75037
 7.0000e+000 75631 -1.2125e+001  1.2797e+001  4.6935e-001 60952 75654,75412,75360
 7.0000e+000 75608 -1.3541e+001  1.3776e+001  7.4056e-001 60952 75654,75360,75334
 7.0000e+000 75585 -8.7460e+000  1.8761e+001 -8.0080e-001 60952 75726,75438,75412
 7.0000e+000 75562 -1.4645e+001  1.0818e+001  4.5585e+000 60952 75308,75490,75334
 7.0000e+000 75539 -1.4601e+001  1.1220e+001  1.6345e+000 60952 75360,75412,75386
 7.0000e+000 75516 -7.2525e+000  2.5861e+001  3.1138e+000 60952 75438,75490,75464
 7.0000e+000 75680 -1.0718e+001  1.4293e+001 -1.4402e-001 60952 75726,75412,75654
 7.0000e+000 75703 -1.2110e+001  1.2537e+001  7.1803e-001 60952 75490,75654,75334
 7.0000e+000 75752 -1.0364e+001  1.3545e+001  6.5740e-001 60952 75490,75438,75726
 7.0000e+000 75775 -1.0254e+001  1.3237e+001  1.3540e+000 60952 75490,75726,75654
 7.0000e+000 76155 -1.4332e+001 -6.6486e+000 -2.4642e+000 60754 75933,75985,75959
 7.0000e+000 76132 -1.1961e+001 -5.8144e+000 -1.3208e+000 60754 75933,76037,75985
 7.0000e+000 76109 -1.4282e+001 -4.0979e+000 -1.0530e+000 60754 75985,76037,76011
 7.0000e+000 76086 -1.1419e+001 -6.6445e+000 -1.0007e+000 60754 75881,76037,75933
 7.0000e+000 76063 -7.8858e+000 -2.9510e+000 -3.3913e+000 60754 75881,75933,75907
 7.0000e+000 76612 -6.2329e+000 -1.2219e+001  1.0365e+000 60350 76635,76442,76390
 7.0000e+000 76589  7.8677e-001 -1.3521e+001  3.0163e+000 60350 76635,76390,76364
 7.0000e+000 76566 -8.9533e+000 -2.0148e+001 -3.3117e-001 60350 76364,76494,76468
 7.0000e+000 76543 -2.0348e+000 -1.0423e+001  1.1629e+000 60350 76390,76442,76416
 7.0000e+000 76520 -1.5121e+001 -1.5335e+001 -2.2896e+000 60350 76338,76494,76364
 7.0000e+000 76661 -1.0687e+001 -1.2657e+001  1.1534e+000 60350 76468,76442,76635
 7.0000e+000 76684 -5.9208e+000 -1.5537e+001  3.1066e+000 60350 76468,76635,76364
 7.0000e+000 76932 -1.2832e+001  9.2432e+000 -5.2321e-001 59946 76955,76733,76707
 7.0000e+000 76909 -1.3771e+001  7.3435e+000  7.9254e-001 59946 77027,76955,76707
 7.0000e+000 76886 -1.1520e+001  7.2849e+000 -3.8294e-003 59946 77027,76707,76837
 7.0000e+000 76863 -1.6982e+001  1.1241e+001  3.5312e+000 59946 76733,76785,76759
 7.0000e+000 76981 -1.2199e+001  8.0760e+000  1.6203e+000 59946 76785,76733,76955
 7.0000e+000 77004 -1.3486e+001  1.3495e+000  2.9780e+000 59946 76785,76955,76811
 7.0000e+000 77053 -1.0546e+001  7.2094e+000  5.9145e-002 59946 76811,76955,77027
 7.0000e+000 77076 -8.6840e+000  7.4170e+000 -1.1393e+000 59946 76811,77027,76837
 7.0000e+000 77226 -1.0096e+001 -1.3028e+001  3.2168e-001 59542 77099,77151,77125
 7.0000e+000 77203 -1.5532e+001 -2.0614e+001  3.9756e+000 59542 77099,77177,77151
 7.0000e+000 77427 -8.3063e+000 -1.1795e+001 -1.4072e+000 59030 77450,77277,77251
 7.0000e+000 77404 -9.0238e+000 -1.3799e+001 -1.5911e+000 59030 77450,77251,77355
 7.0000e+000 77381 -1.1817e+001 -1.3202e+001  9.4946e-002 59030 77277,77329,77303
 7.0000e+000 77476 -8.6548e+000 -1.1259e+001 -7.3352e-001 59030 77329,77277,77450
 7.0000e+000 77499 -8.8484e+000 -1.2410e+001 -9.1437e-001 59030 77329,77450,77355
 7.0000e+000 77749 -6.7453e+000 -1.4827e+001  1.3573e+000 58426 77772,77628,77602
 7.0000e+000 77726 -4.1183e+000 -2.0175e+001  3.4005e+000 58426 77524,77654,77628
 7.0000e+000 77703 -6.4177e+000 -1.2572e+001  1.1081e+000 58426 77772,77602,77550
 7.0000e+000 77680 -7.9869e+000 -1.3339e+001  1.8153e+000 58426 77550,77602,77576
 7.0000e+000 77798 -6.0599e+000 -1.7527e+001  2.7088e-001 58426 77524,77628,77772
 7.0000e+000 77821 -5.1936e+000 -1.4609e+001  2.9618e-001 58426 77524,77772,77550
 7.0000e+000 78071 -8.5829e+000  8.3423e+000 -1.9575e-002 57922 78094,77924,77898
 7.0000e+000 78048 -9.9954e+000  5.6515e+000 -5.7185e-001 57922 78094,77898,77872
 7.0000e+000 78025 -9.8651e+000  1.4693e+000 -2.7370e+000 57922 78166,77846,77950
 7.0000e+000 78002 -6.1768e+000  2.4369e+000 -2.8563e+000 57922 77846,77976,77950
 7.0000e+000 78120 -6.6085e+000  4.5959e+000 -7.9047e-001 57922 77950,77924,78094
 7.0000e+000 78143 -9.1310e+000  2.2644e+000 -1.7601e+000 57922 78166,77950,78094
 7.0000e+000 78192 -1.1110e+001  3.5870e+000 -1.2865e+000 57922 77872,77846,78166
 7.0000e+000 78215 -9.2967e+000  5.5756e+000 -1.4737e-001 57922 77872,78166,78094
 7.0000e+000 78416 -7.2376e+000 -6.4846e+000 -1.3839e+000 57468 78439,78292,78240
 7.0000e+000 78393 -9.1048e+000 -9.0005e+000 -5.6825e-001 57468 78439,78240,78344
 7.0000e+000 78370 -8.1501e+000 -1.4052e+000 -2.8053e+000 57468 78240,78292,78266
 7.0000e+000 78465 -9.3339e+000 -6.6116e+000  2.5224e-001 57468 78318,78292,78439
 7.0000e+000 78488 -1.0173e+001 -7.8230e+000  6.3319e-001 57468 78318,78439,78344
 7.0000e+000 78689 -1.1031e+001  1.9361e+000  7.7951e-001 57014 78712,78539,78513
 7.0000e+000 78666 -9.5536e+000  1.3583e+000 -2.4103e-001 57014 78712,78513,78617
 7.0000e+000 78643 -6.2805e+000 -3.3000e+000  3.4855e-001 57014 78565,78617,78591
 7.0000e+000 78738 -9.1433e+000  9.2712e-001  9.0478e-001 57014 78565,78539,78712
 7.0000e+000 78761 -7.2506e+000  1.2638e+000 -6.6225e-001 57014 78565,78712,78617
 7.0000e+000 79241 -4.9096e+000 -6.3702e+000 -4.9986e-001 56652 79264,78895,78869
 7.0000e+000 79218 -4.8978e+000 -8.0376e+000 -7.2689e-001 56652 79264,78869,79051
 7.0000e+000 79195 -7.9043e+000 -7.6518e+000 -2.0253e+000 56652 78869,79077,79051
 7.0000e+000 79172 -8.4541e+000 -6.3353e+000 -2.2358e-001 56652 78895,78973,78947
 7.0000e+000 79149 -7.6460e+000 -1.6268e+001 -7.9683e-001 56652 78973,79051,78999
 7.0000e+000 79126 -4.3043e+000 -7.4985e+000 -1.3429e+000 56652 78895,78947,78921
 7.0000e+000 79103 -5.4761e+000 -9.8316e+000  1.8598e-001 56652 78999,79051,79025
 7.0000e+000 79290 -5.0002e+000 -5.2138e+000  2.9410e-001 56652 78973,78895,79264
 7.0000e+000 79313 -5.1470e+000 -7.2578e+000  1.7489e-001 56652 78973,79264,79051
 7.0000e+000 79512 -7.4765e+000 -1.8683e+001  1.4072e+000 56062 79388,79440,79414
 7.0000e+000 79489 -1.3495e+001 -1.2539e+001  1.7392e+000 56062 79336,79440,79388
 7.0000e+000 79466 -2.5916e+000 -1.6700e+001  3.5532e+000 56062 79336,79388,79362
 7.0000e+000 79941 -7.4894e+000  7.2999e+000  1.0345e-001 55658 79964,79670,79644
 7.0000e+000 79918 -9.4293e+000  9.6228e+000 -1.8605e-001 55658 79964,79644,79800
 7.0000e+000 79895 -5.3595e+000  8.9071e+000  8.0118e-002 55658 80036,79696,79670
 7.0000e+000 79872 -5.7525e+000  1.6074e+000  4.1427e-001 55658 80108,79722,79696
 7.0000e+000 79849 -2.4350e+000  6.6784e+000 -2.5709e+000 55658 79722,79774,79748
 7.0000e+000 79826 -1.1806e+001  8.5143e+000 -3.7826e-001 55658 79618,79800,79644
 7.0000e+000 79990 -9.6747e+000  6.9838e+000 -3.8784e-001 55658 80036,79670,79964
 7.0000e+000 80013 -1.7470e+001  5.5746e+000 -4.2278e+000 55658 79774,79964,79800
 7.0000e+000 80062 -6.8457e+000  4.7288e+000 -1.1595e+000 55658 80108,79696,80036
 7.0000e+000 80085 -6.2094e+000  1.0212e+001 -3.0079e+000 55658 79774,80036,79964
 7.0000e+000 80134 -3.2431e+000  5.9276e+000 -1.1836e+000 55658 79774,79722,80108
 7.0000e+000 80157 -3.9974e+000  8.7016e+000 -2.9862e+000 55658 79774,80108,80036
 7.0000e+000 80307 -5.2031e+000  1.8560e+000 -2.5965e+000 55254 80402,80330,80206
 7.0000e+000 80284 -2.3828e+000  1.6856e+001 -1.3500e+000 55254 80330,80180,80258
 7.0000e+000 80356 -1.6498e+000  1.0126e+001 -2.7989e+000 55254 80232,80206,80330
 7.0000e+000 80379 -8.5704e+000  7.0069e+000 -4.2636e+000 55254 80232,80330,80258
 7.0000e+000 80428  1.8738e+000  1.2480e+001  1.5620e+000 55254 80180,80330,80402
 7.0000e+000 80659 -1.1225e+001 -1.5062e+001  9.5819e-001 54850 80558,80610,80584
 7.0000e+000 80636 -1.2698e+001 -1.5311e+001  1.2250e+000 54850 80532,80610,80558
 7.0000e+000 80760 -5.9245e+000  1.7278e+001  1.3475e-001 54652 80682,80734,80708
 7.0000e+000 81164 -6.6181e+000  1.3756e+001  5.8527e-001 54248 81187,80942,80890
 7.0000e+000 81141 -6.8819e+000  1.5288e+001  5.7740e-001 54248 81187,80890,81046
 7.0000e+000 81118 -3.1706e+000  1.4691e+001 -1.8373e+000 54248 80942,81020,80994
 7.0000e+000 81095 -5.2427e+000  1.8455e+001 -1.4016e-001 54248 80890,80942,80916
 7.0000e+000 81072 -7.6885e+000  7.2912e+000  1.2320e+000 54248 80942,80994,80968
 7.0000e+000 81213 -6.6240e+000  1.2715e+001  2.5730e-001 54248 81020,80942,81187
 7.0000e+000 81236 -7.1876e+000  1.3839e+001  2.6194e-001 54248 81020,81187,81046
 7.0000e+000 81663 -1.4319e+001 -1.1708e+001 -4.3278e-002 53594 81340,81444,81366
 7.0000e+000 81640 -1.3243e+001 -1.8886e+001 -1.2203e+000 53594 81340,81470,81444
 7.0000e+000 81617 -1.5183e+001 -1.7574e+001 -5.9232e+000 53594 81340,81522,81470
 7.0000e+000 81594 -1.2021e+001 -7.6151e+000 -7.3301e-001 53594 81392,81444,81418
 7.0000e+000 81571 -1.1180e+001 -1.0079e+001 -9.4470e-001 53594 81366,81444,81392
 7.0000e+000 81548 -1.6207e+000 -2.1500e+001 -1.9221e+000 53594 81470,81522,81496
 7.0000e+000 81943 -7.5393e+000 -4.1789e+000 -5.1258e-002 53104 81966,81845,81819
 7.0000e+000 81920 -7.9146e+000 -3.0105e+000 -1.4838e-001 53104 81966,81819,81767
 7.0000e+000 81897 -8.2355e+000 -6.7903e+000  3.7463e+000 53104 81767,81819,81793
 7.0000e+000 81992 -7.3653e+000 -3.3080e+000 -3.4138e-002 53104 81871,81845,81966
 7.0000e+000 82015 -7.4298e+000 -1.6832e+000 -2.3458e-001 53104 81871,81966,81767
 7.0000e+000 82491 -6.5799e+000 -6.5345e+000 -9.5736e-001 52650 82145,82249,82171
 7.0000e+000 82468 -7.0550e+000 -7.2116e+000 -3.7361e-001 52650 82145,82301,82249
 7.0000e+000 82445 -8.2972e+000 -1.1503e+001 -5.3963e-001 52650 82249,82301,82275
 7.0000e+000 82422 -1.2505e+001 -1.3357e+001 -2.7468e+000 52650 82119,82301,82145
 7.0000e+000 82399 -6.4577e+000 -5.4321e+000 -9.4317e-002 52650 82171,82249,82223
 7.0000e+000 82376 -9.8328e+000 -1.2438e+001 -1.2728e-001 52650 82119,82327,82301
 7.0000e+000 82353 -1.4907e+000 -3.3069e+000 -7.3070e-001 52650 82171,82223,82197
 7.0000e+000 82739 -5.5333e+000 -3.3741e+000 -4.0953e-001 52246 82762,82540,82514
 7.0000e+000 82716 -6.2389e+000 -3.2507e+000 -2.3058e-001 52246 82762,82514,82644
 7.0000e+000 82693 -5.4369e+000 -2.1169e+000 -1.9168e-001 52246 82540,82618,82592
 7.0000e+000 82670 -1.2228e+001  2.7518e+000 -4.6839e+000 52246 82540,82592,82566
 7.0000e+000 82788 -6.1443e+000 -3.0127e+000 -7.3406e-001 52246 82618,82540,82762
 7.0000e+000 82811 -7.1176e+000 -3.2103e+000 -7.9063e-001 52246 82618,82762,82644
 7.0000e+000 83059 -6.1584e+000 -3.3422e+000  5.9260e-001 51578 82860,82964,82938
 7.0000e+000 83036 -5.8981e+000 -3.0997e+000  2.9704e+000 51578 82834,82964,82860
 7.0000e+000 83013 -5.3200e+000 -3.7538e+000  3.8086e-001 51578 82860,82938,82886
 7.0000e+000 82990 -4.7562e+000 -1.7981e+000  6.6202e-002 51578 82886,82938,82912
 7.0000e+000 83309 -4.1833e+000 -3.5879e+000 -1.4369e-001 51138 83332,83162,83136
 7.0000e+000 83286 -2.2781e+000 -3.5607e+000 -2.9484e-001 51138 83332,83136,83110
 7.0000e+000 83263 -3.2913e+000 -3.7089e+000  6.7272e-001 51138 83404,83214,83188
 7.0000e+000 83240  1.0737e+000 -3.0516e+000  5.6272e-002 51138 83084,83214,83110
 7.0000e+000 83358 -4.6177e+000 -3.4457e+000  6.3321e-001 51138 83188,83162,83332
 7.0000e+000 83381 -3.4542e+000 -3.2147e+000  2.6865e-001 51138 83404,83188,83332
 7.0000e+000 83430 -3.6971e+000 -4.8071e+000  7.8042e-001 51138 83110,83214,83404
 7.0000e+000 83453 -3.6797e+000 -4.0352e+000  3.5906e-001 51138 83110,83404,83332
 7.0000e+000 83835 -7.9295e+000 -9.1959e+000  1.4801e+000 50734 83613,83717,83691
 7.0000e+000 83812 -8.4179e+000 -1.0534e+001  4.3128e-001 50734 83561,83717,83613
 7.0000e+000 83789 -7.5858e+000 -6.5573e+000 -3.4370e-001 50734 83561,83613,83587
 7.0000e+000 83766 -9.6705e+000 -7.8426e+000  1.2782e+000 50734 83613,83691,83639
 7.0000e+000 83743 -9.6666e+000 -7.1471e+000  2.9883e+000 50734 83639,83691,83665
 7.0000e+000 84034 -2.5143e+000 -1.0511e+000 -2.6723e+000 50230 84057,83884,83858
 7.0000e+000 84011 -3.0028e+000 -1.2233e+000 -1.0921e+000 50230 84129,84057,83858
 7.0000e+000 83988 -2.1662e+000 -7.0246e-001 -1.3929e+000 50230 84129,83858,83962
 7.0000e+000 84083 -5.1102e+000 -1.9645e+000 -3.1311e+000 50230 83910,83884,84057
 7.0000e+000 84106 -3.8065e+000 -2.6078e+000 -8.9626e-001 50230 83910,84057,83936
 7.0000e+000 84155 -1.5797e+000 -1.8168e+000 -1.2108e+000 50230 83936,84057,84129
 7.0000e+000 84178 -1.1889e+000 -1.6439e+000 -1.4580e+000 50230 83936,84129,83962
 7.0000e+000 84558 -8.8821e+000 -6.9698e+000 -3.6813e-001 49768 84581,84388,84362
 7.0000e+000 84535 -1.0927e+001 -7.9288e+000 -6.4787e-001 49768 84581,84362,84310
 7.0000e+000 84512 -5.9584e+000 -1.0249e+001 -9.1755e-001 49768 84653,84440,84414
 7.0000e+000 84489 -1.0997e+001 -9.3861e+000 -3.4092e-001 49768 84310,84362,84336
 7.0000e+000 84466 -3.9088e+000 -9.9179e+000 -1.3693e+000 49768 84284,84440,84310
 7.0000e+000 84607 -6.8688e+000 -7.0094e+000 -1.3401e+000 49768 84414,84388,84581
 7.0000e+000 84630 -6.8103e+000 -7.7224e+000 -6.9245e-001 49768 84653,84414,84581
 7.0000e+000 84679 -7.1191e+000 -1.1232e+001 -1.3893e+000 49768 84310,84440,84653
 7.0000e+000 84702 -9.2898e+000 -1.0446e+001 -1.7928e+000 49768 84310,84653,84581
 7.0000e+000 85159 -1.1194e+000 -2.0720e+000 -3.6813e+000 49192 84885,84937,84911
 7.0000e+000 85136 -3.2003e+000  2.1552e+000  2.0391e-001 49192 84885,85041,84937
 7.0000e+000 85113  1.2616e+000  7.3647e+000 -2.0427e+000 49192 84963,85041,84989
 7.0000e+000 85090  1.7028e+000  1.0627e+001  2.2566e+000 49192 84937,85041,84963
 7.0000e+000 85067  2.2382e+000  5.2759e+000 -2.1591e-003 49192 84989,85041,85015
 7.0000e+000 85714 -7.7470e+000 -4.9305e+000  7.8452e-001 48638 85368,85498,85394
 7.0000e+000 85691 -7.1136e+000 -6.5356e+000  4.8373e-001 48638 85368,85524,85498
 7.0000e+000 85668 -1.0658e+001 -6.8204e+000  3.7607e+000 48638 85737,85420,85394
 7.0000e+000 85645 -7.6952e+000 -5.5174e+000  1.5942e+000 48638 85737,85394,85498
 7.0000e+000 85622 -4.3629e+000 -4.3133e+000  1.7988e+000 48638 85446,85498,85472
 7.0000e+000 85599 -3.3386e+000 -5.2812e+000  1.3101e+000 48638 85342,85524,85368
 7.0000e+000 85576 -1.0385e+001 -8.9948e+000  2.6795e+000 48638 85342,85550,85524
 7.0000e+000 85763 -6.6353e+000 -5.3376e+000  2.9798e+000 48638 85446,85420,85737
 7.0000e+000 85786 -6.1554e+000 -5.8472e+000  9.7337e-001 48638 85446,85737,85498
 7.0000e+000 86371 -6.6176e+000 -3.9080e+000  7.2735e-001 48084 86100,86230,86178
 7.0000e+000 86348 -6.9344e+000 -6.3762e+000  2.9081e-001 48084 86048,86230,86100
 7.0000e+000 86325 -3.9301e+000 -2.8007e+000  6.1018e-001 48084 86100,86178,86126
 7.0000e+000 86302 -6.2476e+000 -4.8188e+000  1.4879e+000 48084 86048,86100,86074
 7.0000e+000 86279 -8.0044e+000 -6.9565e+000  1.1996e+000 48084 86178,86230,86204
 7.0000e+000 86256 -1.9731e+000 -2.5411e+000  1.1180e+000 48084 86126,86178,86152
 7.0000e+000 86619  3.5953e-001  3.3457e+000  1.8021e+000 47630 86642,86446,86420
 7.0000e+000 86596 -2.1579e+000  2.4157e+000  2.1302e+000 47630 86642,86420,86394
 7.0000e+000 86573  1.5529e+000  2.5370e+000 -7.0615e-001 47630 86394,86524,86498
 7.0000e+000 86550  9.7117e-001  3.2938e+000 -3.2220e-001 47630 86446,86498,86472
 7.0000e+000 86668  3.1027e-001  3.5506e+000 -4.0685e-001 47630 86498,86446,86642
 7.0000e+000 86691 -1.8476e+000  2.6639e+000 -9.3627e-003 47630 86498,86642,86394
 7.0000e+000 87022 -4.9027e+000 -5.2328e+000 -3.9322e-001 47226 87045,86875,86849
 7.0000e+000 86999 -4.0682e+000 -3.0821e+000 -8.2649e-002 47226 87045,86849,86797
 7.0000e+000 86976 -3.7664e+000 -2.9946e+000 -6.2061e-001 47226 86797,86849,86823
 7.0000e+000 86953 -6.3199e+000 -4.4293e+000 -2.4812e+000 47226 86875,86927,86901
 7.0000e+000 87071 -5.3831e+000 -2.8612e+000 -3.0013e-001 47226 86927,86875,87045
 7.0000e+000 87094 -5.0933e+000 -1.4781e+000 -8.0858e-002 47226 86927,87045,86797
 7.0000e+000 87244 -4.3788e+000 -7.0685e+000 -3.6009e-001 46814 87267,87169,87143
 7.0000e+000 87221 -6.5563e+000 -7.1224e+000 -1.9946e+000 46814 87267,87143,87117
 7.0000e+000 87293  3.9493e-001 -2.7386e+000  9.9445e-001 46814 87339,87267,87195
 7.0000e+000 87316 -2.4100e+000 -5.3394e+000 -1.4349e+000 46814 87469,87267,87117
 7.0000e+000 87365 -9.3706e+000 -6.9179e+000  5.3112e-001 46814 87169,87267,87339
 7.0000e+000 87495 -1.5777e+000 -3.7802e-001 -1.9544e+000 46814 87195,87267,87469
 7.0000e+000 88001 -4.1110e+000  1.1913e+001  3.0609e+000 46310 88024,87834,87808
 7.0000e+000 87978 -4.8576e+000  1.2114e+001  3.8924e-002 46310 88024,87808,87756
 7.0000e+000 87955 -3.5819e+000  9.7304e+000  6.7862e-001 46310 88096,87730,87860
 7.0000e+000 87932 -3.5996e+000  9.3219e+000  1.3537e-001 46310 87756,87808,87782
 7.0000e+000 87909 -2.8164e+000  2.0287e+001 -6.9583e-001 46310 87678,87860,87730
 7.0000e+000 87886 -5.4315e+000  2.0587e+001  2.2905e+000 46310 87678,87730,87704
 7.0000e+000 88050 -7.0418e+000  5.2229e+000  4.0001e+000 46310 87860,87834,88024
 7.0000e+000 88073 -3.9418e+000  1.1405e+001  1.5057e+000 46310 88096,87860,88024
 7.0000e+000 88122 -4.6454e+000  8.7627e+000  1.3433e-001 46310 87756,87730,88096
 7.0000e+000 88145 -6.2503e+000  9.3529e+000  6.0562e-001 46310 87756,88096,88024
 7.0000e+000 88572 -7.2813e+000 -6.3546e+000 -8.8816e-001 45856 88249,88405,88275
 7.0000e+000 88549 -1.1247e+001 -5.2248e+000 -1.2038e+000 45856 88249,88431,88405
 7.0000e+000 88526 -7.5811e+000 -5.7011e+000 -7.3907e-001 45856 88327,88405,88353
 7.0000e+000 88503 -5.8138e+000 -4.8992e+000 -1.1704e-001 45856 88275,88405,88327
 7.0000e+000 88480 -8.0067e+000 -7.4484e+000 -1.5585e+000 45856 88353,88405,88379
 7.0000e+000 88457 -6.5833e+000 -4.7541e+000  2.0726e-001 45856 88275,88327,88301
 7.0000e+000 88950  1.1535e+000  4.5626e+000  8.9520e-001 45658 88973,88754,88728
 7.0000e+000 88927  1.0665e+000  9.1457e+000  1.5517e+000 45658 88973,88728,88676
 7.0000e+000 88904  3.2390e+000  1.3181e+001 -1.5346e-001 45658 88676,88832,88806
 7.0000e+000 88881  8.5494e-001  8.6660e+000  1.5164e+000 45658 88676,88728,88702
 7.0000e+000 88858 -3.2761e+000  2.3821e+000 -3.7482e+000 45658 88754,88806,88780
 7.0000e+000 88999  1.9631e+000  8.6397e+000  7.1350e-001 45658 88806,88754,88973
 7.0000e+000 89022  4.3471e-001  1.1291e+001  1.4925e+000 45658 88806,88973,88676
 7.0000e+000 89351 -6.1762e+000 -6.4362e+000  3.6393e-001 45254 89152,89230,89204
 7.0000e+000 89328 -8.6493e+000 -7.6399e+000 -2.0121e-001 45254 89152,89256,89230
 7.0000e+000 89305 -7.9336e+000 -7.7784e+000 -4.5165e-001 45254 89126,89256,89152
 7.0000e+000 89282 -8.4837e+000 -3.4038e+000  1.3490e+000 45254 89152,89204,89178
 7.0000e+000 89523  2.4451e+000  1.6130e+001  1.6086e+000 45006 89422,89474,89448
 7.0000e+000 89500 -3.3914e+000  1.3591e+001 -3.0859e+000 45006 89396,89474,89422
 7.0000e+000 89673 -7.2156e+000 -7.3632e+000  1.2676e+000 44495 89572,89624,89598
 7.0000e+000 89650 -7.1796e+000 -8.7632e+000  2.5957e+000 44495 89546,89624,89572
 7.0000e+000 90104 -1.8883e+000 -3.4309e-001  3.0897e-001 44005 90199,90127,89937
 7.0000e+000 90081 -1.7379e+000  1.9943e-001  1.9476e-002 44005 90271,90127,89859
 7.0000e+000 90058 -2.2708e+000  8.3241e-002  4.0607e-001 44005 90199,89937,89885
 7.0000e+000 90035 -2.6710e+000  5.0716e-001  5.2880e-001 44005 90271,89859,89807
 7.0000e+000 90012 -1.8630e+000  8.1674e-001  5.9344e-001 44005 89885,89937,89911
 7.0000e+000 89989 -1.4911e+000  5.4540e-001  7.8966e-001 44005 89807,89859,89833
 7.0000e+000 90153 -1.7502e+000 -3.0003e-001  2.7119e-001 44005 89963,89937,90127
 7.0000e+000 90176 -1.6782e+000  2.4859e-001 -2.8601e-001 44005 89963,90127,89781
 7.0000e+000 90225 -1.6405e+000  2.8298e-001  1.4983e-001 44005 89859,90127,90199
 7.0000e+000 90248 -1.8945e+000  9.5521e-001  2.8448e-001 44005 89859,90199,89885
 7.0000e+000 90297 -3.1695e+000 -3.0078e-001 -6.1035e-002 44005 89781,90127,90271
 7.0000e+000 90320 -3.7302e+000  2.2699e-001  4.9724e-001 44005 89781,90271,89807
 7.0000e+000 90470 -4.5935e-001  1.0798e+001  1.7528e+000 43601 90493,90369,90343
 7.0000e+000 90447  5.7689e-003  1.2194e+001  1.6396e+000 43601 90493,90343,90421
 7.0000e+000 90519  3.5069e-001  7.3069e+000  8.1472e-001 43601 90395,90369,90493
 7.0000e+000 90542  1.9689e+000  1.0822e+001  4.0817e-001 43601 90395,90493,90421
 7.0000e+000 90922  1.2693e+000  7.4572e+000  1.1335e+000 43154 90945,90700,90674
 7.0000e+000 90899  1.8423e-001  6.8089e+000  2.3422e-001 43154 90945,90674,90648
 7.0000e+000 90876 -2.0788e+000  4.4801e+000  6.2150e-001 43154 90648,90778,90752
 7.0000e+000 90853 -1.5805e-002  4.8256e+000  1.0381e-001 43154 90700,90752,90726
 7.0000e+000 90830 -4.4709e+000  7.4109e+000 -2.9339e+000 43154 90648,90804,90778
 7.0000e+000 90971  6.9994e-001  6.6395e+000  5.8251e-001 43154 90752,90700,90945
 7.0000e+000 90994  2.0761e-004  6.4323e+000 -2.6026e-001 43154 90752,90945,90648
 7.0000e+000 91451 -4.5060e-001 -4.1886e-001  8.8929e-001 42650 91203,91255,91229
 7.0000e+000 91428 -1.1998e+000 -7.3769e-001 -1.3021e-001 42650 91203,91333,91255
 7.0000e+000 91405 -1.8279e+000 -5.1631e-001 -1.5172e-001 42650 91177,91333,91203
 7.0000e+000 91382 -1.6237e+000 -1.1605e+000  1.0495e-001 42650 91255,91333,91281
 7.0000e+000 91359 -3.7921e+000 -1.1363e+000 -5.9517e-001 42650 91281,91333,91307
 7.0000e+000 91721 -8.7540e+000 -6.6982e+000  7.5200e-001 42288 91496,91600,91522
 7.0000e+000 91698 -8.6039e+000 -7.6556e+000 -1.1245e+000 42288 91496,91626,91600
 7.0000e+000 91675 -4.5364e+000 -5.1603e+000  4.9298e-001 42288 91522,91574,91548
 7.0000e+000 91652 -6.4425e+000 -5.6807e+000  9.5174e-001 42288 91522,91600,91574
 7.0000e+000 92199 -8.5075e+000 -6.5047e+000  8.2350e-001 41898 92222,91983,91879
 7.0000e+000 92176 -7.1440e+000 -7.8114e+000  3.5080e-001 41898 92294,92222,91879
 7.0000e+000 92153 -6.4951e+000 -7.6583e+000  7.6346e-001 41898 92294,91879,91853
 7.0000e+000 92130 -6.0839e+000 -4.6549e+000  4.5795e-001 41898 91879,91957,91931
 7.0000e+000 92107 -7.5324e+000 -6.1618e+000  1.3966e+000 41898 91879,91983,91957
 7.0000e+000 92084 -8.5214e+000 -6.0770e+000  2.4074e+000 41898 91879,91931,91905
 7.0000e+000 92061 -7.1938e+000 -1.0713e+001 -2.4794e-001 41898 91827,92035,91853
 7.0000e+000 92248 -1.1041e+001 -8.8429e+000  1.7942e+000 41898 92009,91983,92222
 7.0000e+000 92271 -8.3061e+000 -8.2520e+000  7.3644e-002 41898 92009,92222,92035
 7.0000e+000 92320 -8.0997e+000 -7.7919e+000  3.2256e-002 41898 92035,92222,92294
 7.0000e+000 92343 -7.6810e+000 -7.9057e+000  3.8153e-001 41898 92035,92294,91853
 7.0000e+000 92770  3.1935e+000  6.0303e+000 -1.2023e+000 41437 92865,92793,92525
 7.0000e+000 92747  2.7108e+000  5.2414e+000 -1.6382e+000 41437 92793,92473,92629
 7.0000e+000 92724  3.9080e+000  5.9827e+000 -1.5801e+000 41437 92865,92525,92499
 7.0000e+000 92701  2.3461e+000  5.1632e+000 -1.7299e+000 41437 92525,92603,92577
 7.0000e+000 92678  1.0008e+000  5.7967e+000 -1.3672e+000 41437 92447,92629,92473
 7.0000e+000 92655  7.7739e-001  5.2331e+000 -1.4879e+000 41437 92525,92577,92551
 7.0000e+000 92819  2.8408e+000  5.2110e+000 -1.6047e+000 41437 92603,92525,92793
 7.0000e+000 92842  1.5529e+000  4.8205e+000 -2.7571e+000 41437 92603,92793,92629
 7.0000e+000 92891  4.6602e+000  5.3658e+000 -1.3613e+000 41437 92473,92793,92865
 7.0000e+000 92914  5.7496e+000  5.8175e+000 -1.9315e+000 41437 92473,92865,92499
 7.0000e+000 93243 -8.3434e-001 -6.9894e-001  1.2969e+000 41097 93044,93096,93070
 7.0000e+000 93220 -1.9313e+000 -2.5835e+000  7.6361e-001 41097 93044,93122,93096
 7.0000e+000 93197 -2.2943e+000 -1.8727e+000  5.5676e-001 41097 93044,93148,93122
 7.0000e+000 93174 -2.6165e+000 -3.4908e+000 -3.6723e-001 41097 93018,93148,93044
 7.0000e+000 93393 -5.3949e+000 -5.0920e+000  1.0432e-001 40643 93416,93292,93344
 7.0000e+000 93370 -4.7244e+000 -4.7112e+000  3.1956e-001 40643 93266,93344,93292
 7.0000e+000 93442 -4.6389e+000 -3.6727e+000  1.8040e+000 40643 93318,93292,93416
 7.0000e+000 93901  7.1255e-001  8.4670e-001 -1.2624e+000 40132 93924,93731,93705
 7.0000e+000 93878  2.1077e+000  1.7815e+000 -7.3352e-001 40132 93996,93924,93705
 7.0000e+000 93855  2.2872e+000  2.1500e+000 -3.1566e-001 40132 93996,93705,93653
 7.0000e+000 93832  6.1205e+000  2.4144e+000 -8.0659e-001 40132 93653,93705,93679
 7.0000e+000 93809  1.7004e+000  1.1887e+000  5.8386e-001 40132 93627,93783,93757
 7.0000e+000 93950 -6.1147e-001  1.9004e+000 -4.0847e-001 40132 93757,93731,93924
 7.0000e+000 93973  1.2026e+000  2.5313e+000 -1.7551e-001 40132 93757,93924,93627
 7.0000e+000 94022  1.2723e+000  1.6155e+000 -1.1214e+000 40132 93627,93924,93996
 7.0000e+000 94045  1.8378e+000  1.9038e+000 -7.4597e-001 40132 93627,93996,93653
 7.0000e+000 94423 -5.3734e+000 -8.5810e+000  1.3893e-001 39514 94149,94227,94175
 7.0000e+000 94400 -5.2440e+000 -8.0666e+000  4.5063e-001 39514 94149,94305,94227
 7.0000e+000 94377 -2.7146e+000 -5.7607e+000 -9.5632e-001 39514 94175,94227,94201
 7.0000e+000 94354 -6.9619e+000 -5.7722e+000  5.7071e-003 39514 94227,94305,94279
 7.0000e+000 94331 -3.9879e+000 -4.4559e+000  3.0892e-001 39514 94227,94279,94253
 7.0000e+000 94573  2.1478e+000  3.5174e+000  3.4732e-001 38822 94596,94498,94472
 7.0000e+000 94550  3.5952e+000  6.2793e+000  8.7951e-001 38822 94596,94472,94446
 7.0000e+000 94622  7.4693e-001  3.1616e+000 -3.1441e+000 38822 94524,94498,94596
 7.0000e+000 94645  2.8324e+000  7.7430e+000 -2.6033e+000 38822 94524,94596,94446
 7.0000e+000 95025 -3.4785e-001  2.0249e+000  6.3637e-001 38418 95048,94829,94777
 7.0000e+000 95002  2.1133e-002  1.6213e+000  1.7189e-003 38418 95120,95048,94777
 7.0000e+000 94979  2.3104e-001  1.4714e+000  4.2415e-002 38418 95120,94777,94751
 7.0000e+000 94956 -9.4990e-001  6.6833e-001  1.3243e-001 38418 95192,94881,94855
 7.0000e+000 94933 -3.9085e+000  5.5667e+000  6.6085e-001 38418 94777,94829,94803
 7.0000e+000 95074 -6.2061e-001  1.4013e+000  6.0301e-001 38418 94855,94829,95048
 7.0000e+000 95097 -8.4123e-001  1.7761e+000  4.3713e-001 38418 95192,94855,95048
 7.0000e+000 95146 -4.4891e-001  1.6142e+000  1.5950e-001 38418 94907,95048,95120
 7.0000e+000 95169 -5.1128e-002  1.5983e+000  2.4885e-001 38418 94907,95120,94751
 7.0000e+000 95218 -1.0901e+000 -7.8702e-001 -7.7800e-002 38418 94907,94881,95192
 7.0000e+000 95241 -9.1015e-001  6.3748e-001  3.1743e-002 38418 94907,95192,95048
 7.0000e+000 95511  2.1662e-001  6.2366e+000  1.5669e+000 38049 95312,95390,95364
 7.0000e+000 95488  4.0323e+000  7.9575e+000  1.1799e+000 38049 95312,95416,95390
 7.0000e+000 95465  7.4763e-001  1.7339e+000  9.8056e-001 38049 95312,95364,95338
 7.0000e+000 95442 -2.0974e-001  9.5989e+000  6.4856e-001 38049 95286,95416,95312
 7.0000e+000 95808 -7.4981e-001  1.1659e+000  4.9840e-001 37437 95831,95586,95560
 7.0000e+000 95785 -8.3519e-001  5.7048e-001  2.4694e-001 37437 95831,95560,95534
 7.0000e+000 95762 -4.5223e-001  9.0751e-001  5.9625e-001 37437 95586,95664,95638
 7.0000e+000 95739 -6.0824e-001 -5.2268e-002  1.6362e-001 37437 95534,95690,95664
 7.0000e+000 95716 -9.4890e-001  2.0732e+000  2.1652e-001 37437 95586,95638,95612
 7.0000e+000 95857 -6.3343e-001  6.5441e-001  3.7274e-001 37437 95664,95586,95831
 7.0000e+000 95880 -7.5165e-001  2.8384e-002  1.1249e-001 37437 95664,95831,95534
 7.0000e+000 96390 -4.3124e+000 -3.6109e+000 -2.8725e-001 36883 96413,96145,96093
 7.0000e+000 96367 -4.6170e+000 -3.7837e+000 -4.6048e-001 36883 96413,96093,96067
 7.0000e+000 96344 -4.9182e+000 -6.4465e+000 -5.1991e-001 36883 96067,96249,96171
 7.0000e+000 96321 -6.7571e+000 -4.9570e+000  3.8351e-001 36883 96093,96145,96119
 7.0000e+000 96298 -4.6788e+000 -5.6777e+000 -1.1206e+000 36883 96171,96249,96197
 7.0000e+000 96275 -4.2822e+000 -6.5950e+000 -3.8836e-001 36883 96197,96249,96223
 7.0000e+000 96439 -4.4639e+000 -3.8804e+000 -5.3164e-001 36883 96171,96145,96413
 7.0000e+000 96462 -4.6802e+000 -3.8802e+000 -6.7989e-001 36883 96171,96413,96067
 7.0000e+000 96781 -5.0960e+000 -5.5849e+000  2.7696e-001 36215 96559,96663,96637
 7.0000e+000 96758 -4.7928e+000 -6.3789e+000 -1.3810e-002 36215 96507,96663,96559
 7.0000e+000 96735 -4.9875e+000 -1.7866e+000  1.4041e-002 36215 96585,96637,96611
 7.0000e+000 96712 -5.7195e+000 -5.0668e+000 -2.1323e-001 36215 96559,96637,96585
 7.0000e+000 96689 -5.2892e+000 -5.8476e+000 -2.4911e-001 36215 96507,96559,96533
 7.0000e+000 97161 -9.6389e-001  2.9076e+000  4.4193e-002 35818 97184,96965,96939
 7.0000e+000 97138 -7.7025e-001  7.3954e-001  6.3730e-001 35818 97184,96939,96887
 7.0000e+000 97115 -4.2786e+000 -3.7220e+000  2.1904e+000 35818 96965,97043,97017
 7.0000e+000 97092 -9.7665e-001  5.7651e-001  7.3983e-001 35818 96887,96939,96913
 7.0000e+000 97069 -4.7404e+000 -4.3334e+000  1.9648e+000 35818 96965,97017,96991
 7.0000e+000 97210 -1.3820e+000  1.2604e+000  9.5276e-001 35818 97043,96965,97184
 7.0000e+000 97233 -8.8743e-001 -4.7722e-001  1.5529e+000 35818 97043,97184,96887
 7.0000e+000 97739  6.0956e+000  6.1822e+000 -3.2925e+000 35214 97416,97468,97442
 7.0000e+000 97716  4.2505e+000  5.7964e+000 -1.5105e+000 35214 97416,97598,97468
 7.0000e+000 97693  2.8900e+000  6.1338e+000 -3.3206e+000 35214 97762,97520,97468
 7.0000e+000 97670  3.6259e+000  7.1137e+000 -1.8896e+000 35214 97762,97468,97598
 7.0000e+000 97647  3.6805e+000  1.0630e+001 -2.1274e+000 35214 97546,97598,97572
 7.0000e+000 97624  2.8153e+000  3.5827e+000 -2.6270e+000 35214 97468,97520,97494
 7.0000e+000 97788  3.4200e+000  7.8594e+000 -2.4756e+000 35214 97546,97520,97762
 7.0000e+000 97811  3.6496e+000  8.5928e+000 -1.1517e+000 35214 97546,97762,97598
 7.0000e+000 98189  3.6761e+000  1.2926e+001 -1.8229e+000 34760 98356,98212,97967
 7.0000e+000 98166  5.4258e+000  1.2710e+001 -2.9001e+000 34760 98284,98212,97941
 7.0000e+000 98143  7.5849e+000  1.2164e+001 -3.4720e+000 34760 98284,97941,97915
 7.0000e+000 98120  2.8851e+000  1.1689e+001 -7.6765e-001 34760 98484,97993,97967
 7.0000e+000 98097  5.7978e+000  1.2100e+001 -7.8864e-001 34760 98556,98045,98019
 7.0000e+000 98238  3.4678e+000  1.1224e+001 -6.9591e-001 34760 98484,97967,98212
 7.0000e+000 98261  4.4083e+000  1.1848e+001 -1.1148e-001 34760 98556,98019,98212
 7.0000e+000 98310  2.3936e+000  1.2540e+001 -1.1002e+000 34760 98071,98212,98284
 7.0000e+000 98333  5.0795e+000  1.1513e+001 -9.5664e-001 34760 98071,98284,97915
 7.0000e+000 98382 -3.6831e+000  9.2943e+000 -3.6315e+000 34760 97941,98212,98356
 7.0000e+000 98510  1.7944e+000  1.1419e+001 -4.6373e-001 34760 98019,97993,98484
 7.0000e+000 98533  2.7949e+000  1.1283e+001 -4.0852e-001 34760 98019,98484,98212
 7.0000e+000 98582  3.9550e+000  1.2092e+001 -6.8546e-001 34760 98071,98045,98556
 7.0000e+000 98605  3.3040e+000  1.2398e+001  8.4264e-003 34760 98071,98556,98212
 7.0000e+000 99032 -2.2120e+000  1.4721e+000  1.0401e+000 34156 98735,98891,98839
 7.0000e+000 99009 -1.4174e+000  2.6354e-001 -8.6890e-001 34156 98709,98891,98735
 7.0000e+000 98986 -3.0885e+000 -1.0689e+000  1.6062e+000 34156 98735,98813,98787
 7.0000e+000 98963 -2.8173e+000 -3.3259e-001  1.6896e+000 34156 98735,98839,98813
 7.0000e+000 98940 -2.2235e+000 -3.8954e+000  1.6246e+000 34156 98735,98787,98761
 7.0000e+000 98917 -3.1907e+000 -1.1078e+000  2.6202e+000 34156 98839,98891,98865
 7.0000e+000 99231 -5.9560e-001  1.4463e+000  3.7148e-001 33766 99055,99133,99107
 7.0000e+000 99208  4.0803e-001  4.6261e-001  2.0339e-001 33766 99055,99159,99133
 7.0000e+000 99185  6.7235e-001  2.3817e+000  1.2015e+000 33766 99055,99107,99081
 7.0000e+000 99818  5.7857e+000  1.0816e+001  5.4880e-001 33248 99521,99651,99573
 7.0000e+000 99795  6.1563e+000  1.0720e+001  1.3295e-001 33248 99521,99677,99651
 7.0000e+000 99772  8.6553e+000  1.4076e+001  2.0296e+000 33248 99573,99651,99599
 7.0000e+000 99749  5.1136e+000  1.2097e+001 -5.3352e-001 33248 99495,99677,99521
 7.0000e+000 99726  6.1391e+000  1.2776e+001  3.7314e+000 33248 99599,99651,99625
 7.0000e+000 99703  7.3161e+000  1.3671e+001 -2.3005e-001 33248 99521,99573,99547
 7.0000e+000 100196 -3.0057e-001  2.7833e+000  4.0404e-001 32794 100219,99948,99922
 7.0000e+000 100173  2.9040e-001  4.1835e+000  5.2972e-001 32794 100219,99922,100052
 7.0000e+000 100150  1.2190e+000  6.9303e+000  1.4294e-001 32794 99974,100052,100026
 7.0000e+000 100127  1.0565e-001  4.1162e+000  5.5660e-001 32794 99922,100078,100052
 7.0000e+000 100104  3.7052e+000  7.8951e+000 -7.7824e-002 32794 99974,100026,100000
 7.0000e+000 100245 -3.5688e-001  1.9164e+000 -1.0575e+000 32794 99974,99948,100219
 7.0000e+000 100268  5.9310e-001  4.0474e+000 -8.7281e-001 32794 99974,100219,100052
 7.0000e+000 100418 -3.9069e+000 -3.0987e+000 -6.2947e-002 32504 100571,100343,100317
 7.0000e+000 100395 -5.0087e+000 -3.5785e+000  1.2243e-001 32504 100571,100317,100441
 7.0000e+000 100467 -4.0676e+000 -3.7627e+000 -4.3555e-001 32504 100291,100369,100441
 7.0000e+000 100597 -3.6277e+000 -3.1834e+000 -1.0861e+000 32504 100369,100343,100571
 7.0000e+000 100620 -4.2311e+000 -3.3334e+000 -9.4573e-001 32504 100369,100571,100441
 7.0000e+000 101020  8.4527e+000  1.8290e+001  8.8969e-001 32142 100772,100902,100876
 7.0000e+000 100997  3.4406e+000  2.2579e+001 -2.0487e+000 32142 100746,100902,100772
 7.0000e+000 100974  4.3300e+000  1.3028e+001  1.5002e+000 32142 101043,100824,100798
 7.0000e+000 100951  5.0993e+000  1.2942e+001  1.4341e+000 32142 101043,100798,100772
 7.0000e+000 100928  2.8457e+000  1.2307e+001 -9.2917e-001 32142 101115,100876,100850
 7.0000e+000 101069  3.3691e+000  1.1978e+001  2.1350e+000 32142 100850,100824,101043
 7.0000e+000 101092  3.5456e+000  1.1031e+001  8.4418e-001 32142 101115,100850,101043
 7.0000e+000 101141  3.8825e+000  1.5314e+001 -6.6069e-001 32142 100772,100876,101115
 7.0000e+000 101164  4.9478e+000  1.4656e+001  1.0604e+000 32142 100772,101115,101043
 7.0000e+000 101719 -2.7100e+000 -1.2078e+000  5.7957e-001 31538 101742,101477,101399
 7.0000e+000 101696 -1.2800e+000 -5.6754e-001  8.3639e-001 31538 101814,101742,101399
 7.0000e+000 101673 -3.4141e-001 -6.6569e-001  1.6953e+000 31538 101814,101399,101373
 7.0000e+000 101650 -2.8759e+000 -8.2109e-001 -3.8813e-001 31538 101425,101477,101451
 7.0000e+000 101627 -2.2798e+000 -1.4231e-001 -1.2657e-001 31538 101399,101477,101425
 7.0000e+000 101604 -2.6126e+000 -7.7005e-001  7.9267e-001 31538 101477,101529,101503
 7.0000e+000 101581 -1.9589e+000 -6.0758e-001  1.3667e+000 31538 101347,101555,101373
 7.0000e+000 101768 -2.7475e+000 -7.1615e-001  7.1711e-001 31538 101529,101477,101742
 7.0000e+000 101791 -3.2791e+000 -1.0970e+000  2.3612e-001 31538 101529,101742,101555
 7.0000e+000 101840 -3.1847e+000 -4.2452e-001  6.3806e-001 31538 101555,101742,101814
 7.0000e+000 101863 -2.1637e+000 -5.7537e-001  1.4011e+000 31538 101555,101814,101373
 7.0000e+000 102111 -5.0664e+000 -2.7939e+000  4.3603e-001 31112 101886,101990,101912
 7.0000e+000 102088 -4.9333e+000 -4.6410e+000 -5.2859e-001 31112 101886,102016,101990
 7.0000e+000 102065 -3.6062e+000 -1.4477e+000 -6.7086e-001 31112 101912,101990,101964
 7.0000e+000 102042 -3.4223e+000 -9.5769e-001 -7.8020e-001 31112 101912,101964,101938
 7.0000e+000 102408 -2.8848e-001  1.3587e-001  2.5910e-001 30658 102431,102186,102160
 7.0000e+000 102385 -3.4876e-001 -4.6061e-001  8.9916e-001 30658 102431,102160,102264
 7.0000e+000 102362 -1.5205e-001  1.9035e+000  1.3219e+000 30658 102186,102238,102212
 7.0000e+000 102339 -3.5471e-001 -1.0741e+000  1.4735e-001 30658 102134,102264,102160
 7.0000e+000 102316 -4.7635e-001 -1.0748e+000  4.9460e-002 30658 102134,102290,102264
 7.0000e+000 102457 -6.5048e-001  8.9381e-001  3.6571e-001 30658 102238,102186,102431
 7.0000e+000 102480 -6.3109e-001  4.1633e-001  1.0252e+000 30658 102238,102431,102264
 7.0000e+000 102681  4.0084e+000  4.0155e+000 -2.6800e-001 30004 102704,102557,102505
 7.0000e+000 102658  3.3674e+000  3.0457e+000  1.5841e-001 30004 102704,102505,102609
 7.0000e+000 102635  4.0897e+000  5.9469e+000  7.4689e-001 30004 102505,102557,102531
 7.0000e+000 102730  3.3074e+000  5.5047e+000 -8.2212e-001 30004 102583,102557,102704
 7.0000e+000 102753  1.7191e+000  4.1687e+000 -5.7202e-002 30004 102583,102704,102609
 7.0000e+000 103003 -1.8279e+000  1.4472e+000  1.7855e+000 29564 103026,102804,102778
 7.0000e+000 102980 -1.8043e+000  1.1582e-001  1.0988e+000 29564 103026,102778,102908
 7.0000e+000 102957 -2.1142e+000 -1.0229e+000  1.5574e+000 29564 102856,102908,102882
 7.0000e+000 102934 -2.6943e+000  3.8641e+000  2.3530e+000 29564 102804,102856,102830
 7.0000e+000 103052 -1.1753e+000  2.2992e+000  2.6601e+000 29564 102856,102804,103026
 7.0000e+000 103075 -1.5506e+000  1.0513e+000  1.8343e+000 29564 102856,103026,102908
 7.0000e+000 103634  3.3549e+000  6.0898e+000  1.2417e+000 29160 103657,103418,103392
 7.0000e+000 103611  3.8639e+000  7.1202e+000  2.2620e+000 29160 103657,103392,103314
 7.0000e+000 103588  1.6515e+000  8.8907e+000  2.6661e+000 29160 103314,103392,103366
 7.0000e+000 103565  1.0334e+001  1.1425e+001 -1.1479e+000 29160 103314,103366,103340
 7.0000e+000 103542  7.8687e+000  9.8432e+000  1.7774e+000 29160 103262,103444,103314
 7.0000e+000 103519  8.0280e+000  7.6946e+000  5.0259e+000 29160 103262,103314,103288
 7.0000e+000 103496  2.7537e+000  9.1493e+000  1.5793e+000 29160 103262,103470,103444
 7.0000e+000 103683  1.6399e+000  4.5265e+000 -4.4135e-001 29160 103444,103418,103657
 7.0000e+000 103706  3.3228e+000  7.3977e+000  7.7298e-001 29160 103444,103657,103314
 7.0000e+000 104035 -2.5637e-001 -1.0602e+000  8.2074e-001 28770 103836,103914,103862
 7.0000e+000 104012 -1.9658e+000 -8.4013e-001  1.3017e+000 28770 103810,103914,103836
 7.0000e+000 103989 -2.5852e+000 -5.3873e-001  7.2751e-001 28770 103810,103940,103914
 7.0000e+000 103966 -8.6688e-001 -7.9983e-001  5.3075e-001 28770 103862,103914,103888
 7.0000e+000 104185  3.6837e+000  9.2778e+000  1.4197e+000 28366 104208,104110,104084
 7.0000e+000 104162  9.8206e-001  7.3061e+000 -7.3377e-001 28366 104280,104208,104084
 7.0000e+000 104234  2.3524e+000  7.4170e+000  1.5886e-001 28366 104610,104208,104136
 7.0000e+000 104257  5.6107e+000  1.0152e+001 -4.1092e-001 28366 104538,104410,104208
 7.0000e+000 104306  6.0801e+000  9.6821e+000 -1.1593e-001 28366 104538,104208,104280
 7.0000e+000 104436  3.8290e+000  9.6418e+000  8.1479e-001 28366 104136,104208,104410
 7.0000e+000 104564  6.0841e+000  1.0917e+001 -2.0608e-001 28366 104058,104410,104538
 7.0000e+000 104587  6.5032e+000  1.0434e+001  5.1966e-002 28366 104058,104538,104280
 7.0000e+000 104636  5.2491e+000  8.8971e+000  1.2733e+000 28366 104110,104208,104610
 7.0000e+000 105349 -1.4310e+000  1.7478e+000  9.5683e-001 27976 105516,105372,105107
 7.0000e+000 105326 -3.7089e+000 -3.4549e-001  7.3917e-001 27976 105588,105372,105055
 7.0000e+000 105303 -4.0363e+000 -1.1518e+000  5.5891e-002 27976 105444,105159,105133
 7.0000e+000 105280 -4.4255e-001  1.4072e+000  1.3193e+000 27976 105516,105107,105081
 7.0000e+000 105257 -4.8266e+000 -1.2996e+000 -8.4854e-002 27976 105588,105055,105029
 7.0000e+000 105234 -1.6873e+000 -9.3698e-001  9.5093e-001 27976 105003,105185,105159
 7.0000e+000 105211 -5.2011e-001 -1.6946e+000  3.1293e-001 27976 104977,105185,105003
 7.0000e+000 105398 -1.2636e-001 -7.2023e-002  1.3778e-001 27976 105133,105107,105372
 7.0000e+000 105421 -2.2860e+000 -9.9890e-001  7.1144e-002 27976 105444,105133,105372
 7.0000e+000 105470 -1.8381e+000 -5.9238e-001  4.1201e-001 27976 105003,105159,105444
 7.0000e+000 105493 -1.1581e+000 -1.1636e+000  5.3003e-001 27976 105003,105444,105372
 7.0000e+000 105542 -7.5845e-001  1.8401e+000  1.7971e+000 27976 105055,105372,105516
 7.0000e+000 105565  7.3122e-001  1.6958e+000  2.0573e+000 27976 105055,105516,105081
 7.0000e+000 105614 -2.2296e+000 -1.4677e+000  1.4095e+000 27976 105003,105372,105588
 7.0000e+000 105637 -2.9499e+000 -1.9702e+000  6.6345e-001 27976 105003,105588,105029
 7.0000e+000 106143  6.1241e+000  8.1091e+000 -6.5989e-001 27664 106166,105846,105820
 7.0000e+000 106120  6.2126e+000  1.0935e+001 -4.9609e-001 27664 106310,106166,105820
 7.0000e+000 106097  4.5914e+000  4.6091e+000 -6.5429e-001 27664 106382,106238,105950
 7.0000e+000 106074  3.7378e+000  1.2901e+001 -2.2042e+000 27664 106310,105820,106002
 7.0000e+000 106051  4.1980e+000  4.8056e+000 -2.6618e-001 27664 106382,105950,105924
 7.0000e+000 106028  9.0787e+000  7.4026e+000  3.2296e-001 27664 105846,105898,105872
 7.0000e+000 106192  7.1129e+000  8.8868e+000 -2.6588e-002 27664 105898,105846,106166
 7.0000e+000 106215  5.4931e+000  5.7242e+000 -8.8203e-001 27664 106238,105898,106166
 7.0000e+000 106264  3.1458e+000  5.2121e+000 -2.1532e+000 27664 105976,105950,106238
 7.0000e+000 106287  4.6133e+000  8.2954e+000 -1.5984e+000 27664 105976,106238,106166
 7.0000e+000 106336  3.8959e+000  7.9708e+000 -1.6719e+000 27664 105976,106166,106310
 7.0000e+000 106359  1.3545e+000  9.9941e+000 -3.3754e+000 27664 105976,106310,106002
 7.0000e+000 106408  5.1326e+000  5.3133e+000 -1.0506e+000 27664 105898,106238,106382
 7.0000e+000 106431  4.7020e+000  5.2690e+000 -6.1971e-001 27664 105898,106382,105924
 7.0000e+000 106728  1.6010e+000  4.1514e+000  5.0743e-001 27153 106751,106506,106454
 7.0000e+000 106705  1.2365e+000  3.3879e+000  6.3296e-001 27153 106751,106454,106610
 7.0000e+000 106682  2.6533e+000  5.1726e+000  1.1521e+000 27153 106454,106506,106480
 7.0000e+000 106659  4.2697e-001  5.4636e+000  1.0446e+000 27153 106532,106610,106584
 7.0000e+000 106636  2.7842e+000  5.3320e+000  1.2666e+000 27153 106532,106584,106558
 7.0000e+000 106777  1.2224e+000  5.6411e+000  9.1073e-001 27153 106532,106506,106751
 7.0000e+000 106800  5.6019e-001  4.1561e+000  1.1322e+000 27153 106532,106751,106610
 7.0000e+000 107180  4.6705e+000  7.9291e+000  2.6032e+000 26642 107203,106984,106958
 7.0000e+000 107157  3.4280e+000  6.7121e+000 -1.5797e-002 26642 107203,106958,106932
 7.0000e+000 107134  2.6432e+000  4.3195e+000 -3.0003e-002 26642 107275,107036,107010
 7.0000e+000 107111  1.8009e+000  4.1060e+000 -1.1362e+000 26642 106932,107062,107036
 7.0000e+000 107088 -9.6799e-002  3.5642e+000 -1.9380e-001 26642 106906,107062,106932
 7.0000e+000 107229  3.6831e+000  4.5702e+000  1.5352e+000 26642 107010,106984,107203
 7.0000e+000 107252  3.4424e+000  6.9666e+000  3.7484e-002 26642 107275,107010,107203
 7.0000e+000 107301  3.1650e+000  4.1012e+000 -1.0950e+000 26642 106932,107036,107275
 7.0000e+000 107324  2.7073e+000  4.5755e+000 -8.4423e-001 26642 106932,107275,107203
 7.0000e+000 107675 -2.3929e+000 -2.3021e+000  1.2436e-001 26045 107450,107554,107476
 7.0000e+000 107652 -1.8088e+000 -3.6861e+000  1.0931e+000 26045 107450,107580,107554
 7.0000e+000 107629  6.3191e-001  3.0043e+000  1.3385e-001 26045 107476,107528,107502
 7.0000e+000 107606 -1.3000e-001 -4.3151e-001  1.4323e+000 26045 107476,107554,107528
 7.0000e+000 107874 -2.6637e+000  1.0572e+000  4.7041e-001 25641 107750,107802,107776
 7.0000e+000 107851 -6.2954e-001  1.8971e+000  2.0137e+000 25641 107724,107802,107750
 7.0000e+000 107828 -2.6272e+000  1.7467e+000  2.7748e+000 25641 107698,107802,107724
 7.0000e+000 108431  1.3002e+000  1.4709e+000  1.8534e+000 25023 108526,108267,108241
 7.0000e+000 108408  1.1701e-003  1.1619e+000 -4.8857e-002 25023 108059,108267,108085
 7.0000e+000 108385  1.7609e-001  6.1632e-001  9.9903e-001 25023 108454,108163,108111
 7.0000e+000 108362  3.2016e-001  1.1081e+000  1.4948e+000 25023 108454,108111,108085
 7.0000e+000 108339  3.3300e-001 -1.9077e+000  2.0457e+000 25023 108111,108163,108137
 7.0000e+000 108316 -3.2548e+000  9.2283e-001  3.2225e-001 25023 108163,108241,108215
 7.0000e+000 108293 -4.8790e+000  4.2568e-001  1.3306e+000 25023 108163,108215,108189
 7.0000e+000 108480  1.7877e-001  1.1590e+000  1.5464e+000 25023 108241,108163,108454
 7.0000e+000 108503  8.9314e-001  1.4493e+000  1.8833e+000 25023 108526,108241,108454
 7.0000e+000 108552  7.5539e-001  1.7274e+000  1.5880e+000 25023 108085,108267,108526
 7.0000e+000 108575  3.3249e-001  1.6906e+000  1.6106e+000 25023 108085,108526,108454
 7.0000e+000 108823  6.2161e+000  3.3195e+000 -5.7998e-001 24461 108624,108728,108650
 7.0000e+000 108800  3.4323e+000  4.7378e+000 -6.5017e-001 24461 108598,108728,108624
 7.0000e+000 108777  1.5038e+000  4.1705e+000 -1.8543e+000 24461 108650,108728,108676
 7.0000e+000 108754  2.4152e+000  5.1554e+000 -1.2427e+000 24461 108676,108728,108702
 7.0000e+000 109022 -4.8426e-001  1.9844e+000  1.7703e+000 24121 108872,108924,108898
 7.0000e+000 108999  1.9841e+000  3.3312e+000  2.4640e+000 24121 108846,108924,108872
 7.0000e+000 108976 -1.6774e+000  1.9782e+000  2.0473e+000 24121 108846,108950,108924
 7.0000e+000 109483  4.0654e-001  1.9950e+000  4.0346e-001 23717 109209,109339,109235
 7.0000e+000 109460  6.4118e-001  1.8303e+000  2.2788e-001 23717 109209,109365,109339
 7.0000e+000 109437  2.5810e+000  7.1026e-001  5.8666e-001 23717 109287,109339,109313
 7.0000e+000 109414  1.7977e+000  1.3537e+000  1.3641e+000 23717 109235,109339,109287
 7.0000e+000 109391  4.3569e+000  3.4285e+000  2.8394e+000 23717 109235,109287,109261
 7.0000e+000 109910 -2.5932e-001 -6.0253e-001  6.1522e-001 23305 109613,109743,109717
 7.0000e+000 109887 -3.7632e-001 -5.4236e-001  4.3874e-002 23305 109613,109769,109743
 7.0000e+000 109864 -1.0490e+000 -7.7647e-001  8.5815e-001 23305 109613,109717,109639
 7.0000e+000 109841 -3.2185e-001 -7.8415e-001  1.0508e-001 23305 109587,109769,109613
 7.0000e+000 109818  3.5974e-002 -3.1484e-001  3.5360e-001 23305 109639,109717,109691
 7.0000e+000 109795 -6.9518e-001 -7.6457e-001  5.1709e-001 23305 109639,109691,109665
 7.0000e+000 110180 -4.1716e-001  2.2896e+000 -1.7641e-001 22851 110007,110059,110033
 7.0000e+000 110157 -2.1362e-001  2.0324e+000  9.6644e-001 22851 109981,110059,110007
 7.0000e+000 110134 -1.0234e+000  4.5034e-001  5.4476e-003 22851 109955,110059,109981
 7.0000e+000 110111 -4.5469e-001 -3.5341e+000 -2.8651e-001 22851 109955,110085,110059
 7.0000e+000 110737  6.3000e+000  5.2681e+000 -4.6031e+000 22333 110760,110469,110391
 7.0000e+000 110714  5.3114e+000  2.5145e+000 -3.4723e+000 22333 110760,110391,110365
 7.0000e+000 110691  2.7010e+000  7.6298e+000 -3.0303e+000 22333 110832,110521,110469
 7.0000e+000 110668  1.7874e+000  4.5272e+000  1.6730e+000 22333 110417,110469,110443
 7.0000e+000 110645  4.2632e+000  4.4624e+000  1.6077e+000 22333 110391,110469,110417
 7.0000e+000 110622  4.7345e-002  5.0819e+000  7.9256e-001 22333 110469,110521,110495
 7.0000e+000 110599  4.5191e-001  6.4063e+000  4.5308e+000 22333 110365,110573,110547
 7.0000e+000 110786  5.3815e+000  6.3885e+000 -4.7818e+000 22333 110832,110469,110760
 7.0000e+000 110809  7.5782e+000  5.4967e+000 -2.3980e+000 22333 110547,110760,110365
 7.0000e+000 110858 -1.3688e+000  5.2621e+000 -1.5343e+000 22333 110547,110521,110832
 7.0000e+000 110881  2.5194e+000  3.8925e+000 -2.9662e+000 22333 110547,110832,110760
 7.0000e+000 111308  1.6012e+000  2.2899e+000  1.2076e+000 21829 111331,111063,111011
 7.0000e+000 111285  5.7308e+000  5.7732e+000 -1.4055e+000 21829 111331,111011,111167
 7.0000e+000 111262  2.4556e+000  1.8671e+000  2.2877e+000 21829 111403,111089,111063
 7.0000e+000 111239  8.3402e-002  4.5214e-001  2.0702e+000 21829 111011,111063,111037
 7.0000e+000 111216  5.3839e+000  5.8932e+000 -1.5863e+000 21829 110985,111167,111011
 7.0000e+000 111193  1.9130e+000 -2.3226e+000  4.6989e+000 21829 111089,111141,111115
 7.0000e+000 111357  2.5267e+000  1.8568e+000  2.2962e+000 21829 111403,111063,111331
 7.0000e+000 111380  2.9550e+000  1.8532e+000  3.9587e-001 21829 111141,111331,111167
 7.0000e+000 111429  1.7435e+000  1.7273e+000  2.1201e+000 21829 111141,111089,111403
 7.0000e+000 111452  2.2482e+000  2.0990e+000  2.2820e+000 21829 111141,111403,111331
 7.0000e+000 112056  5.0736e+000  7.4514e+000  1.1334e+000 21489 111687,111765,111739
 7.0000e+000 112033  5.9321e+000  7.6210e+000  2.1858e-001 21489 112151,112079,111687
 7.0000e+000 112010  4.9078e+000  6.0610e+000 -2.3974e-001 21489 111791,111843,111817
 7.0000e+000 111987  5.4236e+000  6.3617e+000 -3.4296e-001 21489 112079,111843,111791
 7.0000e+000 111964  5.8324e+000  8.6187e+000  7.4656e-004 21489 112151,111687,111661
 7.0000e+000 111941  6.3314e+000  5.9726e+000 -2.1104e+000 21489 111661,111869,111843
 7.0000e+000 111918  4.9654e+000  8.4363e+000  9.9123e-002 21489 111687,111739,111713
 7.0000e+000 111895  7.4456e+000  8.5877e+000 -2.0405e+000 21489 111635,111869,111661
 7.0000e+000 112105  5.4431e+000  8.3183e+000  4.4873e-001 21489 111765,111687,112079
 7.0000e+000 112128  4.6817e+000  7.4119e+000  8.1401e-001 21489 111765,112079,111791
 7.0000e+000 112177  6.3529e+000  8.4468e+000 -5.9673e-001 21489 111843,112079,112151
 7.0000e+000 112200  6.0374e+000  9.1270e+000 -8.2214e-001 21489 111843,112151,111661
 7.0000e+000 112578  6.7126e+000  1.0040e+001  6.3458e-002 21177 112382,112434,112408
 7.0000e+000 112555  6.3779e+000  1.0163e+001 -2.7278e-001 21177 112330,112434,112382
 7.0000e+000 112532  8.6260e+000  1.1763e+001  6.7925e-001 21177 112304,112434,112330
 7.0000e+000 112509  5.6085e+000  1.0626e+001  0.0000e+000 21177 112330,112382,112356
 7.0000e+000 112486  1.9086e+000  2.0041e+001 -1.8682e+000 21177 112304,112460,112434
 7.0000e+000 112679  8.6519e-001  2.8184e+001 -7.8015e-003 20666 112601,112653,112627
 7.0000e+000 112927 -1.5244e-001  3.9465e-001 -5.4886e-002 19762 112702,112754,112728
 7.0000e+000 112904 -7.0626e-005 -5.6218e-001  1.1510e-001 19762 112702,112832,112754
 7.0000e+000 112881 -9.6245e-002 -1.0232e+000 -1.2909e-002 19762 112754,112832,112806
 7.0000e+000 112858 -8.8950e-001 -4.9010e+000  1.0447e+000 19762 112754,112806,112780
 7.0000e+000 113297  6.3716e-001 -1.4154e+000  4.8018e-002 19308 112974,113052,113026
 7.0000e+000 113274  1.1683e-001 -1.2606e+000  1.6184e-001 19308 112974,113156,113052
 7.0000e+000 113251  2.4774e-001 -1.8194e+000 -3.8762e-001 19308 113052,113130,113104
 7.0000e+000 113228 -7.3478e-002 -1.2768e+000 -1.2263e-001 19308 113052,113156,113130
 7.0000e+000 113205 -1.8934e-003 -1.4053e+000  0.0000e+000 19308 113052,113104,113078
 7.0000e+000 113182 -6.4927e-001 -4.1071e+000 -3.6227e-001 19308 112974,113026,113000
 7.0000e+000 113547  4.6265e+000 -8.1075e-001 -1.8479e-001 18711 113570,113374,113348
 7.0000e+000 113524  6.0258e+000 -6.6458e-001 -4.4377e-002 18711 113570,113348,113452
 7.0000e+000 113501  6.8709e+000  7.1869e-001  6.2521e-001 18711 113322,113452,113348
 7.0000e+000 113478  1.1385e+000 -2.1487e+000 -2.1356e-001 18711 113374,113426,113400
 7.0000e+000 113596  2.0170e+000 -4.1409e-001  1.9271e-001 18711 113426,113374,113570
 7.0000e+000 113619  4.4785e+000  4.6182e-001  4.6066e-001 18711 113426,113570,113452
 7.0000e+000 113771 -9.2195e-001 -2.6955e+000 -7.5235e-001 18307 113670,113722,113696
 7.0000e+000 113748 -1.5046e-001 -1.8518e+000 -4.2341e-001 18307 113644,113722,113670
 7.0000e+000 113972 -2.1845e+000 -3.1839e+000  6.7624e-001 17945 113822,113874,113848
 7.0000e+000 113949  1.5928e-002 -3.4304e+000  1.7254e-001 17945 113822,113900,113874
 7.0000e+000 113926  5.0550e-001 -1.6066e+000  7.1279e-001 17945 113796,113900,113822
 7.0000e+000 114075 -2.6905e-001 -2.1895e+000  6.5119e-001 17482 113997,114049,114023
 7.0000e+000 114479  1.7458e-002 -2.3826e+000 -4.0401e-001 17042 114257,114361,114335
 7.0000e+000 114456 -2.2637e-001 -1.2338e+000 -8.9044e-003 17042 114205,114361,114257
 7.0000e+000 114433  1.5369e+000 -1.9934e+000  3.4214e-001 17042 114205,114257,114231
 7.0000e+000 114410 -4.7327e+000 -5.1177e+000  1.4252e+000 17042 114283,114335,114309
 7.0000e+000 114387  2.5671e-001 -2.1800e+000 -2.7160e-001 17042 114257,114335,114283
 7.0000e+000 114879  5.7638e+000  6.0441e+000  7.3685e-001 16638 114631,114683,114657
 7.0000e+000 114856  4.2822e+000  6.1242e+000  3.3250e-001 16638 114605,114683,114631
 7.0000e+000 114833  9.0726e+000  9.8675e+000 -3.2980e+000 16638 114605,114761,114683
 7.0000e+000 114810  2.9736e+000  5.7821e-001  3.1682e-001 16638 114683,114735,114709
 7.0000e+000 114787  9.5264e+000  1.9869e+000  2.1437e-001 16638 114683,114761,114735
 7.0000e+000 115078 -3.6084e-001  1.0903e-001  1.4659e-001 16232 114954,115006,114980
 7.0000e+000 115055 -9.6920e-001 -3.0052e-002  2.9113e-001 16232 114928,115006,114954
 7.0000e+000 115032 -3.2036e-001  6.5836e-001  5.6208e-001 16232 114902,115006,114928
 7.0000e+000 115228  4.0802e+000  7.6672e-001  7.7017e-001 15482 115101,115153,115127
 7.0000e+000 115205  1.9099e+000  9.8412e-001 -1.2113e-001 15482 115101,115179,115153
 7.0000e+000 115331  6.6419e+000  9.6699e+000  4.8349e-001 15163 115253,115305,115279
 7.0000e+000 115434  5.3932e+000  6.1726e+000  3.6472e-001 421 115356,115408,115382
